 # Version information for this restart file 
 # current date 2019-05-23 13:37:18.143
 # current working dir /lustre03/project/6004141/rzk/GaN-carbene/03-Carbene/02-NC
 # Program compiled at                              Sun Apr  7 00:48:11 EDT 2019
 # Program compiled on                          beluga2.int.ets1.calculquebec.ca
 # Program compiled for                        Beluga-Linux-x86-64-intel-openmpi
 # Source code revision number                                         svn:18619
 &GLOBAL
   PRINT_LEVEL  MEDIUM
   PROJECT_NAME TEST
   RUN_TYPE  GEO_OPT
 &END GLOBAL
 &MOTION
   &GEO_OPT
     MAX_ITER  500
     STEP_START_VAL  22
   &END GEO_OPT
 &END MOTION
 &FORCE_EVAL
   METHOD  QS
   STRESS_TENSOR  ANALYTICAL
   &DFT
     BASIS_SET_FILE_NAME BASIS_MOLOPT
     POTENTIAL_FILE_NAME GTH_POTENTIALS
     &SCF
       MAX_SCF  100
       EPS_SCF     5.0000000000000004E-06
       &OT  T
         PRECONDITIONER  FULL_ALL
       &END OT
       &OUTER_SCF  T
         OPTIMIZER  NONE
         EPS_SCF     5.0000000000000004E-06
         MAX_SCF  10
       &END OUTER_SCF
       &PRINT
         &RESTART  OFF
           BACKUP_COPIES  1
           &EACH
             JUST_ENERGY  0
             QS_SCF  0
             MD  20
           &END EACH
         &END RESTART
       &END PRINT
     &END SCF
     &QS
       EPS_DEFAULT     1.0000000000000000E-14
       ALMO_SCF  F
       METHOD  GPW
     &END QS
     &MGRID
       NGRIDS  5
       CUTOFF     1.2000000000000000E+03
     &END MGRID
     &XC
       DENSITY_CUTOFF     1.0000000000000000E-10
       GRADIENT_CUTOFF     1.0000000000000000E-10
       TAU_CUTOFF     1.0000000000000000E-10
       &XC_FUNCTIONAL  NO_SHORTCUT
         &PBE  T
         &END PBE
       &END XC_FUNCTIONAL
       &VDW_POTENTIAL
         POTENTIAL_TYPE  PAIR_POTENTIAL
         &PAIR_POTENTIAL
           R_CUTOFF     1.0000000000000005E+01
           TYPE  DFTD3
           PARAMETER_FILE_NAME dftd3.dat
           REFERENCE_FUNCTIONAL PBE
           EPS_CN     9.9999999999999995E-07
           CALCULATE_C9_TERM  T
           REFERENCE_C9_TERM  T
           LONG_RANGE_CORRECTION  F
           VERBOSE_OUTPUT  F
         &END PAIR_POTENTIAL
       &END VDW_POTENTIAL
     &END XC
   &END DFT
   &SUBSYS
     &CELL
       A     9.7367653356401487E+00    0.0000000000000000E+00    0.0000000000000000E+00
       B    -4.8591341382960209E+00    8.4162672083210595E+00    0.0000000000000000E+00
       C     0.0000000000000000E+00    0.0000000000000000E+00    3.0744000000000000E+01
       MULTIPLE_UNIT_CELL  1 1 1
       &CELL_REF
         A     9.5580000000000052E+00    0.0000000000000000E+00    0.0000000000000000E+00
         B    -4.7790000000000026E+00    8.2774708093716640E+00    0.0000000000000000E+00
         C     0.0000000000000000E+00    0.0000000000000000E+00    3.0744000000000000E+01
         MULTIPLE_UNIT_CELL  1 1 1
       &END CELL_REF
     &END CELL
     &COORD
Ga    5.8882487346631767E-04   -2.2617206391806642E-03   -5.9031870693129240E-01
N    3.2737212452018162E-03    1.8712791354713167E+00    5.6036742477322032E-01
Ga    2.7871421346703363E-03    1.8404059701477817E+00    2.5909720807492227E+00
N   -1.5079067985029546E-04   -2.7401221083715476E-03    3.2239127085546575E+00
Ga    1.3145572667705069E-04   -1.5704341720563599E-03    5.2140701380412002E+00
N    2.9744634917355161E-03    1.8729266549015593E+00    5.8022861203024743E+00
Ga    2.0278540537915384E-03    1.8712876993617709E+00    7.8016452468637070E+00
N   -6.0167857005106453E-04   -2.6049987127606282E-03    8.4039463745176661E+00
Ga   -1.9901127032228801E-03   -4.3174449726548873E-03    1.0402017416582300E+01
N    9.9618664287718880E-04    1.8707234596838231E+00    1.0997680569668125E+01
Ga   -1.4291866627126877E-03    1.8718443192313674E+00    1.2986765233161400E+01
N   -2.9657684522320367E-03   -3.3105353406052366E-03    1.3578976510523608E+01
Ga    1.3950364779398577E-02   -1.4804509320071641E-02    1.5561078430311591E+01
N    1.1415910295927834E-02    1.8793787439788769E+00    1.6142381890017763E+01
Ga   -2.6517199733975716E-01    1.7108704324055737E+00    1.8066168836820605E+01
N    1.2283169402850408E-02   -7.3157968742109773E-03    1.8711026887219337E+01
Ga   -1.6185985366396043E+00    2.8026127534164704E+00    2.7554006320211183E-01
N   -1.6215277601280123E+00    4.6721402486610826E+00    5.6029770858948902E-01
Ga   -1.5925953030910578E+00    4.6883997388468881E+00    2.5897490801265941E+00
N   -1.6198087804954815E+00    2.8028736648085548E+00    3.1821921640244488E+00
Ga   -1.6192471173384195E+00    2.8038277554025925E+00    5.1929531275502878E+00
N   -1.6191411839440026E+00    4.6743078167421981E+00    5.8011586348198945E+00
Ga   -1.6184473729533835E+00    4.6748647674496322E+00    7.7998178777412894E+00
N   -1.6208710142578244E+00    2.8044400849994728E+00    8.4057681083881377E+00
Ga   -1.6229380091852579E+00    2.8057972465021246E+00    1.0401511209186404E+01
N   -1.6162593604090243E+00    4.6787895296563837E+00    1.1005326744951017E+01
Ga   -1.6139059536311746E+00    4.6865578679680748E+00    1.2998407226113775E+01
N   -1.6208706203567074E+00    2.8129001817231480E+00    1.3595867047994153E+01
Ga   -1.6278441331394504E+00    2.8326093898040883E+00    1.5585024363806527E+01
N   -1.6088031609663744E+00    4.6876924171001084E+00    1.6231489322616980E+01
Ga   -1.5784728881081505E+00    4.6681974622114897E+00    1.8331788140073773E+01
N   -1.6119412360734262E+00    2.7972034892221767E+00    1.8747485293263264E+01
Ga   -3.2395412876476057E+00    5.6089950234078891E+00    2.7539984195835276E-01
N   -3.2336601437936379E+00    7.4790336168270493E+00    5.6000335826108805E-01
Ga   -3.2613198653451305E+00    7.4941460080905156E+00    2.5905688253470194E+00
N   -3.2393908928947122E+00    5.6083580096248804E+00    3.1817934642736163E+00
Ga   -3.2390889130851446E+00    5.6097690171525176E+00    5.1923545921705392E+00
N   -3.2338078633211831E+00    7.4795325709326557E+00    5.8017704169725590E+00
Ga   -3.2353732487286386E+00    7.4794114438871153E+00    7.8008237212327005E+00
N   -3.2401219409767243E+00    5.6084155973398930E+00    8.4055889189393458E+00
Ga   -3.2409262749339409E+00    5.6088145048275084E+00    1.0401211296869684E+01
N   -3.2357849866159283E+00    7.4796273287213806E+00    1.1004976438947098E+01
Ga   -3.2305663051977631E+00    7.4763992718188694E+00    1.2998871367146421E+01
N   -3.2384632514135125E+00    5.6075512941633567E+00    1.3619775186987484E+01
Ga   -3.2354491937121881E+00    5.6170432286139009E+00    1.5630222190081527E+01
N   -3.2436837860548167E+00    7.4888681588561523E+00    1.6191389969280877E+01
Ga   -3.2252246239998268E+00    7.4719447350002453E+00    1.8260654865705277E+01
N   -3.2176095604105304E+00    5.6008033901968517E+00    1.8662901034077734E+01
Ga    3.2459048398977162E+00   -3.2245452357963101E-03    2.7551628118286597E-01
N    3.2447558907550191E+00    1.8671903123504778E+00    5.5887681216540996E-01
Ga    3.2723345069465881E+00    1.8826951410405861E+00    2.5899956146490668E+00
N    3.2456055034607969E+00   -2.5751267870836006E-03    3.1821207334575989E+00
Ga    3.2457635547013384E+00   -1.3027240911720674E-03    5.1928865846865486E+00
N    3.2463779810089610E+00    1.8687781238485939E+00    5.8011605776514763E+00
Ga    3.2468509040363469E+00    1.8688231675835298E+00    7.7999489012304650E+00
N    3.2455243885939171E+00   -1.9562887420527860E-03    8.4048858417694259E+00
Ga    3.2463421007315953E+00   -1.8985381821754737E-03    1.0400889517051160E+01
N    3.2493126157257231E+00    1.8711062008665831E+00    1.1001990766131126E+01
Ga    3.2532557466151153E+00    1.8688204909013679E+00    1.2995021669528906E+01
N    3.2421830070162412E+00    3.7220850434779777E-03    1.3610341426489654E+01
Ga    3.2361056847853367E+00    5.5834307841713463E-03    1.5614225422772062E+01
N    3.2253979625035352E+00    1.8817983763461426E+00    1.6216543395093922E+01
Ga    3.3363933272010029E+00    1.7938152515018242E+00    1.8217428584708976E+01
N    3.2448608256783449E+00   -3.0389036578176667E-02    1.8696400852592362E+01
Ga    1.6251013257496567E+00    2.8031397474049253E+00    2.7596971806907150E-01
N    1.6332957769156076E+00    4.6727334301783037E+00    5.6079755211969284E-01
Ga    1.6043397943348512E+00    4.6885335228411149E+00    2.5902202190593773E+00
N    1.6259184123521049E+00    2.8028175947242930E+00    3.1823735997911928E+00
Ga    1.6261296965272152E+00    2.8037571081639610E+00    5.1931979886657889E+00
N    1.6317502706176132E+00    4.6742754501261849E+00    5.8011003298785990E+00
Ga    1.6301088508734745E+00    4.6746016130513910E+00    7.7999347444393496E+00
N    1.6257090091704736E+00    2.8037630251084638E+00    8.4038076268682822E+00
Ga    1.6259362077691695E+00    2.8047857430112608E+00    1.0398849813711571E+01
N    1.6272860795744670E+00    4.6764046910387327E+00    1.1002591604697063E+01
Ga    1.6263505035280945E+00    4.6794277899198269E+00    1.2995998693832240E+01
N    1.6247147519779392E+00    2.8019169701300024E+00    1.3586163539612691E+01
Ga    1.6294003284875971E+00    2.8071203560121978E+00    1.5564691173820925E+01
N    1.6249322876341870E+00    4.6499356178666558E+00    1.6199837398391587E+01
Ga    1.6307773487101738E+00    4.7844878639105550E+00    1.8198433122415103E+01
N    1.8380174874344337E+00    2.9202200709956236E+00    1.9014096394285790E+01
Ga    6.7112917880447634E-03    5.6087187291650640E+00   -5.9361552846607535E-01
N    9.4895505336917742E-03    7.4840602036948507E+00    5.6037487518050644E-01
Ga    8.9772931087605552E-03    7.4515312926028043E+00    2.5897970450002767E+00
N    6.0437129515491092E-03    5.6082137762274016E+00    3.2230325617781008E+00
Ga    6.6426993045200916E-03    5.6096308660320977E+00    5.2129861152077597E+00
N    9.6483293740797556E-03    7.4843727329692626E+00    5.8011320516218152E+00
Ga    9.3259294969625060E-03    7.4827923690085409E+00    7.7999645142580700E+00
N    6.0791238180737837E-03    5.6097395006249338E+00    8.4014812956325446E+00
Ga    6.2277671908632743E-03    5.6127292746715218E+00    1.0398550569457221E+01
N    7.3725911121620830E-03    7.4814198557521641E+00    1.1010387785090987E+01
Ga    8.1468565658399800E-03    7.4829827004433076E+00    1.3010668338087999E+01
N    8.7999948576107795E-03    5.6109400872832227E+00    1.3614573039229363E+01
Ga    9.8411338025700418E-03    5.6188594708679052E+00    1.5622486140649741E+01
N    1.8113520296617345E-03    7.4945283703766119E+00    1.6197023459302187E+01
Ga    4.8115292662533442E-03    7.4573036330515334E+00    1.8284717865828320E+01
N    2.1728290541749129E-02    5.6032157061725441E+00    1.8745297354362584E+01
Ga    6.4912446900295233E+00   -2.7188490854345650E-03    2.7525819096294879E-01
N    6.4975791338669531E+00    1.8678287284064845E+00    5.5850300544276743E-01
Ga    6.4698975553690481E+00    1.8829470659658520E+00    2.5896041203136413E+00
N    6.4912731735926394E+00   -2.4637444324863344E-03    3.1817655363036077E+00
Ga    6.4919697714786739E+00   -1.2997639139618676E-03    5.1923685608120955E+00
N    6.4969523285120747E+00    1.8685386444258174E+00    5.8014218867008722E+00
Ga    6.4952553897755729E+00    1.8685650781449152E+00    7.8002379130716797E+00
N    6.4907638834570180E+00   -1.3575608049057855E-03    8.4085028734460607E+00
Ga    6.4897735952828128E+00   -9.7631094669034654E-04    1.0406387264606943E+01
N    6.4920139074763519E+00    1.8721594831897377E+00    1.1010748799870822E+01
Ga    6.4879953093921436E+00    1.8700140992936403E+00    1.3009053848788698E+01
N    6.4891853350538184E+00   -6.7618350796504192E-05    1.3607476142530277E+01
Ga    6.4909879117873279E+00    2.8994147559051656E-03    1.5619171445818894E+01
N    6.5135744918748344E+00    1.8861800851620374E+00    1.6190590835429788E+01
Ga    6.5095587078280728E+00    1.8865122244470811E+00    1.8271891368808731E+01
N    6.5080266100519246E+00   -1.3864773865986398E-02    1.8531038265004295E+01
Ga    4.8717106084595070E+00    2.8033556632661103E+00   -5.8293674852650257E-01
N    4.8747843844420293E+00    4.6774559711907884E+00    5.5887334075276496E-01
Ga    4.8743259292426480E+00    4.6464778373082378E+00    2.5899310198707459E+00
N    4.8714288342648402E+00    2.8026514374757334E+00    3.2218010202170904E+00
Ga    4.8719516089029549E+00    2.8038543777481797E+00    5.2122181280766808E+00
N    4.8748189346216337E+00    4.6785201971017409E+00    5.8003922166373467E+00
Ga    4.8742041804065996E+00    4.6767075127229578E+00    7.7987050438706707E+00
N    4.8715451645681824E+00    2.8040450681232700E+00    8.4019163514165509E+00
Ga    4.8722913209742194E+00    2.8051484564141145E+00    1.0398933983993601E+01
N    4.8754819610577469E+00    4.6741105024434182E+00    1.1013983405308103E+01
Ga    4.8775434679080707E+00    4.6699156889652294E+00    1.3013200839064364E+01
N    4.8661042515266200E+00    2.7985582348533771E+00    1.3631952930081313E+01
Ga    4.8629946410511655E+00    2.8008243629488643E+00    1.5641615617226554E+01
N    4.8967410578269144E+00    4.6834226608270342E+00    1.6212204299334438E+01
Ga    4.9060947685445457E+00    4.6735002360606854E+00    1.8293273147715663E+01
N    4.8799046384522473E+00    2.7948005387589192E+00    1.8614572342501337E+01
Ga    3.2521901682389034E+00    5.6084267821934670E+00    2.7556082370317853E-01
N    3.2516842987202716E+00    7.4784503996683362E+00    5.5973504012937358E-01
Ga    3.2791837884749335E+00    7.4939211554010416E+00    2.5903863345022997E+00
N    3.2519153387699689E+00    5.6083645246061939E+00    3.1820455505656757E+00
Ga    3.2523482258727610E+00    5.6097774262509610E+00    5.1927047114003573E+00
N    3.2520875166726366E+00    7.4795542103950572E+00    5.8024963393429134E+00
Ga    3.2521552155873548E+00    7.4792537499183895E+00    7.8019111049894523E+00
N    3.2523512759016788E+00    5.6079930017499624E+00    8.4061370029324642E+00
Ga    3.2532101381597318E+00    5.6076814020113659E+00    1.0402619268258212E+01
N    3.2524403400290405E+00    7.4777043928527069E+00    1.1007540979650747E+01
Ga    3.2446678727761582E+00    7.4738330763444791E+00    1.3004420457544951E+01
N    3.2505203617335736E+00    5.5981677272756381E+00    1.3613974094387904E+01
Ga    3.2565523687916351E+00    5.5914087421258527E+00    1.5618914789246805E+01
N    3.2691963201480796E+00    7.4762457785461889E+00    1.6149816401405193E+01
Ga    3.2909340288600299E+00    7.4672133163399153E+00    1.8215103908860922E+01
N    3.2739393337378497E+00    5.6092775700329902E+00    1.8605178296184075E+01
C    1.4744070394706339E+00    2.7225326516003081E+00    2.0231766877058558E+01
H    1.7728209840884761E+00    1.8122539465685878E+00    2.0771681721931589E+01
H    8.3274129596395274E-01    3.4443272069282971E+00    2.0757572031454870E+01
     &END COORD
     &KIND C
       BASIS_SET DZVP-MOLOPT-SR-GTH-q4
       POTENTIAL GTH-PBE-q4
       &POTENTIAL
 2 2
  0.3384712400000000E+00 2 -0.8803673979999999E+01  0.1339210850000000E+01
 2
  0.3025757500000000E+00 1  0.9622486650000001E+01
  0.2915069400000000E+00 0
         # Potential name:  GTH-PBE-Q4  for symbol:  C
         # Potential read from the potential filename: GTH_POTENTIALS
       &END POTENTIAL
     &END KIND
     &KIND H
       BASIS_SET DZVP-MOLOPT-SR-GTH-q1
       POTENTIAL GTH-PBE-q1
       &POTENTIAL
 1
  0.2000000000000000E+00 2 -0.4178900440000000E+01  0.7244633100000000E+00
 0
         # Potential name:  GTH-PBE-Q1  for symbol:  H
         # Potential read from the potential filename: GTH_POTENTIALS
       &END POTENTIAL
     &END KIND
     &KIND N
       BASIS_SET DZVP-MOLOPT-SR-GTH-q5
       POTENTIAL GTH-PBE-q5
       &POTENTIAL
 2 3
  0.2837905100000000E+00 2 -0.1241522559000000E+02  0.1868095920000000E+01
 2
  0.2554050000000000E+00 1  0.1363026257000000E+02
  0.2454945300000000E+00 0
         # Potential name:  GTH-PBE-Q5  for symbol:  N
         # Potential read from the potential filename: GTH_POTENTIALS
       &END POTENTIAL
     &END KIND
     &KIND Ga
       BASIS_SET DZVP-MOLOPT-SR-GTH-q13
       POTENTIAL GTH-PBE-q13
       &POTENTIAL
 2 1 10
  0.4900000000000000E+00 0
 3
  0.4167772300000000E+00 3  0.1047568975000000E+02 -0.4921768140000000E+01  0.8707055900000000E+00
  0.7770178090000000E+01 -0.2248152160000000E+01
  0.1784415450000000E+01
  0.5696265200000000E+00 2  0.1777985340000000E+01  0.1958597600000000E+00
 -0.2317443900000000E+00
  0.2381265000000000E+00 1 -0.1624868022000000E+02
         # Potential name:  GTH-PBE-Q13  for symbol:  GA
         # Potential read from the potential filename: GTH_POTENTIALS
       &END POTENTIAL
     &END KIND
     &TOPOLOGY
       NUMBER_OF_ATOMS  147
       MULTIPLE_UNIT_CELL  1 1 1
     &END TOPOLOGY
   &END SUBSYS
 &END FORCE_EVAL
