#p

 i =       12, E =     -8504.8072218726

0 1
  N         0.0685861699        2.1391722201        2.5503849935
 Ga         0.1084069255        0.1966295944        2.9840202438
  N         0.0986399102        0.1425090842        5.0791286861
 Ga         0.0771064851        1.9671717347        5.8431098666
  N         0.0708474078        1.9766342723        7.8393521860
 Ga         0.0671076099        0.1231057546        8.4716017934
  N         0.0699832256        0.1225023277       10.4500022173
 Ga         0.0764015504        1.9577446589       11.1198346121
  N         0.0738264685        1.9401760298       13.1093711173
 Ga         0.0759675209        0.1221619225       13.9215187737
  N         0.0745591301        0.1224325096       16.1140301822
 Ga         0.0736372748        2.1729311289       16.5342143553
 Ga         0.1500561989        3.8520389023        1.4190918232
  N        -1.3892259253        4.7172511089        2.5356058950
 Ga        -1.6183064142        2.8950999465        3.2811962383
  N        -1.5532216538        2.9088185871        5.2621941826
 Ga        -1.5644818554        4.7761730762        5.8679936246
  N        -1.5439445773        4.7685836361        7.8554148067
 Ga        -1.5147351470        2.9155678811        8.5111368316
  N        -1.5198365377        2.9172021439       10.4929025921
 Ga        -1.5488725913        4.7770561298       11.1290777784
  N        -1.5670766830        4.7836827839       13.1165798728
 Ga        -1.5236526711        2.9122264274       13.6682565056
  N        -1.5492975456        2.8953142950       15.6268786651
 Ga        -1.3711850067        4.6686059391       16.5337416598
  N         0.0671633569        3.8377491189       17.6784914659
  N        -3.1177699775        7.6806955498        2.5793638675
 Ga        -3.0969641534        5.6709252472        2.9471497951
  N        -3.1288584494        5.7070511811        5.0972205770
 Ga        -3.1418999271        7.5315855198        5.8583455263
  N        -3.1398425788        7.5476209226        7.8452055799
 Ga        -3.1379841488        5.7042672266        8.5060917785
  N        -3.1405072933        5.6956174837       10.4733422927
 Ga        -3.1475604701        7.5357064921       11.1200471043
  N        -3.1450473055        7.5138335468       13.1102298580
 Ga        -3.1445668459        5.6937161914       13.9261942778
  N        -3.1440340421        5.6924758985       16.1130849636
 Ga        -3.1440580673        7.7386825768       16.5338773439
 Ga        -3.1441068139        9.4430452686        1.6008818085
  N        -4.6281260764       10.2910894537        2.5955618430
 Ga        -4.8727853298        8.4055673206        3.3116978387
  N        -4.7477793520        8.4800270287        5.2721534206
 Ga        -4.7651276392       10.3537935020        5.8451222690
  N        -4.7575383436       10.3441804936        7.8371955944
 Ga        -4.7545934904        8.4838041844        8.4658309318
  N        -4.7447917418        8.4833758685       10.4620792190
 Ga        -4.7699667259       10.3431833595       11.1094436700
  N        -4.7844910284       10.3525949645       13.1022682436
 Ga        -4.7414805428        8.4860339333       13.6683698524
  N        -4.7686036839        8.4716555709       15.6265368629
 Ga        -4.5832368576       10.2381844597       16.5344559678
  N        -3.1443602185        9.3998781882       17.6774399844
  N         3.3194903079        2.0140829338        2.6567547878
 Ga         3.3198519916        0.2770699043        3.3487575899
  N         3.3013364682        0.1317225518        5.3070144221
 Ga         3.3147244094        2.0048511355        5.8970099463
  N         3.2998693082        1.9880373851        7.8812119287
 Ga         3.2864656616        0.1218744472        8.4881256141
  N         3.2874622446        0.1141506022       10.4781188632
 Ga         3.2870159860        1.9800720100       11.0834666951
  N         3.2883092483        1.9788418785       13.0499823472
 Ga         3.2872536092        0.1065267868       13.6678717394
  N         3.2875167488        0.1392498942       15.6248804876
 Ga         3.2885283359        1.9781688025       15.8994975451
  N         1.5620963050        4.7110478377        2.6458249978
 Ga         1.7785823644        2.8744781694        3.3403228964
  N         1.6897401772        2.9118895082        5.3119187470
 Ga         1.7005008320        4.7708984793        5.8890072954
  N         1.6879717423        4.7719424138        7.8673102984
 Ga         1.6769624914        2.9093198955        8.4850034937
  N         1.6718642802        2.9115483624       10.4763458533
 Ga         1.6991328476        4.7745250998       11.1135841210
  N         1.7136764848        4.7831388148       13.1056133849
 Ga         1.6680450108        2.9154068397       13.6694830189
  N         1.6961900763        2.8983523069       15.6261074829
 Ga         1.5130990020        4.6653737443       16.5359156329
  N         0.0926927328        7.5488261727        2.7281894020
 Ga         0.0792922900        5.7052466140        3.4007292029
  N         0.0693372204        5.7143654074        5.3331707582
 Ga         0.1101305115        7.5687048120        5.9387800551
  N         0.0821194583        7.5597886298        7.9022181612
 Ga         0.0742359261        5.6878394552        8.4963439199
  N         0.0721336571        5.6835002842       10.4830396600
 Ga         0.0747752167        7.5518438488       11.0780914591
  N         0.0734632254        7.5500250285       13.0457135057
 Ga         0.0749016263        5.6795910484       13.6702612842
  N         0.0761645891        5.7103418708       15.6285775274
 Ga         0.0693670254        7.5474169239       15.9086727965
  N        -1.6271318251       10.2816816354        2.5947274713
 Ga        -1.4770334943        8.4719289148        3.3956090792
  N        -1.5119638930        8.4797966826        5.3157005492
 Ga        -1.5122458982       10.3589033446        5.8888908379
  N        -1.5291221055       10.3392561461        7.8684473835
 Ga        -1.5429613580        8.4858460919        8.4995096343
  N        -1.5464700921        8.4837722319       10.4846294706
 Ga        -1.5207461374       10.3453281443       11.1194814694
  N        -1.5038150358       10.3533607594       13.1094100098
 Ga        -1.5471618990        8.4850390327       13.6688564816
  N        -1.5188689077        8.4704132286       15.6274508404
 Ga        -1.7052123030       10.2379152714       16.5340684960
  N         6.6389341212        2.0803497342        2.6266911642
 Ga         6.5478303882        0.1436986796        3.0213339310
  N         6.4890181137        0.1382876765        5.1541296565
 Ga         6.4546311336        1.9498817881        5.9213198667
  N         6.4907191183        1.9731107786        7.8939729641
 Ga         6.5137036576        0.1159199934        8.5003928683
  N         6.5090428378        0.1195090801       10.4709464590
 Ga         6.5070576180        1.9626045770       11.1182629515
  N         6.5053200165        1.9419419561       13.1089323700
 Ga         6.5022456189        0.1238059319       13.9239527010
  N         6.5026002860        0.1229227409       16.1140386781
 Ga         6.5036147645        2.1744177266       16.5354936902
 Ga         8.1191035338        2.9047000369        1.2946152782
  N         4.8723306417        4.7615501179        2.4931161420
 Ga         4.9203353613        2.8826887967        3.1804976899
  N         4.9212468948        2.9232541704        5.2147422436
 Ga         4.9068122327        4.7724879402        5.8369317827
  N         4.8997740283        4.7703844188        7.8347487352
 Ga         4.8979538828        2.9239711854        8.5108996056
  N         4.9039153536        2.9193276854       10.4933558031
 Ga         4.8791684538        4.7802311419       11.1238049618
  N         4.8643671534        4.7843669438       13.1118497734
 Ga         4.9096692673        2.9146607543       13.6692800696
  N         4.8807035090        2.8975289850       15.6258713016
 Ga         5.0654892623        4.6650597102       16.5351918153
  N         6.5095513363        3.8385686432       17.6789466069
  N         3.2761500347        7.5599701748        2.6255676630
  N         3.2869114188        5.6883182315        5.1585360398
 Ga         3.2966944648        7.5540927662        5.8244090341
  N         3.2918538691        7.5519155991        7.8224151290
 Ga         3.2971889363        5.7030124602        8.4773008703
  N         3.2912873075        5.6970025593       10.4546587013
 Ga         3.2932425826        7.5342160283       11.1132521730
  N         3.2897226271        7.5126458600       13.1074144640
 Ga         3.2884493228        5.6910127101       13.9232309658
  N         3.2888272455        5.6902129519       16.1140500972
 Ga         3.2891226301        7.7279582762       16.5200760452
 Ga         4.3404653007       10.5025884794        0.5754243727
  N         1.7028126679       10.3481452800        2.5533766395
 Ga         1.7078895132        8.5806559845        3.2162502924
  N         1.6829322671        8.4835923628        5.2163790807
 Ga         1.6738252275       10.3561712195        5.8169011319
  N         1.6824675875       10.3433802678        7.8262397475
 Ga         1.7021265283        8.4935291284        8.4882839977
  N         1.6940207861        8.4863552714       10.4780272249
 Ga         1.6675006694       10.3426646778       11.1257319967
  N         1.6487999044       10.3525662236       13.1158526360
 Ga         1.6926131139        8.4831730222       13.6686215482
  N         1.6624983487        8.4660984825       15.6305248512
 Ga         1.8358949380       10.2448254884       16.5188530851
  N         3.2891172704        9.4061667755       17.6377888238
  N         9.5762912647        2.0774986873        2.6598121097
 Ga         9.6441057305        0.1710492637        3.2049119162
  N         9.7265561502        0.1580631021        5.2175412853
 Ga         9.7669937944        1.9534465592        5.9757183991
  N         9.7351584670        1.9747749100        7.9310311924
 Ga         9.7298334046        0.0996904586        8.4923999631
  N         9.7232461393        0.1059723684       10.4812040095
 Ga         9.7209882063        1.9797067348       11.0741296129
  N         9.7204691651        1.9779913969       13.0433488190
 Ga         9.7224660122        0.1094235421       13.6670400156
  N         9.7217886750        0.1429455990       15.6293576465
 Ga         9.7212289982        1.9822447807       15.9075641527
  N         8.1243919859        4.6313389662        2.5970384410
 Ga         8.1147167840        2.9246233863        3.6717482890
  N         8.1194522696        2.9205175375        5.5282042286
 Ga         8.1248111067        4.8511929505        5.8913214028
  N         8.1188029298        4.7984813036        7.8715443880
 Ga         8.1047960368        2.9237334472        8.4866495998
  N         8.1034002057        2.9186517554       10.4790644389
 Ga         8.1269568520        4.7766865259       11.1198016632
  N         8.1443094509        4.7835869260       13.1105091911
 Ga         8.1014652925        2.9138651312       13.6692271767
  N         8.1277162036        2.8959201910       15.6274134730
 Ga         7.9478171508        4.6686596507       16.5353547754
  N         6.4988189809        7.5380053745        2.5843440633
 Ga         6.5279483457        5.7149485374        3.1255525946
  N         6.5087294771        5.6838017757        5.1753779838
 Ga         6.4767576185        7.5444925774        5.8286910601
  N         6.4976462169        7.5507044760        7.8310359654
 Ga         6.4967776093        5.7030304697        8.4924195443
  N         6.5016628266        5.6872041932       10.4791920823
 Ga         6.5033080801        7.5551185271       11.0740404072
  N         6.5038397920        7.5509107358       13.0417194773
 Ga         6.5046223434        5.6808251839       13.6699062363
  N         6.5026282109        5.7112036816       15.6277236661
 Ga         6.5082895451        7.5478529181       15.9081438256
  N         4.8757344751       10.3911248652        2.5074073982
 Ga         4.9570531011        8.4830482292        3.1570526114
  N         4.8866841763        8.4970312575        5.1761087270
 Ga         4.9187082571       10.3535283832        5.7829440162
  N         4.9051633741       10.3434805784        7.7996214231
 Ga         4.8940182076        8.4912845351        8.4590778311
  N         4.8889189561        8.4870240411       10.4581978628
 Ga         4.9157227737       10.3418296412       11.1164462103
  N         4.9306962430       10.3525367454       13.1093089176
 Ga         4.8858587563        8.4842097751       13.6678660431
  N         4.9153165233        8.4668101819       15.6294285089
 Ga         4.7420015879       10.2447347288       16.5190547541
  O         0.5931043337        4.1239800899       -0.3304449090
  H         2.9242778660        4.9190714213        0.4105043996
  C         0.8806537430        3.0121213273       -1.1898086090
  H         1.5051077463        2.2464556548       -0.7000986598
  H        -0.0387867700        2.5308959914       -1.5606129007
  H         1.4358815514        3.4049645070       -2.0553408665
 Ga         3.2168079210        5.6550470363        3.1397109722
  O         3.7239031963        5.4822976962        0.4537324226
  H         0.0202077039        7.5051936035        1.7047001397
  C         4.8185660508        4.7264224646        0.9946376887
  H         5.7246412763        5.1896231923        0.5746320835
  H         3.2744891343        7.5047268836        1.5980799009
  H         4.7489168532        3.6858556573        0.6398292531

