 # Version information for this restart file 
 # current date 2019-07-21 21:26:39.529
 # current working dir /lustre04/scratch/rzk/rzk/GaN-carbene/443-adatoms-both-2x2/09-BondBreaking-CH/04-0401-H2C-to-NTop-OPT
 # Program compiled at                              Sun Apr  7 00:48:11 EDT 2019
 # Program compiled on                          beluga2.int.ets1.calculquebec.ca
 # Program compiled for                        Beluga-Linux-x86-64-intel-openmpi
 # Source code revision number                                         svn:18619
 &GLOBAL
   PRINT_LEVEL  MEDIUM
   PROJECT_NAME TEST
   RUN_TYPE  GEO_OPT
 &END GLOBAL
 &MOTION
   &GEO_OPT
     MAX_ITER  500
     STEP_START_VAL  10
   &END GEO_OPT
 &END MOTION
 &FORCE_EVAL
   METHOD  QS
   STRESS_TENSOR  ANALYTICAL
   &DFT
     BASIS_SET_FILE_NAME BASIS_MOLOPT
     POTENTIAL_FILE_NAME GTH_POTENTIALS
     UKS  T
     SURFACE_DIPOLE_CORRECTION  T
     SURF_DIP_DIR  Z
     &SCF
       MAX_SCF  80
       EPS_SCF     5.0000000000000004E-06
       &OT  T
         PRECONDITIONER  FULL_ALL
       &END OT
       &OUTER_SCF  T
         OPTIMIZER  NONE
         EPS_SCF     5.0000000000000004E-06
         MAX_SCF  4
       &END OUTER_SCF
       &PRINT
         &RESTART  OFF
           BACKUP_COPIES  1
           &EACH
             JUST_ENERGY  0
             QS_SCF  0
             MD  20
           &END EACH
         &END RESTART
       &END PRINT
     &END SCF
     &QS
       EPS_DEFAULT     1.0000000000000000E-14
       METHOD  GPW
     &END QS
     &MGRID
       NGRIDS  5
       CUTOFF     1.2000000000000000E+03
     &END MGRID
     &XC
       DENSITY_CUTOFF     1.0000000000000000E-10
       GRADIENT_CUTOFF     1.0000000000000000E-10
       TAU_CUTOFF     1.0000000000000000E-10
       &XC_FUNCTIONAL  NO_SHORTCUT
         &PBE  T
         &END PBE
       &END XC_FUNCTIONAL
       &VDW_POTENTIAL
         POTENTIAL_TYPE  PAIR_POTENTIAL
         &PAIR_POTENTIAL
           R_CUTOFF     1.0000000000000009E+01
           TYPE  DFTD3
           PARAMETER_FILE_NAME dftd3.dat
           REFERENCE_FUNCTIONAL PBE
           EPS_CN     9.9999999999999995E-07
           CALCULATE_C9_TERM  T
           REFERENCE_C9_TERM  T
           LONG_RANGE_CORRECTION  F
           VERBOSE_OUTPUT  F
         &END PAIR_POTENTIAL
       &END VDW_POTENTIAL
     &END XC
   &END DFT
   &SUBSYS
     &CELL
       A     1.2864472766435110E+01    0.0000000000000000E+00    0.0000000000000000E+00
       B    -6.4322363581020028E+00    1.1140960178524477E+01    0.0000000000000000E+00
       C     0.0000000000000000E+00    0.0000000000000000E+00    3.2000000000000000E+01
       MULTIPLE_UNIT_CELL  1 1 1
       &CELL_REF
         A     1.2982353780853531E+01    0.0000000000000000E+00    0.0000000000000000E+00
         B    -6.4911768904267628E+00    1.1243048175136114E+01    0.0000000000000000E+00
         C     0.0000000000000000E+00    0.0000000000000000E+00    3.2000000000000000E+01
         MULTIPLE_UNIT_CELL  1 1 1
       &END CELL_REF
     &END CELL
     &COORD
N    7.1593005228847595E-02    2.1412166846280907E+00    2.5511342506221464E+00
Ga    1.1367887399828758E-01    1.9479661898846237E-01    2.9830425422407436E+00
N    9.9280421786594034E-02    1.4126739814311401E-01    5.0818456127615574E+00
Ga    7.7827635412364427E-02    1.9664819594226084E+00    5.8437073169132780E+00
N    7.1566292965700370E-02    1.9761669319483022E+00    7.8384212851797841E+00
Ga    6.7533860931504347E-02    1.2173391413362820E-01    8.4706196983479138E+00
N    7.0114872728159278E-02    1.2126876803747262E-01    1.0446950751112380E+01
Ga    7.4922149170355570E-02    1.9571131897682861E+00    1.1120410751272260E+01
N    7.3129032645005573E-02    1.9393260246102189E+00    1.3107263578309649E+01
Ga    7.5702045671242599E-02    1.2105758709551802E-01    1.3920473660352819E+01
N    7.4250125640380721E-02    1.2181508113741439E-01    1.6112535786658960E+01
Ga    7.3661866905487358E-02    2.1725175245804293E+00    1.6534831267908650E+01
Ga    1.5496466253720692E-01    3.8541598167199029E+00    1.4232677662051467E+00
N   -1.3888250738197796E+00    4.7206893016203084E+00    2.5351411392448830E+00
Ga   -1.6193018103907648E+00    2.8923886149924241E+00    3.2790172896607426E+00
N   -1.5505536000239823E+00    2.9074370881350289E+00    5.2643580435436048E+00
Ga   -1.5619176932352326E+00    4.7745110181363151E+00    5.8676409356794688E+00
N   -1.5448550556796974E+00    4.7678897071154980E+00    7.8541652213552284E+00
Ga   -1.5158612806887870E+00    2.9155315074114743E+00    8.5104649120299989E+00
N   -1.5208635990252413E+00    2.9167178171235157E+00    1.0489668651237073E+01
Ga   -1.5501174073832857E+00    4.7758753525968327E+00    1.1129858377899280E+01
N   -1.5675695702550350E+00    4.7827583123187400E+00    1.3113745403929736E+01
Ga   -1.5241933088251260E+00    2.9112032365345653E+00    1.3670091729231327E+01
N   -1.5496790288227749E+00    2.8950846114379685E+00    1.5625669880307985E+01
Ga   -1.3710171658217960E+00    4.6685085490035130E+00    1.6534629201464959E+01
N    6.7687440981177363E-02    3.8373454118815578E+00    1.7679534519017270E+01
N   -3.1185601932482010E+00    7.6746219288986186E+00    2.5784039037196225E+00
Ga   -3.0917196822540833E+00    5.6682832150796978E+00    2.9412077528420006E+00
N   -3.1276145255551282E+00    5.7061764569007041E+00    5.0896790192155423E+00
Ga   -3.1454030272622568E+00    7.5289955463770957E+00    5.8581359537577775E+00
N   -3.1428266371732501E+00    7.5439718283721522E+00    7.8424730189751246E+00
Ga   -3.1387284381053564E+00    5.7009487807742838E+00    8.5049513428932855E+00
N   -3.1415472337761559E+00    5.6942428667289375E+00    1.0468535243689876E+01
Ga   -3.1483997692690213E+00    7.5342607414515994E+00    1.1120516685037888E+01
N   -3.1456199517438814E+00    7.5136078867284724E+00    1.3107478086449277E+01
Ga   -3.1451822213298559E+00    5.6932880519546911E+00    1.3926384746862894E+01
N   -3.1438296573318509E+00    5.6926706176470523E+00    1.6111773658290577E+01
Ga   -3.1440269041932520E+00    7.7391344022697393E+00    1.6535208025806579E+01
Ga   -3.1430267385400934E+00    9.4435455139305660E+00    1.5972259216598581E+00
N   -4.6246184515707514E+00    1.0291323485492706E+01    2.6041719781021508E+00
Ga   -4.8718323757914375E+00    8.4055504524075531E+00    3.3168373026079769E+00
N   -4.7525523682071107E+00    8.4781509441958622E+00    5.2761574254695711E+00
Ga   -4.7659443768453524E+00    1.0353507073396413E+01    5.8426161706732795E+00
N   -4.7561677257940831E+00    1.0341498473251628E+01    7.8316184902138613E+00
Ga   -4.7553149932440881E+00    8.4811686944552438E+00    8.4656306480128336E+00
N   -4.7442582837316802E+00    8.4823221383190912E+00    1.0459347791535585E+01
Ga   -4.7698694809357551E+00    1.0341428217812201E+01    1.1108983761102511E+01
N   -4.7849114366274064E+00    1.0351656665766665E+01    1.3099666843818383E+01
Ga   -4.7423047178055500E+00    8.4857425704624578E+00    1.3669230894658083E+01
N   -4.7687289016969192E+00    8.4716908041551786E+00    1.5624566933966280E+01
Ga   -4.5834026731861179E+00    1.0238148565839001E+01    1.6535783836477709E+01
N   -3.1447614959181709E+00    9.4004907672109699E+00    1.7679326043828812E+01
N    3.3206140123207777E+00    2.0132398881130777E+00    2.6425799032689175E+00
Ga    3.3216090676867402E+00    2.8760977266605287E-01    3.3428104282763886E+00
N    3.2995886015099423E+00    1.3449615123317529E-01    5.2984454055213117E+00
Ga    3.3166237802657639E+00    2.0071929008978540E+00    5.8998368733164250E+00
N    3.2994073593930873E+00    1.9871537647674546E+00    7.8806820696945392E+00
Ga    3.2863565074079140E+00    1.2027425863091082E-01    8.4879121719844299E+00
N    3.2875366562328479E+00    1.1155236170333270E-01    1.0475202788478079E+01
Ga    3.2867277673733173E+00    1.9783815839579459E+00    1.1083129172769745E+01
N    3.2875499144267204E+00    1.9774736184946011E+00    1.3046636376209591E+01
Ga    3.2862538973648867E+00    1.0654812610555515E-01    1.3668262340849457E+01
N    3.2868725608236833E+00    1.3886196735373416E-01    1.5623002579757591E+01
Ga    3.2883210045192324E+00    1.9777178440062417E+00    1.5901213336064581E+01
N    1.5642857081820327E+00    4.7124477369159381E+00    2.6503029654416848E+00
Ga    1.7840300017099042E+00    2.8681144797047309E+00    3.3369687368653698E+00
N    1.6913493709661367E+00    2.9099308137467577E+00    5.3062223214705782E+00
Ga    1.7021979273074779E+00    4.7691874411346591E+00    5.8913378888826804E+00
N    1.6871433290502944E+00    4.7700896923483800E+00    7.8669907659333411E+00
Ga    1.6760623713193523E+00    2.9078004341152668E+00    8.4890812183021751E+00
N    1.6708363989672967E+00    2.9119087426253354E+00    1.0476894542035025E+01
Ga    1.6976891812852200E+00    4.7746171033109031E+00    1.1116442718351669E+01
N    1.7135937564874604E+00    4.7830987110050787E+00    1.3105139543311104E+01
Ga    1.6685911560851534E+00    2.9140539028414918E+00    1.3669941064849491E+01
N    1.6961992941107027E+00    2.8982017816438592E+00    1.5624471975726260E+01
Ga    1.5133177051355233E+00    4.6654682999315877E+00    1.6536365133376787E+01
N    9.0141801944108785E-02    7.5469565123522449E+00    2.7361384223256566E+00
Ga    7.9931058722512716E-02    5.7025436600076373E+00    3.4086238183043953E+00
N    7.2742268534819618E-02    5.7151382022581299E+00    5.3373594212316116E+00
Ga    1.0993693839943779E-01    7.5689369037251115E+00    5.9440220794774250E+00
N    7.8027056948763177E-02    7.5589346413491718E+00    7.9048514176910976E+00
Ga    7.1700425807269111E-02    5.6868943430879959E+00    8.4976498849530788E+00
N    7.0763009353166317E-02    5.6825160478390169E+00    1.0480997337766707E+01
Ga    7.3498696448591860E-02    7.5513347986336798E+00    1.1078726877860632E+01
N    7.3298180365369198E-02    7.5498711897081652E+00    1.3042429472140544E+01
Ga    7.4314899835861883E-02    5.6793516700181783E+00    1.3671748753129329E+01
N    7.6052760743972214E-02    5.7103781288636535E+00    1.5626875487989809E+01
Ga    7.0043080693818732E-02    7.5476311942611947E+00    1.5909238431727482E+01
N   -1.6256147869146811E+00    1.0279893767659473E+01    2.6042255784421329E+00
Ga   -1.4822207300485575E+00    8.4702773974429437E+00    3.4018971685270318E+00
N   -1.5153103303057578E+00    8.4792161146736795E+00    5.3214614783680156E+00
Ga   -1.5142841572932277E+00    1.0359790421285339E+01    5.8868234865207674E+00
N   -1.5299307441252492E+00    1.0339421092870534E+01    7.8640799043631491E+00
Ga   -1.5466739206355897E+00    8.4850002122088277E+00    8.4987517535804624E+00
N   -1.5481882227573542E+00    8.4833355465792515E+00    1.0481243584122485E+01
Ga   -1.5212931393996469E+00    1.0343946122647441E+01    1.1121032851410636E+01
N   -1.5039139243979407E+00    1.0352886708439668E+01    1.3107696316551909E+01
Ga   -1.5476769298154829E+00    8.4844724921565788E+00    1.3670590917093820E+01
N   -1.5187515615069611E+00    8.4698741542016371E+00    1.5625889681406063E+01
Ga   -1.7054373827017806E+00    1.0237729746955445E+01    1.6535061031798183E+01
N    6.6363120158396383E+00    2.0800937925093588E+00    2.6373530233291831E+00
Ga    6.5470952574207057E+00    1.3612924751128438E-01    3.0188539917999262E+00
N    6.4879859747407931E+00    1.3530938164268716E-01    5.1506614765763983E+00
Ga    6.4546453268324626E+00    1.9476084617922163E+00    5.9167234003032707E+00
N    6.4915871927405657E+00    1.9704337401306897E+00    7.8876796756352858E+00
Ga    6.5122059233781346E+00    1.1538641674068573E-01    8.5013475798369296E+00
N    6.5080412052693184E+00    1.1901748907192984E-01    1.0468150637185282E+01
Ga    6.5077065139251173E+00    1.9616301339870224E+00    1.1120666318864805E+01
N    6.5057678654288020E+00    1.9411316877386593E+00    1.3107806409755959E+01
Ga    6.5024553283771303E+00    1.2333457327303524E-01    1.3924612556469917E+01
N    6.5029292455447498E+00    1.2215991886948953E-01    1.6113643742846968E+01
Ga    6.5032960492219400E+00    2.1738211473898903E+00    1.6535432979651002E+01
Ga    8.0436674064441274E+00    2.9446949731161194E+00    1.3045462019958978E+00
N    4.8748676802494426E+00    4.7637399996320440E+00    2.4872172338442158E+00
Ga    4.9133349805287274E+00    2.8884499577020990E+00    3.1814875313622331E+00
N    4.9199336253662915E+00    2.9251463136776135E+00    5.2126626486223957E+00
Ga    4.9051646096058032E+00    4.7732922861768126E+00    5.8402750350402961E+00
N    4.8982721778547598E+00    4.7695208414716221E+00    7.8349437841535279E+00
Ga    4.9005559716066314E+00    2.9229266214307743E+00    8.5126712203070269E+00
N    4.9055063041845175E+00    2.9175775296410094E+00    1.0490999003638867E+01
Ga    4.8790143121458600E+00    4.7795324470241267E+00    1.1124086587757123E+01
N    4.8640766489503724E+00    4.7845325069786933E+00    1.3109475358883387E+01
Ga    4.9085369661614902E+00    2.9137127240229006E+00    1.3668822397746915E+01
N    4.8801418086890136E+00    2.8973810917226839E+00    1.5623871388437076E+01
Ga    5.0649960628451511E+00    4.6651964398564578E+00    1.6535102917898719E+01
N    6.5090314274414078E+00    3.8382307960136721E+00    1.7679538106591934E+01
N    3.2781016770310352E+00    7.5524361491359961E+00    2.6285571437681186E+00
N    3.2864561116038740E+00    5.6873354632890631E+00    5.1649299703252449E+00
Ga    3.2984045216695423E+00    7.5527468173626682E+00    5.8256102475001947E+00
N    3.2904975601297255E+00    7.5498254444006552E+00    7.8217293860677053E+00
Ga    3.2957284027265588E+00    5.7015237462663286E+00    8.4797452644880291E+00
N    3.2897603763845944E+00    5.6968276684266899E+00    1.0453588155421315E+01
Ga    3.2920695822749111E+00    7.5338715534751763E+00    1.1116097635615592E+01
N    3.2899884232944339E+00    7.5127308801183466E+00    1.3106618427007641E+01
Ga    3.2889453243203226E+00    5.6909703103792246E+00    1.3923897920446723E+01
N    3.2887230119006978E+00    5.6908192940965128E+00    1.6113951823634316E+01
Ga    3.2892894462811921E+00    7.7286835617931393E+00    1.6521818208262363E+01
Ga    4.3010121847077212E+00    1.0563913981370828E+01    5.7772575526788583E-01
N    1.7085552862741851E+00    1.0342313116222964E+01    2.5532742500447458E+00
Ga    1.7099396053518328E+00    8.5756448424712328E+00    3.2232467205336461E+00
N    1.6838561152123876E+00    8.4800778619336228E+00    5.2192501102324655E+00
Ga    1.6746415872828750E+00    1.0354263809759965E+01    5.8166797965266435E+00
N    1.6785574234240135E+00    1.0342506321722590E+01    7.8249611233861094E+00
Ga    1.6992599248160978E+00    8.4922990802325895E+00    8.4896797067271450E+00
N    1.6933366527873379E+00    8.4858990211317202E+00    1.0475959343079021E+01
Ga    1.6673400165400492E+00    1.0342228671165111E+01    1.1126682129161939E+01
N    1.6492825255700547E+00    1.0352525675896658E+01    1.3113335131726570E+01
Ga    1.6925848817720965E+00    8.4830464603001019E+00    1.3670220703363722E+01
N    1.6630981403299030E+00    8.4661693348462510E+00    1.5628497048515850E+01
Ga    1.8366928999255647E+00    1.0244265537873204E+01    1.6520759802292631E+01
N    3.2895933635166048E+00    9.4061082402558061E+00    1.7641037130955915E+01
N    9.5774372913880299E+00    2.0788795506827817E+00    2.6618198552723258E+00
Ga    9.6485473400703494E+00    1.7727911515922690E-01    3.2117854962018084E+00
N    9.7291929477877854E+00    1.5447949490318894E-01    5.2249229495959710E+00
Ga    9.7680725434142381E+00    1.9516756977813385E+00    5.9808495002277287E+00
N    9.7346012291223687E+00    1.9735886622825276E+00    7.9325498517429214E+00
Ga    9.7273170044057800E+00    9.8131825724607186E-02    8.4911156110292918E+00
N    9.7219084752503200E+00    1.0495080482405364E-01    1.0477852148199480E+01
Ga    9.7212372406916270E+00    1.9780516808644155E+00    1.1073441540716912E+01
N    9.7211396898160842E+00    1.9768395408221024E+00    1.3039397101070676E+01
Ga    9.7231279288128185E+00    1.0933905849336503E-01    1.3668712713065183E+01
N    9.7221804996917527E+00    1.4245927763453278E-01    1.5627536452371462E+01
Ga    9.7211318526861135E+00    1.9815044496586329E+00    1.5909568477872181E+01
N    8.1247942990189532E+00    4.6303169288764847E+00    2.5981793435444662E+00
Ga    8.1423834963252482E+00    2.9147305433709576E+00    3.6778392944104485E+00
N    8.1188838863598427E+00    2.9216157507632046E+00    5.5299783633149273E+00
Ga    8.1254029565162949E+00    4.8522966090282278E+00    5.8885231050528022E+00
N    8.1187859398029349E+00    4.7961641226758802E+00    7.8657134117379632E+00
Ga    8.1037556884870696E+00    2.9228885510431302E+00    8.4847121960749128E+00
N    8.1031216049035368E+00    2.9171657879788846E+00    1.0474044154012715E+01
Ga    8.1268147203298575E+00    4.7753319507578107E+00    1.1120540350755132E+01
N    8.1441668649164782E+00    4.7830134106179818E+00    1.3107798164467027E+01
Ga    8.1022220999223649E+00    2.9132604285952501E+00    1.3670210593003134E+01
N    8.1281608417713347E+00    2.8957466296687104E+00    1.5625898269099583E+01
Ga    7.9476883640078579E+00    4.6687295783763894E+00    1.6535610889878907E+01
N    6.5007688073357306E+00    7.5391784331253513E+00    2.5858916805437246E+00
Ga    6.5219714875058585E+00    5.7207304441116440E+00    3.1304893005810182E+00
N    6.5074123503354420E+00    5.6859388204505388E+00    5.1758933341152211E+00
Ga    6.4734686720039578E+00    7.5421061165458294E+00    5.8368049927091352E+00
N    6.4960848820093284E+00    7.5488069261694477E+00    7.8348849098703530E+00
Ga    6.4971370223796763E+00    5.6989072351704255E+00    8.4933936103805152E+00
N    6.5024185532524461E+00    5.6850591769421017E+00    1.0476866326326428E+01
Ga    6.5032757646874479E+00    7.5540177071368495E+00    1.1073054095233239E+01
N    6.5039277607783026E+00    7.5513386425661571E+00    1.3038030102153144E+01
Ga    6.5047057527029049E+00    5.6814556511332563E+00    1.3670122360099723E+01
N    6.5026251090763285E+00    5.7119108302398018E+00    1.5625762292170300E+01
Ga    6.5079953286196011E+00    7.5484277112767240E+00    1.5910235697147757E+01
N    4.8773042843732215E+00    1.0394747829858710E+01    2.5020350865878895E+00
Ga    4.9576861307195665E+00    8.4880845671313363E+00    3.1518144622543782E+00
N    4.8890919592144790E+00    8.4945256000604434E+00    5.1754038549975787E+00
Ga    4.9192342550644739E+00    1.0350373664893212E+01    5.7855873525767798E+00
N    4.9044095178365463E+00    1.0340264163527138E+01    7.7992948623203437E+00
Ga    4.8923983584413513E+00    8.4891004844760722E+00    8.4629791975157236E+00
N    4.8870317864815460E+00    8.4855460722021405E+00    1.0458573235006037E+01
Ga    4.9144409716401807E+00    1.0341177245299484E+01    1.1115782958078512E+01
N    4.9302900146887501E+00    1.0352067273647688E+01    1.3106164649652236E+01
Ga    4.8869522944701558E+00    8.4840505165770903E+00    1.3668737003801143E+01
N    4.9152638583167709E+00    8.4670983776617135E+00    1.5627158438931495E+01
Ga    4.7416382090165117E+00    1.0244297279891029E+01    1.6521160424166816E+01
O    5.9515829444414148E-01    4.1295960715941966E+00   -3.2822922064263776E-01
H    2.9374876111554156E+00    4.9375331678245873E+00    3.9912652026492146E-01
C    8.8573294139820857E-01    3.0213973401329892E+00   -1.1919763027543060E+00
H    1.5083237065937853E+00    2.2543189398473995E+00   -7.0464192785519786E-01
H   -3.1287767995793185E-02    2.5428618920346722E+00   -1.5689769608353017E+00
H    1.4439037596839761E+00    3.4183328672215394E+00   -2.0530222054180416E+00
Ga    3.2222026877128305E+00    5.6490340076062653E+00    3.1479340407133862E+00
O    3.7476298375901815E+00    5.4883729801578252E+00    4.2821486769325523E-01
H    1.8730245792056725E-02    7.5023119432856129E+00    1.7135737706447152E+00
C    4.8244372606800994E+00    4.7255476194524553E+00    9.8540502108423822E-01
H    5.7340581460969817E+00    5.1863756032342270E+00    5.7886180067362913E-01
H    3.2757848811587600E+00    7.4937389275539044E+00    1.6002527062021190E+00
H    4.7651992885592662E+00    3.6806752678120080E+00    6.3843030568383796E-01
     &END COORD
     &KIND C
       BASIS_SET DZVP-MOLOPT-SR-GTH-q4
       POTENTIAL GTH-PBE-q4
       &POTENTIAL
2 2
0.3384712400000000E+00 2 -0.8803673979999999E+01  0.1339210850000000E+01
2
0.3025757500000000E+00 1  0.9622486650000001E+01
0.2915069400000000E+00 0
       &END POTENTIAL
     &END KIND
     &KIND O
       BASIS_SET DZVP-MOLOPT-SR-GTH-q6
       POTENTIAL GTH-PBE-q6
       &POTENTIAL
2 4
0.2445543000000000E+00 2 -0.1666721480000000E+02  0.2487311320000000E+01
2
0.2209559200000000E+00 1  0.1833745811000000E+02
0.2113324700000000E+00 0
       &END POTENTIAL
     &END KIND
     &KIND H
       BASIS_SET DZVP-MOLOPT-SR-GTH-q1
       POTENTIAL GTH-PBE-q1
       &POTENTIAL
1
0.2000000000000000E+00 2 -0.4178900440000000E+01  0.7244633100000000E+00
0
       &END POTENTIAL
     &END KIND
     &KIND N
       BASIS_SET DZVP-MOLOPT-SR-GTH
       POTENTIAL GTH-PBE-q5
       &POTENTIAL
2 3
0.2837905100000000E+00 2 -0.1241522559000000E+02  0.1868095920000000E+01
2
0.2554050000000000E+00 1  0.1363026257000000E+02
0.2454945300000000E+00 0
       &END POTENTIAL
     &END KIND
     &KIND Ga
       BASIS_SET DZVP-MOLOPT-SR-GTH
       POTENTIAL GTH-PBE-q13
       &POTENTIAL
2 1 10
0.4900000000000000E+00 0
3
0.4167772300000000E+00 3  0.1047568975000000E+02 -0.4921768140000000E+01  0.8707055900000000E+00
0.7770178090000000E+01 -0.2248152160000000E+01
0.1784415450000000E+01
0.5696265200000000E+00 2  0.1777985340000000E+01  0.1958597600000000E+00
-0.2317443900000000E+00
0.2381265000000000E+00 1 -0.1624868022000000E+02
       &END POTENTIAL
     &END KIND
     &TOPOLOGY
       NUMBER_OF_ATOMS  212
       MULTIPLE_UNIT_CELL  1 1 1
     &END TOPOLOGY
     &COLVAR
       &DISTANCE
         ATOMS  127 211
       &END DISTANCE
       &PRINT
       &END PRINT
     &END COLVAR
   &END SUBSYS
 &END FORCE_EVAL
