 # Version information for this restart file 
 # current date 2019-07-21 21:41:01.340
 # current working dir /lustre04/scratch/rzk/rzk/GaN-carbene/443-adatoms-both-2x2/09-BondBreaking-CH/04-0401-H2C-to-NTop-OPT
 # Program compiled at                              Sun Apr  7 00:48:11 EDT 2019
 # Program compiled on                          beluga2.int.ets1.calculquebec.ca
 # Program compiled for                        Beluga-Linux-x86-64-intel-openmpi
 # Source code revision number                                         svn:18619
 &GLOBAL
   PRINT_LEVEL  MEDIUM
   PROJECT_NAME TEST
   RUN_TYPE  GEO_OPT
 &END GLOBAL
 &MOTION
   &GEO_OPT
     MAX_ITER  500
     STEP_START_VAL  12
   &END GEO_OPT
 &END MOTION
 &FORCE_EVAL
   METHOD  QS
   STRESS_TENSOR  ANALYTICAL
   &DFT
     BASIS_SET_FILE_NAME BASIS_MOLOPT
     POTENTIAL_FILE_NAME GTH_POTENTIALS
     UKS  T
     SURFACE_DIPOLE_CORRECTION  T
     SURF_DIP_DIR  Z
     &SCF
       MAX_SCF  80
       EPS_SCF     5.0000000000000004E-06
       &OT  T
         PRECONDITIONER  FULL_ALL
       &END OT
       &OUTER_SCF  T
         OPTIMIZER  NONE
         EPS_SCF     5.0000000000000004E-06
         MAX_SCF  4
       &END OUTER_SCF
       &PRINT
         &RESTART  OFF
           BACKUP_COPIES  1
           &EACH
             JUST_ENERGY  0
             QS_SCF  0
             MD  20
           &END EACH
         &END RESTART
       &END PRINT
     &END SCF
     &QS
       EPS_DEFAULT     1.0000000000000000E-14
       METHOD  GPW
     &END QS
     &MGRID
       NGRIDS  5
       CUTOFF     1.2000000000000000E+03
     &END MGRID
     &XC
       DENSITY_CUTOFF     1.0000000000000000E-10
       GRADIENT_CUTOFF     1.0000000000000000E-10
       TAU_CUTOFF     1.0000000000000000E-10
       &XC_FUNCTIONAL  NO_SHORTCUT
         &PBE  T
         &END PBE
       &END XC_FUNCTIONAL
       &VDW_POTENTIAL
         POTENTIAL_TYPE  PAIR_POTENTIAL
         &PAIR_POTENTIAL
           R_CUTOFF     1.0000000000000009E+01
           TYPE  DFTD3
           PARAMETER_FILE_NAME dftd3.dat
           REFERENCE_FUNCTIONAL PBE
           EPS_CN     9.9999999999999995E-07
           CALCULATE_C9_TERM  T
           REFERENCE_C9_TERM  T
           LONG_RANGE_CORRECTION  F
           VERBOSE_OUTPUT  F
         &END PAIR_POTENTIAL
       &END VDW_POTENTIAL
     &END XC
   &END DFT
   &SUBSYS
     &CELL
       A     1.2864472766435110E+01    0.0000000000000000E+00    0.0000000000000000E+00
       B    -6.4322363581020028E+00    1.1140960178524477E+01    0.0000000000000000E+00
       C     0.0000000000000000E+00    0.0000000000000000E+00    3.2000000000000000E+01
       MULTIPLE_UNIT_CELL  1 1 1
       &CELL_REF
         A     1.2982353780853531E+01    0.0000000000000000E+00    0.0000000000000000E+00
         B    -6.4911768904267628E+00    1.1243048175136114E+01    0.0000000000000000E+00
         C     0.0000000000000000E+00    0.0000000000000000E+00    3.2000000000000000E+01
         MULTIPLE_UNIT_CELL  1 1 1
       &END CELL_REF
     &END CELL
     &COORD
N    6.8586169881578674E-02    2.1391722201353862E+00    2.5503849935255190E+00
Ga    1.0840692547291285E-01    1.9662959441506120E-01    2.9840202438339967E+00
N    9.8639910169791137E-02    1.4250908419031394E-01    5.0791286860649523E+00
Ga    7.7106485113180218E-02    1.9671717346971553E+00    5.8431098666308507E+00
N    7.0847407846460875E-02    1.9766342723443013E+00    7.8393521859874866E+00
Ga    6.7107609925201858E-02    1.2310575455924534E-01    8.4716017933566885E+00
N    6.9983225622795991E-02    1.2250232774839287E-01    1.0450002217322977E+01
Ga    7.6401550359203999E-02    1.9577446588744867E+00    1.1119834612092806E+01
N    7.3826468545723320E-02    1.9401760297920458E+00    1.3109371117307118E+01
Ga    7.5967520851854695E-02    1.2216192248682431E-01    1.3921518773708073E+01
N    7.4559130111059982E-02    1.2243250957586342E-01    1.6114030182192568E+01
Ga    7.3637274791616220E-02    2.1729311289347115E+00    1.6534214355288501E+01
Ga    1.5005619893742911E-01    3.8520389022996273E+00    1.4190918231548226E+00
N   -1.3892259252562202E+00    4.7172511089291520E+00    2.5356058949616531E+00
Ga   -1.6183064141747558E+00    2.8950999464587368E+00    3.2811962383266540E+00
N   -1.5532216537585102E+00    2.9088185871415067E+00    5.2621941826148477E+00
Ga   -1.5644818553548865E+00    4.7761730762309096E+00    5.8679936245642557E+00
N   -1.5439445772646720E+00    4.7685836361445437E+00    7.8554148067449612E+00
Ga   -1.5147351470462056E+00    2.9155678810805123E+00    8.5111368315678604E+00
N   -1.5198365377378686E+00    2.9172021438887619E+00    1.0492902592053419E+01
Ga   -1.5488725912834669E+00    4.7770561297563967E+00    1.1129077778363099E+01
N   -1.5670766829957321E+00    4.7836827838591578E+00    1.3116579872816736E+01
Ga   -1.5236526711245373E+00    2.9122264274229837E+00    1.3668256505590172E+01
N   -1.5492975456378586E+00    2.8953142950382880E+00    1.5626878665050965E+01
Ga   -1.3711850066566633E+00    4.6686059391406101E+00    1.6533741659826724E+01
N    6.7163356853371090E-02    3.8377491189357187E+00    1.7678491465851248E+01
N   -3.1177699775244920E+00    7.6806955497735725E+00    2.5793638674894694E+00
Ga   -3.0969641533661698E+00    5.6709252471611391E+00    2.9471497951176522E+00
N   -3.1288584494228204E+00    5.7070511810519760E+00    5.0972205769743084E+00
Ga   -3.1418999271273318E+00    7.5315855197885151E+00    5.8583455262721165E+00
N   -3.1398425788327473E+00    7.5476209226328077E+00    7.8452055798547571E+00
Ga   -3.1379841488490827E+00    5.7042672266433723E+00    8.5060917785003731E+00
N   -3.1405072933460167E+00    5.6956174836551048E+00    1.0473342292683050E+01
Ga   -3.1475604700526589E+00    7.5357064920790675E+00    1.1120047104279783E+01
N   -3.1450473054776373E+00    7.5138335468306767E+00    1.3110229857988811E+01
Ga   -3.1445668458531455E+00    5.6937161914435528E+00    1.3926194277817940E+01
N   -3.1440340420872253E+00    5.6924758984821038E+00    1.6113084963564418E+01
Ga   -3.1440580672505996E+00    7.7386825768481184E+00    1.6533877343865207E+01
Ga   -3.1441068138964727E+00    9.4430452686290014E+00    1.6008818085026895E+00
N   -4.6281260763766188E+00    1.0291089453684885E+01    2.5955618429943250E+00
Ga   -4.8727853298239774E+00    8.4055673206048063E+00    3.3116978386840996E+00
N   -4.7477793519616931E+00    8.4800270287160213E+00    5.2721534205937131E+00
Ga   -4.7651276392151090E+00    1.0353793501989127E+01    5.8451222690388107E+00
N   -4.7575383435995748E+00    1.0344180493558754E+01    7.8371955943906437E+00
Ga   -4.7545934904138196E+00    8.4838041844239118E+00    8.4658309318114036E+00
N   -4.7447917417875294E+00    8.4833758685047425E+00    1.0462079218986689E+01
Ga   -4.7699667259373726E+00    1.0343183359484861E+01    1.1109443669950968E+01
N   -4.7844910283829805E+00    1.0352594964462638E+01    1.3102268243592658E+01
Ga   -4.7414805428443714E+00    8.4860339332765147E+00    1.3668369852351445E+01
N   -4.7686036839131312E+00    8.4716555709090997E+00    1.5626536862924661E+01
Ga   -4.5832368576038345E+00    1.0238184459748499E+01    1.6534455967759726E+01
N   -3.1443602184784640E+00    9.3998781881712699E+00    1.7677439984363957E+01
N    3.3194903078746694E+00    2.0140829337757107E+00    2.6567547877829822E+00
Ga    3.3198519915765430E+00    2.7706990426456224E-01    3.3487575899321804E+00
N    3.3013364682461330E+00    1.3172255176856285E-01    5.3070144221167501E+00
Ga    3.3147244094317472E+00    2.0048511354914509E+00    5.8970099462739167E+00
N    3.2998693081976467E+00    1.9880373851090549E+00    7.8812119286542277E+00
Ga    3.2864656616229095E+00    1.2187444722065735E-01    8.4881256141339403E+00
N    3.2874622445751447E+00    1.1415060219386360E-01    1.0478118863219889E+01
Ga    3.2870159859643171E+00    1.9800720100462263E+00    1.1083466695078679E+01
N    3.2883092483203575E+00    1.9788418784673572E+00    1.3049982347248264E+01
Ga    3.2872536091796372E+00    1.0652678678983009E-01    1.3667871739351721E+01
N    3.2875167488030801E+00    1.3924989423490960E-01    1.5624880487639240E+01
Ga    3.2885283359477233E+00    1.9781688024775927E+00    1.5899497545144808E+01
N    1.5620963049974248E+00    4.7110478377099803E+00    2.6458249978349859E+00
Ga    1.7785823643925540E+00    2.8744781693787638E+00    3.3403228963870801E+00
N    1.6897401772265890E+00    2.9118895081532981E+00    5.3119187470378533E+00
Ga    1.7005008320091410E+00    4.7708984792981184E+00    5.8890072953539878E+00
N    1.6879717422685370E+00    4.7719424138422859E+00    7.8673102983863252E+00
Ga    1.6769624913803927E+00    2.9093198954586432E+00    8.4850034937265058E+00
N    1.6718642801689110E+00    2.9115483624250360E+00    1.0476345853322380E+01
Ga    1.6991328476224303E+00    4.7745250997970672E+00    1.1113584121046069E+01
N    1.7136764848043597E+00    4.7831388147953176E+00    1.3105613384881433E+01
Ga    1.6680450107671994E+00    2.9154068396855108E+00    1.3669483018866947E+01
N    1.6961900762943700E+00    2.8983523068722197E+00    1.5626107482944972E+01
Ga    1.5130990020106450E+00    4.6653737443006742E+00    1.6535915632945123E+01
N    9.2692732764631885E-02    7.5488261726890098E+00    2.7281894019933399E+00
Ga    7.9292290040372332E-02    5.7052466139738280E+00    3.4007292028575180E+00
N    6.9337220423694779E-02    5.7143654074000940E+00    5.3331707581904277E+00
Ga    1.1013051148858037E-01    7.5687048120452811E+00    5.9387800551362231E+00
N    8.2119458324039468E-02    7.5597886298188213E+00    7.9022181611763411E+00
Ga    7.4235926128683946E-02    5.6878394552199163E+00    8.4963439198911619E+00
N    7.2133657115305200E-02    5.6835002842253859E+00    1.0483039659986142E+01
Ga    7.4775216721696083E-02    7.5518438488080415E+00    1.1078091459080163E+01
N    7.3463225447907551E-02    7.5500250284655666E+00    1.3045713505681546E+01
Ga    7.4901626296964119E-02    5.6795910483569676E+00    1.3670261284171609E+01
N    7.6164589099989050E-02    5.7103418707819973E+00    1.5628577527386582E+01
Ga    6.9367025380155128E-02    7.5474169238886670E+00    1.5908672796497372E+01
N   -1.6271318251091251E+00    1.0281681635395735E+01    2.5947274712727939E+00
Ga   -1.4770334943005548E+00    8.4719289148365871E+00    3.3956090791896103E+00
N   -1.5119638929807129E+00    8.4797966825662012E+00    5.3157005492420648E+00
Ga   -1.5122458982160578E+00    1.0358903344643107E+01    5.8888908379289369E+00
N   -1.5291221055256294E+00    1.0339256146084317E+01    7.8684473834703743E+00
Ga   -1.5429613579519053E+00    8.4858460918854313E+00    8.4995096342903231E+00
N   -1.5464700921040642E+00    8.4837722319298052E+00    1.0484629470614019E+01
Ga   -1.5207461373548030E+00    1.0345328144300476E+01    1.1119481469383089E+01
N   -1.5038150358146984E+00    1.0353360759436855E+01    1.3109410009800635E+01
Ga   -1.5471618990451785E+00    8.4850390326552461E+00    1.3668856481574933E+01
N   -1.5188689077224711E+00    8.4704132285903526E+00    1.5627450840378620E+01
Ga   -1.7052123029939870E+00    1.0237915271436449E+01    1.6534068496003322E+01
N    6.6389341211763284E+00    2.0803497342114885E+00    2.6266911641868020E+00
Ga    6.5478303882202606E+00    1.4369867960653246E-01    3.0213339309810676E+00
N    6.4890181137113112E+00    1.3828767651234480E-01    5.1541296564798333E+00
Ga    6.4546311336032849E+00    1.9498817881082242E+00    5.9213198666523521E+00
N    6.4907191182751394E+00    1.9731107785831510E+00    7.8939729641419651E+00
Ga    6.5137036576407654E+00    1.1591999341451147E-01    8.5003928682945098E+00
N    6.5090428377858993E+00    1.1950908005652089E-01    1.0470946458960865E+01
Ga    6.5070576179765878E+00    1.9626045769828113E+00    1.1118262951536261E+01
N    6.5053200164634566E+00    1.9419419561440132E+00    1.3108932369950326E+01
Ga    6.5022456188693134E+00    1.2380593189401261E-01    1.3923952701027792E+01
N    6.5026002859829743E+00    1.2292274091218790E-01    1.6114038678055657E+01
Ga    6.5036147645070281E+00    2.1744177265932847E+00    1.6535493690236393E+01
Ga    8.1191035337788300E+00    2.9047000368977702E+00    1.2946152781665357E+00
N    4.8723306416816703E+00    4.7615501179409430E+00    2.4931161420474361E+00
Ga    4.9203353613197285E+00    2.8826887966911023E+00    3.1804976899037323E+00
N    4.9212468948202410E+00    2.9232541703618158E+00    5.2147422435764552E+00
Ga    4.9068122327284653E+00    4.7724879401779186E+00    5.8369317826930764E+00
N    4.8997740283035167E+00    4.7703844187964810E+00    7.8347487351567064E+00
Ga    4.8979538828037983E+00    2.9239711854075172E+00    8.5108996055969115E+00
N    4.9039153536232227E+00    2.9193276854386934E+00    1.0493355803057531E+01
Ga    4.8791684537501556E+00    4.7802311418656460E+00    1.1123804961753335E+01
N    4.8643671534236477E+00    4.7843669437562548E+00    1.3111849773420362E+01
Ga    4.9096692672993374E+00    2.9146607542613676E+00    1.3669280069605863E+01
N    4.8807035090406927E+00    2.8975289849510588E+00    1.5625871301642892E+01
Ga    5.0654892622626733E+00    4.6650597101928311E+00    1.6535191815318775E+01
N    6.5095513362886006E+00    3.8385686432265276E+00    1.7678946606874273E+01
N    3.2761500346981354E+00    7.5599701748461658E+00    2.6255676630479403E+00
N    3.2869114187608748E+00    5.6883182315155967E+00    5.1585360398220326E+00
Ga    3.2966944647838754E+00    7.5540927662267139E+00    5.8244090340608938E+00
N    3.2918538690512058E+00    7.5519155990738325E+00    7.8224151289591113E+00
Ga    3.2971889363011582E+00    5.7030124602200658E+00    8.4773008703472232E+00
N    3.2912873074509990E+00    5.6970025592696683E+00    1.0454658701273988E+01
Ga    3.2932425825970610E+00    7.5342160283165285E+00    1.1113252172991395E+01
N    3.2897226271134796E+00    7.5126458600421078E+00    1.3107414464008087E+01
Ga    3.2884493228203899E+00    5.6910127100683097E+00    1.3923230965820027E+01
N    3.2888272455410639E+00    5.6902129518670579E+00    1.6114050097165570E+01
Ga    3.2891226300572058E+00    7.7279582761681622E+00    1.6520076045160163E+01
Ga    4.3404653006676917E+00    1.0502588479396021E+01    5.7542437270618174E-01
N    1.7028126678738049E+00    1.0348145279973354E+01    2.5533766395459261E+00
Ga    1.7078895131946437E+00    8.5806559844539709E+00    3.2162502923616656E+00
N    1.6829322671145739E+00    8.4835923628312120E+00    5.2163790806684549E+00
Ga    1.6738252275006997E+00    1.0356171219452701E+01    5.8169011318736352E+00
N    1.6824675875411923E+00    1.0343380267807751E+01    7.8262397475496668E+00
Ga    1.7021265283123959E+00    8.4935291283847327E+00    8.4882839976674855E+00
N    1.6940207860652081E+00    8.4863552714092432E+00    1.0478027224945395E+01
Ga    1.6675006694112366E+00    1.0342664677839341E+01    1.1125731996693807E+01
N    1.6487999044242532E+00    1.0352566223583477E+01    1.3115852636002938E+01
Ga    1.6926131138980800E+00    8.4831730222333768E+00    1.3668621548246527E+01
N    1.6624983487143850E+00    8.4660984825261671E+00    1.5630524851169353E+01
Ga    1.8358949379737586E+00    1.0244825488384896E+01    1.6518853085094346E+01
N    3.2891172704141161E+00    9.4061667755122631E+00    1.7637788823820674E+01
N    9.5762912647180549E+00    2.0774986872536343E+00    2.6598121096774241E+00
Ga    9.6441057305361184E+00    1.7104926372285140E-01    3.2049119161594053E+00
N    9.7265561502004800E+00    1.5806310207833477E-01    5.2175412852760941E+00
Ga    9.7669937944203014E+00    1.9534465591626347E+00    5.9757183990701659E+00
N    9.7351584669617317E+00    1.9747749100300109E+00    7.9310311924175885E+00
Ga    9.7298334045975139E+00    9.9690458585331612E-02    8.4923999630774354E+00
N    9.7232461392534137E+00    1.0597236843972434E-01    1.0481204009479976E+01
Ga    9.7209882063179354E+00    1.9797067348367559E+00    1.1074129612892083E+01
N    9.7204691650765582E+00    1.9779913969311604E+00    1.3043348819015460E+01
Ga    9.7224660122405435E+00    1.0942354206211685E-01    1.3667040015643552E+01
N    9.7217886750252482E+00    1.4294559900543607E-01    1.5629357646489799E+01
Ga    9.7212289981780540E+00    1.9822447806800820E+00    1.5907564152685156E+01
N    8.1243919859020970E+00    4.6313389662378412E+00    2.5970384409836815E+00
Ga    8.1147167840084968E+00    2.9246233862982023E+00    3.6717482889532778E+00
N    8.1194522696319122E+00    2.9205175375242738E+00    5.5282042285629966E+00
Ga    8.1248111067261597E+00    4.8511929504898337E+00    5.8913214027583196E+00
N    8.1188029297846214E+00    4.7984813036020961E+00    7.8715443880456428E+00
Ga    8.1047960367630285E+00    2.9237334472097398E+00    8.4866495997651246E+00
N    8.1034002056720507E+00    2.9186517554316036E+00    1.0479064438932010E+01
Ga    8.1269568520396653E+00    4.7766865259221527E+00    1.1119801663172217E+01
N    8.1443094509138412E+00    4.7835869259736921E+00    1.3110509191116899E+01
Ga    8.1014652924843009E+00    2.9138651311647634E+00    1.3669227176700090E+01
N    8.1277162036123141E+00    2.8959201909512386E+00    1.5627413473048797E+01
Ga    7.9478171508173663E+00    4.6686596507146323E+00    1.6535354775412188E+01
N    6.4988189808773233E+00    7.5380053744564854E+00    2.5843440632810295E+00
Ga    6.5279483457447949E+00    5.7149485374407956E+00    3.1255525946137124E+00
N    6.5087294771219515E+00    5.6838017757475860E+00    5.1753779838169498E+00
Ga    6.4767576185359443E+00    7.5444925774100966E+00    5.8286910600850526E+00
N    6.4976462168810354E+00    7.5507044759648085E+00    7.8310359654241148E+00
Ga    6.4967776093484497E+00    5.7030304696692609E+00    8.4924195442836048E+00
N    6.5016628266370304E+00    5.6872041931512003E+00    1.0479192082285033E+01
Ga    6.5033080801417773E+00    7.5551185271409738E+00    1.1074040407236913E+01
N    6.5038397919818776E+00    7.5509107358393477E+00    1.3041719477305588E+01
Ga    6.5046223434200829E+00    5.6808251839464541E+00    1.3669906236263762E+01
N    6.5026282109214169E+00    5.7112036815878398E+00    1.5627723666076255E+01
Ga    6.5082895450932927E+00    7.5478529180808849E+00    1.5908143825628521E+01
N    4.8757344751068086E+00    1.0391124865244221E+01    2.5074073981682345E+00
Ga    4.9570531010884418E+00    8.4830482292281495E+00    3.1570526114497324E+00
N    4.8866841763262290E+00    8.4970312574828633E+00    5.1761087270152677E+00
Ga    4.9187082571304597E+00    1.0353528383164837E+01    5.7829440161742180E+00
N    4.9051633740540170E+00    1.0343480578434230E+01    7.7996214230677587E+00
Ga    4.8940182075515031E+00    8.4912845350767601E+00    8.4590778311348416E+00
N    4.8889189561150745E+00    8.4870240411330862E+00    1.0458197862810625E+01
Ga    4.9157227737341058E+00    1.0341829641220551E+01    1.1116446210297429E+01
N    4.9306962429753600E+00    1.0352536745428896E+01    1.3109308917558444E+01
Ga    4.8858587562658187E+00    8.4842097750658638E+00    1.3667866043106720E+01
N    4.9153165232687845E+00    8.4668101818675350E+00    1.5629428508913632E+01
Ga    4.7420015879171098E+00    1.0244734728818759E+01    1.6519054754081530E+01
O    5.9310433372570470E-01    4.1239800899215755E+00   -3.3044490895290674E-01
H    2.9242778659704922E+00    4.9190714212972120E+00    4.1050439960945201E-01
C    8.8065374300400012E-01    3.0121213272909322E+00   -1.1898086090043889E+00
H    1.5051077462952203E+00    2.2464556548176366E+00   -7.0009865978999830E-01
H   -3.8786770011950918E-02    2.5308959913678959E+00   -1.5606129007121188E+00
H    1.4358815513550336E+00    3.4049645069609986E+00   -2.0553408664847388E+00
Ga    3.2168079210234377E+00    5.6550470363169794E+00    3.1397109722082779E+00
O    3.7239031962591733E+00    5.4822976961717869E+00    4.5373242256388729E-01
H    2.0207703859990954E-02    7.5051936035286406E+00    1.7047001396519379E+00
C    4.8185660508096664E+00    4.7264224645955126E+00    9.9463768873573832E-01
H    5.7246412762898879E+00    5.1896231922582690E+00    5.7463208346519579E-01
H    3.2744891343192717E+00    7.5047268835567307E+00    1.5980799008538920E+00
H    4.7489168532245900E+00    3.6858556572765551E+00    6.3982925305604088E-01
     &END COORD
     &KIND C
       BASIS_SET DZVP-MOLOPT-SR-GTH-q4
       POTENTIAL GTH-PBE-q4
       &POTENTIAL
2 2
0.3384712400000000E+00 2 -0.8803673979999999E+01  0.1339210850000000E+01
2
0.3025757500000000E+00 1  0.9622486650000001E+01
0.2915069400000000E+00 0
       &END POTENTIAL
     &END KIND
     &KIND O
       BASIS_SET DZVP-MOLOPT-SR-GTH-q6
       POTENTIAL GTH-PBE-q6
       &POTENTIAL
2 4
0.2445543000000000E+00 2 -0.1666721480000000E+02  0.2487311320000000E+01
2
0.2209559200000000E+00 1  0.1833745811000000E+02
0.2113324700000000E+00 0
       &END POTENTIAL
     &END KIND
     &KIND H
       BASIS_SET DZVP-MOLOPT-SR-GTH-q1
       POTENTIAL GTH-PBE-q1
       &POTENTIAL
1
0.2000000000000000E+00 2 -0.4178900440000000E+01  0.7244633100000000E+00
0
       &END POTENTIAL
     &END KIND
     &KIND N
       BASIS_SET DZVP-MOLOPT-SR-GTH
       POTENTIAL GTH-PBE-q5
       &POTENTIAL
2 3
0.2837905100000000E+00 2 -0.1241522559000000E+02  0.1868095920000000E+01
2
0.2554050000000000E+00 1  0.1363026257000000E+02
0.2454945300000000E+00 0
       &END POTENTIAL
     &END KIND
     &KIND Ga
       BASIS_SET DZVP-MOLOPT-SR-GTH
       POTENTIAL GTH-PBE-q13
       &POTENTIAL
2 1 10
0.4900000000000000E+00 0
3
0.4167772300000000E+00 3  0.1047568975000000E+02 -0.4921768140000000E+01  0.8707055900000000E+00
0.7770178090000000E+01 -0.2248152160000000E+01
0.1784415450000000E+01
0.5696265200000000E+00 2  0.1777985340000000E+01  0.1958597600000000E+00
-0.2317443900000000E+00
0.2381265000000000E+00 1 -0.1624868022000000E+02
       &END POTENTIAL
     &END KIND
     &TOPOLOGY
       NUMBER_OF_ATOMS  212
       MULTIPLE_UNIT_CELL  1 1 1
     &END TOPOLOGY
     &COLVAR
       &DISTANCE
         ATOMS  127 211
       &END DISTANCE
       &PRINT
       &END PRINT
     &END COLVAR
   &END SUBSYS
 &END FORCE_EVAL
