 # Version information for this restart file 
 # current date 2019-07-21 23:57:13.521
 # current working dir /lustre04/scratch/rzk/rzk/GaN-carbene/443-adatoms-both-2x2/09-BondBreaking-CH/04-0401-H2C-to-NTop-OPT
 # Program compiled at                              Sun Apr  7 00:48:11 EDT 2019
 # Program compiled on                          beluga2.int.ets1.calculquebec.ca
 # Program compiled for                        Beluga-Linux-x86-64-intel-openmpi
 # Source code revision number                                         svn:18619
 &GLOBAL
   PRINT_LEVEL  MEDIUM
   PROJECT_NAME TEST
   RUN_TYPE  GEO_OPT
 &END GLOBAL
 &MOTION
   &GEO_OPT
     MAX_ITER  500
     STEP_START_VAL  32
   &END GEO_OPT
 &END MOTION
 &FORCE_EVAL
   METHOD  QS
   STRESS_TENSOR  ANALYTICAL
   &DFT
     BASIS_SET_FILE_NAME BASIS_MOLOPT
     POTENTIAL_FILE_NAME GTH_POTENTIALS
     UKS  T
     SURFACE_DIPOLE_CORRECTION  T
     SURF_DIP_DIR  Z
     &SCF
       MAX_SCF  80
       EPS_SCF     5.0000000000000004E-06
       &OT  T
         PRECONDITIONER  FULL_ALL
       &END OT
       &OUTER_SCF  T
         OPTIMIZER  NONE
         EPS_SCF     5.0000000000000004E-06
         MAX_SCF  4
       &END OUTER_SCF
       &PRINT
         &RESTART  OFF
           BACKUP_COPIES  1
           &EACH
             JUST_ENERGY  0
             QS_SCF  0
             MD  20
           &END EACH
         &END RESTART
       &END PRINT
     &END SCF
     &QS
       EPS_DEFAULT     1.0000000000000000E-14
       METHOD  GPW
     &END QS
     &MGRID
       NGRIDS  5
       CUTOFF     1.2000000000000000E+03
     &END MGRID
     &XC
       DENSITY_CUTOFF     1.0000000000000000E-10
       GRADIENT_CUTOFF     1.0000000000000000E-10
       TAU_CUTOFF     1.0000000000000000E-10
       &XC_FUNCTIONAL  NO_SHORTCUT
         &PBE  T
         &END PBE
       &END XC_FUNCTIONAL
       &VDW_POTENTIAL
         POTENTIAL_TYPE  PAIR_POTENTIAL
         &PAIR_POTENTIAL
           R_CUTOFF     1.0000000000000009E+01
           TYPE  DFTD3
           PARAMETER_FILE_NAME dftd3.dat
           REFERENCE_FUNCTIONAL PBE
           EPS_CN     9.9999999999999995E-07
           CALCULATE_C9_TERM  T
           REFERENCE_C9_TERM  T
           LONG_RANGE_CORRECTION  F
           VERBOSE_OUTPUT  F
         &END PAIR_POTENTIAL
       &END VDW_POTENTIAL
     &END XC
   &END DFT
   &SUBSYS
     &CELL
       A     1.2864472766435110E+01    0.0000000000000000E+00    0.0000000000000000E+00
       B    -6.4322363581020028E+00    1.1140960178524477E+01    0.0000000000000000E+00
       C     0.0000000000000000E+00    0.0000000000000000E+00    3.2000000000000000E+01
       MULTIPLE_UNIT_CELL  1 1 1
       &CELL_REF
         A     1.2982353780853531E+01    0.0000000000000000E+00    0.0000000000000000E+00
         B    -6.4911768904267628E+00    1.1243048175136114E+01    0.0000000000000000E+00
         C     0.0000000000000000E+00    0.0000000000000000E+00    3.2000000000000000E+01
         MULTIPLE_UNIT_CELL  1 1 1
       &END CELL_REF
     &END CELL
     &COORD
N    6.8801455465154898E-02    2.1330886074645123E+00    2.5773005332915657E+00
Ga    1.2020210181373611E-01    1.9864545058983285E-01    3.0180087551806527E+00
N    1.0015302970003075E-01    1.4276687112163078E-01    5.0989188026608741E+00
Ga    7.4415808325249314E-02    1.9721096166196950E+00    5.8507921718833655E+00
N    7.3050660360842595E-02    1.9824768553821366E+00    7.8499829807428494E+00
Ga    6.8438543451432798E-02    1.2860681416191963E-01    8.4744748677259025E+00
N    7.3525885832299048E-02    1.3137009599804697E-01    1.0457186741048327E+01
Ga    7.8666880453933608E-02    1.9683823801974223E+00    1.1118440490201881E+01
N    7.8034098472769098E-02    1.9519398989531054E+00    1.3113806589370382E+01
Ga    7.5820372559497098E-02    1.3363437899700903E-01    1.3911179273715833E+01
N    7.7459427778423406E-02    1.3605327839602302E-01    1.6119748853260571E+01
Ga    7.8238205704837055E-02    2.1880719181105124E+00    1.6528369095555025E+01
Ga    1.3279847143902229E-01    3.8371995392802893E+00    1.4350154579653434E+00
N   -1.3923582215657950E+00    4.7121435554700097E+00    2.5464075869531286E+00
Ga   -1.6342297261494758E+00    2.8807925790052642E+00    3.2854198780726191E+00
N   -1.5511821412019999E+00    2.9105977619436265E+00    5.2710234144965966E+00
Ga   -1.5676117323024530E+00    4.7772814926713245E+00    5.8681252334290646E+00
N   -1.5415896521820796E+00    4.7740567474437210E+00    7.8617304834447337E+00
Ga   -1.5187627280428422E+00    2.9194246983556527E+00    8.5058769611374263E+00
N   -1.5180287303057145E+00    2.9248552951776019E+00    1.0495230903941293E+01
Ga   -1.5450903471135951E+00    4.7837796821622742E+00    1.1126996625918576E+01
N   -1.5620194943173746E+00    4.7933015535857226E+00    1.3120138741101181E+01
Ga   -1.5202311011856198E+00    2.9222789768475703E+00    1.3669134666670912E+01
N   -1.5483635057536331E+00    2.9061717695465368E+00    1.5630261718034422E+01
Ga   -1.3655888284239999E+00    4.6811601830562735E+00    1.6528100015822531E+01
N    7.6885322581342480E-02    3.8559373678848865E+00    1.7662270561087226E+01
N   -3.1213988804627437E+00    7.6763925172637144E+00    2.5871502719575652E+00
Ga   -3.1062387257698805E+00    5.6579661365770599E+00    2.9372029343571313E+00
N   -3.1284179109877557E+00    5.7073831161120987E+00    5.0970434652366201E+00
Ga   -3.1421301671930846E+00    7.5268217713136494E+00    5.8597286083636533E+00
N   -3.1376695988005290E+00    7.5512943959682275E+00    7.8519594950452403E+00
Ga   -3.1381117906033849E+00    5.7059593730872384E+00    8.5046955829528255E+00
N   -3.1375325424737874E+00    5.7030546163970568E+00    1.0477633953686519E+01
Ga   -3.1436570196611866E+00    7.5438241565513886E+00    1.1117610050306634E+01
N   -3.1405905524784736E+00    7.5235955431446424E+00    1.3112787074076673E+01
Ga   -3.1391293840376644E+00    5.7024393505475022E+00    1.3915035877227414E+01
N   -3.1370467792846299E+00    5.7039723425441728E+00    1.6121364520407230E+01
Ga   -3.1388520811815552E+00    7.7453494910737071E+00    1.6515567817422784E+01
Ga   -3.1499931528975238E+00    9.4418757882038395E+00    1.6070205084941407E+00
N   -4.6297963818563108E+00    1.0287727611470029E+01    2.6145853270178909E+00
Ga   -4.8736059763206914E+00    8.3999043572968155E+00    3.3215827380825207E+00
N   -4.7498614098071217E+00    8.4792361147859712E+00    5.2847871640628483E+00
Ga   -4.7640290288811720E+00    1.0352821502922279E+01    5.8546433115837084E+00
N   -4.7548335881777675E+00    1.0347673531522741E+01    7.8483417339353565E+00
Ga   -4.7516666449297649E+00    8.4865694290514515E+00    8.4684970578414038E+00
N   -4.7413192134149247E+00    8.4913949554501471E+00    1.0469320024500272E+01
Ga   -4.7655987098664898E+00    1.0351865226041797E+01    1.1107590931057196E+01
N   -4.7803946691584764E+00    1.0363836921390462E+01    1.3106962054032666E+01
Ga   -4.7371054557490435E+00    8.4957981429192166E+00    1.3664046018515860E+01
N   -4.7630404730940663E+00    8.4784054576166419E+00    1.5627026477062213E+01
Ga   -4.5939597479030807E+00    1.0258503956681917E+01    1.6515001299007370E+01
N   -3.1408658222271444E+00    9.4262934727441348E+00    1.7646853736042868E+01
N    3.3135756655031350E+00    2.0118438090315549E+00    2.6613391730396145E+00
Ga    3.3204824523752725E+00    2.7531491520672430E-01    3.3570360836107458E+00
N    3.3002678977596482E+00    1.3368150983400312E-01    5.3160958179874775E+00
Ga    3.3176017267776619E+00    2.0078747105779251E+00    5.9033936624686909E+00
N    3.3009494423190078E+00    1.9933552931344345E+00    7.8919824492974859E+00
Ga    3.2901701593904407E+00    1.2761720137413859E-01    8.4901793185343344E+00
N    3.2913337339972175E+00    1.2295691682657035E-01    1.0485190139363695E+01
Ga    3.2912284622087942E+00    1.9904353874187559E+00    1.1083471438585084E+01
N    3.2932699830604757E+00    1.9904594650780953E+00    1.3054685513633560E+01
Ga    3.2919087403162370E+00    1.1911968900557096E-01    1.3664434846213540E+01
N    3.2934351823074475E+00    1.5187014272450175E-01    1.5628310461424322E+01
Ga    3.2939991760690073E+00    1.9893192334696455E+00    1.5901719984504957E+01
N    1.5547318996023092E+00    4.7051166801823987E+00    2.6532166989157422E+00
Ga    1.7758382064765439E+00    2.8730195722221601E+00    3.3505001572081299E+00
N    1.6911152613875784E+00    2.9138022124377061E+00    5.3244546235450025E+00
Ga    1.7015468141184560E+00    4.7742953348982393E+00    5.8939157666142581E+00
N    1.6893766033700492E+00    4.7780346308481834E+00    7.8759799307311313E+00
Ga    1.6788424653026630E+00    2.9154794563340189E+00    8.4885922787879124E+00
N    1.6746609354447517E+00    2.9213451446272436E+00    1.0484691207061337E+01
Ga    1.7028183457268655E+00    4.7830390749518870E+00    1.1115896173023682E+01
N    1.7180121175336753E+00    4.7929628718235522E+00    1.3113333412564360E+01
Ga    1.6730775061838423E+00    2.9251940303230533E+00    1.3670706527344100E+01
N    1.7039086809200603E+00    2.9063689755351976E+00    1.5630492009028208E+01
Ga    1.5207556489658787E+00    4.6804346980230767E+00    1.6529348136915370E+01
N    8.8202483133097836E-02    7.5437341306331893E+00    2.7356502804125777E+00
Ga    7.3919424692926977E-02    5.7026642666108449E+00    3.4077888083642578E+00
N    6.9676514083956850E-02    5.7160703978910137E+00    5.3430411206728072E+00
Ga    1.0777418015940071E-01    7.5714441352222783E+00    5.9435551297331948E+00
N    8.2888989972457625E-02    7.5645364870798639E+00    7.9107445593155958E+00
Ga    7.4586392801941723E-02    5.6931603349810231E+00    8.4997855217818152E+00
N    7.6112113316187446E-02    5.6918545549310222E+00    1.0491145336229188E+01
Ga    8.0286772908611026E-02    7.5611605079246988E+00    1.1079430972508673E+01
N    7.9498934746851047E-02    7.5610237545505239E+00    1.3052086112833569E+01
Ga    7.9269786946356974E-02    5.6895511928151095E+00    1.3670467231981226E+01
N    7.7834149483597417E-02    5.7261916812492597E+00    1.5631760472078369E+01
Ga    7.8425568647004951E-02    7.5612015284602752E+00    1.5900500210944717E+01
N   -1.6313037252930045E+00    1.0279739632789761E+01    2.6036876301180549E+00
Ga   -1.4791631783167956E+00    8.4694522606428730E+00    3.3991176748926555E+00
N   -1.5145603352631505E+00    8.4820040629075297E+00    5.3227974461136922E+00
Ga   -1.5076239358095869E+00    1.0362914767458639E+01    5.8906291480626756E+00
N   -1.5267244312835488E+00    1.0344073831469414E+01    7.8749985977180694E+00
Ga   -1.5413323031171104E+00    8.4912446504322237E+00    8.5011866785249222E+00
N   -1.5422998452918315E+00    8.4923508565094661E+00    1.0490923614515511E+01
Ga   -1.5160070929737912E+00    1.0355055560661743E+01    1.1117032010468876E+01
N   -1.4988491948286859E+00    1.0364812099002393E+01    1.3113324859090593E+01
Ga   -1.5422301715380782E+00    8.4949174523228983E+00    1.3664233953164644E+01
N   -1.5151701157760500E+00    8.4784251194766771E+00    1.5627253369324359E+01
Ga   -1.6868287680555074E+00    1.0256455842746201E+01    1.6515167178331772E+01
N    6.6291062615131722E+00    2.0727620458607925E+00    2.6083749069400435E+00
Ga    6.5460195456282566E+00    1.4908220252097684E-01    3.0094213022723122E+00
N    6.4868226769836106E+00    1.3884788990694816E-01    5.1544668032352687E+00
Ga    6.4606214861393285E+00    1.9529086216472986E+00    5.9105737372671197E+00
N    6.4944961198332765E+00    1.9788827775590181E+00    7.8922058004350486E+00
Ga    6.5183267257469426E+00    1.2338986643643522E-01    8.4968331583930699E+00
N    6.5136007478753308E+00    1.2895125332425864E-01    1.0473880336178778E+01
Ga    6.5121614940184118E+00    1.9731443697257989E+00    1.1114916673605624E+01
N    6.5099248651859352E+00    1.9536495879693827E+00    1.3112911710098020E+01
Ga    6.5114688885996879E+00    1.3446830510221214E-01    1.3910803057613847E+01
N    6.5093165256299912E+00    1.3366816490390851E-01    1.6120255446051736E+01
Ga    6.5089875282059495E+00    2.1787328967139223E+00    1.6522038401716795E+01
Ga    8.1152696357270102E+00    2.9041614150688897E+00    1.2096814104431248E+00
N    4.8708011664378308E+00    4.7556679987765405E+00    2.5099645406814042E+00
Ga    4.9240007782386108E+00    2.8727579903513023E+00    3.1793919343379895E+00
N    4.9173873968423223E+00    2.9233329253116653E+00    5.2235418721211175E+00
Ga    4.9074697779054368E+00    4.7723432350030999E+00    5.8370571438542243E+00
N    4.9009255605657218E+00    4.7755389223569198E+00    7.8416245304580148E+00
Ga    4.9030560288854126E+00    2.9289842175127814E+00    8.5105467678705011E+00
N    4.9085123110141451E+00    2.9284246071014777E+00    1.0498876027165634E+01
Ga    4.8843565813339511E+00    4.7883409227205949E+00    1.1124351633398103E+01
N    4.8691266679948235E+00    4.7947069914266436E+00    1.3119410600659446E+01
Ga    4.9142018848013755E+00    2.9247998283234629E+00    1.3669246228982873E+01
N    4.8863768607304463E+00    2.9064540404472581E+00    1.5632392760984697E+01
Ga    5.0559947145403239E+00    4.6856659954671942E+00    1.6521952880779764E+01
N    6.5097421785821741E+00    3.8577279641633018E+00    1.7650579755080734E+01
N    3.2748500344272995E+00    7.5541693100128153E+00    2.6453571416842130E+00
N    3.2865020980479596E+00    5.6875057869094956E+00    5.1650947490065624E+00
Ga    3.2917047729771243E+00    7.5508900055084904E+00    5.8320506022206828E+00
N    3.2925732859477836E+00    7.5556457346263457E+00    7.8321697362207630E+00
Ga    3.3003632279989299E+00    5.7067071206507496E+00    8.4817156436041117E+00
N    3.2951499635871753E+00    5.7047289168984987E+00    1.0462831003324203E+01
Ga    3.2973102429510992E+00    7.5438189194428453E+00    1.1111686746816732E+01
N    3.2946634435242035E+00    7.5234687982696746E+00    1.3108901526167354E+01
Ga    3.2921251845823227E+00    5.7047494291674434E+00    1.3914547289580538E+01
N    3.2909955720609618E+00    5.7034155479934139E+00    1.6124024215251865E+01
Ga    3.2931570991445045E+00    7.7462952544757275E+00    1.6523370765425398E+01
Ga    4.7568910918388090E+00    1.0271469137284889E+01    5.2674431292178869E-01
N    1.6874901421149613E+00    1.0337823460980204E+01    2.5574951661596210E+00
Ga    1.7025561052889731E+00    8.5785076389642825E+00    3.2215863700467358E+00
N    1.6808054145671241E+00    8.4815986498555045E+00    5.2260665102429975E+00
Ga    1.6764100365688561E+00    1.0362120273795263E+01    5.8028173333186208E+00
N    1.6846381399455341E+00    1.0348732321059069E+01    7.8247029917716002E+00
Ga    1.7029779758566854E+00    8.5020268103358134E+00    8.4879017168867303E+00
N    1.6982943745624364E+00    8.4954209910596816E+00    1.0482230164158295E+01
Ga    1.6737215238983885E+00    1.0352276662619044E+01    1.1121667565471034E+01
N    1.6549646630186103E+00    1.0363246311582969E+01    1.3115854766162871E+01
Ga    1.7002052699217498E+00    8.4946988649299744E+00    1.3668013285197990E+01
N    1.6713453420496853E+00    8.4785155700031112E+00    1.5630388495534737E+01
Ga    1.8428692993292386E+00    1.0254325940281552E+01    1.6521658234473929E+01
N    3.2952158736862862E+00    9.4254313856115868E+00    1.7654190589889893E+01
N    9.5831908295927413E+00    2.0662788746808713E+00    2.6515384167184162E+00
Ga    9.6524129562269554E+00    1.6537206447620742E-01    3.1427179097006119E+00
N    9.7295037656641590E+00    1.5095746960013065E-01    5.1954827314596859E+00
Ga    9.7569223813482893E+00    1.9496599057346236E+00    5.9523973075738086E+00
N    9.7348128342074229E+00    1.9786259085289208E+00    7.9221552634473307E+00
Ga    9.7294070470556502E+00    1.0820469138385522E-01    8.4859943716629296E+00
N    9.7271472300406039E+00    1.1612118441280042E-01    1.0482427175503652E+01
Ga    9.7242227194375825E+00    1.9880100264632929E+00    1.1073605388294677E+01
N    9.7243067571332489E+00    1.9883477262912046E+00    1.3048701404383516E+01
Ga    9.7269899771278645E+00    1.1913265128724303E-01    1.3668361633264436E+01
N    9.7255304246353020E+00    1.5102575547347719E-01    1.5632468329488287E+01
Ga    9.7256963878627012E+00    1.9884610837080621E+00    1.5903251586247633E+01
N    8.1241815946954006E+00    4.6292312281828130E+00    2.5821683379444602E+00
Ga    8.1042256004634936E+00    2.9192352300229452E+00    3.6260203636553299E+00
N    8.1182299710493098E+00    2.9191070696034633E+00    5.4999821154442357E+00
Ga    8.1267206694772884E+00    4.8415672827899598E+00    5.8775433888187321E+00
N    8.1213194238816637E+00    4.7993464879376839E+00    7.8681234129456286E+00
Ga    8.1088171299699709E+00    2.9270326878105526E+00    8.4790392563855885E+00
N    8.1083884133179591E+00    2.9265678559041688E+00    1.0480653230898501E+01
Ga    8.1297760217662827E+00    4.7831440108713661E+00    1.1117834672655665E+01
N    8.1480720891986387E+00    4.7935295144007117E+00    1.3115330168174026E+01
Ga    8.1064120049673658E+00    2.9239797664226046E+00    1.3669182308091820E+01
N    8.1332491502044402E+00    2.9072533367049500E+00    1.5632893362333215E+01
Ga    7.9619422546725689E+00    4.6861566692962535E+00    1.6521886286979754E+01
N    6.4948542482945575E+00    7.5340796426418244E+00    2.5943844896313153E+00
Ga    6.5363214516303243E+00    5.7049831882115791E+00    3.1210070208861587E+00
N    6.5077489882316186E+00    5.6847728745418946E+00    5.1809024280298965E+00
Ga    6.4797175667831679E+00    7.5373684729564472E+00    5.8408019544690717E+00
N    6.5003611185148520E+00    7.5535149237206181E+00    7.8448918186690042E+00
Ga    6.5012717875223975E+00    5.7035329396058128E+00    8.4912483000968333E+00
N    6.5060361506459152E+00    5.6949163633431814E+00    1.0485013652589027E+01
Ga    6.5062646683087282E+00    7.5628866279984699E+00    1.1074698218421320E+01
N    6.5072028968794546E+00    7.5610622639078908E+00    1.3048729918146620E+01
Ga    6.5093126135713106E+00    5.6904982757175580E+00    1.3670393460710494E+01
N    6.5100922528240295E+00    5.7247074271495206E+00    1.5634955462295338E+01
Ga    6.5085144739916982E+00    7.5613399784982640E+00    1.5901833261941144E+01
N    4.9039466039314714E+00    1.0368927713062439E+01    2.5137800552463476E+00
Ga    4.9550761479904510E+00    8.4662002948893367E+00    3.1929585028242053E+00
N    4.8875409037590440E+00    8.4924823776713474E+00    5.2012285945781267E+00
Ga    4.9109317936238508E+00    1.0357920007561901E+01    5.7867086120010436E+00
N    4.9064923016732980E+00    1.0347486725275497E+01    7.8077217695942398E+00
Ga    4.8963833062077917E+00    8.4954371369251511E+00    8.4613430996646244E+00
N    4.8928917804042689E+00    8.4951770731329450E+00    1.0464424349384471E+01
Ga    4.9169320061403647E+00    1.0350558723920413E+01    1.1113188082181393E+01
N    4.9336918446186697E+00    1.0362846105722735E+01    1.3110056755874284E+01
Ga    4.8878413315573583E+00    8.4956581458408795E+00    1.3667896229527853E+01
N    4.9160383514759900E+00    8.4781295524568883E+00    1.5630325649991940E+01
Ga    4.7457864694234582E+00    1.0255835558975368E+01    1.6521532133168005E+01
O    5.6432877269044968E-01    4.0241713123355281E+00   -3.2765732629771321E-01
H    2.8965588666813318E+00    4.8520223037520029E+00    4.5628507600097612E-01
C    7.8476282051821178E-01    2.8441236013685969E+00   -1.1166835817408733E+00
H    1.4373610355114839E+00    2.1116826659173884E+00   -6.0819711591626335E-01
H   -1.6223493979934525E-01    2.3432660467375710E+00   -1.3874627302724338E+00
H    1.2830179810614706E+00    3.1649085858203461E+00   -2.0476540110032517E+00
Ga    3.2122710145871354E+00    5.6478221751156301E+00    3.1410208196145408E+00
O    3.6806647138197151E+00    5.4435384851500697E+00    4.9117836381862351E-01
H    1.4534176313130573E-02    7.5011198146525890E+00    1.7106716456788349E+00
C    4.8064539081270947E+00    4.7233968798958195E+00    1.0124584722508794E+00
H    5.6904158915833563E+00    5.2192024499468497E+00    5.8136021768209600E-01
H    3.2758194573369672E+00    7.5124065904210440E+00    1.6159881546103736E+00
H    4.7702720182508385E+00    3.6801760321474317E+00    6.5407903496212216E-01
     &END COORD
     &KIND C
       BASIS_SET DZVP-MOLOPT-SR-GTH-q4
       POTENTIAL GTH-PBE-q4
       &POTENTIAL
2 2
0.3384712400000000E+00 2 -0.8803673979999999E+01  0.1339210850000000E+01
2
0.3025757500000000E+00 1  0.9622486650000001E+01
0.2915069400000000E+00 0
       &END POTENTIAL
     &END KIND
     &KIND O
       BASIS_SET DZVP-MOLOPT-SR-GTH-q6
       POTENTIAL GTH-PBE-q6
       &POTENTIAL
2 4
0.2445543000000000E+00 2 -0.1666721480000000E+02  0.2487311320000000E+01
2
0.2209559200000000E+00 1  0.1833745811000000E+02
0.2113324700000000E+00 0
       &END POTENTIAL
     &END KIND
     &KIND H
       BASIS_SET DZVP-MOLOPT-SR-GTH-q1
       POTENTIAL GTH-PBE-q1
       &POTENTIAL
1
0.2000000000000000E+00 2 -0.4178900440000000E+01  0.7244633100000000E+00
0
       &END POTENTIAL
     &END KIND
     &KIND N
       BASIS_SET DZVP-MOLOPT-SR-GTH
       POTENTIAL GTH-PBE-q5
       &POTENTIAL
2 3
0.2837905100000000E+00 2 -0.1241522559000000E+02  0.1868095920000000E+01
2
0.2554050000000000E+00 1  0.1363026257000000E+02
0.2454945300000000E+00 0
       &END POTENTIAL
     &END KIND
     &KIND Ga
       BASIS_SET DZVP-MOLOPT-SR-GTH
       POTENTIAL GTH-PBE-q13
       &POTENTIAL
2 1 10
0.4900000000000000E+00 0
3
0.4167772300000000E+00 3  0.1047568975000000E+02 -0.4921768140000000E+01  0.8707055900000000E+00
0.7770178090000000E+01 -0.2248152160000000E+01
0.1784415450000000E+01
0.5696265200000000E+00 2  0.1777985340000000E+01  0.1958597600000000E+00
-0.2317443900000000E+00
0.2381265000000000E+00 1 -0.1624868022000000E+02
       &END POTENTIAL
     &END KIND
     &TOPOLOGY
       NUMBER_OF_ATOMS  212
       MULTIPLE_UNIT_CELL  1 1 1
     &END TOPOLOGY
     &COLVAR
       &DISTANCE
         ATOMS  127 211
       &END DISTANCE
       &PRINT
       &END PRINT
     &END COLVAR
   &END SUBSYS
 &END FORCE_EVAL
