 # Version information for this restart file 
 # current date 2019-07-21 20:51:29.117
 # current working dir /lustre04/scratch/rzk/rzk/GaN-carbene/443-adatoms-both-2x2/09-BondBreaking-CH/04-0401-H2C-to-NTop-OPT
 # Program compiled at                              Sun Apr  7 00:48:11 EDT 2019
 # Program compiled on                          beluga2.int.ets1.calculquebec.ca
 # Program compiled for                        Beluga-Linux-x86-64-intel-openmpi
 # Source code revision number                                         svn:18619
 &GLOBAL
   PRINT_LEVEL  MEDIUM
   PROJECT_NAME TEST
   RUN_TYPE  GEO_OPT
 &END GLOBAL
 &MOTION
   &GEO_OPT
     MAX_ITER  500
     STEP_START_VAL  3
   &END GEO_OPT
 &END MOTION
 &FORCE_EVAL
   METHOD  QS
   STRESS_TENSOR  ANALYTICAL
   &DFT
     BASIS_SET_FILE_NAME BASIS_MOLOPT
     POTENTIAL_FILE_NAME GTH_POTENTIALS
     UKS  T
     SURFACE_DIPOLE_CORRECTION  T
     SURF_DIP_DIR  Z
     &SCF
       MAX_SCF  80
       EPS_SCF     5.0000000000000004E-06
       &OT  T
         PRECONDITIONER  FULL_ALL
       &END OT
       &OUTER_SCF  T
         OPTIMIZER  NONE
         EPS_SCF     5.0000000000000004E-06
         MAX_SCF  4
       &END OUTER_SCF
       &PRINT
         &RESTART  OFF
           BACKUP_COPIES  1
           &EACH
             JUST_ENERGY  0
             QS_SCF  0
             MD  20
           &END EACH
         &END RESTART
       &END PRINT
     &END SCF
     &QS
       EPS_DEFAULT     1.0000000000000000E-14
       METHOD  GPW
     &END QS
     &MGRID
       NGRIDS  5
       CUTOFF     1.2000000000000000E+03
     &END MGRID
     &XC
       DENSITY_CUTOFF     1.0000000000000000E-10
       GRADIENT_CUTOFF     1.0000000000000000E-10
       TAU_CUTOFF     1.0000000000000000E-10
       &XC_FUNCTIONAL  NO_SHORTCUT
         &PBE  T
         &END PBE
       &END XC_FUNCTIONAL
       &VDW_POTENTIAL
         POTENTIAL_TYPE  PAIR_POTENTIAL
         &PAIR_POTENTIAL
           R_CUTOFF     1.0000000000000009E+01
           TYPE  DFTD3
           PARAMETER_FILE_NAME dftd3.dat
           REFERENCE_FUNCTIONAL PBE
           EPS_CN     9.9999999999999995E-07
           CALCULATE_C9_TERM  T
           REFERENCE_C9_TERM  T
           LONG_RANGE_CORRECTION  F
           VERBOSE_OUTPUT  F
         &END PAIR_POTENTIAL
       &END VDW_POTENTIAL
     &END XC
   &END DFT
   &SUBSYS
     &CELL
       A     1.2864472766435110E+01    0.0000000000000000E+00    0.0000000000000000E+00
       B    -6.4322363581020028E+00    1.1140960178524477E+01    0.0000000000000000E+00
       C     0.0000000000000000E+00    0.0000000000000000E+00    3.2000000000000000E+01
       MULTIPLE_UNIT_CELL  1 1 1
       &CELL_REF
         A     1.2982353780853531E+01    0.0000000000000000E+00    0.0000000000000000E+00
         B    -6.4911768904267628E+00    1.1243048175136114E+01    0.0000000000000000E+00
         C     0.0000000000000000E+00    0.0000000000000000E+00    3.2000000000000000E+01
         MULTIPLE_UNIT_CELL  1 1 1
       &END CELL_REF
     &END CELL
     &COORD
N    8.9571971936967268E-02    2.1324065804556915E+00    2.5649504591048338E+00
Ga    9.3318935339709266E-02    1.8814119373167337E-01    2.9990052755870895E+00
N    9.4536346658373918E-02    1.3299534134343918E-01    5.1057581831693311E+00
Ga    6.5226512563754155E-02    1.9586949208860793E+00    5.8635208393756191E+00
N    6.7091842547858840E-02    1.9703492259841284E+00    7.8599395852174450E+00
Ga    6.5140147830019549E-02    1.1748854588276778E-01    8.4862118117435656E+00
N    7.0122681573501863E-02    1.1967146681043596E-01    1.0465571473795999E+01
Ga    7.0703800662100941E-02    1.9598422852528183E+00    1.1116122739578453E+01
N    7.1799013701590003E-02    1.9416426824831350E+00    1.3111714445128356E+01
Ga    7.4228895047427468E-02    1.2267718118272425E-01    1.3914093825532209E+01
N    7.4462141385061992E-02    1.2297521972667200E-01    1.6117950698602577E+01
Ga    7.3568618936439165E-02    2.1695320421398994E+00    1.6530123849782104E+01
Ga    1.4428874699633984E-01    3.8546510721187150E+00    1.4306038736862816E+00
N   -1.3937561739385507E+00    4.7032765105943026E+00    2.5312754823293688E+00
Ga   -1.6106221793636426E+00    2.8676957266883241E+00    3.2889227514452299E+00
N   -1.5478279841323745E+00    2.9028263486776562E+00    5.2765159549770351E+00
Ga   -1.5689229622273480E+00    4.7705769650829533E+00    5.8526568314089245E+00
N   -1.5441624443156945E+00    4.7663897083523743E+00    7.8492301296670748E+00
Ga   -1.5320558429323827E+00    2.9113188896278954E+00    8.4891289625286586E+00
N   -1.5265356190569936E+00    2.9140800959466091E+00    1.0483649618668029E+01
Ga   -1.5525250272775344E+00    4.7737507445030429E+00    1.1115672912757223E+01
N   -1.5670004842599590E+00    4.7822490617837659E+00    1.3111590070573161E+01
Ga   -1.5243818642686757E+00    2.9132946782614728E+00    1.3665975602926695E+01
N   -1.5489731054564182E+00    2.8957857788195733E+00    1.5629184937250328E+01
Ga   -1.3765079530195861E+00    4.6718686191787153E+00    1.6529241911494768E+01
N    6.4956438499109953E-02    3.8393526836889849E+00    1.7671164199980169E+01
N   -3.1295532311442384E+00    7.6700023687462036E+00    2.5563027466082322E+00
Ga   -3.1161081515454048E+00    5.6519735016008452E+00    2.9030383333431877E+00
N   -3.1274122651162957E+00    5.7026976563437159E+00    5.0800101117078080E+00
Ga   -3.1467345756748069E+00    7.5141850756332165E+00    5.8509916237549700E+00
N   -3.1424040611236461E+00    7.5405776660042685E+00    7.8436310227376627E+00
Ga   -3.1461721392378976E+00    5.6899123420134474E+00    8.4810307550504458E+00
N   -3.1440027069675685E+00    5.6916978617381959E+00    1.0459815558448270E+01
Ga   -3.1450970187506919E+00    7.5289084864364346E+00    1.1114623391268726E+01
N   -3.1437594786526777E+00    7.5126235662281227E+00    1.3110982622228159E+01
Ga   -3.1437257447291636E+00    5.6920063269199641E+00    1.3914956657415404E+01
N   -3.1437847079030212E+00    5.6923323274229372E+00    1.6115584654439072E+01
Ga   -3.1437162226404962E+00    7.7327031190102051E+00    1.6529737016787042E+01
Ga   -3.1608259342656408E+00    9.4351375922146747E+00    1.5785229506352798E+00
N   -4.6389635557410767E+00    1.0279288422816109E+01    2.6019083400860734E+00
Ga   -4.8662429093951260E+00    8.4072572056469141E+00    3.3251272424212637E+00
N   -4.7524786063859219E+00    8.4733095066583086E+00    5.2868638747642853E+00
Ga   -4.7719460534745961E+00    1.0343157498211825E+01    5.8616441977456644E+00
N   -4.7592209867937312E+00    1.0336560969769621E+01    7.8543303833760865E+00
Ga   -4.7520225577389743E+00    8.4754776334677011E+00    8.4734850933979704E+00
N   -4.7423256095887174E+00    8.4802872466714145E+00    1.0472931704905450E+01
Ga   -4.7694027017502822E+00    1.0339656995862265E+01    1.1115587410692880E+01
N   -4.7839411336822568E+00    1.0351103765050786E+01    1.3111450434565350E+01
Ga   -4.7403582350466680E+00    8.4836306924194265E+00    1.3667180019522373E+01
N   -4.7681227797351609E+00    8.4718158338007701E+00    1.5630190986354878E+01
Ga   -4.5861609929784928E+00    1.0240491815627379E+01    1.6530479837906409E+01
N   -3.1443641764223194E+00    9.3975499220836944E+00    1.7671263746197592E+01
N    3.3124792495356314E+00    2.0077528460481444E+00    2.7355825852710982E+00
Ga    3.3035021508029576E+00    2.5815406339637559E-01    3.3517433181637579E+00
N    3.2899240243375072E+00    1.1434138147020827E-01    5.3126848842586849E+00
Ga    3.3081295582836443E+00    1.9892991393348070E+00    5.9064466139143281E+00
N    3.2959872980398890E+00    1.9780416750302217E+00    7.8921148044613787E+00
Ga    3.2867141633555987E+00    1.1316502736240894E-01    8.4956987436807605E+00
N    3.2883315856420725E+00    1.0969948144259935E-01    1.0489150863197795E+01
Ga    3.2894324497547269E+00    1.9790305209281100E+00    1.1082512394349031E+01
N    3.2885575793831823E+00    1.9785169053396860E+00    1.3056666908263219E+01
Ga    3.2889306455828340E+00    1.0546759662841945E-01    1.3667099903284713E+01
N    3.2884969318471402E+00    1.3893159521079193E-01    1.5628309640501891E+01
Ga    3.2888754795848567E+00    1.9789484361344454E+00    1.5898623377464435E+01
N    1.5598149056281980E+00    4.7088401482297808E+00    2.6682410357573683E+00
Ga    1.7657548391112650E+00    2.8680981010088682E+00    3.3651374054842971E+00
N    1.6798646101027184E+00    2.9023714615488569E+00    5.3372351020865523E+00
Ga    1.6918709451096192E+00    4.7674331877492344E+00    5.8901374098216301E+00
N    1.6835100090766424E+00    4.7686580177717355E+00    7.8743054971343582E+00
Ga    1.6738434906035120E+00    2.9069442453934453E+00    8.4907843030259116E+00
N    1.6713378675678912E+00    2.9112363006982727E+00    1.0486480919184087E+01
Ga    1.6964184324908207E+00    4.7748576804971234E+00    1.1112703895243378E+01
N    1.7122245954390130E+00    4.7831533332097012E+00    1.3109283139128889E+01
Ga    1.6667470764019423E+00    2.9153645841771358E+00    1.3667138888423933E+01
N    1.6953701193227979E+00    2.8985750688183018E+00    1.5628276292543147E+01
Ga    1.5159062896567752E+00    4.6672336238956866E+00    1.6530744638747493E+01
N    8.0587607198549099E-02    7.5416037273961267E+00    2.7078090856529791E+00
Ga    6.3635802654028337E-02    5.7015994436576829E+00    3.3949549656517140E+00
N    6.5701155099639752E-02    5.7112684931717599E+00    5.3290901822487262E+00
Ga    1.0045660560448723E-01    7.5618568476128196E+00    5.9256436426995895E+00
N    7.6625737356770224E-02    7.5546540083158602E+00    7.8958599705721699E+00
Ga    6.7649531252497203E-02    5.6845868276014846E+00    8.4878551675613672E+00
N    7.0253241566781435E-02    5.6820722679003799E+00    1.0481715982534729E+01
Ga    7.3862150722044717E-02    7.5487974859101268E+00    1.1075140655835309E+01
N    7.3271315649250726E-02    7.5491530743358775E+00    1.3049037163560964E+01
Ga    7.3050956446288076E-02    5.6784087097406992E+00    1.3667057994953161E+01
N    7.5756486195340783E-02    5.7096489563221118E+00    1.5630010395901250E+01
Ga    6.9105961119384579E-02    7.5472434714530854E+00    1.5908206604634401E+01
N   -1.6444488368500798E+00    1.0269145993894297E+01    2.5790313706603287E+00
Ga   -1.4909482236785050E+00    8.4637380631596457E+00    3.3763078122725294E+00
N   -1.5223742361722408E+00    8.4711094105583857E+00    5.3028247779023339E+00
Ga   -1.5141263758553070E+00    1.0350709447742284E+01    5.8813154641181615E+00
N   -1.5323422857783708E+00    1.0332778650344723E+01    7.8672136485728661E+00
Ga   -1.5448307858679649E+00    8.4784279023434586E+00    8.4920925222425243E+00
N   -1.5457286631675620E+00    8.4803846439366257E+00    1.0483848804968277E+01
Ga   -1.5173125250601724E+00    1.0341820663689825E+01    1.1115609817359122E+01
N   -1.5026971285473052E+00    1.0351610800375012E+01    1.3111158809879033E+01
Ga   -1.5471138669586517E+00    8.4841153476697748E+00    1.3667097263133803E+01
N   -1.5192178843450534E+00    8.4716626500579633E+00    1.5630219076234894E+01
Ga   -1.7017849237274922E+00    1.0240158922942554E+01    1.6530739801023572E+01
N    6.5800551259512545E+00    2.0549225845077794E+00    2.5623485044898233E+00
Ga    6.5316753955706082E+00    1.4986653993672688E-01    2.9706158868586159E+00
N    6.4774265997687062E+00    1.1940382672255213E-01    5.1424536769103613E+00
Ga    6.4925458652326373E+00    1.9462990508804270E+00    5.8603066135067481E+00
N    6.5023819021229983E+00    1.9722713129043830E+00    7.8574083364342391E+00
Ga    6.5111713537566818E+00    1.1944610804473021E-01    8.4815145842800757E+00
N    6.5069061512611617E+00    1.2078873457171814E-01    1.0461889985039344E+01
Ga    6.5082703253338883E+00    1.9602034453982651E+00    1.1114017087302891E+01
N    6.5059757837059244E+00    1.9412213600836263E+00    1.3110069998917753E+01
Ga    6.5034568067244809E+00    1.2278124948584662E-01    1.3914457057199431E+01
N    6.5024939599647826E+00    1.2311986474007518E-01    1.6118255619816622E+01
Ga    6.5034281751840481E+00    2.1701886364996916E+00    1.6530229703497053E+01
Ga    7.8154142854079511E+00    3.0583074448589982E+00    8.7341798845173135E-01
N    4.8767219522525362E+00    4.7566300245175990E+00    2.5968660821241976E+00
Ga    4.9303950107887289E+00    2.8643467236635853E+00    3.2335228994963456E+00
N    4.9123203435929410E+00    2.9098540073099040E+00    5.2386517658813165E+00
Ga    4.8897011766755156E+00    4.7705442350965752E+00    5.8445515054486012E+00
N    4.8918945801354674E+00    4.7648430021503172E+00    7.8423198502437748E+00
Ga    4.9079927222623008E+00    2.9133541152514981E+00    8.4945054956662585E+00
N    4.9074558718461931E+00    2.9126839959127793E+00    1.0487595284143941E+01
Ga    4.8834311640129320E+00    4.7762785954242855E+00    1.1111569947968452E+01
N    4.8658203554875374E+00    4.7834595450368447E+00    1.3108403979356025E+01
Ga    4.9109582249204902E+00    2.9152916808666656E+00    1.3665936846933677E+01
N    4.8819525171541525E+00    2.8988118156975302E+00    1.5627270326692608E+01
Ga    5.0614839032119425E+00    4.6671671011978448E+00    1.6530635071377496E+01
N    6.5122212006190168E+00    3.8398569118293584E+00    1.7671270500046628E+01
N    3.2638816379486517E+00    7.5648756456868202E+00    2.6271211553593949E+00
N    3.2723584971838031E+00    5.6904204934715539E+00    5.1794720724819845E+00
Ga    3.2909589279118761E+00    7.5498558768087545E+00    5.8258259653970805E+00
N    3.2892513442367184E+00    7.5482687068084484E+00    7.8302997647540611E+00
Ga    3.2929640674149518E+00    5.6990809814843635E+00    8.4791520594886745E+00
N    3.2897310374029196E+00    5.6951419291547669E+00    1.0460111357219921E+01
Ga    3.2899360349836222E+00    7.5319375897085665E+00    1.1113881416603114E+01
N    3.2889227785259365E+00    7.5128983771666853E+00    1.3112578360547078E+01
Ga    3.2891047633775532E+00    5.6897250089541895E+00    1.3913768304696571E+01
N    3.2887189775245744E+00    5.6897236267494975E+00    1.6117928536094112E+01
Ga    3.2887259221164955E+00    7.7206972391030870E+00    1.6512307035618157E+01
Ga    4.1562606932854527E+00    1.0854192013717835E+01    6.6114120575072388E-01
N    1.7046610789780072E+00    1.0346178829885840E+01    2.5600734294158922E+00
Ga    1.6918992071931986E+00    8.5790176598841370E+00    3.2102199096999997E+00
N    1.6755958531449577E+00    8.4696078880389312E+00    5.2130274563922603E+00
Ga    1.6544675162909142E+00    1.0340497564921433E+01    5.8141774956166197E+00
N    1.6729791829479475E+00    1.0332928511248888E+01    7.8289731066895429E+00
Ga    1.6952666528437208E+00    8.4873684854093856E+00    8.4828025435560193E+00
N    1.6918509767452785E+00    8.4829979933426802E+00    1.0478996606086477E+01
Ga    1.6669910090703641E+00    1.0343050791460861E+01    1.1112779417390321E+01
N    1.6495443252963788E+00    1.0351988848617889E+01    1.3111977383574501E+01
Ga    1.6919856390190577E+00    8.4839981370015796E+00    1.3665035304866940E+01
N    1.6628353291024918E+00    8.4675181841919223E+00    1.5632881767071515E+01
Ga    1.8289248458194229E+00    1.0248937959915491E+01    1.6512580721818704E+01
N    3.2887575334451413E+00    9.4061496209761124E+00    1.7627103847529106E+01
N    9.6745497258545150E+00    1.9914285869578299E+00    2.6561336015598203E+00
Ga    9.6466102871334947E+00    1.5529920102983741E-01    3.2751230273029406E+00
N    9.7190795226491087E+00    1.2739024184864267E-01    5.2686858862827464E+00
Ga    9.7266081267135149E+00    1.9663330887194586E+00    5.9133468702081693E+00
N    9.7195036979771050E+00    1.9770724688549866E+00    7.8934432916751067E+00
Ga    9.7204821299447346E+00    1.0609441955155943E-01    8.4678684193254679E+00
N    9.7203206600535150E+00    1.0847593972117150E-01    1.0471809134814519E+01
Ga    9.7192346411636450E+00    1.9776151830018560E+00    1.1069445042801460E+01
N    9.7207224947646189E+00    1.9771176153006749E+00    1.3045773053257232E+01
Ga    9.7207393560423760E+00    1.0864872747602265E-01    1.3664622241760336E+01
N    9.7209142507618331E+00    1.4239971243818189E-01    1.5632765111906812E+01
Ga    9.7208543999956607E+00    1.9830310827680877E+00    1.5907848439820343E+01
N    8.1119319194182555E+00    4.6707084837823922E+00    2.5475764230098994E+00
Ga    8.1464293356713551E+00    2.8900264596950511E+00    3.4144947892262296E+00
N    8.1109210894808861E+00    2.9075230418338855E+00    5.3486864714881657E+00
Ga    8.1332482300298921E+00    4.7980789110434099E+00    5.8243938628912293E+00
N    8.1217152443373148E+00    4.7740850203888261E+00    7.8315365239734751E+00
Ga    8.1040867809485579E+00    2.9180478456780170E+00    8.4737106531049537E+00
N    8.1028758183796405E+00    2.9148990098292171E+00    1.0473262256195341E+01
Ga    8.1276058969838267E+00    4.7732838406423470E+00    1.1111819811953350E+01
N    8.1442326227749398E+00    4.7823540954023818E+00    1.3109145878540939E+01
Ga    8.1014217219775162E+00    2.9136556909817317E+00    1.3665584672030764E+01
N    8.1262832740313371E+00    2.8959984228034852E+00    1.5628891556575393E+01
Ga    7.9535713879021239E+00    4.6720164502684156E+00    1.6529387969870303E+01
N    6.4862512158877479E+00    7.5228736807576055E+00    2.6679991259938243E+00
Ga    6.5466905047550084E+00    5.6900163247988189E+00    3.2027951722900982E+00
N    6.5013898908115486E+00    5.6787442176228655E+00    5.2156537729107333E+00
Ga    6.4745038888254509E+00    7.5363797186840360E+00    5.8473511602933534E+00
N    6.4980613590213183E+00    7.5480401461802833E+00    7.8483801145562442E+00
Ga    6.5074354393012008E+00    5.6859282900022707E+00    8.4684765480647606E+00
N    6.5066293294918669E+00    5.6818799831512976E+00    1.0469365472701659E+01
Ga    6.5042175195462590E+00    7.5476871603710043E+00    1.1070336418791257E+01
N    6.5042677459369402E+00    7.5491107114709743E+00    1.3046012805467587E+01
Ga    6.5047836554359915E+00    5.6786999839036714E+00    1.3666531718216184E+01
N    6.5015683686727170E+00    5.7099580348101302E+00    1.5629548450744318E+01
Ga    6.5083584534225354E+00    7.5472775901378810E+00    1.5909050301669369E+01
N    4.8679099250128770E+00    1.0386225917761903E+01    2.5305678764722965E+00
Ga    4.9377460426240392E+00    8.5047089056365337E+00    3.1552497627133209E+00
N    4.8864489968922067E+00    8.4892131757123952E+00    5.1918380830777071E+00
Ga    4.9162092554573364E+00    1.0342731311548427E+01    5.8062222251581934E+00
N    4.9049639645016381E+00    1.0336020790889949E+01    7.8212135971383558E+00
Ga    4.8905998594621787E+00    8.4842243604993648E+00    8.4699138558455456E+00
N    4.8865658039813678E+00    8.4829348197825780E+00    1.0471538232048731E+01
Ga    4.9089531434697005E+00    1.0341674448754588E+01    1.1112855541567599E+01
N    4.9276939741684327E+00    1.0351936219888000E+01    1.3112396317314046E+01
Ga    4.8858696220427067E+00    8.4837724716661960E+00    1.3664807230662984E+01
N    4.9147983221308476E+00    8.4674788491051203E+00    1.5632728199977954E+01
Ga    4.7482150634687930E+00    1.0248838136161227E+01    1.6512478082430558E+01
O    6.3244710906400003E-01    4.1768436098757116E+00   -3.0049284976398988E-01
H    3.1070357519444909E+00    4.9963397433381100E+00    3.5411688789940599E-01
C    9.1011350091054244E-01    3.0777107175303327E+00   -1.1754559863264145E+00
H    1.5187205828130856E+00    2.2951160232334646E+00   -6.9215936206369544E-01
H   -1.3824546234577281E-02    2.6166688280846730E+00   -1.5592384518915909E+00
H    1.4790547332721975E+00    3.4743210675323493E+00   -2.0304336761309889E+00
Ga    3.2069424372563478E+00    5.6585993988239389E+00    3.1513038890551739E+00
O    3.9105611939792699E+00    5.5268050134040223E+00    4.9736603972549376E-01
H    1.8397906934268422E-02    7.4991372818398236E+00    1.6828920599263146E+00
C    4.9362710177176474E+00    4.7351939788465316E+00    1.1153163570439595E+00
H    5.8949465801520224E+00    5.1518584810565304E+00    7.7292780154738383E-01
H    3.2828892263361245E+00    7.5362181363248073E+00    1.5958888426665840E+00
H    4.8447575068000956E+00    3.6947067229152655E+00    7.5439222185699983E-01
     &END COORD
     &KIND C
       BASIS_SET DZVP-MOLOPT-SR-GTH-q4
       POTENTIAL GTH-PBE-q4
       &POTENTIAL
2 2
0.3384712400000000E+00 2 -0.8803673979999999E+01  0.1339210850000000E+01
2
0.3025757500000000E+00 1  0.9622486650000001E+01
0.2915069400000000E+00 0
       &END POTENTIAL
     &END KIND
     &KIND O
       BASIS_SET DZVP-MOLOPT-SR-GTH-q6
       POTENTIAL GTH-PBE-q6
       &POTENTIAL
2 4
0.2445543000000000E+00 2 -0.1666721480000000E+02  0.2487311320000000E+01
2
0.2209559200000000E+00 1  0.1833745811000000E+02
0.2113324700000000E+00 0
       &END POTENTIAL
     &END KIND
     &KIND H
       BASIS_SET DZVP-MOLOPT-SR-GTH-q1
       POTENTIAL GTH-PBE-q1
       &POTENTIAL
1
0.2000000000000000E+00 2 -0.4178900440000000E+01  0.7244633100000000E+00
0
       &END POTENTIAL
     &END KIND
     &KIND N
       BASIS_SET DZVP-MOLOPT-SR-GTH
       POTENTIAL GTH-PBE-q5
       &POTENTIAL
2 3
0.2837905100000000E+00 2 -0.1241522559000000E+02  0.1868095920000000E+01
2
0.2554050000000000E+00 1  0.1363026257000000E+02
0.2454945300000000E+00 0
       &END POTENTIAL
     &END KIND
     &KIND Ga
       BASIS_SET DZVP-MOLOPT-SR-GTH
       POTENTIAL GTH-PBE-q13
       &POTENTIAL
2 1 10
0.4900000000000000E+00 0
3
0.4167772300000000E+00 3  0.1047568975000000E+02 -0.4921768140000000E+01  0.8707055900000000E+00
0.7770178090000000E+01 -0.2248152160000000E+01
0.1784415450000000E+01
0.5696265200000000E+00 2  0.1777985340000000E+01  0.1958597600000000E+00
-0.2317443900000000E+00
0.2381265000000000E+00 1 -0.1624868022000000E+02
       &END POTENTIAL
     &END KIND
     &TOPOLOGY
       NUMBER_OF_ATOMS  212
       MULTIPLE_UNIT_CELL  1 1 1
     &END TOPOLOGY
     &COLVAR
       &DISTANCE
         ATOMS  127 211
       &END DISTANCE
       &PRINT
       &END PRINT
     &END COLVAR
   &END SUBSYS
 &END FORCE_EVAL
