 # Version information for this restart file 
 # current date 2019-07-22 02:42:38.246
 # current working dir /lustre04/scratch/rzk/rzk/GaN-carbene/443-adatoms-both-2x2/09-BondBreaking-CH/04-0401-H2C-to-NTop-OPT
 # Program compiled at                              Sun Apr  7 00:48:11 EDT 2019
 # Program compiled on                          beluga2.int.ets1.calculquebec.ca
 # Program compiled for                        Beluga-Linux-x86-64-intel-openmpi
 # Source code revision number                                         svn:18619
 &GLOBAL
   PRINT_LEVEL  MEDIUM
   PROJECT_NAME TEST
   RUN_TYPE  GEO_OPT
 &END GLOBAL
 &MOTION
   &GEO_OPT
     MAX_ITER  500
     STEP_START_VAL  91
   &END GEO_OPT
 &END MOTION
 &FORCE_EVAL
   METHOD  QS
   STRESS_TENSOR  ANALYTICAL
   &DFT
     BASIS_SET_FILE_NAME BASIS_MOLOPT
     POTENTIAL_FILE_NAME GTH_POTENTIALS
     UKS  T
     SURFACE_DIPOLE_CORRECTION  T
     SURF_DIP_DIR  Z
     &SCF
       MAX_SCF  80
       EPS_SCF     5.0000000000000004E-06
       &OT  T
         PRECONDITIONER  FULL_ALL
       &END OT
       &OUTER_SCF  T
         OPTIMIZER  NONE
         EPS_SCF     5.0000000000000004E-06
         MAX_SCF  4
       &END OUTER_SCF
       &PRINT
         &RESTART  OFF
           BACKUP_COPIES  1
           &EACH
             JUST_ENERGY  0
             QS_SCF  0
             MD  20
           &END EACH
         &END RESTART
       &END PRINT
     &END SCF
     &QS
       EPS_DEFAULT     1.0000000000000000E-14
       METHOD  GPW
     &END QS
     &MGRID
       NGRIDS  5
       CUTOFF     1.2000000000000000E+03
     &END MGRID
     &XC
       DENSITY_CUTOFF     1.0000000000000000E-10
       GRADIENT_CUTOFF     1.0000000000000000E-10
       TAU_CUTOFF     1.0000000000000000E-10
       &XC_FUNCTIONAL  NO_SHORTCUT
         &PBE  T
         &END PBE
       &END XC_FUNCTIONAL
       &VDW_POTENTIAL
         POTENTIAL_TYPE  PAIR_POTENTIAL
         &PAIR_POTENTIAL
           R_CUTOFF     1.0000000000000009E+01
           TYPE  DFTD3
           PARAMETER_FILE_NAME dftd3.dat
           REFERENCE_FUNCTIONAL PBE
           EPS_CN     9.9999999999999995E-07
           CALCULATE_C9_TERM  T
           REFERENCE_C9_TERM  T
           LONG_RANGE_CORRECTION  F
           VERBOSE_OUTPUT  F
         &END PAIR_POTENTIAL
       &END VDW_POTENTIAL
     &END XC
   &END DFT
   &SUBSYS
     &CELL
       A     1.2864472766435110E+01    0.0000000000000000E+00    0.0000000000000000E+00
       B    -6.4322363581020028E+00    1.1140960178524477E+01    0.0000000000000000E+00
       C     0.0000000000000000E+00    0.0000000000000000E+00    3.2000000000000000E+01
       MULTIPLE_UNIT_CELL  1 1 1
       &CELL_REF
         A     1.2982353780853531E+01    0.0000000000000000E+00    0.0000000000000000E+00
         B    -6.4911768904267628E+00    1.1243048175136114E+01    0.0000000000000000E+00
         C     0.0000000000000000E+00    0.0000000000000000E+00    3.2000000000000000E+01
         MULTIPLE_UNIT_CELL  1 1 1
       &END CELL_REF
     &END CELL
     &COORD
N    7.1803128817242892E-02    2.1308389122164035E+00    2.6011496973879806E+00
Ga    1.2256134432759448E-01    2.0040526911995429E-01    3.0281554753369084E+00
N    1.0645611728495878E-01    1.4543787564120175E-01    5.1090105142005875E+00
Ga    8.3355795835064722E-02    1.9770274374294450E+00    5.8533394545468669E+00
N    8.1835455296436224E-02    1.9869444502763070E+00    7.8525002558969348E+00
Ga    7.7369364035240168E-02    1.3350491307510967E-01    8.4776625610865146E+00
N    8.2489782518396101E-02    1.3595826423331231E-01    1.0459857859245730E+01
Ga    8.7049091359647709E-02    1.9730563442453797E+00    1.1120036530478393E+01
N    8.5940129480840247E-02    1.9557738231751298E+00    1.3115640299412965E+01
Ga    8.6149721071007851E-02    1.3637610362094840E-01    1.3915290541937408E+01
N    8.5592908273713811E-02    1.3909123003579615E-01    1.6121201568757762E+01
Ga    8.5177509941319965E-02    2.1842108255071913E+00    1.6531726899899748E+01
Ga    1.2400739761788412E-01    3.8213189358195030E+00    1.4408043092904463E+00
N   -1.3863422051012770E+00    4.7150083592341741E+00    2.5531637568991936E+00
Ga   -1.6264130783768436E+00    2.8853829121437067E+00    3.3017361187228960E+00
N   -1.5448186744933230E+00    2.9158046917025890E+00    5.2826233281369781E+00
Ga   -1.5558524966477296E+00    4.7833001759492983E+00    5.8733306084759933E+00
N   -1.5325298825940332E+00    4.7804206554520992E+00    7.8654741912107431E+00
Ga   -1.5096139992547160E+00    2.9247102236834399E+00    8.5073628046829111E+00
N   -1.5101418711690340E+00    2.9300397457318597E+00    1.0496509663164877E+01
Ga   -1.5372707599168973E+00    4.7890536489568145E+00    1.1129047426672070E+01
N   -1.5543720483270664E+00    4.7977589276403867E+00    1.3122005588359977E+01
Ga   -1.5113377782616400E+00    2.9268581633668402E+00    1.3671241733183658E+01
N   -1.5379382609402621E+00    2.9115012932801387E+00    1.5634314828917356E+01
Ga   -1.3656875384459395E+00    4.6888519518236871E+00    1.6530295005890217E+01
N    8.3960793667755537E-02    3.8601505146774935E+00    1.7665327857434111E+01
N   -3.1134554869555617E+00    7.6806376837549584E+00    2.5937708854477957E+00
Ga   -3.0962972192545410E+00    5.6627572066052867E+00    2.9483514799503703E+00
N   -3.1192378684511364E+00    5.7136924082013554E+00    5.1070926366971321E+00
Ga   -3.1335771480181793E+00    7.5347341368034177E+00    5.8652310084359200E+00
N   -3.1290746864700871E+00    7.5572366337295733E+00    7.8560968783426697E+00
Ga   -3.1283760502820543E+00    5.7127261261361149E+00    8.5086114097849830E+00
N   -3.1289158913777930E+00    5.7094551860919864E+00    1.0479916948246874E+01
Ga   -3.1350177594880941E+00    7.5497044945102099E+00    1.1122263116639644E+01
N   -3.1323524989647487E+00    7.5291876215874414E+00    1.3116829484373735E+01
Ga   -3.1319383467959714E+00    5.7088088671681465E+00    1.3918363911104347E+01
N   -3.1310309797497724E+00    5.7101239478192154E+00    1.6121410556908348E+01
Ga   -3.1310822413716446E+00    7.7548718310365015E+00    1.6532084048152743E+01
Ga   -3.1425714631966541E+00    9.4453599448124237E+00    1.6176203792626660E+00
N   -4.6229289035069332E+00    1.0291976255760883E+01    2.6191041885332025E+00
Ga   -4.8655085407765659E+00    8.4050522740141957E+00    3.3288345664376249E+00
N   -4.7421465682124868E+00    8.4848589923332458E+00    5.2907080745917536E+00
Ga   -4.7556554289598916E+00    1.0357980397171618E+01    5.8592789099554565E+00
N   -4.7460430829010134E+00    1.0352890913658069E+01    7.8520682719874229E+00
Ga   -4.7427657762608009E+00    8.4924804586067868E+00    8.4724249541530590E+00
N   -4.7320423518000245E+00    8.4965062162149358E+00    1.0472692611521593E+01
Ga   -4.7569075222483566E+00    1.0356405627585028E+01    1.1112493524632843E+01
N   -4.7713938862554084E+00    1.0367119438490523E+01    1.3110935983246589E+01
Ga   -4.7287455494776127E+00    8.5001095070819446E+00    1.3671931759061756E+01
N   -4.7548994849682087E+00    8.4834463782033875E+00    1.5634348858270737E+01
Ga   -4.5813919227341469E+00    1.0259466102680982E+01    1.6531683106693205E+01
N   -3.1314301941049494E+00    9.4304028547128240E+00    1.7666282960886811E+01
N    3.3205896505143802E+00    2.0165749418302075E+00    2.6653031175943598E+00
Ga    3.3269942258623479E+00    2.8205178995193275E-01    3.3604181437206657E+00
N    3.3075438689498782E+00    1.3933445776342968E-01    5.3188476639621864E+00
Ga    3.3265236822568531E+00    2.0143153201637425E+00    5.9026566692660039E+00
N    3.3097404252691893E+00    1.9979223990347004E+00    7.8932955431638350E+00
Ga    3.2985613092336066E+00    1.3243599876181905E-01    8.4939326921888512E+00
N    3.3002793218934299E+00    1.2703714350972031E-01    1.0488318889052831E+01
Ga    3.2993729998121788E+00    1.9942744226339102E+00    1.1085987594965678E+01
N    3.3008257259961935E+00    1.9940317580039062E+00    1.3057207042938051E+01
Ga    3.2999903945033897E+00    1.2260916205722912E-01    1.3671436235710370E+01
N    3.3005499214326668E+00    1.5588269321485629E-01    1.5635162687318024E+01
Ga    3.3013661885744909E+00    1.9940572682899549E+00    1.5910064047117748E+01
N    1.5604209642782296E+00    4.7057474442233040E+00    2.6343413637917537E+00
Ga    1.7815638700757626E+00    2.8763694741549690E+00    3.3514821587882180E+00
N    1.6993954140399961E+00    2.9198648834514271E+00    5.3256134272668518E+00
Ga    1.7094929905183536E+00    4.7790502707794911E+00    5.8954515681662976E+00
N    1.6980444209606100E+00    4.7834422602220599E+00    7.8765894796747640E+00
Ga    1.6874394381171205E+00    2.9201285093694196E+00    8.4894310926541063E+00
N    1.6834644945050461E+00    2.9261930293674232E+00    1.0485636766394103E+01
Ga    1.7112565352934113E+00    4.7878978825770213E+00    1.1116299424413176E+01
N    1.7262440631336209E+00    4.7976423759383646E+00    1.3113958548748654E+01
Ga    1.6810402623407994E+00    2.9292396226892863E+00    1.3672478684265050E+01
N    1.7083548937494675E+00    2.9130115922660873E+00    1.5635002647413069E+01
Ga    1.5354392663716316E+00    4.6885975159007698E+00    1.6532143251412325E+01
N    9.5093875843280454E-02    7.5486412287492719E+00    2.7368761185905828E+00
Ga    8.3425095260715135E-02    5.7037176747524096E+00    3.4038526635588520E+00
N    8.0041912908774326E-02    5.7211565012363614E+00    5.3394102473830145E+00
Ga    1.1667854588332617E-01    7.5749223404381212E+00    5.9458575698116745E+00
N    9.1212412538172555E-02    7.5695632453465782E+00    7.9126942134552705E+00
Ga    8.3973812982230542E-02    5.6989300404277552E+00    8.5023717864653765E+00
N    8.4339593603765625E-02    5.6972193350887936E+00    1.0492924945577025E+01
Ga    8.8125474418343869E-02    7.5661955534752945E+00    1.1082629710875349E+01
N    8.6746114331028204E-02    7.5654598914901410E+00    1.3054729146584346E+01
Ga    8.6979109052110412E-02    5.6945023833650978E+00    1.3672548468951540E+01
N    8.6423825935134493E-02    5.7269635658458711E+00    1.5636312598203205E+01
Ga    8.5544122267105061E-02    7.5648499770799527E+00    1.5912001828328087E+01
N   -1.6246631429862215E+00    1.0284527878599661E+01    2.6087549616260488E+00
Ga   -1.4721636003285148E+00    8.4749745349254901E+00    3.4057801154260536E+00
N   -1.5050946215188430E+00    8.4871332882202051E+00    5.3277604488660186E+00
Ga   -1.5008766552193087E+00    1.0368214946005885E+01    5.8943503064669720E+00
N   -1.5181626408737694E+00    1.0349360035520011E+01    7.8779375201672828E+00
Ga   -1.5325173146995485E+00    8.4965900947597301E+00    8.5043942076905985E+00
N   -1.5336779273602523E+00    8.4974207570952860E+00    1.0493717728552529E+01
Ga   -1.5077380949419201E+00    1.0359406884167305E+01    1.1121782925869793E+01
N   -1.4912391637150308E+00    1.0368360477762300E+01    1.3117368604206966E+01
Ga   -1.5344915182763779E+00    8.4994127212905379E+00    1.3672103114417444E+01
N   -1.5073070793097962E+00    8.4827197221019990E+00    1.5634797221392745E+01
Ga   -1.6814108098507539E+00    1.0259097885322365E+01    1.6531009848477257E+01
N    6.6408342757591763E+00    2.0758856060443329E+00    2.6098580518425352E+00
Ga    6.5554710738011845E+00    1.5159832830208872E-01    3.0150844248265485E+00
N    6.4946569275295554E+00    1.4410121663605821E-01    5.1603546605668607E+00
Ga    6.4681243409930005E+00    1.9584430442095153E+00    5.9158316493122021E+00
N    6.5027360015141911E+00    1.9836989341977700E+00    7.8962022381033243E+00
Ga    6.5257768096829896E+00    1.2794859383260904E-01    8.5004279110792282E+00
N    6.5214966568409896E+00    1.3360849068464506E-01    1.0476369669238265E+01
Ga    6.5197390421893493E+00    1.9774284931482051E+00    1.1117950978713491E+01
N    6.5181311566716236E+00    1.9573153011638771E+00    1.3115004663463282E+01
Ga    6.5173661744397746E+00    1.3812994645271851E-01    1.3916811936458744E+01
N    6.5173054618642876E+00    1.3933081287698851E-01    1.6121711995442606E+01
Ga    6.5175256601690270E+00    2.1838134656729564E+00    1.6531014649351462E+01
Ga    8.1390501037899465E+00    2.8977338397268544E+00    1.2297285840262395E+00
N    4.8930247344506208E+00    4.7639030322229443E+00    2.5121536062625163E+00
Ga    4.9310181911411810E+00    2.8783186580873532E+00    3.1705785691754027E+00
N    4.9276669586289010E+00    2.9278427179906048E+00    5.2223940213034759E+00
Ga    4.9147750479128804E+00    4.7758863231632729E+00    5.8368968284446394E+00
N    4.9084689594931641E+00    4.7811876031991227E+00    7.8419513051438745E+00
Ga    4.9107122706551172E+00    2.9344607929052193E+00    8.5117098487764515E+00
N    4.9167417636711734E+00    2.9329037224325525E+00    1.0500009245529466E+01
Ga    4.8926893314543634E+00    4.7933220607387623E+00    1.1124574339385319E+01
N    4.8776290123837089E+00    4.7991735500984447E+00    1.3118903548418302E+01
Ga    4.9220421801314336E+00    2.9288567494468407E+00    1.3671225369622881E+01
N    4.8946468597357482E+00    2.9124946963811151E+00    1.5634394648037500E+01
Ga    5.0664487565826937E+00    4.6891232093003037E+00    1.6530002055233798E+01
N    6.5181494850494861E+00    3.8608337711893563E+00    1.7664092033349469E+01
N    3.2819064478675357E+00    7.5568714605903153E+00    2.6398501112334736E+00
N    3.2933252368106238E+00    5.6912299833899160E+00    5.1598208446318656E+00
Ga    3.3007666918407068E+00    7.5552299795713775E+00    5.8318593783019308E+00
N    3.3013251598924027E+00    7.5603461604750191E+00    7.8318588230332722E+00
Ga    3.3084473714752178E+00    5.7123879705612373E+00    8.4825741944262578E+00
N    3.3034230380446958E+00    5.7106209824390755E+00    1.0463223288093936E+01
Ga    3.3056495012141589E+00    7.5493374104391009E+00    1.1113742341995563E+01
N    3.3028684200109795E+00    7.5285505208296293E+00    1.3111340847039692E+01
Ga    3.3012390388816022E+00    5.7089299553873252E+00    1.3916129190387839E+01
N    3.3012282679087241E+00    5.7099916987431500E+00    1.6121705027371270E+01
Ga    3.3015376898538138E+00    7.7522700048121518E+00    1.6530584423145925E+01
Ga    4.6814096348185208E+00    1.0336025505795950E+01    5.3870980184973916E-01
N    1.6990440430996732E+00    1.0341038472839147E+01    2.5628650356295539E+00
Ga    1.7100524534473487E+00    8.5813330931283200E+00    3.2274348888841997E+00
N    1.6892095575659691E+00    8.4856665575667414E+00    5.2292999208962625E+00
Ga    1.6837140118241938E+00    1.0365661641059852E+01    5.8085649417511993E+00
N    1.6920782087343287E+00    1.0353721970541791E+01    7.8289486395624772E+00
Ga    1.7117154599062723E+00    8.5061012341388373E+00    8.4894560194549822E+00
N    1.7062976533689573E+00    8.5002704250207906E+00    1.0483819837002315E+01
Ga    1.6810136624593239E+00    1.0356872120839942E+01    1.1125363084630605E+01
N    1.6627005408140763E+00    1.0367476748847036E+01    1.3119617050112289E+01
Ga    1.7070085138324609E+00    8.4986166269657986E+00    1.3672286842265077E+01
N    1.6795258040530856E+00    8.4825254268530337E+00    1.5635314773952445E+01
Ga    1.8489295495407514E+00    1.0260657498585454E+01    1.6528271247188528E+01
N    3.3020145243606005E+00    9.4315897575314835E+00    1.7662410955718958E+01
N    9.5929064375498676E+00    2.0684151014630521E+00    2.6619308607265562E+00
Ga    9.6587930667370596E+00    1.6896151477720225E-01    3.1636436617592056E+00
N    9.7381426132136006E+00    1.5527776756159259E-01    5.2075732593028068E+00
Ga    9.7628835112824195E+00    1.9552509485160365E+00    5.9587373259744378E+00
N    9.7425550600727409E+00    1.9836472024258787E+00    7.9266674993178725E+00
Ga    9.7377162280739764E+00    1.1273753266113036E-01    8.4899518754558780E+00
N    9.7349878612376486E+00    1.2050204895547081E-01    1.0485439212603241E+01
Ga    9.7328517326136446E+00    1.9925023608653252E+00    1.1076487201371851E+01
N    9.7332183739851494E+00    1.9931402292823850E+00    1.3051085587204916E+01
Ga    9.7351743590862991E+00    1.2383393773238824E-01    1.3671249109443226E+01
N    9.7343206939212230E+00    1.5576197517394272E-01    1.5635810361191332E+01
Ga    9.7335510341491638E+00    1.9941496235397429E+00    1.5911841934785803E+01
N    8.1367577167116210E+00    4.6316161715341675E+00    2.5901080017324278E+00
Ga    8.1084947332425674E+00    2.9267735987977095E+00    3.6365392814661135E+00
N    8.1252276447367819E+00    2.9249415325525274E+00    5.5050404226107457E+00
Ga    8.1372179736118380E+00    4.8458571055846864E+00    5.8882504670884961E+00
N    8.1307352468776219E+00    4.8043951285422155E+00    7.8748138413856266E+00
Ga    8.1168948502131251E+00    2.9316088938330780E+00    8.4844188560036073E+00
N    8.1165145598820381E+00    2.9313637243431234E+00    1.0483905009494874E+01
Ga    8.1387337234102084E+00    4.7891656888216980E+00    1.1119827704377327E+01
N    8.1564349984047499E+00    4.7980728296982900E+00    1.3116351471324322E+01
Ga    8.1142133645787702E+00    2.9285589010248283E+00    1.3670915084119567E+01
N    8.1408317206077871E+00    2.9123553718582613E+00    1.5634281921541636E+01
Ga    7.9690436006062946E+00    4.6896126485358325E+00    1.6530247598635832E+01
N    6.5054307942523737E+00    7.5347524988899170E+00    2.6049617918719976E+00
Ga    6.5514559290081067E+00    5.7099450277047747E+00    3.1395496215430021E+00
N    6.5195080825440046E+00    5.6896559908536064E+00    5.1927695586003635E+00
Ga    6.4871152931265144E+00    7.5445196351759263E+00    5.8448715068482544E+00
N    6.5090929374597879E+00    7.5597912408377033E+00    7.8487493953427458E+00
Ga    6.5089075864250407E+00    5.7094621728056500E+00    8.4930643713437313E+00
N    6.5145592054943444E+00    5.7002051823768207E+00    1.0486227064002733E+01
Ga    6.5152433980761488E+00    7.5683727230156492E+00    1.1076571052689875E+01
N    6.5166484626332144E+00    7.5662013302958959E+00    1.3049689923333878E+01
Ga    6.5177502251137200E+00    5.6962375014036848E+00    1.3671877142770260E+01
N    6.5174193917267997E+00    5.7276799533121121E+00    1.5635886218618017E+01
Ga    6.5172424934816879E+00    7.5652899299778777E+00    1.5913305415356961E+01
N    4.9054826737419193E+00    1.0374186642095518E+01    2.5204180621823733E+00
Ga    4.9645062524222885E+00    8.4712146261467947E+00    3.1916409170009810E+00
N    4.8958004016354959E+00    8.4969591665597459E+00    5.2015649136682258E+00
Ga    4.9195604488909037E+00    1.0359993329318316E+01    5.7936965689499802E+00
N    4.9149801631227739E+00    1.0352657083983427E+01    7.8124212723105222E+00
Ga    4.9044172849215713E+00    8.5006299518200965E+00    8.4630078607362620E+00
N    4.9011180008130681E+00    8.5000455648537638E+00    1.0466342827366764E+01
Ga    4.9262316075599184E+00    1.0355333543548394E+01    1.1116366820758822E+01
N    4.9419169897720581E+00    1.0366902375564441E+01    1.3113464641229235E+01
Ga    4.8979347978263013E+00    8.4992173313403967E+00    1.3671520848942547E+01
N    4.9237244261223463E+00    8.4830607393520943E+00    1.5634450283005489E+01
Ga    4.7544777365848985E+00    1.0260929418934909E+01    1.6528651798349642E+01
O    4.4735944017434076E-01    3.7906357841681824E+00   -3.5185580980314152E-01
H    2.9587781233069341E+00    4.7354478921897760E+00    4.8358201643053011E-01
C    5.4848654194430069E-01    2.4911522924906362E+00   -9.5681067255868846E-01
H    1.2415008760659358E+00    1.8264537172726847E+00   -4.1397122037206313E-01
H   -4.3134358678891166E-01    1.9873633239954382E+00   -1.0245673552422467E+00
H    9.3124072359241028E-01    2.6331709812753181E+00   -1.9782565986685898E+00
Ga    3.2238899840596229E+00    5.6493842045203468E+00    3.1329980916870963E+00
O    3.6924623179635825E+00    5.3825223420253412E+00    4.8128555310865295E-01
H    2.2621634049543409E-02    7.5120445514769871E+00    1.7131852941315753E+00
C    4.8706473015858780E+00    4.7649961730950290E+00    1.0143671356773682E+00
H    5.7034438029813481E+00    5.3666211207471326E+00    6.2175632104280454E-01
H    3.2782832883071813E+00    7.5231401958432498E+00    1.6114519693649587E+00
H    4.9608944170115885E+00    3.7375469063850417E+00    6.2643001280981114E-01
     &END COORD
     &KIND C
       BASIS_SET DZVP-MOLOPT-SR-GTH-q4
       POTENTIAL GTH-PBE-q4
       &POTENTIAL
2 2
0.3384712400000000E+00 2 -0.8803673979999999E+01  0.1339210850000000E+01
2
0.3025757500000000E+00 1  0.9622486650000001E+01
0.2915069400000000E+00 0
       &END POTENTIAL
     &END KIND
     &KIND O
       BASIS_SET DZVP-MOLOPT-SR-GTH-q6
       POTENTIAL GTH-PBE-q6
       &POTENTIAL
2 4
0.2445543000000000E+00 2 -0.1666721480000000E+02  0.2487311320000000E+01
2
0.2209559200000000E+00 1  0.1833745811000000E+02
0.2113324700000000E+00 0
       &END POTENTIAL
     &END KIND
     &KIND H
       BASIS_SET DZVP-MOLOPT-SR-GTH-q1
       POTENTIAL GTH-PBE-q1
       &POTENTIAL
1
0.2000000000000000E+00 2 -0.4178900440000000E+01  0.7244633100000000E+00
0
       &END POTENTIAL
     &END KIND
     &KIND N
       BASIS_SET DZVP-MOLOPT-SR-GTH
       POTENTIAL GTH-PBE-q5
       &POTENTIAL
2 3
0.2837905100000000E+00 2 -0.1241522559000000E+02  0.1868095920000000E+01
2
0.2554050000000000E+00 1  0.1363026257000000E+02
0.2454945300000000E+00 0
       &END POTENTIAL
     &END KIND
     &KIND Ga
       BASIS_SET DZVP-MOLOPT-SR-GTH
       POTENTIAL GTH-PBE-q13
       &POTENTIAL
2 1 10
0.4900000000000000E+00 0
3
0.4167772300000000E+00 3  0.1047568975000000E+02 -0.4921768140000000E+01  0.8707055900000000E+00
0.7770178090000000E+01 -0.2248152160000000E+01
0.1784415450000000E+01
0.5696265200000000E+00 2  0.1777985340000000E+01  0.1958597600000000E+00
-0.2317443900000000E+00
0.2381265000000000E+00 1 -0.1624868022000000E+02
       &END POTENTIAL
     &END KIND
     &TOPOLOGY
       NUMBER_OF_ATOMS  212
       MULTIPLE_UNIT_CELL  1 1 1
     &END TOPOLOGY
     &COLVAR
       &DISTANCE
         ATOMS  127 211
       &END DISTANCE
       &PRINT
       &END PRINT
     &END COLVAR
   &END SUBSYS
 &END FORCE_EVAL
