 # Version information for this restart file 
 # current date 2019-07-22 02:46:33.177
 # current working dir /lustre04/scratch/rzk/rzk/GaN-carbene/443-adatoms-both-2x2/09-BondBreaking-CH/04-0401-H2C-to-NTop-OPT
 # Program compiled at                              Sun Apr  7 00:48:11 EDT 2019
 # Program compiled on                          beluga2.int.ets1.calculquebec.ca
 # Program compiled for                        Beluga-Linux-x86-64-intel-openmpi
 # Source code revision number                                         svn:18619
 &GLOBAL
   PRINT_LEVEL  MEDIUM
   PROJECT_NAME TEST
   RUN_TYPE  GEO_OPT
 &END GLOBAL
 &MOTION
   &GEO_OPT
     MAX_ITER  500
     STEP_START_VAL  93
   &END GEO_OPT
 &END MOTION
 &FORCE_EVAL
   METHOD  QS
   STRESS_TENSOR  ANALYTICAL
   &DFT
     BASIS_SET_FILE_NAME BASIS_MOLOPT
     POTENTIAL_FILE_NAME GTH_POTENTIALS
     UKS  T
     SURFACE_DIPOLE_CORRECTION  T
     SURF_DIP_DIR  Z
     &SCF
       MAX_SCF  80
       EPS_SCF     5.0000000000000004E-06
       &OT  T
         PRECONDITIONER  FULL_ALL
       &END OT
       &OUTER_SCF  T
         OPTIMIZER  NONE
         EPS_SCF     5.0000000000000004E-06
         MAX_SCF  4
       &END OUTER_SCF
       &PRINT
         &RESTART  OFF
           BACKUP_COPIES  1
           &EACH
             JUST_ENERGY  0
             QS_SCF  0
             MD  20
           &END EACH
         &END RESTART
       &END PRINT
     &END SCF
     &QS
       EPS_DEFAULT     1.0000000000000000E-14
       METHOD  GPW
     &END QS
     &MGRID
       NGRIDS  5
       CUTOFF     1.2000000000000000E+03
     &END MGRID
     &XC
       DENSITY_CUTOFF     1.0000000000000000E-10
       GRADIENT_CUTOFF     1.0000000000000000E-10
       TAU_CUTOFF     1.0000000000000000E-10
       &XC_FUNCTIONAL  NO_SHORTCUT
         &PBE  T
         &END PBE
       &END XC_FUNCTIONAL
       &VDW_POTENTIAL
         POTENTIAL_TYPE  PAIR_POTENTIAL
         &PAIR_POTENTIAL
           R_CUTOFF     1.0000000000000009E+01
           TYPE  DFTD3
           PARAMETER_FILE_NAME dftd3.dat
           REFERENCE_FUNCTIONAL PBE
           EPS_CN     9.9999999999999995E-07
           CALCULATE_C9_TERM  T
           REFERENCE_C9_TERM  T
           LONG_RANGE_CORRECTION  F
           VERBOSE_OUTPUT  F
         &END PAIR_POTENTIAL
       &END VDW_POTENTIAL
     &END XC
   &END DFT
   &SUBSYS
     &CELL
       A     1.2864472766435110E+01    0.0000000000000000E+00    0.0000000000000000E+00
       B    -6.4322363581020028E+00    1.1140960178524477E+01    0.0000000000000000E+00
       C     0.0000000000000000E+00    0.0000000000000000E+00    3.2000000000000000E+01
       MULTIPLE_UNIT_CELL  1 1 1
       &CELL_REF
         A     1.2982353780853531E+01    0.0000000000000000E+00    0.0000000000000000E+00
         B    -6.4911768904267628E+00    1.1243048175136114E+01    0.0000000000000000E+00
         C     0.0000000000000000E+00    0.0000000000000000E+00    3.2000000000000000E+01
         MULTIPLE_UNIT_CELL  1 1 1
       &END CELL_REF
     &END CELL
     &COORD
N    7.1572210885851334E-02    2.1307384500871809E+00    2.6006848007336316E+00
Ga    1.2243576830099681E-01    2.0022113872856032E-01    3.0277268133403474E+00
N    1.0639210261607433E-01    1.4533941139471865E-01    5.1086227737985439E+00
Ga    8.3176632678161333E-02    1.9769491007458864E+00    5.8531415754117386E+00
N    8.1732411294267351E-02    1.9868273262181857E+00    7.8523324558291465E+00
Ga    7.7392506378367754E-02    1.3340737279136636E-01    8.4776161075127412E+00
N    8.2547854418399250E-02    1.3579712089974372E-01    1.0459818947124266E+01
Ga    8.7033073948121528E-02    1.9729045153571476E+00    1.1119817861998730E+01
N    8.6031141630494357E-02    1.9555943142001033E+00    1.3115527678262204E+01
Ga    8.6207896975167717E-02    1.3615569227925883E-01    1.3915318734428711E+01
N    8.5675543449975480E-02    1.3900047860384804E-01    1.6121174950870675E+01
Ga    8.5194680075737245E-02    2.1840261202646380E+00    1.6531726932781904E+01
Ga    1.2378335327231511E-01    3.8214848520381675E+00    1.4406361919810373E+00
N   -1.3866640524894200E+00    4.7148638173985828E+00    2.5529400584566146E+00
Ga   -1.6266800634215026E+00    2.8852043155163969E+00    3.3014537320127495E+00
N   -1.5450182081505988E+00    2.9156939250887164E+00    5.2822592709880976E+00
Ga   -1.5560095861680319E+00    4.7831985868450850E+00    5.8731280372024530E+00
N   -1.5326248902007800E+00    4.7802640974013686E+00    7.8652787264284925E+00
Ga   -1.5097020870807059E+00    2.9246237168242861E+00    8.5072481602384080E+00
N   -1.5101464521551307E+00    2.9298724441097432E+00    1.0496401666860672E+01
Ga   -1.5372673562455910E+00    4.7888680180888450E+00    1.1128825309437680E+01
N   -1.5543133542758323E+00    4.7977031087548427E+00    1.3121894064090455E+01
Ga   -1.5113416076666955E+00    2.9267196218082550E+00    1.3671102996521828E+01
N   -1.5378765440150022E+00    2.9113545295866663E+00    1.5634232365853840E+01
Ga   -1.3655816356601835E+00    4.6887113514185677E+00    1.6530184381119906E+01
N    8.4064135433866774E-02    3.8600074602786050E+00    1.7665344330877293E+01
N   -3.1137045524288856E+00    7.6804893444547941E+00    2.5934281104366459E+00
Ga   -3.0966462579001983E+00    5.6625971045518124E+00    2.9480046343887896E+00
N   -3.1193847982836460E+00    5.7134915227305720E+00    5.1067399212645075E+00
Ga   -3.1336836591424477E+00    7.5345106192239362E+00    5.8649448408181097E+00
N   -3.1291061380725096E+00    7.5570541070706945E+00    7.8558554365200699E+00
Ga   -3.1283882229595736E+00    5.7125814158829167E+00    8.5085383017204261E+00
N   -3.1288703287805686E+00    5.7094039773612328E+00    1.0479875969553701E+01
Ga   -3.1349982172825968E+00    7.5496178689995492E+00    1.1122161349077317E+01
N   -3.1322906971292919E+00    7.5291148148137808E+00    1.3116781234470425E+01
Ga   -3.1318568419621906E+00    5.7087677295769401E+00    1.3918468787901046E+01
N   -3.1309638387961027E+00    5.7099976969556065E+00    1.6121562351957330E+01
Ga   -3.1310658748610907E+00    7.7546295190023775E+00    1.6531914171911655E+01
Ga   -3.1427650719017874E+00    9.4451630893690695E+00    1.6171534036183648E+00
N   -4.6230575671566001E+00    1.0291760270757294E+01    2.6187296631730317E+00
Ga   -4.8657430942168176E+00    8.4048752251378254E+00    3.3284945203438197E+00
N   -4.7422457917503804E+00    8.4846691577814397E+00    5.2903480991718359E+00
Ga   -4.7556929852908469E+00    1.0357779858846817E+01    5.8589814826045137E+00
N   -4.7460751795616893E+00    1.0352716187951170E+01    7.8518564530445039E+00
Ga   -4.7427289153299155E+00    8.4922972010485847E+00    8.4723880127261122E+00
N   -4.7319779191824241E+00    8.4964032375145013E+00    1.0472691657025766E+01
Ga   -4.7568953967884102E+00    1.0356254844754165E+01    1.1112369138639586E+01
N   -4.7713055589638831E+00    1.0366929708961763E+01    1.3110879764888864E+01
Ga   -4.7287166049739913E+00    8.4999218501934894E+00    1.3671871150937614E+01
N   -4.7548045985866914E+00    8.4832504573837948E+00    1.5634286984012645E+01
Ga   -4.5816289344614898E+00    1.0259261075618957E+01    1.6531601055252313E+01
N   -3.1313782932913652E+00    9.4303601947975757E+00    1.7665829841337608E+01
N    3.3203006428589696E+00    2.0163973828535093E+00    2.6648736182711956E+00
Ga    3.3267962933133108E+00    2.8191499453604413E-01    3.3599964402714093E+00
N    3.3074290741447467E+00    1.3921838990841720E-01    5.3184412711899522E+00
Ga    3.3265038808400980E+00    2.0142241292669363E+00    5.9022943193553052E+00
N    3.3097145632241936E+00    1.9977778625357137E+00    7.8930218274967929E+00
Ga    3.2985308418300141E+00    1.3230629281731610E-01    8.4938126933832798E+00
N    3.3003092274316832E+00    1.2682447453954904E-01    1.0488279534737668E+01
Ga    3.2993960017615458E+00    1.9940868887442003E+00    1.1085791845301587E+01
N    3.3008885473226215E+00    1.9938181791407641E+00    1.3057065435359949E+01
Ga    3.3000920638099243E+00    1.2244910390821589E-01    1.3671402381632573E+01
N    3.3005740182540229E+00    1.5558538292641153E-01    1.5635275523794844E+01
Ga    3.3014486071211611E+00    1.9938458948741706E+00    1.5910038615365401E+01
N    1.5603707789076116E+00    4.7056097987084033E+00    2.6341585155213134E+00
Ga    1.7813479613485643E+00    2.8762658862359802E+00    3.3511508368680878E+00
N    1.6992549147930540E+00    2.9197302699889254E+00    5.3252958001762298E+00
Ga    1.7093852809274919E+00    4.7789526547522696E+00    5.8952425023565418E+00
N    1.6979801305030997E+00    4.7833099484904720E+00    7.8763935520670252E+00
Ga    1.6874127454192442E+00    2.9199899803330460E+00    8.4892298068711227E+00
N    1.6834871987127267E+00    2.9259937495249622E+00    1.0485524954670565E+01
Ga    1.7112665568436412E+00    4.7877397085194344E+00    1.1116040871191988E+01
N    1.7263259301802594E+00    4.7975575585249670E+00    1.3113815510226305E+01
Ga    1.6811779928367474E+00    2.9290922086324782E+00    1.3672458516567739E+01
N    1.7083997168308849E+00    2.9127996081621612E+00    1.5635033908790584E+01
Ga    1.5354483419084746E+00    4.6884946003053187E+00    1.6532027918600296E+01
N    9.4937057775425382E-02    7.5484326106406705E+00    2.7364604401061863E+00
Ga    8.3297713865950529E-02    5.7035651861111241E+00    3.4034871536658104E+00
N    7.9903488838583545E-02    5.7209477612973823E+00    5.3390128627622833E+00
Ga    1.1654232791785532E-01    7.5746943662129338E+00    5.9455781185190606E+00
N    9.1135748548701337E-02    7.5694047933880793E+00    7.9124926938171463E+00
Ga    8.3867832602284823E-02    5.6987379509821467E+00    8.5022025042657123E+00
N    8.4320893259653043E-02    5.6971533846042801E+00    1.0492835003929642E+01
Ga    8.8132363847809911E-02    7.5661414619468106E+00    1.1082473941497803E+01
N    8.6784452424343905E-02    7.5653798079749999E+00    1.3054635688273692E+01
Ga    8.7043893782958584E-02    5.6944560276928806E+00    1.3672575846118333E+01
N    8.6427960262667095E-02    5.7269375750388374E+00    1.5636350533267754E+01
Ga    8.5628250270398207E-02    7.5647917863842737E+00    1.5911747855042229E+01
N   -1.6249665797365749E+00    1.0284369069261123E+01    2.6083396624068556E+00
Ga   -1.4722867643721635E+00    8.4748164369682080E+00    3.4052511128920808E+00
N   -1.5052125171386153E+00    8.4869345799073113E+00    5.3272800927035302E+00
Ga   -1.5010047739560066E+00    1.0368030095279508E+01    5.8939944776776310E+00
N   -1.5181926201081930E+00    1.0349182404934377E+01    7.8776896724147374E+00
Ga   -1.5326106747218002E+00    8.4964015262769248E+00    8.5043327077722068E+00
N   -1.5336961049392466E+00    8.4973286087761846E+00    1.0493688468138066E+01
Ga   -1.5076935255091750E+00    1.0359268755320571E+01    1.1121703590086886E+01
N   -1.4911889212665450E+00    1.0368181008457132E+01    1.3117309350984149E+01
Ga   -1.5344079679650731E+00    8.4992819942051590E+00    1.3672078458828114E+01
N   -1.5072954057214683E+00    8.4824787915981066E+00    1.5634808319546897E+01
Ga   -1.6810785835474464E+00    1.0258914845461440E+01    1.6530891095140419E+01
N    6.6406604176256909E+00    2.0756138587845285E+00    2.6096003908156820E+00
Ga    6.5552292933121112E+00    1.5138907654047290E-01    3.0147381968703755E+00
N    6.4945092157404423E+00    1.4400059023105954E-01    5.1599518775124036E+00
Ga    6.4679460105076041E+00    1.9583403050080805E+00    5.9155485962564578E+00
N    6.5027421320264089E+00    1.9835593838512737E+00    7.8959738593629671E+00
Ga    6.5257287932784456E+00    1.2783846750160432E-01    8.5003568691129434E+00
N    6.5214977538906416E+00    1.3342333106408219E-01    1.0476315658482669E+01
Ga    6.5198383364471262E+00    1.9772624851189986E+00    1.1117728895846149E+01
N    6.5181796182995377E+00    1.9571212734222456E+00    1.3114882656385413E+01
Ga    6.5174343610299683E+00    1.3789368115049702E-01    1.3916815181267022E+01
N    6.5173669586816771E+00    1.3926662348474789E-01    1.6121651350759027E+01
Ga    6.5176390253669778E+00    2.1837871683248347E+00    1.6531010444215582E+01
Ga    8.1394447211653915E+00    2.8970977299902851E+00    1.2296665373170226E+00
N    4.8929420980791818E+00    4.7638236165546592E+00    2.5119795288697997E+00
Ga    4.9307940866663182E+00    2.8781671661827941E+00    3.1698894162587710E+00
N    4.9275919975374780E+00    2.9277376008700773E+00    5.2218479734654943E+00
Ga    4.9146457832252946E+00    4.7757198926106454E+00    5.8366270914760667E+00
N    4.9084675013976486E+00    4.7810307219127948E+00    7.8416924564734334E+00
Ga    4.9106865037997274E+00    2.9343489491008472E+00    8.5115749298149002E+00
N    4.9167704246481518E+00    2.9327081895753446E+00    1.0499948715097243E+01
Ga    4.8927642470365873E+00    4.7931988970608046E+00    1.1124290239298764E+01
N    4.8776785587228160E+00    4.7990972444590634E+00    1.3118780570041281E+01
Ga    4.9220652027890370E+00    2.9286713836516340E+00    1.3671237113899362E+01
N    4.8946474417157351E+00    2.9122599192650207E+00    1.5634400377115155E+01
Ga    5.0666365794703472E+00    4.6889580958632413E+00    1.6529916061451051E+01
N    6.5181867231877808E+00    3.8607964594919206E+00    1.7663758031541644E+01
N    3.2817384294401282E+00    7.5566185469722287E+00    2.6395746462609808E+00
N    3.2932023365817797E+00    5.6909815238013479E+00    5.1594758369745213E+00
Ga    3.3006114666948463E+00    7.5549277468599412E+00    5.8315965017535714E+00
N    3.3013009706423269E+00    7.5601801072042729E+00    7.8316404974936820E+00
Ga    3.3084636320589449E+00    5.7121834779426841E+00    8.4823760421836472E+00
N    3.3034445549800648E+00    5.7105266863771886E+00    1.0463110387983594E+01
Ga    3.3057106871112913E+00    7.5492678368298014E+00    1.1113545642100435E+01
N    3.3029445374727469E+00    7.5284361978312173E+00    1.3111184798043867E+01
Ga    3.3012750000582303E+00    5.7088899008347029E+00    1.3916252266277578E+01
N    3.3013062604191572E+00    5.7098506573942949E+00    1.6121800340969362E+01
Ga    3.3016426419132130E+00    7.7521511645878389E+00    1.6530431577752584E+01
Ga    4.6829925242587978E+00    1.0334241318077114E+01    5.3813476500672441E-01
N    1.6987867325984078E+00    1.0340816852563034E+01    2.5623878380702241E+00
Ga    1.7098257312067504E+00    8.5811047296592147E+00    3.2270183149013851E+00
N    1.6890638728761511E+00    8.4854602611224283E+00    5.2289394430378282E+00
Ga    1.6835787789588945E+00    1.0365497145370503E+01    5.8082444327119944E+00
N    1.6920316046691204E+00    1.0353621937683588E+01    7.8286972588901396E+00
Ga    1.7116869321768853E+00    8.5059416439308517E+00    8.4892954937908041E+00
N    1.7063120002515744E+00    8.5001897767424754E+00    1.0483729636635800E+01
Ga    1.6810689615451699E+00    1.0356798739004432E+01    1.1125219603952164E+01
N    1.6627320208910179E+00    1.0367312310552418E+01    1.3119467243581813E+01
Ga    1.7070495527170095E+00    8.4984988665842405E+00    1.3672246421370707E+01
N    1.6796288989065877E+00    8.4823692324048352E+00    1.5635291976225783E+01
Ga    1.8489249222695145E+00    1.0260509812337068E+01    1.6528157277554346E+01
N    3.3021097663463577E+00    9.4314672435165594E+00    1.7662299166873908E+01
N    9.5926571286998694E+00    2.0683301772205342E+00    2.6615171644675146E+00
Ga    9.6585204877458075E+00    1.6888610617956065E-01    3.1630799150341744E+00
N    9.7379850911950658E+00    1.5522423980719038E-01    5.2070964599266611E+00
Ga    9.7627248835789633E+00    1.9551506319321195E+00    5.9584527494739676E+00
N    9.7425089658533928E+00    1.9835478863225930E+00    7.9263979529855879E+00
Ga    9.7376768550323352E+00    1.1268407642573229E-01    8.4898207257586034E+00
N    9.7350385286208159E+00    1.2038346057765745E-01    1.0485334366282922E+01
Ga    9.7328914078948028E+00    1.9923623014303322E+00    1.1076301955603899E+01
N    9.7332839589246660E+00    1.9929613841564977E+00    1.3050909411946455E+01
Ga    9.7352140826911189E+00    1.2367803747512034E-01    1.3671088690929157E+01
N    9.7344334463811730E+00    1.5550648213379034E-01    1.5635724829681465E+01
Ga    9.7336205477290854E+00    1.9939274892713883E+00    1.5911759838059027E+01
N    8.1365826370807266E+00    4.6314346631144714E+00    2.5898106726480985E+00
Ga    8.1081270447906721E+00    2.9267571783024473E+00    3.6362790835499186E+00
N    8.1251036919486506E+00    2.9247947519949999E+00    5.5046826859515861E+00
Ga    8.1371615078383606E+00    4.8457140906069718E+00    5.8881040809972509E+00
N    8.1307622898387990E+00    4.8042524902186923E+00    7.8746339865920643E+00
Ga    8.1169025284905452E+00    2.9315047304770370E+00    8.4842988972381157E+00
N    8.1165962955639657E+00    2.9312006215111723E+00    1.0483808815479225E+01
Ga    8.1387956336011129E+00    4.7890055040124935E+00    1.1119563349724929E+01
N    8.1565177171322851E+00    4.7980108056561113E+00    1.3116234694064534E+01
Ga    8.1143278839384010E+00    2.9283929587815289E+00    1.3670815514617662E+01
N    8.1410079598486131E+00    2.9121794652943551E+00    1.5634190654431068E+01
Ga    7.9690344528188302E+00    4.6894212694223070E+00    1.6530169181697513E+01
N    6.5053127575020664E+00    7.5344417960216479E+00    2.6046571235116036E+00
Ga    6.5514311773687419E+00    5.7097368116401510E+00    3.1393274022122197E+00
N    6.5194392917642059E+00    5.6893564445515130E+00    5.1924640271495219E+00
Ga    6.4870866691390212E+00    7.5442030956862167E+00    5.8446155126705044E+00
N    6.5091353995434611E+00    7.5596337134387195E+00    7.8485533846635622E+00
Ga    6.5089091755167798E+00    5.7092801690072665E+00    8.4929299843313437E+00
N    6.5146469080338392E+00    5.7001797002420433E+00    1.0486169436848265E+01
Ga    6.5153350285498597E+00    7.5683137724616270E+00    1.1076450258027926E+01
N    6.5167402717412175E+00    7.5661345592148805E+00    1.3049579126299300E+01
Ga    6.5178399953014869E+00    5.6962438236491328E+00    1.3671899014911807E+01
N    6.5175529680127591E+00    5.7277192769840424E+00    1.5635899588803767E+01
Ga    6.5173074509943554E+00    7.5652366120229173E+00    1.5913150467054143E+01
N    4.9053911303123510E+00    1.0373825067717446E+01    2.5202685306625274E+00
Ga    4.9644236582064414E+00    8.4707696399517207E+00    3.1914675628102689E+00
N    4.8957091911783106E+00    8.4967476734230516E+00    5.2013487174068231E+00
Ga    4.9194150789886306E+00    1.0359896207176066E+01    5.7934010156233331E+00
N    4.9149670723659282E+00    1.0352546861770875E+01    7.8122366675382198E+00
Ga    4.9044378466340257E+00    8.5004337309732900E+00    8.4629411657371971E+00
N    4.9012212584821491E+00    8.4999629001434105E+00    1.0466314915299419E+01
Ga    4.9262729051583749E+00    1.0355247343629593E+01    1.1116209896191776E+01
N    4.9420121260425320E+00    1.0366726047028164E+01    1.3113326749383491E+01
Ga    4.8980510774398107E+00    8.4990541281557963E+00    1.3671443162267456E+01
N    4.9237850091282978E+00    8.4829370542042586E+00    1.5634367041945715E+01
Ga    4.7546759872203079E+00    1.0260770670457228E+01    1.6528573264006383E+01
O    4.4677059880518100E-01    3.7918014461868186E+00   -3.5208609606204511E-01
H    2.9585933760232512E+00    4.7335887371487395E+00    4.8471756080668349E-01
C    5.4804267390692973E-01    2.4927802855910719E+00   -9.5791787054210720E-01
H    1.2419625645105916E+00    1.8279525907272633E+00   -4.1631234490502489E-01
H   -4.3165279444637039E-01    1.9886956788477428E+00   -1.0254639707055384E+00
H    9.2992101738662403E-01    2.6355940029053171E+00   -1.9795014985733457E+00
Ga    3.2237619332016587E+00    5.6491924548592900E+00    3.1328625217652228E+00
O    3.6916184696782035E+00    5.3813293924643562E+00    4.8117126493994067E-01
H    2.2544047334665310E-02    7.5117764552537842E+00    1.7127653084267929E+00
C    4.8707704964893423E+00    4.7657110137699847E+00    1.0142096079395473E+00
H    5.7023881227455080E+00    5.3692454749701453E+00    6.2195352607277099E-01
H    3.2781982825239009E+00    7.5228911504393317E+00    1.6111548066951435E+00
H    4.9632566210793794E+00    3.7387197909111505E+00    6.2559608677637246E-01
     &END COORD
     &KIND C
       BASIS_SET DZVP-MOLOPT-SR-GTH-q4
       POTENTIAL GTH-PBE-q4
       &POTENTIAL
2 2
0.3384712400000000E+00 2 -0.8803673979999999E+01  0.1339210850000000E+01
2
0.3025757500000000E+00 1  0.9622486650000001E+01
0.2915069400000000E+00 0
       &END POTENTIAL
     &END KIND
     &KIND O
       BASIS_SET DZVP-MOLOPT-SR-GTH-q6
       POTENTIAL GTH-PBE-q6
       &POTENTIAL
2 4
0.2445543000000000E+00 2 -0.1666721480000000E+02  0.2487311320000000E+01
2
0.2209559200000000E+00 1  0.1833745811000000E+02
0.2113324700000000E+00 0
       &END POTENTIAL
     &END KIND
     &KIND H
       BASIS_SET DZVP-MOLOPT-SR-GTH-q1
       POTENTIAL GTH-PBE-q1
       &POTENTIAL
1
0.2000000000000000E+00 2 -0.4178900440000000E+01  0.7244633100000000E+00
0
       &END POTENTIAL
     &END KIND
     &KIND N
       BASIS_SET DZVP-MOLOPT-SR-GTH
       POTENTIAL GTH-PBE-q5
       &POTENTIAL
2 3
0.2837905100000000E+00 2 -0.1241522559000000E+02  0.1868095920000000E+01
2
0.2554050000000000E+00 1  0.1363026257000000E+02
0.2454945300000000E+00 0
       &END POTENTIAL
     &END KIND
     &KIND Ga
       BASIS_SET DZVP-MOLOPT-SR-GTH
       POTENTIAL GTH-PBE-q13
       &POTENTIAL
2 1 10
0.4900000000000000E+00 0
3
0.4167772300000000E+00 3  0.1047568975000000E+02 -0.4921768140000000E+01  0.8707055900000000E+00
0.7770178090000000E+01 -0.2248152160000000E+01
0.1784415450000000E+01
0.5696265200000000E+00 2  0.1777985340000000E+01  0.1958597600000000E+00
-0.2317443900000000E+00
0.2381265000000000E+00 1 -0.1624868022000000E+02
       &END POTENTIAL
     &END KIND
     &TOPOLOGY
       NUMBER_OF_ATOMS  212
       MULTIPLE_UNIT_CELL  1 1 1
     &END TOPOLOGY
     &COLVAR
       &DISTANCE
         ATOMS  127 211
       &END DISTANCE
       &PRINT
       &END PRINT
     &END COLVAR
   &END SUBSYS
 &END FORCE_EVAL
