 # Version information for this restart file 
 # current date 2019-07-21 23:52:45.029
 # current working dir /lustre04/scratch/rzk/rzk/GaN-carbene/443-adatoms-both-2x2/09-BondBreaking-CH/04-0401-H2C-to-NTop-OPT
 # Program compiled at                              Sun Apr  7 00:48:11 EDT 2019
 # Program compiled on                          beluga2.int.ets1.calculquebec.ca
 # Program compiled for                        Beluga-Linux-x86-64-intel-openmpi
 # Source code revision number                                         svn:18619
 &GLOBAL
   PRINT_LEVEL  MEDIUM
   PROJECT_NAME TEST
   RUN_TYPE  GEO_OPT
 &END GLOBAL
 &MOTION
   &GEO_OPT
     MAX_ITER  500
     STEP_START_VAL  31
   &END GEO_OPT
 &END MOTION
 &FORCE_EVAL
   METHOD  QS
   STRESS_TENSOR  ANALYTICAL
   &DFT
     BASIS_SET_FILE_NAME BASIS_MOLOPT
     POTENTIAL_FILE_NAME GTH_POTENTIALS
     UKS  T
     SURFACE_DIPOLE_CORRECTION  T
     SURF_DIP_DIR  Z
     &SCF
       MAX_SCF  80
       EPS_SCF     5.0000000000000004E-06
       &OT  T
         PRECONDITIONER  FULL_ALL
       &END OT
       &OUTER_SCF  T
         OPTIMIZER  NONE
         EPS_SCF     5.0000000000000004E-06
         MAX_SCF  4
       &END OUTER_SCF
       &PRINT
         &RESTART  OFF
           BACKUP_COPIES  1
           &EACH
             JUST_ENERGY  0
             QS_SCF  0
             MD  20
           &END EACH
         &END RESTART
       &END PRINT
     &END SCF
     &QS
       EPS_DEFAULT     1.0000000000000000E-14
       METHOD  GPW
     &END QS
     &MGRID
       NGRIDS  5
       CUTOFF     1.2000000000000000E+03
     &END MGRID
     &XC
       DENSITY_CUTOFF     1.0000000000000000E-10
       GRADIENT_CUTOFF     1.0000000000000000E-10
       TAU_CUTOFF     1.0000000000000000E-10
       &XC_FUNCTIONAL  NO_SHORTCUT
         &PBE  T
         &END PBE
       &END XC_FUNCTIONAL
       &VDW_POTENTIAL
         POTENTIAL_TYPE  PAIR_POTENTIAL
         &PAIR_POTENTIAL
           R_CUTOFF     1.0000000000000009E+01
           TYPE  DFTD3
           PARAMETER_FILE_NAME dftd3.dat
           REFERENCE_FUNCTIONAL PBE
           EPS_CN     9.9999999999999995E-07
           CALCULATE_C9_TERM  T
           REFERENCE_C9_TERM  T
           LONG_RANGE_CORRECTION  F
           VERBOSE_OUTPUT  F
         &END PAIR_POTENTIAL
       &END VDW_POTENTIAL
     &END XC
   &END DFT
   &SUBSYS
     &CELL
       A     1.2864472766435110E+01    0.0000000000000000E+00    0.0000000000000000E+00
       B    -6.4322363581020028E+00    1.1140960178524477E+01    0.0000000000000000E+00
       C     0.0000000000000000E+00    0.0000000000000000E+00    3.2000000000000000E+01
       MULTIPLE_UNIT_CELL  1 1 1
       &CELL_REF
         A     1.2982353780853531E+01    0.0000000000000000E+00    0.0000000000000000E+00
         B    -6.4911768904267628E+00    1.1243048175136114E+01    0.0000000000000000E+00
         C     0.0000000000000000E+00    0.0000000000000000E+00    3.2000000000000000E+01
         MULTIPLE_UNIT_CELL  1 1 1
       &END CELL_REF
     &END CELL
     &COORD
N    6.8264160109426097E-02    2.1352356573031850E+00    2.5727917649440557E+00
Ga    1.1577212593567326E-01    1.9903648896167228E-01    3.0115545846074290E+00
N    9.8581854748942530E-02    1.4405493267510500E-01    5.0965929457522083E+00
Ga    7.3872664540032162E-02    1.9727912116413768E+00    5.8481529674849488E+00
N    7.2185588692509017E-02    1.9818142890188848E+00    7.8470070438779356E+00
Ga    6.8285103155086138E-02    1.2847179990216567E-01    8.4720788126176725E+00
N    7.3196612697874863E-02    1.2966547789748173E-01    1.0454907707086580E+01
Ga    7.7864003848342828E-02    1.9665401314447200E+00    1.1114921764367077E+01
N    7.6702121539548501E-02    1.9487162220237688E+00    1.3111667934800245E+01
Ga    7.6847885950360670E-02    1.2848251964904855E-01    1.3908578531907043E+01
N    7.5943196974332119E-02    1.3003547690387532E-01    1.6117408300021200E+01
Ga    7.5765651735694550E-02    2.1731880729933843E+00    1.6525160937113061E+01
Ga    1.3530847461342255E-01    3.8404050151397846E+00    1.4339569850837484E+00
N   -1.3922298699277782E+00    4.7149708683274358E+00    2.5438110493499830E+00
Ga   -1.6321914081863975E+00    2.8844751497268546E+00    3.2859048442472485E+00
N   -1.5512840029730284E+00    2.9117595340110496E+00    5.2697553196085893E+00
Ga   -1.5663967739599756E+00    4.7780767024851585E+00    5.8665859344491063E+00
N   -1.5424411524036883E+00    4.7746489418135658E+00    7.8595257880061657E+00
Ga   -1.5191504638260500E+00    2.9194655516091683E+00    8.5022211708708806E+00
N   -1.5192739669424733E+00    2.9235984367279411E+00    1.0492005972515832E+01
Ga   -1.5467123886641585E+00    4.7825451308506119E+00    1.1124184077344401E+01
N   -1.5635037645591323E+00    4.7903096966247665E+00    1.3118453321002871E+01
Ga   -1.5210466993986322E+00    2.9192067166202365E+00    1.3666897804448766E+01
N   -1.5461812126398513E+00    2.9028990528868364E+00    1.5631021103900357E+01
Ga   -1.3773839034881150E+00    4.6811891569437911E+00    1.6524039998409986E+01
N    7.4795466399455349E-02    3.8511877605692151E+00    1.7657639631845782E+01
N   -3.1215323482808977E+00    7.6783285536607435E+00    2.5850983574371309E+00
Ga   -3.1054848486819933E+00    5.6598852870841512E+00    2.9368916878003839E+00
N   -3.1281346898871347E+00    5.7099160676916396E+00    5.0976174532344247E+00
Ga   -3.1424897148313748E+00    7.5303917152073216E+00    5.8583883730887560E+00
N   -3.1379795559264765E+00    7.5523001789527724E+00    7.8499487041954144E+00
Ga   -3.1381864498375633E+00    5.7075354126837707E+00    8.5021976316006285E+00
N   -3.1383500831262707E+00    5.7027234291254807E+00    1.0474698327722908E+01
Ga   -3.1444670121064164E+00    7.5427857448661619E+00    1.1117126652747833E+01
N   -3.1417737700786246E+00    7.5218126774049594E+00    1.3112028669526344E+01
Ga   -3.1423110848224978E+00    5.7011400055793358E+00    1.3913833753831389E+01
N   -3.1410528670432485E+00    5.7013440213192350E+00    1.6117784736474082E+01
Ga   -3.1408708297009960E+00    7.7434463055469545E+00    1.6525225982027930E+01
Ga   -3.1486758909251278E+00    9.4433846360727536E+00    1.6099475395983387E+00
N   -4.6302901711102420E+00    1.0288799900624602E+01    2.6110262178321051E+00
Ga   -4.8735355029542688E+00    8.4014351704325492E+00    3.3206129090737053E+00
N   -4.7509400662369830E+00    8.4807911614767484E+00    5.2827260834021494E+00
Ga   -4.7654424093842040E+00    1.0353944415042630E+01    5.8518737511935406E+00
N   -4.7557379958733952E+00    1.0347913382872967E+01    7.8453018703407436E+00
Ga   -4.7519616258194421E+00    8.4872955882481627E+00    8.4659581503573751E+00
N   -4.7412170380945282E+00    8.4900701701695009E+00    1.0467212828017381E+01
Ga   -4.7660031422432176E+00    1.0349874890473043E+01    1.1106455444058623E+01
N   -4.7805596645426425E+00    1.0359507367553352E+01    1.3105537827708298E+01
Ga   -4.7384022446410503E+00    8.4925454202602690E+00    1.3666519518514342E+01
N   -4.7637862370179320E+00    8.4758611806503747E+00    1.5628973445609665E+01
Ga   -4.5912798373413537E+00    1.0250595623561701E+01    1.6525231599884634E+01
N   -3.1396379385482485E+00    9.4205658195188615E+00    1.7658453973811557E+01
N    3.3137713628895420E+00    2.0121310877687568E+00    2.6637207547330739E+00
Ga    3.3188627128540538E+00    2.7778119662399064E-01    3.3565370968062713E+00
N    3.2991026429955848E+00    1.3415015446309247E-01    5.3145769091221222E+00
Ga    3.3178498995233054E+00    2.0090225473996517E+00    5.8992928042377581E+00
N    3.3010378031673926E+00    1.9929117268207079E+00    7.8893409095211569E+00
Ga    3.2894864354396707E+00    1.2692352519210598E-01    8.4878047404128178E+00
N    3.2911194068780363E+00    1.2048062017828443E-01    1.0482951228665966E+01
Ga    3.2903961332621265E+00    1.9876962463192389E+00    1.1080363975501861E+01
N    3.2912474531204037E+00    1.9863072609008974E+00    1.3052518513358764E+01
Ga    3.2906808904162159E+00    1.1488510808054021E-01    1.3665962578343583E+01
N    3.2904259569703478E+00    1.4672143046536471E-01    1.5630292220146499E+01
Ga    3.2926866716029735E+00    1.9854303916358504E+00    1.5905681659591353E+01
N    1.5566297553222024E+00    4.7073551984240103E+00    2.6543698536641944E+00
Ga    1.7758817588400635E+00    2.8740209305357753E+00    3.3487263005994001E+00
N    1.6903049628636801E+00    2.9142322109673526E+00    5.3224321617702239E+00
Ga    1.6998460818076395E+00    4.7743440391905612E+00    5.8920921891058731E+00
N    1.6888266441872770E+00    4.7781903935051968E+00    7.8733778539607284E+00
Ga    1.6781306900369037E+00    2.9148593098723703E+00    8.4840119544561681E+00
N    1.6741763146759525E+00    2.9194750355263270E+00    1.0481181531482035E+01
Ga    1.7020841028362017E+00    4.7812695005258297E+00    1.1111536318061809E+01
N    1.7170264935516264E+00    4.7900082006017035E+00    1.3110513942102667E+01
Ga    1.6722148675133885E+00    2.9215319535401698E+00    1.3667958199983664E+01
N    1.6983741012539466E+00    2.9039746608012229E+00    1.5631740107337587E+01
Ga    1.5288032465562420E+00    4.6808098116316259E+00    1.6526101942284743E+01
N    8.7337205398323695E-02    7.5454157986494224E+00    2.7327916060841102E+00
Ga    7.3753759586735163E-02    5.7033612744016331E+00    3.4066023110810453E+00
N    6.9584054314891106E-02    5.7184353903451113E+00    5.3405777686715847E+00
Ga    1.0773763402488229E-01    7.5723736343370147E+00    5.9434515161106081E+00
N    8.2315658801268773E-02    7.5651776379188087E+00    7.9099565022873071E+00
Ga    7.4202287203455355E-02    5.6934823301049864E+00    8.4967741853848047E+00
N    7.4867753145344926E-02    5.6907093961108197E+00    1.0488501950072108E+01
Ga    7.9127425206644453E-02    7.5597766583953421E+00    1.1077670657238887E+01
N    7.7444817764336940E-02    7.5574389671864450E+00    1.3050749258028928E+01
Ga    7.7931656426823551E-02    5.6866676634818294E+00    1.3668582236113529E+01
N    7.7157449561870192E-02    5.7181413734739088E+00    1.5633720170192332E+01
Ga    7.6055548479110682E-02    7.5569261315674021E+00    1.5907558448163451E+01
N   -1.6324691466245156E+00    1.0281230892997167E+01    2.6039062081457871E+00
Ga   -1.4800236528564827E+00    8.4714993979456477E+00    3.3997681866843772E+00
N   -1.5137712201555458E+00    8.4828650568621295E+00    5.3220053382629064E+00
Ga   -1.5092292134797110E+00    1.0363324137300726E+01    5.8898494374165855E+00
N   -1.5265607467481863E+00    1.0344220542471069E+01    7.8735513501723959E+00
Ga   -1.5418121902451434E+00    8.4915331131626566E+00    8.4998994200829312E+00
N   -1.5430314785535135E+00    8.4909193847749069E+00    1.0489614105462060E+01
Ga   -1.5167724264909335E+00    1.0353072898678263E+01    1.1116770606070967E+01
N   -1.5004670701434741E+00    1.0360831185023992E+01    1.3112719730657103E+01
Ga   -1.5438747588327699E+00    8.4919420463239206E+00    1.3666757235230616E+01
N   -1.5172696295010761E+00    8.4740980074302783E+00    1.5629716004726795E+01
Ga   -1.6889555609228619E+00    1.0251287265591479E+01    1.6524390425143622E+01
N    6.6314658739100496E+00    2.0739087905096594E+00    2.6067634079009006E+00
Ga    6.5477471477530083E+00    1.4961097057035680E-01    3.0110471752632386E+00
N    6.4861695722020984E+00    1.3972265572159878E-01    5.1561394181980926E+00
Ga    6.4614664543417915E+00    1.9541588768253910E+00    5.9111327192930796E+00
N    6.4945770874835480E+00    1.9785513382731410E+00    7.8912821342522861E+00
Ga    6.5175167885122738E+00    1.2300973353068591E-01    8.4957655531130314E+00
N    6.5126356949162894E+00    1.2730509815562563E-01    1.0472113193622025E+01
Ga    6.5113746234165237E+00    1.9711731828288124E+00    1.1113154513752319E+01
N    6.5089987041026118E+00    1.9503887418261820E+00    1.3110549480909812E+01
Ga    6.5082193950894540E+00    1.3147001419348534E-01    1.3912139531150338E+01
N    6.5080469036300492E+00    1.3089580727151989E-01    1.6117708150935066E+01
Ga    6.5085646743689871E+00    2.1792404084200281E+00    1.6532178094192535E+01
Ga    8.1229119971415180E+00    2.8961386253756407E+00    1.2188041740727280E+00
N    4.8723900883276912E+00    4.7570014170705877E+00    2.5040860853742868E+00
Ga    4.9230355305333724E+00    2.8745266878247668E+00    3.1737087234401442E+00
N    4.9193231607722776E+00    2.9235355588051140E+00    5.2211078119803984E+00
Ga    4.9081407045935475E+00    4.7727027797892365E+00    5.8338760660646134E+00
N    4.9004238549695218E+00    4.7762024531667668E+00    7.8384118927113118E+00
Ga    4.9026023634238411E+00    2.9292297731766372E+00    8.5072878354862969E+00
N    4.9079474883375109E+00    2.9262915058068200E+00    1.0495664106567537E+01
Ga    4.8839328000430022E+00    4.7867740931228289E+00    1.1119923160322786E+01
N    4.8687632016073472E+00    4.7914859845687063E+00    1.3114705658160105E+01
Ga    4.9126419572464677E+00    2.9212397471078941E+00    1.3667598634573118E+01
N    4.8848991657973944E+00    2.9033824097763175E+00    1.5630207531274964E+01
Ga    5.0623982693814122E+00    4.6772688166632488E+00    1.6531901125026064E+01
N    6.5089227203416566E+00    3.8501969624694139E+00    1.7668117430834968E+01
N    3.2741847910446666E+00    7.5552509914857051E+00    2.6441504560803804E+00
N    3.2857879868471986E+00    5.6889927915166831E+00    5.1657717647387624E+00
Ga    3.2923020051114276E+00    7.5534703014462314E+00    5.8304866705518057E+00
N    3.2926181678389730E+00    7.5563138964391179E+00    7.8297823704603555E+00
Ga    3.2996352931807724E+00    5.7073353445287598E+00    8.4776204302928733E+00
N    3.2943484581630496E+00    5.7040364529902732E+00    1.0459251238610099E+01
Ga    3.2970231104121095E+00    7.5427607954505387E+00    1.1108917571351844E+01
N    3.2938134829034587E+00    7.5210829649859772E+00    1.3107328816260940E+01
Ga    3.2932584537284724E+00    5.7010697525321179E+00    1.3912209550036065E+01
N    3.2926832561772739E+00    5.7011101079484527E+00    1.6119017070759917E+01
Ga    3.2924320011314188E+00    7.7412029757710750E+00    1.6526627112643091E+01
Ga    4.6655863954060095E+00    1.0280131486392943E+01    5.3673710257922869E-01
N    1.6912224581301238E+00    1.0338559831216337E+01    2.5575393288538897E+00
Ga    1.7015878079129660E+00    8.5792303981247091E+00    3.2234310892876366E+00
N    1.6803676203337428E+00    8.4821792659816531E+00    5.2260342697801496E+00
Ga    1.6760622882439895E+00    1.0362117970588793E+01    5.8036512008573311E+00
N    1.6835653479266453E+00    1.0348890032227999E+01    7.8243907174470086E+00
Ga    1.7029809002453000E+00    8.5016445371372971E+00    8.4855508580950669E+00
N    1.6973782125921113E+00    8.4942397079846863E+00    1.0480471117304166E+01
Ga    1.6725138892766118E+00    1.0351048338698959E+01    1.1120682015082059E+01
N    1.6538020719655500E+00    1.0359877819545318E+01    1.3115774118793187E+01
Ga    1.6978186729840277E+00    8.4908944717763770E+00    1.3667959256794802E+01
N    1.6704800073087833E+00    8.4739270350407807E+00    1.5631920250171785E+01
Ga    1.8379922714775530E+00    1.0252691058060437E+01    1.6524360678993911E+01
N    3.2911539306122868E+00    9.4214329612445784E+00    1.7659813413512659E+01
N    9.5853018392448117E+00    2.0665731625236177E+00    2.6533781432297516E+00
Ga    9.6506182489121741E+00    1.6868441302136647E-01    3.1558321031782155E+00
N    9.7298974378403926E+00    1.5165584820414293E-01    5.2012060561798341E+00
Ga    9.7558108879823227E+00    1.9526261237337534E+00    5.9495174122735808E+00
N    9.7344381656139713E+00    1.9791229302936617E+00    7.9186175814709401E+00
Ga    9.7296416120360245E+00    1.0830572878009957E-01    8.4822955590171585E+00
N    9.7260852696354725E+00    1.1467598750410395E-01    1.0479522032728880E+01
Ga    9.7236658963871747E+00    1.9861018030026123E+00    1.1071547414248283E+01
N    9.7241446480738514E+00    1.9855397351315238E+00    1.3046910660282911E+01
Ga    9.7260210715010142E+00    1.1635276234467717E-01    1.3667660076657530E+01
N    9.7257595100495902E+00    1.4701805080666397E-01    1.5633287692284616E+01
Ga    9.7243159833270951E+00    1.9859904167645086E+00    1.5908810223594541E+01
N    8.1260079878675739E+00    4.6285481233774171E+00    2.5776666833222586E+00
Ga    8.1017034125142011E+00    2.9242569356482493E+00    3.6280886431414023E+00
N    8.1173725728577093E+00    2.9212970541559620E+00    5.4973068330405477E+00
Ga    8.1267746074006464E+00    4.8426881696474346E+00    5.8767248077656875E+00
N    8.1215682493638486E+00    4.8002725893199907E+00    7.8659259940482364E+00
Ga    8.1088571196553438E+00    2.9273975602607911E+00    8.4767543060679991E+00
N    8.1079039003359679E+00    2.9251028697778199E+00    1.0477824990606010E+01
Ga    8.1293266858179987E+00    4.7823011432908142E+00    1.1115243832932078E+01
N    8.1466777859034263E+00    4.7903943422739879E+00    1.3112108984083426E+01
Ga    8.1050797420930074E+00    2.9210649638418742E+00    1.3668035590335760E+01
N    8.1325790775897175E+00    2.9033723993840979E+00    1.5630386263380712E+01
Ga    7.9547397429561055E+00    4.6777423367634645E+00    1.6531809219049837E+01
N    6.4956597308507256E+00    7.5344733524084981E+00    2.5960673839529109E+00
Ga    6.5366403634331265E+00    5.7054687083809732E+00    3.1157853646943097E+00
N    6.5089000688548593E+00    5.6850355881868539E+00    5.1778160311366381E+00
Ga    6.4792152747739333E+00    7.5381672364216694E+00    5.8363761400904899E+00
N    6.5004301412316847E+00    7.5542924949628132E+00    7.8414744282486799E+00
Ga    6.5008360928990649E+00    5.7045632594708193E+00    8.4874535809327263E+00
N    6.5057294407580581E+00    5.6940827790361297E+00    1.0481477737650332E+01
Ga    6.5062587352663082E+00    7.5620786919808927E+00    1.1071655269149664E+01
N    6.5073302408780274E+00    7.5587341007684898E+00    1.3045202690791971E+01
Ga    6.5084089425117435E+00    5.6886940107589963E+00    1.3669074698617488E+01
N    6.5083186177885954E+00    5.7203159264900876E+00    1.5632399651544819E+01
Ga    6.5082861223567168E+00    7.5571724363559198E+00    1.5909065246680040E+01
N    4.8967003940145961E+00    1.0371354241659576E+01    2.5148653311656401E+00
Ga    4.9558967675095946E+00    8.4679694986263971E+00    3.1915332610495546E+00
N    4.8879431436869449E+00    8.4938311567508880E+00    5.1987508375775517E+00
Ga    4.9120296792093239E+00    1.0357886341463242E+01    5.7849989052418511E+00
N    4.9070045384081586E+00    1.0348010382389507E+01    7.8052719678271041E+00
Ga    4.8965794047468663E+00    8.4961774766875955E+00    8.4571911757843381E+00
N    4.8925075692639499E+00    8.4939565735613716E+00    1.0461498836137617E+01
Ga    4.9165987787669225E+00    1.0349110119032968E+01    1.1110892707008423E+01
N    4.9322871707230487E+00    1.0359224467197453E+01    1.3108929824130248E+01
Ga    4.8889384448700470E+00    8.4915957894097378E+00    1.3667355951963060E+01
N    4.9143817185600955E+00    8.4752543820081421E+00    1.5631005351332979E+01
Ga    4.7447647819787440E+00    1.0251586886602142E+01    1.6525180843006925E+01
O    5.6975427915600974E-01    4.0514828989021803E+00   -3.2476012106372337E-01
H    2.8932545726318910E+00    4.8623918700630018E+00    4.6208162450100815E-01
C    8.1364961302508687E-01    2.8950342385353394E+00   -1.1393455010039000E+00
H    1.4582744581949492E+00    2.1530484765561928E+00   -6.3881147461534948E-01
H   -1.2344175060936241E-01    2.3991354104364064E+00   -1.4409132798949533E+00
H    1.3284523105062329E+00    3.2400263637180298E+00   -2.0490601746234818E+00
Ga    3.2148630847277246E+00    5.6486760282473654E+00    3.1436895935111955E+00
O    3.6798174108119630E+00    5.4460170796645473E+00    4.8732183309138721E-01
H    1.6436395693171339E-02    7.5032962150744105E+00    1.7088921348754276E+00
C    4.8016240098462273E+00    4.7183518082826632E+00    1.0070843543448160E+00
H    5.6859819088549726E+00    5.2073773501397209E+00    5.7258964163260828E-01
H    3.2757901297910093E+00    7.5086068939166735E+00    1.6158449105169257E+00
H    4.7595954553449475E+00    3.6761945361079262E+00    6.5187075724559074E-01
     &END COORD
     &KIND C
       BASIS_SET DZVP-MOLOPT-SR-GTH-q4
       POTENTIAL GTH-PBE-q4
       &POTENTIAL
2 2
0.3384712400000000E+00 2 -0.8803673979999999E+01  0.1339210850000000E+01
2
0.3025757500000000E+00 1  0.9622486650000001E+01
0.2915069400000000E+00 0
       &END POTENTIAL
     &END KIND
     &KIND O
       BASIS_SET DZVP-MOLOPT-SR-GTH-q6
       POTENTIAL GTH-PBE-q6
       &POTENTIAL
2 4
0.2445543000000000E+00 2 -0.1666721480000000E+02  0.2487311320000000E+01
2
0.2209559200000000E+00 1  0.1833745811000000E+02
0.2113324700000000E+00 0
       &END POTENTIAL
     &END KIND
     &KIND H
       BASIS_SET DZVP-MOLOPT-SR-GTH-q1
       POTENTIAL GTH-PBE-q1
       &POTENTIAL
1
0.2000000000000000E+00 2 -0.4178900440000000E+01  0.7244633100000000E+00
0
       &END POTENTIAL
     &END KIND
     &KIND N
       BASIS_SET DZVP-MOLOPT-SR-GTH
       POTENTIAL GTH-PBE-q5
       &POTENTIAL
2 3
0.2837905100000000E+00 2 -0.1241522559000000E+02  0.1868095920000000E+01
2
0.2554050000000000E+00 1  0.1363026257000000E+02
0.2454945300000000E+00 0
       &END POTENTIAL
     &END KIND
     &KIND Ga
       BASIS_SET DZVP-MOLOPT-SR-GTH
       POTENTIAL GTH-PBE-q13
       &POTENTIAL
2 1 10
0.4900000000000000E+00 0
3
0.4167772300000000E+00 3  0.1047568975000000E+02 -0.4921768140000000E+01  0.8707055900000000E+00
0.7770178090000000E+01 -0.2248152160000000E+01
0.1784415450000000E+01
0.5696265200000000E+00 2  0.1777985340000000E+01  0.1958597600000000E+00
-0.2317443900000000E+00
0.2381265000000000E+00 1 -0.1624868022000000E+02
       &END POTENTIAL
     &END KIND
     &TOPOLOGY
       NUMBER_OF_ATOMS  212
       MULTIPLE_UNIT_CELL  1 1 1
     &END TOPOLOGY
     &COLVAR
       &DISTANCE
         ATOMS  127 211
       &END DISTANCE
       &PRINT
       &END PRINT
     &END COLVAR
   &END SUBSYS
 &END FORCE_EVAL
