 # Version information for this restart file 
 # current date 2019-07-21 21:29:37.983
 # current working dir /lustre04/scratch/rzk/rzk/GaN-carbene/443-adatoms-both-2x2/09-BondBreaking-CH/04-0401-H2C-to-NTop-OPT
 # Program compiled at                              Sun Apr  7 00:48:11 EDT 2019
 # Program compiled on                          beluga2.int.ets1.calculquebec.ca
 # Program compiled for                        Beluga-Linux-x86-64-intel-openmpi
 # Source code revision number                                         svn:18619
 &GLOBAL
   PRINT_LEVEL  MEDIUM
   PROJECT_NAME TEST
   RUN_TYPE  GEO_OPT
 &END GLOBAL
 &MOTION
   &GEO_OPT
     MAX_ITER  500
     STEP_START_VAL  11
   &END GEO_OPT
 &END MOTION
 &FORCE_EVAL
   METHOD  QS
   STRESS_TENSOR  ANALYTICAL
   &DFT
     BASIS_SET_FILE_NAME BASIS_MOLOPT
     POTENTIAL_FILE_NAME GTH_POTENTIALS
     UKS  T
     SURFACE_DIPOLE_CORRECTION  T
     SURF_DIP_DIR  Z
     &SCF
       MAX_SCF  80
       EPS_SCF     5.0000000000000004E-06
       &OT  T
         PRECONDITIONER  FULL_ALL
       &END OT
       &OUTER_SCF  T
         OPTIMIZER  NONE
         EPS_SCF     5.0000000000000004E-06
         MAX_SCF  4
       &END OUTER_SCF
       &PRINT
         &RESTART  OFF
           BACKUP_COPIES  1
           &EACH
             JUST_ENERGY  0
             QS_SCF  0
             MD  20
           &END EACH
         &END RESTART
       &END PRINT
     &END SCF
     &QS
       EPS_DEFAULT     1.0000000000000000E-14
       METHOD  GPW
     &END QS
     &MGRID
       NGRIDS  5
       CUTOFF     1.2000000000000000E+03
     &END MGRID
     &XC
       DENSITY_CUTOFF     1.0000000000000000E-10
       GRADIENT_CUTOFF     1.0000000000000000E-10
       TAU_CUTOFF     1.0000000000000000E-10
       &XC_FUNCTIONAL  NO_SHORTCUT
         &PBE  T
         &END PBE
       &END XC_FUNCTIONAL
       &VDW_POTENTIAL
         POTENTIAL_TYPE  PAIR_POTENTIAL
         &PAIR_POTENTIAL
           R_CUTOFF     1.0000000000000009E+01
           TYPE  DFTD3
           PARAMETER_FILE_NAME dftd3.dat
           REFERENCE_FUNCTIONAL PBE
           EPS_CN     9.9999999999999995E-07
           CALCULATE_C9_TERM  T
           REFERENCE_C9_TERM  T
           LONG_RANGE_CORRECTION  F
           VERBOSE_OUTPUT  F
         &END PAIR_POTENTIAL
       &END VDW_POTENTIAL
     &END XC
   &END DFT
   &SUBSYS
     &CELL
       A     1.2864472766435110E+01    0.0000000000000000E+00    0.0000000000000000E+00
       B    -6.4322363581020028E+00    1.1140960178524477E+01    0.0000000000000000E+00
       C     0.0000000000000000E+00    0.0000000000000000E+00    3.2000000000000000E+01
       MULTIPLE_UNIT_CELL  1 1 1
       &CELL_REF
         A     1.2982353780853531E+01    0.0000000000000000E+00    0.0000000000000000E+00
         B    -6.4911768904267628E+00    1.1243048175136114E+01    0.0000000000000000E+00
         C     0.0000000000000000E+00    0.0000000000000000E+00    3.2000000000000000E+01
         MULTIPLE_UNIT_CELL  1 1 1
       &END CELL_REF
     &END CELL
     &COORD
N    6.9229960156879350E-02    2.1378049637861660E+00    2.5499105275138501E+00
Ga    1.0931525539094455E-01    1.9482749479109379E-01    2.9849011115895348E+00
N    9.9107089849798810E-02    1.4196272878981139E-01    5.0803974404846013E+00
Ga    7.7445427283845999E-02    1.9671314152337005E+00    5.8432430115245921E+00
N    7.1085142134064444E-02    1.9765420608980384E+00    7.8391634288959118E+00
Ga    6.7292954047384779E-02    1.2272347141616055E-01    8.4711762077555406E+00
N    7.0015244468366114E-02    1.2210456379539311E-01    1.0449115069094551E+01
Ga    7.5950378309320637E-02    1.9575494950318117E+00    1.1119903660900185E+01
N    7.3515755415663908E-02    1.9402523461194163E+00    1.3108996326222625E+01
Ga    7.5706901215191691E-02    1.2188951993597358E-01    1.3921687915788603E+01
N    7.4266823803267656E-02    1.2222541792432776E-01    1.6114602726718292E+01
Ga    7.3674661484915790E-02    2.1729467820888422E+00    1.6533494714155367E+01
Ga    1.5143729086275290E-01    3.8522880776035513E+00    1.4199565548149067E+00
N   -1.3894460697034128E+00    4.7170789698711895E+00    2.5354311287319331E+00
Ga   -1.6185290377275201E+00    2.8937988604702269E+00    3.2797287604263428E+00
N   -1.5534505093455742E+00    2.9080720323366203E+00    5.2621400636622999E+00
Ga   -1.5635799486914754E+00    4.7753038568223261E+00    5.8683257436107201E+00
N   -1.5438793862914151E+00    4.7680439108451482E+00    7.8552821080752695E+00
Ga   -1.5146787330613944E+00    2.9154163635914396E+00    8.5114883163886539E+00
N   -1.5202046718560540E+00    2.9169473151435050E+00    1.0492658420275848E+01
Ga   -1.5491867775017851E+00    4.7767350753280775E+00    1.1128879043543794E+01
N   -1.5669715770534114E+00    4.7833413160701737E+00    1.3115715157979734E+01
Ga   -1.5239783982272044E+00    2.9119291462781285E+00    1.3668585981011198E+01
N   -1.5495183871813354E+00    2.8952527082820274E+00    1.5626485890436289E+01
Ga   -1.3708556591572509E+00    4.6683684105370249E+00    1.6533376172486356E+01
N    6.7517220497464100E-02    3.8374415995351385E+00    1.7678130129029682E+01
N   -3.1183230205359012E+00    7.6799619250682651E+00    2.5780138250693958E+00
Ga   -3.0961975035214055E+00    5.6709666752103445E+00    2.9452100184893393E+00
N   -3.1280951943042239E+00    5.7071709711467031E+00    5.0957522315551831E+00
Ga   -3.1425512742652444E+00    7.5312511766844326E+00    5.8591605598734766E+00
N   -3.1410000487658620E+00    7.5465416630215429E+00    7.8451580820886857E+00
Ga   -3.1379876109980640E+00    5.7031281017387814E+00    8.5053069864280371E+00
N   -3.1408507767062526E+00    5.6948329986737880E+00    1.0471998424235951E+01
Ga   -3.1474453047944060E+00    7.5349309762727854E+00    1.1119777871549740E+01
N   -3.1450524707226055E+00    7.5136893828106679E+00    1.3109472922293651E+01
Ga   -3.1447004766626163E+00    5.6934306839002105E+00    1.3926718432631363E+01
N   -3.1440574545093227E+00    5.6923839132054042E+00    1.6113381168789751E+01
Ga   -3.1440796096024721E+00    7.7391007891070034E+00    1.6533514386139164E+01
Ga   -3.1420957102205609E+00    9.4437969065803244E+00    1.5988697075811040E+00
N   -4.6268933215393728E+00    1.0290413206916122E+01    2.5964783797689188E+00
Ga   -4.8727806360877670E+00    8.4056429079284296E+00    3.3136927633601130E+00
N   -4.7484607766671099E+00    8.4794518387481190E+00    5.2734089672811146E+00
Ga   -4.7646212749649113E+00    1.0353951558423677E+01    5.8444604050918407E+00
N   -4.7568698112286656E+00    1.0343715778924771E+01    7.8358780280142266E+00
Ga   -4.7548184020962214E+00    8.4834062477859256E+00    8.4662843904403875E+00
N   -4.7448022361541264E+00    8.4830068931184730E+00    1.0461992761212514E+01
Ga   -4.7699992659156445E+00    1.0342827366777231E+01    1.1109601066382551E+01
N   -4.7844069111680145E+00    1.0352182018737889E+01    1.3102141107406837E+01
Ga   -4.7417003086733134E+00    8.4857058494766395E+00    1.3668514247337336E+01
N   -4.7687000391757053E+00    8.4715450281943685E+00    1.5626104699935077E+01
Ga   -4.5832256824150086E+00    1.0238140750094029E+01    1.6533840935111250E+01
N   -3.1446570164671792E+00    9.4002562326615280E+00    1.7677196644500082E+01
N    3.3202792350837016E+00    2.0140598435399988E+00    2.6547319534790081E+00
Ga    3.3209414059625875E+00    2.7954187893841281E-01    3.3467897950428842E+00
N    3.3012022577853664E+00    1.3202816215616342E-01    5.3051908800221446E+00
Ga    3.3147038555381405E+00    2.0050534000613927E+00    5.8980081137517821E+00
N    3.2999082485976095E+00    1.9878538266128596E+00    7.8805779113850347E+00
Ga    3.2864659078638176E+00    1.2180626361158067E-01    8.4882424202088771E+00
N    3.2873647842598985E+00    1.1383222206977821E-01    1.0477450978527740E+01
Ga    3.2871477699221354E+00    1.9797562070103365E+00    1.1083503354374683E+01
N    3.2882121944615630E+00    1.9785550471697317E+00    1.3049136853151547E+01
Ga    3.2870641948477788E+00    1.0653314478734527E-01    1.3668128559806258E+01
N    3.2873529399866985E+00    1.3927574181659155E-01    1.5624610014857980E+01
Ga    3.2884096968158834E+00    1.9779496616321197E+00    1.5899019875989145E+01
N    1.5625698232397678E+00    4.7123311242714134E+00    2.6464090769821569E+00
Ga    1.7798066679970328E+00    2.8723071005693130E+00    3.3393776407737952E+00
N    1.6898945205436522E+00    2.9110392286837903E+00    5.3104005837292583E+00
Ga    1.7006798029768140E+00    4.7697630838975886E+00    5.8898242278267654E+00
N    1.6877034848792443E+00    4.7709508323095875E+00    7.8677801754525438E+00
Ga    1.6768894107330388E+00    2.9087356668695605E+00    8.4863449337040926E+00
N    1.6718650495835088E+00    2.9114263480390061E+00    1.0476547971913305E+01
Ga    1.6985134602525482E+00    4.7746117115908255E+00    1.1114260594462765E+01
N    1.7132223274486700E+00    4.7831038752397532E+00    1.3105594592338221E+01
Ga    1.6681457803990800E+00    2.9149810452690423E+00    1.3669649272540113E+01
N    1.6963261123515783E+00    2.8981057569987172E+00    1.5625777281080772E+01
Ga    1.5130447503757740E+00    4.6651985733187500E+00    1.6535219621697003E+01
N    9.2437679231446135E-02    7.5480558151403025E+00    2.7309699453044440E+00
Ga    7.8984695620753193E-02    5.7041200244307442E+00    3.4028905831328089E+00
N    6.9877850832915311E-02    5.7140549285262754E+00    5.3343945689473911E+00
Ga    1.1044086257476944E-01    7.5684462263911483E+00    5.9394679338092775E+00
N    8.1064860323784294E-02    7.5593776120789906E+00    7.9023587242204227E+00
Ga    7.3782146238357924E-02    5.6874973290532367E+00    8.4963880779136414E+00
N    7.1669971058905019E-02    5.6833363490583375E+00    1.0482628450305487E+01
Ga    7.4194319382276011E-02    7.5516285659305833E+00    1.1077638806309889E+01
N    7.3341056068649768E-02    7.5498323128328639E+00    1.3044474506360709E+01
Ga    7.4563825862481253E-02    5.6796291166096102E+00    1.3670677651835103E+01
N    7.6009316406131219E-02    5.7105061668658124E+00    1.5628190107443231E+01
Ga    6.9526277920922183E-02    7.5474510229328819E+00    1.5908025009556530E+01
N   -1.6262246925640658E+00    1.0280127602102276E+01    2.5955680886978074E+00
Ga   -1.4783628486311842E+00    8.4712227608768380E+00    3.3976677349143958E+00
N   -1.5129414320844232E+00    8.4791024650285571E+00    5.3174111960286918E+00
Ga   -1.5134872184513113E+00    1.0358620970575126E+01    5.8887022624408987E+00
N   -1.5300539397410862E+00    1.0339446849746631E+01    7.8675476870830972E+00
Ga   -1.5438010684213195E+00    8.4856259652835391E+00    8.4987517003041404E+00
N   -1.5468838125414119E+00    8.4834619229415491E+00    1.0483609939412963E+01
Ga   -1.5207887970747820E+00    1.0344707942505329E+01    1.1119417559854684E+01
N   -1.5039922969258688E+00    1.0352893442103159E+01    1.3108885186666816E+01
Ga   -1.5472452350090551E+00    8.4846767653265402E+00    1.3669259910940426E+01
N   -1.5187281817301768E+00    8.4701274192426546E+00    1.5627103298494381E+01
Ga   -1.7054610063525275E+00    1.0237780223078136E+01    1.6533624962403785E+01
N    6.6375837860188973E+00    2.0813847769988540E+00    2.6321842541836076E+00
Ga    6.5476019652864954E+00    1.4160252221309785E-01    3.0220633463644022E+00
N    6.4888607901683644E+00    1.3669906463068737E-01    5.1552042588395564E+00
Ga    6.4547019715908718E+00    1.9490431227566085E+00    5.9204234534766726E+00
N    6.4902478463568976E+00    1.9725523428408758E+00    7.8928272365885634E+00
Ga    6.5131577473201165E+00    1.1562016278523379E-01    8.4997263137811316E+00
N    6.5086636846976793E+00    1.1944297960365770E-01    1.0469769418350165E+01
Ga    6.5072470190600118E+00    1.9620427646414118E+00    1.1118775392021114E+01
N    6.5054756783865004E+00    1.9419445880596506E+00    1.3108666522673330E+01
Ga    6.5024062793954318E+00    1.2352775934268541E-01    1.3924626457384464E+01
N    6.5028642173640900E+00    1.2269803981506623E-01    1.6114614271644758E+01
Ga    6.5034791265327669E+00    2.1745888932226709E+00    1.6534633246010625E+01
Ga    8.1001631320681291E+00    2.9156732765911708E+00    1.2975863903289722E+00
N    4.8733464081805211E+00    4.7622922734124513E+00    2.4921570285105474E+00
Ga    4.9192359934028866E+00    2.8843937395649464E+00    3.1820643695470281E+00
N    4.9208382998717415E+00    2.9235652357669437E+00    5.2129347974992184E+00
Ga    4.9058926610310136E+00    4.7728103498046668E+00    5.8380823602410441E+00
N    4.8995978438135470E+00    4.7697084132545076E+00    7.8349073516121850E+00
Ga    4.8985373458584407E+00    2.9232793830320940E+00    8.5112911647292577E+00
N    4.9044058165491604E+00    2.9187167342895473E+00    1.0492425837943374E+01
Ga    4.8789160214925964E+00    4.7797811557390872E+00    1.1123987851817111E+01
N    4.8644357297259679E+00    4.7841952881593688E+00    1.3111407692859380E+01
Ga    4.9094120695843726E+00    2.9143835331574381E+00    1.3669436227350303E+01
N    4.8802510459731190E+00    2.8973258248199656E+00    1.5625529993267223E+01
Ga    5.0655814444985827E+00    4.6649331678901156E+00    1.6534319917743034E+01
N    6.5091672966651162E+00    3.8384299486812776E+00    1.7678458416419247E+01
N    3.2772515969594056E+00    7.5595459857515568E+00    2.6255156870164265E+00
N    3.2862042864220529E+00    5.6884890859292803E+00    5.1617242185595247E+00
Ga    3.2976378609893677E+00    7.5535826610751649E+00    5.8254359263084092E+00
N    3.2915593403118213E+00    7.5510665329935494E+00    7.8231702203371096E+00
Ga    3.2965056204739245E+00    5.7022216298294319E+00    8.4780330421596695E+00
N    3.2909108841963564E+00    5.6965772141298752E+00    1.0454654371205365E+01
Ga    3.2922591374202401E+00    7.5338482581444373E+00    1.1113895386487490E+01
N    3.2894826049744235E+00    7.5128655165119671E+00    1.3107295269612770E+01
Ga    3.2885321325432724E+00    5.6910018376391935E+00    1.3924019239899124E+01
N    3.2888939911700641E+00    5.6904580569550509E+00    1.6114785821901666E+01
Ga    3.2892513339645877E+00    7.7289497069814486E+00    1.6519949548346361E+01
Ga    4.3251033246866806E+00    1.0524744315994289E+01    5.7775755103466886E-01
N    1.7053510519953443E+00    1.0346676171863997E+01    2.5523153809129502E+00
Ga    1.7087506855222765E+00    8.5800888626096921E+00    3.2176438624224875E+00
N    1.6841322211323262E+00    8.4824211631405273E+00    5.2163609468513989E+00
Ga    1.6747544003127737E+00    1.0355210056334975E+01    5.8173188521354113E+00
N    1.6816766025558105E+00    1.0342893141006268E+01    7.8262712334867688E+00
Ga    1.7012057760641950E+00    8.4931331741597766E+00    8.4883209754162205E+00
N    1.6933951021066367E+00    8.4860426850522188E+00    1.0477418002658636E+01
Ga    1.6671252278068465E+00    1.0342313009949500E+01    1.1125459642820848E+01
N    1.6491273186537809E+00    1.0352211952892750E+01    1.3114994092331779E+01
Ga    1.6923498448563310E+00    8.4830701016916414E+00    1.3669021696163947E+01
N    1.6623759960052049E+00    8.4659994742674414E+00    1.5629896614233768E+01
Ga    1.8368651576437312E+00    1.0244234375897838E+01    1.6518975578276521E+01
N    3.2894368574795521E+00    9.4061091145967914E+00    1.7638272921964390E+01
N    9.5752791537245621E+00    2.0779971407714259E+00    2.6578453873344117E+00
Ga    9.6441983775177604E+00    1.7217539103163079E-01    3.2066685777025743E+00
N    9.7274087702912180E+00    1.5801126175302996E-01    5.2191977504634464E+00
Ga    9.7677162891646176E+00    1.9528493090216803E+00    5.9795831036447895E+00
N    9.7351405344710074E+00    1.9743349360162699E+00    7.9330582089173216E+00
Ga    9.7289689889185915E+00    9.8833845526322545E-02    8.4926012944784794E+00
N    9.7227791407365469E+00    1.0567377382308074E-01    1.0480894729443355E+01
Ga    9.7207686787088008E+00    1.9793996806728016E+00    1.1073553088306237E+01
N    9.7205538544967673E+00    1.9777652778142563E+00    1.3042201517296753E+01
Ga    9.7225386642448068E+00    1.0948998435888878E-01    1.3667300906175434E+01
N    9.7218645608226097E+00    1.4299334698390836E-01    1.5628649821367125E+01
Ga    9.7212876181875245E+00    1.9819661521188061E+00    1.5907063944883397E+01
N    8.1221437766781968E+00    4.6326521407706815E+00    2.6006274952509081E+00
Ga    8.1242528070136633E+00    2.9208462213292106E+00    3.6718421218865829E+00
N    8.1195682169445949E+00    2.9204184720049700E+00    5.5293113093986621E+00
Ga    8.1250388935869324E+00    4.8513413645319021E+00    5.8906418495477535E+00
N    8.1186292120914665E+00    4.7982081140548898E+00    7.8705938593803664E+00
Ga    8.1039316826830614E+00    2.9234353602999090E+00    8.4858555791666213E+00
N    8.1029493434703994E+00    2.9182680537072319E+00    1.0477630956600320E+01
Ga    8.1271706594093267E+00    4.7760669898913690E+00    1.1119891419213396E+01
N    8.1441209975733937E+00    4.7832309568578859E+00    1.3109826997304051E+01
Ga    8.1017756250268107E+00    2.9136506924609322E+00    1.3669568829226426E+01
N    8.1281285355344259E+00    2.8957585799244718E+00    1.5627064682858244E+01
Ga    7.9473291643286572E+00    4.6684471386004214E+00    1.6534638017826680E+01
N    6.4990305810236073E+00    7.5386181397791638E+00    2.5840373130597931E+00
Ga    6.5265209595835110E+00    5.7166602174190810E+00    3.1286828226292980E+00
N    6.5081995601078164E+00    5.6842440255823981E+00    5.1758843632954736E+00
Ga    6.4758454165851305E+00    7.5442728867930677E+00    5.8306985460732959E+00
N    6.4970931407701151E+00    7.5498133855321941E+00    7.8314273806476358E+00
Ga    6.4968805931181830E+00    5.7013207507166079E+00    8.4934304799062552E+00
N    6.5018315233485575E+00    5.6860784323857692E+00    1.0479202038987149E+01
Ga    6.5031537615979129E+00    7.5543816574817040E+00    1.1073981161417064E+01
N    6.5038759315983938E+00    7.5506759988725145E+00    1.3041102634753633E+01
Ga    6.5046529624826643E+00    5.6808376082769243E+00    1.3669989510243616E+01
N    6.5026504670578600E+00    5.7115799425133824E+00    1.5627206752573088E+01
Ga    6.5082305176680668E+00    7.5480281557751114E+00    1.5907448608423982E+01
N    4.8757363663210169E+00    1.0392293284709128E+01    2.5047186170092259E+00
Ga    4.9572505288134039E+00    8.4853847652417258E+00    3.1552178577489021E+00
N    4.8871008970696312E+00    8.4967848018840169E+00    5.1752337600175595E+00
Ga    4.9188443740571230E+00    1.0352824911698534E+01    5.7837062671476973E+00
N    4.9048846744422478E+00    1.0342642138852149E+01    7.7996466797343507E+00
Ga    4.8930932119253718E+00    8.4908687725178407E+00    8.4607113046703937E+00
N    4.8881637349014770E+00    8.4864148715356169E+00    1.0458850573681300E+01
Ga    4.9153093710600508E+00    1.0341689522591539E+01    1.1116332244765701E+01
N    4.9302402626733715E+00    1.0352275533936742E+01    1.3108788481335537E+01
Ga    4.8861548115612088E+00    8.4840603912988382E+00    1.3667886800850244E+01
N    4.9155519231995335E+00    8.4668147980106045E+00    1.5628629446338143E+01
Ga    4.7412595651284164E+00    1.0244207115337407E+01    1.6518919625999196E+01
O    5.9431830081323000E-01    4.1265871701305041E+00   -3.3026649980581391E-01
H    2.9288128020698392E+00    4.9253052651410796E+00    4.0569275477496347E-01
C    8.8274274195064351E-01    3.0161763407986086E+00   -1.1909967654515963E+00
H    1.5060371058066484E+00    2.2491805547049277E+00   -7.0122573678800304E-01
H   -3.6455566857424682E-02    2.5347662530038053E+00   -1.5633863575834250E+00
H    1.4395493494145901E+00    3.4108538627201113E+00   -2.0550823678943311E+00
Ga    3.2182951755941196E+00    5.6542227045195697E+00    3.1424078032425622E+00
O    3.7323307262608401E+00    5.4836297026083516E+00    4.4405487981063246E-01
H    2.0242601310955451E-02    7.5045473129947240E+00    1.7071708431337622E+00
C    4.8200949699659779E+00    4.7261584922546405E+00    9.9285211902338322E-01
H    5.7281265168768902E+00    5.1902258679279880E+00    5.7743428339442227E-01
H    3.2746926467479271E+00    7.5017936295659853E+00    1.5970682748902036E+00
H    4.7515974922277682E+00    3.6843364016391829E+00    6.3768798421308770E-01
     &END COORD
     &KIND C
       BASIS_SET DZVP-MOLOPT-SR-GTH-q4
       POTENTIAL GTH-PBE-q4
       &POTENTIAL
2 2
0.3384712400000000E+00 2 -0.8803673979999999E+01  0.1339210850000000E+01
2
0.3025757500000000E+00 1  0.9622486650000001E+01
0.2915069400000000E+00 0
       &END POTENTIAL
     &END KIND
     &KIND O
       BASIS_SET DZVP-MOLOPT-SR-GTH-q6
       POTENTIAL GTH-PBE-q6
       &POTENTIAL
2 4
0.2445543000000000E+00 2 -0.1666721480000000E+02  0.2487311320000000E+01
2
0.2209559200000000E+00 1  0.1833745811000000E+02
0.2113324700000000E+00 0
       &END POTENTIAL
     &END KIND
     &KIND H
       BASIS_SET DZVP-MOLOPT-SR-GTH-q1
       POTENTIAL GTH-PBE-q1
       &POTENTIAL
1
0.2000000000000000E+00 2 -0.4178900440000000E+01  0.7244633100000000E+00
0
       &END POTENTIAL
     &END KIND
     &KIND N
       BASIS_SET DZVP-MOLOPT-SR-GTH
       POTENTIAL GTH-PBE-q5
       &POTENTIAL
2 3
0.2837905100000000E+00 2 -0.1241522559000000E+02  0.1868095920000000E+01
2
0.2554050000000000E+00 1  0.1363026257000000E+02
0.2454945300000000E+00 0
       &END POTENTIAL
     &END KIND
     &KIND Ga
       BASIS_SET DZVP-MOLOPT-SR-GTH
       POTENTIAL GTH-PBE-q13
       &POTENTIAL
2 1 10
0.4900000000000000E+00 0
3
0.4167772300000000E+00 3  0.1047568975000000E+02 -0.4921768140000000E+01  0.8707055900000000E+00
0.7770178090000000E+01 -0.2248152160000000E+01
0.1784415450000000E+01
0.5696265200000000E+00 2  0.1777985340000000E+01  0.1958597600000000E+00
-0.2317443900000000E+00
0.2381265000000000E+00 1 -0.1624868022000000E+02
       &END POTENTIAL
     &END KIND
     &TOPOLOGY
       NUMBER_OF_ATOMS  212
       MULTIPLE_UNIT_CELL  1 1 1
     &END TOPOLOGY
     &COLVAR
       &DISTANCE
         ATOMS  127 211
       &END DISTANCE
       &PRINT
       &END PRINT
     &END COLVAR
   &END SUBSYS
 &END FORCE_EVAL
