 # Version information for this restart file 
 # current date 2019-07-22 02:44:35.514
 # current working dir /lustre04/scratch/rzk/rzk/GaN-carbene/443-adatoms-both-2x2/09-BondBreaking-CH/04-0401-H2C-to-NTop-OPT
 # Program compiled at                              Sun Apr  7 00:48:11 EDT 2019
 # Program compiled on                          beluga2.int.ets1.calculquebec.ca
 # Program compiled for                        Beluga-Linux-x86-64-intel-openmpi
 # Source code revision number                                         svn:18619
 &GLOBAL
   PRINT_LEVEL  MEDIUM
   PROJECT_NAME TEST
   RUN_TYPE  GEO_OPT
 &END GLOBAL
 &MOTION
   &GEO_OPT
     MAX_ITER  500
     STEP_START_VAL  92
   &END GEO_OPT
 &END MOTION
 &FORCE_EVAL
   METHOD  QS
   STRESS_TENSOR  ANALYTICAL
   &DFT
     BASIS_SET_FILE_NAME BASIS_MOLOPT
     POTENTIAL_FILE_NAME GTH_POTENTIALS
     UKS  T
     SURFACE_DIPOLE_CORRECTION  T
     SURF_DIP_DIR  Z
     &SCF
       MAX_SCF  80
       EPS_SCF     5.0000000000000004E-06
       &OT  T
         PRECONDITIONER  FULL_ALL
       &END OT
       &OUTER_SCF  T
         OPTIMIZER  NONE
         EPS_SCF     5.0000000000000004E-06
         MAX_SCF  4
       &END OUTER_SCF
       &PRINT
         &RESTART  OFF
           BACKUP_COPIES  1
           &EACH
             JUST_ENERGY  0
             QS_SCF  0
             MD  20
           &END EACH
         &END RESTART
       &END PRINT
     &END SCF
     &QS
       EPS_DEFAULT     1.0000000000000000E-14
       METHOD  GPW
     &END QS
     &MGRID
       NGRIDS  5
       CUTOFF     1.2000000000000000E+03
     &END MGRID
     &XC
       DENSITY_CUTOFF     1.0000000000000000E-10
       GRADIENT_CUTOFF     1.0000000000000000E-10
       TAU_CUTOFF     1.0000000000000000E-10
       &XC_FUNCTIONAL  NO_SHORTCUT
         &PBE  T
         &END PBE
       &END XC_FUNCTIONAL
       &VDW_POTENTIAL
         POTENTIAL_TYPE  PAIR_POTENTIAL
         &PAIR_POTENTIAL
           R_CUTOFF     1.0000000000000009E+01
           TYPE  DFTD3
           PARAMETER_FILE_NAME dftd3.dat
           REFERENCE_FUNCTIONAL PBE
           EPS_CN     9.9999999999999995E-07
           CALCULATE_C9_TERM  T
           REFERENCE_C9_TERM  T
           LONG_RANGE_CORRECTION  F
           VERBOSE_OUTPUT  F
         &END PAIR_POTENTIAL
       &END VDW_POTENTIAL
     &END XC
   &END DFT
   &SUBSYS
     &CELL
       A     1.2864472766435110E+01    0.0000000000000000E+00    0.0000000000000000E+00
       B    -6.4322363581020028E+00    1.1140960178524477E+01    0.0000000000000000E+00
       C     0.0000000000000000E+00    0.0000000000000000E+00    3.2000000000000000E+01
       MULTIPLE_UNIT_CELL  1 1 1
       &CELL_REF
         A     1.2982353780853531E+01    0.0000000000000000E+00    0.0000000000000000E+00
         B    -6.4911768904267628E+00    1.1243048175136114E+01    0.0000000000000000E+00
         C     0.0000000000000000E+00    0.0000000000000000E+00    3.2000000000000000E+01
         MULTIPLE_UNIT_CELL  1 1 1
       &END CELL_REF
     &END CELL
     &COORD
N    7.1620376179895306E-02    2.1305655575439633E+00    2.6007127725845787E+00
Ga    1.2258182708210651E-01    2.0025867464668193E-01    3.0279982851450087E+00
N    1.0644800613507976E-01    1.4523600688126403E-01    5.1087167675287875E+00
Ga    8.3220541611737545E-02    1.9768766952879111E+00    5.8532725825337844E+00
N    8.1796116867205060E-02    1.9868631184748462E+00    7.8523340505712147E+00
Ga    7.7493074389870575E-02    1.3343882142351338E-01    8.4773488632853340E+00
N    8.2568504919025676E-02    1.3591039676594627E-01    1.0459685484779351E+01
Ga    8.7036508977530805E-02    1.9731842822243455E+00    1.1119827891995431E+01
N    8.6018054348982506E-02    1.9556091065409245E+00    1.3115615866999340E+01
Ga    8.6162281972036278E-02    1.3631617001972232E-01    1.3915793011690317E+01
N    8.5805442509049895E-02    1.3886842824199239E-01    1.6121303572188474E+01
Ga    8.5129423012701586E-02    2.1840513182395922E+00    1.6531633739617391E+01
Ga    1.2349450810309752E-01    3.8210965948498687E+00    1.4404771785881751E+00
N   -1.3867636075497631E+00    4.7148715203567750E+00    2.5528411901801071E+00
Ga   -1.6265455982600097E+00    2.8851657694574806E+00    3.3015870012559883E+00
N   -1.5450270202006804E+00    2.9156565135644614E+00    5.2824112229384923E+00
Ga   -1.5560938367399730E+00    4.7832321550853836E+00    5.8732217992874212E+00
N   -1.5326133309710026E+00    4.7802272557349195E+00    7.8652956771232372E+00
Ga   -1.5096771058257237E+00    2.9245380528580305E+00    8.5071662569417779E+00
N   -1.5101919321411852E+00    2.9300168414801333E+00    1.0496284754989876E+01
Ga   -1.5372847387438828E+00    4.7889322770709413E+00    1.1129009006905564E+01
N   -1.5543366387619457E+00    4.7977799399742214E+00    1.3121992125692108E+01
Ga   -1.5113233307769032E+00    2.9268988138138994E+00    1.3671240829903343E+01
N   -1.5378831727844873E+00    2.9113709353355621E+00    1.5634213961579126E+01
Ga   -1.3655482318949899E+00    4.6886220745587561E+00    1.6530163323193467E+01
N    8.4075096835684357E-02    3.8598960289077913E+00    1.7665362067071634E+01
N   -3.1138015137339763E+00    7.6803394775045373E+00    2.5933945075967313E+00
Ga   -3.0967855328426745E+00    5.6623994538045332E+00    2.9481295288267950E+00
N   -3.1195408967503102E+00    5.7134768694712994E+00    5.1069281004812241E+00
Ga   -3.1337018921872213E+00    7.5345158554917129E+00    5.8650081168433186E+00
N   -3.1290841870593726E+00    7.5569971108090259E+00    7.8558142444922137E+00
Ga   -3.1284555495518522E+00    5.7125283555373016E+00    8.5084075737073412E+00
N   -3.1289179116778545E+00    5.7092615168060110E+00    1.0479748825927123E+01
Ga   -3.1349098522952223E+00    7.5493738421434591E+00    1.1122364831008120E+01
N   -3.1322789235628274E+00    7.5290114077756716E+00    1.3117017765688050E+01
Ga   -3.1319484368579831E+00    5.7085703226712239E+00    1.3918475818852594E+01
N   -3.1308417494065250E+00    5.7102854999148240E+00    1.6121369730389290E+01
Ga   -3.1310945509585273E+00    7.7546098842307147E+00    1.6531658806551416E+01
Ga   -3.1428040510005939E+00    9.4452683185533566E+00    1.6173990541964951E+00
N   -4.6230601878210447E+00    1.0291748175209230E+01    2.6187490132123741E+00
Ga   -4.8657765057422013E+00    8.4049515734274056E+00    3.3286328640624712E+00
N   -4.7422502267227333E+00    8.4846234563371716E+00    5.2903692293456999E+00
Ga   -4.7556155654530103E+00    1.0357651647511716E+01    5.8590655338137552E+00
N   -4.7460109937997297E+00    1.0352729938828290E+01    7.8517666999701969E+00
Ga   -4.7427037694705092E+00    8.4923396074946620E+00    8.4720781498291107E+00
N   -4.7319213871788559E+00    8.4962735698254139E+00    1.0472556776368501E+01
Ga   -4.7567926374623859E+00    1.0356267764307267E+01    1.1112440310024999E+01
N   -4.7713923060328298E+00    1.0366903013954982E+01    1.3111137827008493E+01
Ga   -4.7286611284434548E+00    8.4997757526593887E+00    1.3672175416168425E+01
N   -4.7547485393128479E+00    8.4832518068057805E+00    1.5634415895893204E+01
Ga   -4.5816901434101913E+00    1.0259202940643998E+01    1.6531269802021541E+01
N   -3.1314359003705343E+00    9.4303823687676775E+00    1.7665575741851651E+01
N    3.3203146999448507E+00    2.0163363289264398E+00    2.6648929778420261E+00
Ga    3.3267828728088400E+00    2.8200408789048564E-01    3.3599837993099100E+00
N    3.3073921828723964E+00    1.3913233773638933E-01    5.3184094976350975E+00
Ga    3.3265855773000910E+00    2.0141375570929601E+00    5.9022569267498932E+00
N    3.3097836728794148E+00    1.9977956800065539E+00    7.8929315786375751E+00
Ga    3.2985614655965807E+00    1.3236242786171423E-01    8.4935358078836138E+00
N    3.3003987744858883E+00    1.2696051976146086E-01    1.0488097016727405E+01
Ga    3.2995260633250232E+00    1.9943220112301867E+00    1.1085738033944370E+01
N    3.3010036632422031E+00    1.9939420026871235E+00    1.3057182859815551E+01
Ga    3.3001130615683829E+00    1.2249428099596205E-01    1.3671608895889529E+01
N    3.3005997491580574E+00    1.5555007435802751E-01    1.5635413713729244E+01
Ga    3.3014505141127266E+00    1.9938680147136407E+00    1.5910159261262864E+01
N    1.5602941522367313E+00    4.7055136850083246E+00    2.6339699285707074E+00
Ga    1.7813828200807755E+00    2.8760521702134216E+00    3.3511406531777705E+00
N    1.6992888558305839E+00    2.9196387096711782E+00    5.3253056235074006E+00
Ga    1.7093610510426600E+00    4.7788365057357662E+00    5.8954448138524977E+00
N    1.6980166144844280E+00    4.7832332000652134E+00    7.8764566160126099E+00
Ga    1.6875154530982277E+00    2.9199204684350963E+00    8.4891262408609673E+00
N    1.6835633066024536E+00    2.9261163529760235E+00    1.0485384894595889E+01
Ga    1.7112837812793624E+00    4.7878054157557708E+00    1.1116174804909415E+01
N    1.7264128398216518E+00    4.7976984497485962E+00    1.3113879539151808E+01
Ga    1.6811423455197212E+00    2.9293010034269713E+00    1.3672523753345013E+01
N    1.7084522568090543E+00    2.9128189603490000E+00    1.5635030499472398E+01
Ga    1.5354883335021687E+00    4.6885402194586927E+00    1.6532107670810699E+01
N    9.4851460117823638E-02    7.5484857264605347E+00    2.7364190488505464E+00
Ga    8.3143137163250877E-02    5.7035710527883987E+00    3.4035061300349825E+00
N    7.9924537505218968E-02    5.7209103720897865E+00    5.3390616730725347E+00
Ga    1.1647834584457799E-01    7.5747174293525523E+00    5.9455964912345367E+00
N    9.1115174166082058E-02    7.5693378053894653E+00    7.9124300800668079E+00
Ga    8.3954992187480773E-02    5.6986735419853041E+00    8.5021187082790277E+00
N    8.4314665004880024E-02    5.6970291237503110E+00    1.0492705665717136E+01
Ga    8.8142763880822039E-02    7.5659797861966185E+00    1.1082513310430571E+01
N    8.6809417396369992E-02    7.5653584519038395E+00    1.3054774263609721E+01
Ga    8.7046792915921045E-02    5.6943162735053665E+00    1.3672613432244338E+01
N    8.6433142130324853E-02    5.7270085289240376E+00    1.5636315857489995E+01
Ga    8.5658851804278999E-02    7.5648173982490530E+00    1.5911758438059220E+01
N   -1.6249729661873284E+00    1.0284370872359112E+01    2.6083119520400850E+00
Ga   -1.4723775256635729E+00    8.4748503357564697E+00    3.4053993245209981E+00
N   -1.5052722626729973E+00    8.4869750259126082E+00    5.3273486847572684E+00
Ga   -1.5010529721578076E+00    1.0368035865442234E+01    5.8940452291724927E+00
N   -1.5181783844257672E+00    1.0349226202315128E+01    7.8775938480301031E+00
Ga   -1.5326054788971260E+00    8.4964688097169230E+00    8.5040643508272549E+00
N   -1.5337032919854481E+00    8.4972598552551553E+00    1.0493530448443952E+01
Ga   -1.5075982239116548E+00    1.0359275255844818E+01    1.1121690402228769E+01
N   -1.4910694322416687E+00    1.0368162240184231E+01    1.3117488360030645E+01
Ga   -1.5344650647824312E+00    8.4991645245130858E+00    1.3672287466645566E+01
N   -1.5073085560343888E+00    8.4824953153915690E+00    1.5634922371122345E+01
Ga   -1.6810438053398546E+00    1.0258879870287048E+01    1.6530732439551201E+01
N    6.6406622068728973E+00    2.0755977761550226E+00    2.6095665393244762E+00
Ga    6.5551277027980426E+00    1.5147940222629855E-01    3.0149495646341262E+00
N    6.4944655151960138E+00    1.4402730541533365E-01    5.1601712319422024E+00
Ga    6.4680616909351967E+00    1.9583978716799786E+00    5.9156221236021391E+00
N    6.5027025032695684E+00    1.9836412147153475E+00    7.8958714245303110E+00
Ga    6.5256633867743536E+00    1.2797086609147199E-01    8.5000991823118213E+00
N    6.5215151486283371E+00    1.3362383793552923E-01    1.0476107364280255E+01
Ga    6.5198441671245853E+00    1.9774829420339175E+00    1.1117732175976197E+01
N    6.5182441009140453E+00    1.9572104346063632E+00    1.3114847363854519E+01
Ga    6.5175327248855046E+00    1.3821546706173152E-01    1.3916937013675525E+01
N    6.5173450264353727E+00    1.3905381264540345E-01    1.6121629240895565E+01
Ga    6.5178050242119436E+00    2.1836288270090702E+00    1.6530825947095032E+01
Ga    8.1394659517898660E+00    2.8972006765010079E+00    1.2297224448697035E+00
N    4.8929082491112146E+00    4.7637821580555553E+00    2.5118669499612709E+00
Ga    4.9307532096968334E+00    2.8780115553494277E+00    3.1698130540317235E+00
N    4.9276790090736506E+00    2.9276881298469393E+00    5.2219129977478005E+00
Ga    4.9148228808935386E+00    4.7756016409453368E+00    5.8367174628996725E+00
N    4.9084778144956482E+00    4.7809427664283835E+00    7.8417085301353193E+00
Ga    4.9106980919665837E+00    2.9342681627795115E+00    8.5114895949386984E+00
N    4.9168690014201832E+00    2.9328613969117145E+00    1.0499803660075534E+01
Ga    4.8928093016881578E+00    4.7931611871390762E+00    1.1124508651774224E+01
N    4.8777160936567947E+00    4.7992128334222670E+00    1.3118782206219631E+01
Ga    4.9223101157900198E+00    2.9289786473173498E+00    1.3671154249886834E+01
N    4.8947376297347791E+00    2.9123384686279556E+00    1.5634380541098489E+01
Ga    5.0665045412785830E+00    4.6892187795116707E+00    1.6529730863778475E+01
N    6.5182845177084392E+00    3.8608179310713244E+00    1.7663632641690867E+01
N    3.2817331237366063E+00    7.5567461341540554E+00    2.6396206574096195E+00
N    3.2932508422901394E+00    5.6909436012875183E+00    5.1596116017231699E+00
Ga    3.3006440728294746E+00    7.5550460433326760E+00    5.8316807242217603E+00
N    3.3013019343434342E+00    7.5600877848264458E+00    7.8316288315115630E+00
Ga    3.3084741086360423E+00    5.7120727189280585E+00    8.4822352560502736E+00
N    3.3035351096346468E+00    5.7104058214405544E+00    1.0462977685733145E+01
Ga    3.3056546421387591E+00    7.5490796561415587E+00    1.1113722703850875E+01
N    3.3030021543328290E+00    7.5283484694684741E+00    1.3111313619777933E+01
Ga    3.3014529204632823E+00    5.7087737063597555E+00    1.3916219647051081E+01
N    3.3012950523597615E+00    5.7100710180995602E+00    1.6121414612993970E+01
Ga    3.3017715155431877E+00    7.7521615414271645E+00    1.6530252486641594E+01
Ga    4.6833280352351601E+00    1.0334401991204675E+01    5.3818098210792986E-01
N    1.6986692529300811E+00    1.0340835379397584E+01    2.5624351269148846E+00
Ga    1.7097556847705386E+00    8.5811045903054559E+00    3.2271631740594899E+00
N    1.6890493847079489E+00    8.4854974904333318E+00    5.2290284448599929E+00
Ga    1.6835214456079239E+00    1.0365538743992339E+01    5.8083679256529717E+00
N    1.6919915091481201E+00    1.0353661609098454E+01    7.8287228019226029E+00
Ga    1.7116703372053916E+00    8.5059354186627747E+00    8.4890558913668723E+00
N    1.7063453419371006E+00    8.5001480417520963E+00    1.0483564883928214E+01
Ga    1.6809978580346208E+00    1.0356815547438392E+01    1.1125212255294175E+01
N    1.6627120129584192E+00    1.0367322110221503E+01    1.3119564578488603E+01
Ga    1.7071832408907988E+00    8.4984269846558202E+00    1.3672320820154212E+01
N    1.6796889720288239E+00    8.4823934978170801E+00    1.5635258318983226E+01
Ga    1.8490702132979806E+00    1.0260512817273995E+01    1.6528007799225829E+01
N    3.3022884964119994E+00    9.4315572737322864E+00    1.7662115649936467E+01
N    9.5926623000299074E+00    2.0683494513096714E+00    2.6615694912244208E+00
Ga    9.6585728089666780E+00    1.6884545052093949E-01    3.1632526798725635E+00
N    9.7380192382433126E+00    1.5514921200715978E-01    5.2073136500233144E+00
Ga    9.7624972758360045E+00    1.9552127984440062E+00    5.9584689190671964E+00
N    9.7424575955383776E+00    1.9836349743773600E+00    7.9263267765584899E+00
Ga    9.7376664273972722E+00    1.1277007184234816E-01    8.4896154912734172E+00
N    9.7349840853144833E+00    1.2053042361732913E-01    1.0485199246550881E+01
Ga    9.7328201723133425E+00    1.9926135903285354E+00    1.1076335217310088E+01
N    9.7332387420012338E+00    1.9930823660502832E+00    1.3051021969453419E+01
Ga    9.7352646887446816E+00    1.2375867654885842E-01    1.3671208656804488E+01
N    9.7345107751508611E+00    1.5550453067530937E-01    1.5635719127897408E+01
Ga    9.7337243991488833E+00    1.9939640485205392E+00    1.5911683577855134E+01
N    8.1365837716432328E+00    4.6313899091570088E+00    2.5898666923407685E+00
Ga    8.1080118634801224E+00    2.9268869692822030E+00    3.6362353016946032E+00
N    8.1250222495113693E+00    2.9248203172390155E+00    5.5044962588828925E+00
Ga    8.1370868866230470E+00    4.8455460005125008E+00    5.8881880796533945E+00
N    8.1307294511727601E+00    4.8041771131923658E+00    7.8745813485974443E+00
Ga    8.1167973354985925E+00    2.9314672459103006E+00    8.4842138984355593E+00
N    8.1165330423986415E+00    2.9313468775871465E+00    1.0483655791363820E+01
Ga    8.1388192601886971E+00    4.7889853986476441E+00    1.1119817865530241E+01
N    8.1565434351910397E+00    4.7980727880470031E+00    1.3116282359079776E+01
Ga    8.1142302407462168E+00    2.9286541234710715E+00    1.3670803220382464E+01
N    8.1410753713392427E+00    2.9122513328642179E+00    1.5634160908603320E+01
Ga    7.9693154952556675E+00    4.6895633063710829E+00    1.6529884340541656E+01
N    6.5053375139538518E+00    7.5343862486410940E+00    2.6047837987015754E+00
Ga    6.5514846472556787E+00    5.7095679316747496E+00    3.1392752739717986E+00
N    6.5195075162818927E+00    5.6893279280029985E+00    5.1924498960627847E+00
Ga    6.4871240943885420E+00    7.5441552989582847E+00    5.8445664348142801E+00
N    6.5091797123677306E+00    7.5595015432246493E+00    7.8484573176186716E+00
Ga    6.5089143281900332E+00    5.7091620735706368E+00    8.4928279585595927E+00
N    6.5146689069359223E+00    5.6999365115057437E+00    1.0486052180214605E+01
Ga    6.5153669738053877E+00    7.5680139539733897E+00    1.1076565179452908E+01
N    6.5167802920325837E+00    7.5660262013906765E+00    1.3049778642366293E+01
Ga    6.5178889687155346E+00    5.6959973950312985E+00    1.3671852817087288E+01
N    6.5176437731928347E+00    5.7277842106001389E+00    1.5635827716788942E+01
Ga    6.5173841157674035E+00    7.5653125126478189E+00    1.5912993738891183E+01
N    4.9054849197873400E+00    1.0373932402711803E+01    2.5204360929572149E+00
Ga    4.9644723017849950E+00    8.4708198028577062E+00    3.1916273510646254E+00
N    4.8957738983161807E+00    8.4967123856320939E+00    5.2014141516611980E+00
Ga    4.9194500509594326E+00    1.0359779063178873E+01    5.7935318469241892E+00
N    4.9149858429513138E+00    1.0352564891033504E+01    7.8122341821649037E+00
Ga    4.9044897450917597E+00    8.5004017613120428E+00    8.4626031531758699E+00
N    4.9012157776727898E+00    8.4998606602213407E+00    1.0466151896106965E+01
Ga    4.9262184052859128E+00    1.0355279665805515E+01    1.1116303083186819E+01
N    4.9421149753828661E+00    1.0366721780779715E+01    1.3113503137223017E+01
Ga    4.8980535199344839E+00    8.4989624838521749E+00    1.3671599430868882E+01
N    4.9238879476861852E+00    8.4829450863539382E+00    1.5634336980900565E+01
Ga    4.7547987721554019E+00    1.0260769504227293E+01    1.6528245902555195E+01
O    4.4601983627128716E-01    3.7914488317513753E+00   -3.5204401276095715E-01
H    2.9582992713127627E+00    4.7334018518797389E+00    4.8481409982826867E-01
C    5.4791949386727057E-01    2.4926691682308855E+00   -9.5784992007323722E-01
H    1.2417254904449919E+00    1.8279146484927975E+00   -4.1615754698115509E-01
H   -4.3169559275528313E-01    1.9883121419496905E+00   -1.0253223491498005E+00
H    9.2972937537794509E-01    2.6354612350556366E+00   -1.9794763880869111E+00
Ga    3.2238146667593184E+00    5.6493078139359243E+00    3.1328594823209217E+00
O    3.6911891555929022E+00    5.3813508592387214E+00    4.8119106882999518E-01
H    2.2572973435608743E-02    7.5118040494298697E+00    1.7127044712063531E+00
C    4.8706010937500546E+00    4.7659346353895948E+00    1.0140881755778570E+00
H    5.7020795483961040E+00    5.3696849277250918E+00    6.2187601713083718E-01
H    3.2780932123244058E+00    7.5229491547228591E+00    1.6112019619881830E+00
H    4.9631924976236768E+00    3.7390185454172107E+00    6.2546218060598002E-01
     &END COORD
     &KIND C
       BASIS_SET DZVP-MOLOPT-SR-GTH-q4
       POTENTIAL GTH-PBE-q4
       &POTENTIAL
2 2
0.3384712400000000E+00 2 -0.8803673979999999E+01  0.1339210850000000E+01
2
0.3025757500000000E+00 1  0.9622486650000001E+01
0.2915069400000000E+00 0
       &END POTENTIAL
     &END KIND
     &KIND O
       BASIS_SET DZVP-MOLOPT-SR-GTH-q6
       POTENTIAL GTH-PBE-q6
       &POTENTIAL
2 4
0.2445543000000000E+00 2 -0.1666721480000000E+02  0.2487311320000000E+01
2
0.2209559200000000E+00 1  0.1833745811000000E+02
0.2113324700000000E+00 0
       &END POTENTIAL
     &END KIND
     &KIND H
       BASIS_SET DZVP-MOLOPT-SR-GTH-q1
       POTENTIAL GTH-PBE-q1
       &POTENTIAL
1
0.2000000000000000E+00 2 -0.4178900440000000E+01  0.7244633100000000E+00
0
       &END POTENTIAL
     &END KIND
     &KIND N
       BASIS_SET DZVP-MOLOPT-SR-GTH
       POTENTIAL GTH-PBE-q5
       &POTENTIAL
2 3
0.2837905100000000E+00 2 -0.1241522559000000E+02  0.1868095920000000E+01
2
0.2554050000000000E+00 1  0.1363026257000000E+02
0.2454945300000000E+00 0
       &END POTENTIAL
     &END KIND
     &KIND Ga
       BASIS_SET DZVP-MOLOPT-SR-GTH
       POTENTIAL GTH-PBE-q13
       &POTENTIAL
2 1 10
0.4900000000000000E+00 0
3
0.4167772300000000E+00 3  0.1047568975000000E+02 -0.4921768140000000E+01  0.8707055900000000E+00
0.7770178090000000E+01 -0.2248152160000000E+01
0.1784415450000000E+01
0.5696265200000000E+00 2  0.1777985340000000E+01  0.1958597600000000E+00
-0.2317443900000000E+00
0.2381265000000000E+00 1 -0.1624868022000000E+02
       &END POTENTIAL
     &END KIND
     &TOPOLOGY
       NUMBER_OF_ATOMS  212
       MULTIPLE_UNIT_CELL  1 1 1
     &END TOPOLOGY
     &COLVAR
       &DISTANCE
         ATOMS  127 211
       &END DISTANCE
       &PRINT
       &END PRINT
     &END COLVAR
   &END SUBSYS
 &END FORCE_EVAL
