 # Version information for this restart file 
 # current date 2019-07-22 00:01:57.637
 # current working dir /lustre04/scratch/rzk/rzk/GaN-carbene/443-adatoms-both-2x2/09-BondBreaking-CH/04-0401-H2C-to-NTop-OPT
 # Program compiled at                              Sun Apr  7 00:48:11 EDT 2019
 # Program compiled on                          beluga2.int.ets1.calculquebec.ca
 # Program compiled for                        Beluga-Linux-x86-64-intel-openmpi
 # Source code revision number                                         svn:18619
 &GLOBAL
   PRINT_LEVEL  MEDIUM
   PROJECT_NAME TEST
   RUN_TYPE  GEO_OPT
 &END GLOBAL
 &MOTION
   &GEO_OPT
     MAX_ITER  500
     STEP_START_VAL  33
   &END GEO_OPT
 &END MOTION
 &FORCE_EVAL
   METHOD  QS
   STRESS_TENSOR  ANALYTICAL
   &DFT
     BASIS_SET_FILE_NAME BASIS_MOLOPT
     POTENTIAL_FILE_NAME GTH_POTENTIALS
     UKS  T
     SURFACE_DIPOLE_CORRECTION  T
     SURF_DIP_DIR  Z
     &SCF
       MAX_SCF  80
       EPS_SCF     5.0000000000000004E-06
       &OT  T
         PRECONDITIONER  FULL_ALL
       &END OT
       &OUTER_SCF  T
         OPTIMIZER  NONE
         EPS_SCF     5.0000000000000004E-06
         MAX_SCF  4
       &END OUTER_SCF
       &PRINT
         &RESTART  OFF
           BACKUP_COPIES  1
           &EACH
             JUST_ENERGY  0
             QS_SCF  0
             MD  20
           &END EACH
         &END RESTART
       &END PRINT
     &END SCF
     &QS
       EPS_DEFAULT     1.0000000000000000E-14
       METHOD  GPW
     &END QS
     &MGRID
       NGRIDS  5
       CUTOFF     1.2000000000000000E+03
     &END MGRID
     &XC
       DENSITY_CUTOFF     1.0000000000000000E-10
       GRADIENT_CUTOFF     1.0000000000000000E-10
       TAU_CUTOFF     1.0000000000000000E-10
       &XC_FUNCTIONAL  NO_SHORTCUT
         &PBE  T
         &END PBE
       &END XC_FUNCTIONAL
       &VDW_POTENTIAL
         POTENTIAL_TYPE  PAIR_POTENTIAL
         &PAIR_POTENTIAL
           R_CUTOFF     1.0000000000000009E+01
           TYPE  DFTD3
           PARAMETER_FILE_NAME dftd3.dat
           REFERENCE_FUNCTIONAL PBE
           EPS_CN     9.9999999999999995E-07
           CALCULATE_C9_TERM  T
           REFERENCE_C9_TERM  T
           LONG_RANGE_CORRECTION  F
           VERBOSE_OUTPUT  F
         &END PAIR_POTENTIAL
       &END VDW_POTENTIAL
     &END XC
   &END DFT
   &SUBSYS
     &CELL
       A     1.2864472766435110E+01    0.0000000000000000E+00    0.0000000000000000E+00
       B    -6.4322363581020028E+00    1.1140960178524477E+01    0.0000000000000000E+00
       C     0.0000000000000000E+00    0.0000000000000000E+00    3.2000000000000000E+01
       MULTIPLE_UNIT_CELL  1 1 1
       &CELL_REF
         A     1.2982353780853531E+01    0.0000000000000000E+00    0.0000000000000000E+00
         B    -6.4911768904267628E+00    1.1243048175136114E+01    0.0000000000000000E+00
         C     0.0000000000000000E+00    0.0000000000000000E+00    3.2000000000000000E+01
         MULTIPLE_UNIT_CELL  1 1 1
       &END CELL_REF
     &END CELL
     &COORD
N    6.8492004894036049E-02    2.1341869041512918E+00    2.5751259100202795E+00
Ga    1.1816181420591369E-01    1.9877331392213590E-01    3.0157430711235533E+00
N    9.9335506948454111E-02    1.4329156159377740E-01    5.0986611957060273E+00
Ga    7.4282345993776325E-02    1.9725883593231872E+00    5.8496793841764703E+00
N    7.2661654111054130E-02    1.9817983848630192E+00    7.8485809360698253E+00
Ga    6.8458245853851407E-02    1.2835820268214929E-01    8.4733407358403721E+00
N    7.3452311767845627E-02    1.3055251524781505E-01    1.0455918707878569E+01
Ga    7.8259463228614781E-02    1.9674072900881605E+00    1.1116892489866160E+01
N    7.7296925114075959E-02    1.9506339318364287E+00    1.3112874069047892E+01
Ga    7.6754321705202994E-02    1.3139427871341172E-01    1.3910020262296454E+01
N    7.6593931208781246E-02    1.3337046593269636E-01    1.6117725111602230E+01
Ga    7.6725488969100225E-02    2.1820989524323724E+00    1.6529225860380233E+01
Ga    1.3481280084895328E-01    3.8389344876132125E+00    1.4346552577575569E+00
N   -1.3924447147636099E+00    4.7136164659752300E+00    2.5449645935922161E+00
Ga   -1.6330342099898500E+00    2.8828578481468008E+00    3.2864134623783370E+00
N   -1.5512423873879679E+00    2.9107504050946575E+00    5.2710033011557886E+00
Ga   -1.5663078270307520E+00    4.7771472071152319E+00    5.8675962281379714E+00
N   -1.5419399418354358E+00    4.7741906640466407E+00    7.8608761587377813E+00
Ga   -1.5187565143740680E+00    2.9192402619582514E+00    8.5040734556692925E+00
N   -1.5186863479735049E+00    2.9242215390420205E+00    1.0493795176505511E+01
Ga   -1.5458535887876028E+00    4.7831761191102009E+00    1.1125786411865727E+01
N   -1.5626386098176541E+00    4.7919499125090690E+00    1.3119291469549784E+01
Ga   -1.5205751521914395E+00    2.9210262090106554E+00    1.3668636825642807E+01
N   -1.5473575440344529E+00    2.9047962118055661E+00    1.5630526440738782E+01
Ga   -1.3701237471404877E+00    4.6805607793211994E+00    1.6528579448261038E+01
N    7.5721884959139549E-02    3.8533961266330481E+00    1.7663119889908479E+01
N   -3.1216097618572816E+00    7.6772736309158924E+00    2.5859808417426553E+00
Ga   -3.1057193382243016E+00    5.6585398638004154E+00    2.9380157650825076E+00
N   -3.1281054252033562E+00    5.7084669486625552E+00    5.0981320431087802E+00
Ga   -3.1423026706865325E+00    7.5287746899690067E+00    5.8592668361420852E+00
N   -3.1378509872574334E+00    7.5513798564972250E+00    7.8509929548012662E+00
Ga   -3.1377996756205659E+00    5.7065847409380224E+00    8.5037623378446252E+00
N   -3.1378763865816377E+00    5.7028110624001327E+00    1.0476272815665370E+01
Ga   -3.1439168102098547E+00    7.5432460543837863E+00    1.1117172331907328E+01
N   -3.1411109510038022E+00    7.5231276004642424E+00    1.3111867176157238E+01
Ga   -3.1401950282003073E+00    5.7023748843085613E+00    1.3914231122695089E+01
N   -3.1390253062048044E+00    5.7031024577243734E+00    1.6119042205608057E+01
Ga   -3.1398007565961592E+00    7.7448223357609010E+00    1.6521225139594375E+01
Ga   -3.1494309329370953E+00    9.4426422121259694E+00    1.6086739308137075E+00
N   -4.6298862805444365E+00    1.0288029609426712E+01    2.6130411585008302E+00
Ga   -4.8735379669275973E+00    8.4004215693157835E+00    3.3217309569689535E+00
N   -4.7507416338502075E+00    8.4795707770371571E+00    5.2841068505314670E+00
Ga   -4.7646905735103191E+00    1.0353064587686829E+01    5.8532247999584097E+00
N   -4.7553898750729937E+00    1.0347512396432744E+01    7.8466094995932538E+00
Ga   -4.7517709611929391E+00    8.4866877656601254E+00    8.4670775366785804E+00
N   -4.7411336108518851E+00    8.4906346680274964E+00    1.0468081048227509E+01
Ga   -4.7657735937307875E+00    1.0350918193390179E+01    1.1106734306237318E+01
N   -4.7802853079422771E+00    1.0361790924952743E+01    1.3105763861659533E+01
Ga   -4.7375807569825081E+00    8.4945094036958224E+00    1.3665098990979496E+01
N   -4.7628395833257589E+00    8.4775333483253306E+00    1.5627413619767925E+01
Ga   -4.5929873780558337E+00    1.0254694934377044E+01    1.6520890427914772E+01
N   -3.1408591095135354E+00    9.4235381027478251E+00    1.7653211672600076E+01
N    3.3136074095512509E+00    2.0117907697507160E+00    2.6619451766452582E+00
Ga    3.3197044359056616E+00    2.7734468602445539E-01    3.3565855596134671E+00
N    3.2995536571139343E+00    1.3380564186049698E-01    5.3151669632471235E+00
Ga    3.3176852759659239E+00    2.0084480025333602E+00    5.9013558410276570E+00
N    3.3009771269653698E+00    1.9929111273505742E+00    7.8906997401511960E+00
Ga    3.2897300914720691E+00    1.2694099003952905E-01    8.4888042560949284E+00
N    3.2913216158030485E+00    1.2167418944579807E-01    1.0483851165945122E+01
Ga    3.2908100898074757E+00    1.9889141478242700E+00    1.1082033933242270E+01
N    3.2923944124727167E+00    1.9886435524088211E+00    1.3053704278748864E+01
Ga    3.2913457794303809E+00    1.1711161784598144E-01    1.3665022348588224E+01
N    3.2922298318972305E+00    1.4902746632914601E-01    1.5629039979561611E+01
Ga    3.2930375568665249E+00    1.9874195653201359E+00    1.5903921852806398E+01
N    1.5558947525617637E+00    4.7065715597366475E+00    2.6539445537493074E+00
Ga    1.7762387457818212E+00    2.8732710291491257E+00    3.3494855164052137E+00
N    1.6907751132470055E+00    2.9138792864673544E+00    5.3232851320875829E+00
Ga    1.7004606780854334E+00    4.7740247086231955E+00    5.8931785565175581E+00
N    1.6892388721600633E+00    4.7779042278951112E+00    7.8748738144389803E+00
Ga    1.6783503850602663E+00    2.9149889803514810E+00    8.4863609175598231E+00
N    1.6744972436904513E+00    2.9202864220694282E+00    1.0483071251235316E+01
Ga    1.7023785336540731E+00    4.7821062778611516E+00    1.1113586200367040E+01
N    1.7173970695059542E+00    4.7916846658457137E+00    1.3111766024199435E+01
Ga    1.6726342008455368E+00    2.9235249908453285E+00    1.3669821561900942E+01
N    1.7010654100033316E+00    2.9056578028603615E+00    1.5631245100384668E+01
Ga    1.5233010970327372E+00    4.6802567997312607E+00    1.6530639965520169E+01
N    8.7434941224224655E-02    7.5444496211586394E+00    2.7335678819997891E+00
Ga    7.3696110656190944E-02    5.7027668274204979E+00    3.4073711574661965E+00
N    6.9769720222708914E-02    5.7174648002805029E+00    5.3418733897310284E+00
Ga    1.0790981610912612E-01    7.5718092682524807E+00    5.9437730551931196E+00
N    8.2523773818319324E-02    7.5647550067880198E+00    7.9104854142029914E+00
Ga    7.4560732738226929E-02    5.6931812845739778E+00    8.4981751300452775E+00
N    7.5460132731391197E-02    5.6913336027897490E+00    1.0489769274643971E+01
Ga    7.9636197513482609E-02    7.5605333658887233E+00    1.1078313620459360E+01
N    7.8331268872721876E-02    7.5594934176169541E+00    1.3050887630361517E+01
Ga    7.8556216275310981E-02    5.6884790891865595E+00    1.3669863288580254E+01
N    7.7589609040181431E-02    5.7224953308098394E+00    1.5632599574029401E+01
Ga    7.6909693051959410E-02    7.5594678089331326E+00    1.5904023553811717E+01
N   -1.6320845453029467E+00    1.0280472349627768E+01    2.6035454834934422E+00
Ga   -1.4798754137076859E+00    8.4705261664008660E+00    3.3996096492820942E+00
N   -1.5140533792666617E+00    8.4820443163928161E+00    5.3225286588319722E+00
Ga   -1.5088507680093892E+00    1.0362658732215097E+01    5.8901727949927905E+00
N   -1.5266168114594971E+00    1.0343954981128169E+01    7.8741947442760551E+00
Ga   -1.5416265823359721E+00    8.4911512933709954E+00    8.5003001862363057E+00
N   -1.5426925236945994E+00    8.4916586087778310E+00    1.0489899561596749E+01
Ga   -1.5163451241047043E+00    1.0354050492062694E+01    1.1116543207273864E+01
N   -1.4998201001982403E+00    1.0362921096156089E+01    1.3112245364651935E+01
Ga   -1.5431132233810883E+00    8.4938056537873248E+00    1.3665243411435062E+01
N   -1.5166003549247984E+00    8.4769076242764019E+00    1.5627860443535825E+01
Ga   -1.6882903390977111E+00    1.0253501339635038E+01    1.6520633753470854E+01
N    6.6306170734149728E+00    2.0737057185190424E+00    2.6077530809319045E+00
Ga    6.5472225805848092E+00    1.4932374431659273E-01    3.0101910593416301E+00
N    6.4862636701584409E+00    1.3905057304863977E-01    5.1558957656728763E+00
Ga    6.4610018511924583E+00    1.9532433101344024E+00    5.9117156613085404E+00
N    6.4944014318905374E+00    1.9783148938027066E+00    7.8924254624482453E+00
Ga    6.5177998237963495E+00    1.2284192916823321E-01    8.4964607354043888E+00
N    6.5131081394681329E+00    1.2824307477844216E-01    1.0472908435743534E+01
Ga    6.5118081814324462E+00    1.9720296190128088E+00    1.1114396244289281E+01
N    6.5095368467918640E+00    1.9522285082104220E+00    1.3112116418548661E+01
Ga    6.5094550074114039E+00    1.3272837891090034E-01    1.3910627165892242E+01
N    6.5088782228713882E+00    1.3272034429704474E-01    1.6118240689382695E+01
Ga    6.5090966175702967E+00    2.1780782272647858E+00    1.6526539684780595E+01
Ga    8.1216355366727946E+00    2.8994884835470462E+00    1.2171377427274601E+00
N    4.8724237847521010E+00    4.7564378121445534E+00    2.5074660113781184E+00
Ga    4.9229391557030331E+00    2.8736657580867120E+00    3.1760845797465898E+00
N    4.9186434382632713E+00    2.9229963730620692E+00    5.2221779547525813E+00
Ga    4.9078080886299125E+00    4.7722890126518536E+00    5.8352178590081438E+00
N    4.9006666867919826E+00    4.7757156269362913E+00    7.8400202192326702E+00
Ga    4.9027279250505718E+00    2.9290069946587498E+00    8.5090960351671026E+00
N    4.9083561141163585E+00    2.9272292535209381E+00    1.0497506908964269E+01
Ga    4.8841406055600771E+00    4.7874723878599514E+00    1.1122275980986462E+01
N    4.8689809970828826E+00    4.7933599013468209E+00    1.3117421815777243E+01
Ga    4.9134502916841569E+00    2.9231783552691990E+00    1.3668267480398216E+01
N    4.8860802517699424E+00    2.9052947132161031E+00    1.5631698499511472E+01
Ga    5.0578750028502260E+00    4.6826808412326031E+00    1.6526759335591539E+01
N    6.5094561199277878E+00    3.8544545879480396E+00    1.7658697280751266E+01
N    3.2743219567371145E+00    7.5554062084951958E+00    2.6443923929901483E+00
N    3.2857924200725313E+00    5.6884486943451567E+00    5.1660035095278829E+00
Ga    3.2921895193659205E+00    7.5524954721516355E+00    5.8312667934818432E+00
N    3.2927306631690190E+00    7.5556892646527611E+00    7.8310308386989869E+00
Ga    3.2999243162110989E+00    5.7068725667838809E+00    8.4796852942321443E+00
N    3.2948806674246027E+00    5.7043163063925109E+00    1.0461148508836445E+01
Ga    3.2971590299129807E+00    7.5433026674099546E+00    1.1110094443368981E+01
N    3.2942463316127619E+00    7.5225387983912322E+00    1.3107963033913093E+01
Ga    3.2922399372312707E+00    5.7029999851377262E+00    1.3913155376135011E+01
N    3.2919134831587678E+00    5.7028614542637754E+00    1.6121202927833799E+01
Ga    3.2927804776558971E+00    7.7437574752694482E+00    1.6525368773016140E+01
Ga    4.7128433099662255E+00    1.0282151067857605E+01    5.3142576638551398E-01
N    1.6900619270538160E+00    1.0338344008470024E+01    2.5568076287901569E+00
Ga    1.7017045054039301E+00    8.5793304601364699E+00    3.2226731449779518E+00
N    1.6804946551191360E+00    8.4816894943281955E+00    5.2261950258637118E+00
Ga    1.6764965171894826E+00    1.0361844325194909E+01    5.8033303731358226E+00
N    1.6839659534388349E+00    1.0348659613327293E+01    7.8247403091224594E+00
Ga    1.7030673135924679E+00    8.5014673823233569E+00    8.4864543938927746E+00
N    1.6978414971153744E+00    8.4948889260900344E+00    1.0481098132128327E+01
Ga    1.6730535179168424E+00    1.0351766346066672E+01    1.1121020868961240E+01
N    1.6545016896335776E+00    1.0361790765721267E+01    1.3115565690757327E+01
Ga    1.6987599183722051E+00    8.4930063217147502E+00    1.3667521788710895E+01
N    1.6709413792513796E+00    8.4766069979678971E+00    1.5630631409495557E+01
Ga    1.8404955600456345E+00    1.0253551118866515E+01    1.6523191445650717E+01
N    3.2937431672981559E+00    9.4236851924935436E+00    1.7656565626412313E+01
N    9.5843886695309415E+00    2.0667269861553947E+00    2.6537670683814016E+00
Ga    9.6513468324671621E+00    1.6762130462985395E-01    3.1508833394441353E+00
N    9.7300872129454774E+00    1.5109611645966251E-01    5.1992842305630793E+00
Ga    9.7560029354689544E+00    1.9512048141836860E+00    5.9507322792224908E+00
N    9.7347435271976064E+00    1.9787247453209471E+00    7.9203905473652396E+00
Ga    9.7296901659608555E+00    1.0804540548221499E-01    8.4839193371338553E+00
N    9.7266039810867060E+00    1.1542329943801634E-01    1.0480960028710712E+01
Ga    9.7240078385810325E+00    1.9870582831135724E+00    1.1072892890010984E+01
N    9.7241730755492473E+00    1.9874261839917928E+00    1.3048053325923863E+01
Ga    9.7264858830832619E+00    1.1821068440446952E-01    1.3667723431967078E+01
N    9.7254102904837190E+00    1.4935085961607716E-01    1.5632585851497193E+01
Ga    9.7253697101434540E+00    1.9876564178407985E+00    1.5907221706364274E+01
N    8.1252895389685076E+00    4.6282915321912732E+00    2.5800339018801877E+00
Ga    8.1013213009726428E+00    2.9226138822415146E+00    3.6288339437488228E+00
N    8.1173242706055060E+00    2.9202512278981141E+00    5.4993872622250555E+00
Ga    8.1268024489100927E+00    4.8418404578772343E+00    5.8781903460428708E+00
N    8.1216706024981882E+00    4.7997870835833467E+00    7.8677148060986299E+00
Ga    8.1089106216768272E+00    2.9269398596647473E+00    8.4780274024884950E+00
N    8.1080717007648477E+00    2.9258044937202263E+00    1.0479505430599257E+01
Ga    8.1298187836941800E+00    4.7827460072735004E+00    1.1116874408571912E+01
N    8.1474567831302291E+00    4.7922115836172576E+00    1.3114182565594067E+01
Ga    8.1057631469170257E+00    2.9227702254255803E+00    1.3668438001180112E+01
N    8.1327183956123132E+00    2.9055342911360871E+00    1.5631674597769894E+01
Ga    7.9598645391044194E+00    4.6829271090706497E+00    1.6526327277923389E+01
N    6.4954611825942488E+00    7.5340733847840182E+00    2.5953365583651049E+00
Ga    6.5367297281108661E+00    5.7050917549545375E+00    3.1189659957745630E+00
N    6.5087908083671193E+00    5.6847253832229132E+00    5.1796578785576308E+00
Ga    6.4790595225712755E+00    7.5375759040068262E+00    5.8387394140374305E+00
N    6.5003851487013424E+00    7.5535661134502110E+00    7.8432792809532978E+00
Ga    6.5010023496050389E+00    5.7038089459734049E+00    8.4896688190453080E+00
N    6.5060054873904356E+00    5.6943478797809073E+00    1.0483637766606860E+01
Ga    6.5064338228176055E+00    7.5625198238623037E+00    1.1073007175601374E+01
N    6.5075211887340556E+00    7.5600202716453335E+00    1.3046596803990559E+01
Ga    6.5089534439535974E+00    5.6899937642153251E+00    1.3669512582468581E+01
N    6.5092078385840049E+00    5.7226323988857981E+00    1.5633896663969459E+01
Ga    6.5088818713902308E+00    7.5600315948107797E+00    1.5905762386625172E+01
N    4.9000435641253031E+00    1.0370725355558992E+01    2.5140930997264714E+00
Ga    4.9556981921391445E+00    8.4677034961674327E+00    3.1919229832544458E+00
N    4.8879322358001973E+00    8.4930134722241029E+00    5.1997806813418599E+00
Ga    4.9115591695937457E+00    1.0357340283662058E+01    5.7861321952138773E+00
N    4.9069811270207753E+00    1.0347576571699147E+01    7.8065062109649883E+00
Ga    4.8964596672650549E+00    8.4956723772050271E+00    8.4590628565720056E+00
N    4.8927980125393411E+00    8.4945138922957373E+00    1.0462865468210055E+01
Ga    4.9169464340026225E+00    1.0349979453969816E+01    1.1111963064397186E+01
N    4.9329495296405073E+00    1.0361274122915908E+01    1.3109540347858546E+01
Ga    4.8887342067778254E+00    8.4937546989442190E+00    1.3667238609944325E+01
N    4.9151987169427622E+00    8.4767922045838375E+00    1.5630230921956963E+01
Ga    4.7459966497494248E+00    1.0254229632332764E+01    1.6523518021481699E+01
O    5.6664321795292549E-01    4.0352629120757246E+00   -3.2686026169208321E-01
H    2.8976780551733445E+00    4.8578863978100948E+00    4.5619148643329155E-01
C    7.9690489086134220E-01    2.8653717022971987E+00   -1.1265164163326580E+00
H    1.4457585001918907E+00    2.1291166313996404E+00   -6.2131574102122822E-01
H   -1.4562404330264564E-01    2.3671423145879893E+00   -1.4101655492766827E+00
H    1.3023608934107858E+00    3.1958812825923677E+00   -2.0478035691776606E+00
Ga    3.2139197888934659E+00    5.6485355008795493E+00    3.1425269945427754E+00
O    3.6818351719370415E+00    5.4460828985990561E+00    4.9090688297898599E-01
H    1.5218624308951765E-02    7.5021175535870910E+00    1.7091791198472850E+00
C    4.8052611345155016E+00    4.7210062776799804E+00    1.0105385620740392E+00
H    5.6897797642215124E+00    5.2139318056185697E+00    5.7935826457455075E-01
H    3.2755641266229851E+00    7.5110597838779309E+00    1.6154732646355927E+00
H    4.7667245750116303E+00    3.6788285467753385E+00    6.5303662357931291E-01
     &END COORD
     &KIND C
       BASIS_SET DZVP-MOLOPT-SR-GTH-q4
       POTENTIAL GTH-PBE-q4
       &POTENTIAL
2 2
0.3384712400000000E+00 2 -0.8803673979999999E+01  0.1339210850000000E+01
2
0.3025757500000000E+00 1  0.9622486650000001E+01
0.2915069400000000E+00 0
       &END POTENTIAL
     &END KIND
     &KIND O
       BASIS_SET DZVP-MOLOPT-SR-GTH-q6
       POTENTIAL GTH-PBE-q6
       &POTENTIAL
2 4
0.2445543000000000E+00 2 -0.1666721480000000E+02  0.2487311320000000E+01
2
0.2209559200000000E+00 1  0.1833745811000000E+02
0.2113324700000000E+00 0
       &END POTENTIAL
     &END KIND
     &KIND H
       BASIS_SET DZVP-MOLOPT-SR-GTH-q1
       POTENTIAL GTH-PBE-q1
       &POTENTIAL
1
0.2000000000000000E+00 2 -0.4178900440000000E+01  0.7244633100000000E+00
0
       &END POTENTIAL
     &END KIND
     &KIND N
       BASIS_SET DZVP-MOLOPT-SR-GTH
       POTENTIAL GTH-PBE-q5
       &POTENTIAL
2 3
0.2837905100000000E+00 2 -0.1241522559000000E+02  0.1868095920000000E+01
2
0.2554050000000000E+00 1  0.1363026257000000E+02
0.2454945300000000E+00 0
       &END POTENTIAL
     &END KIND
     &KIND Ga
       BASIS_SET DZVP-MOLOPT-SR-GTH
       POTENTIAL GTH-PBE-q13
       &POTENTIAL
2 1 10
0.4900000000000000E+00 0
3
0.4167772300000000E+00 3  0.1047568975000000E+02 -0.4921768140000000E+01  0.8707055900000000E+00
0.7770178090000000E+01 -0.2248152160000000E+01
0.1784415450000000E+01
0.5696265200000000E+00 2  0.1777985340000000E+01  0.1958597600000000E+00
-0.2317443900000000E+00
0.2381265000000000E+00 1 -0.1624868022000000E+02
       &END POTENTIAL
     &END KIND
     &TOPOLOGY
       NUMBER_OF_ATOMS  212
       MULTIPLE_UNIT_CELL  1 1 1
     &END TOPOLOGY
     &COLVAR
       &DISTANCE
         ATOMS  127 211
       &END DISTANCE
       &PRINT
       &END PRINT
     &END COLVAR
   &END SUBSYS
 &END FORCE_EVAL
