 # Version information for this restart file 
 # current date 2019-07-21 20:48:30.103
 # current working dir /lustre04/scratch/rzk/rzk/GaN-carbene/443-adatoms-both-2x2/09-BondBreaking-CH/04-0401-H2C-to-NTop-OPT
 # Program compiled at                              Sun Apr  7 00:48:11 EDT 2019
 # Program compiled on                          beluga2.int.ets1.calculquebec.ca
 # Program compiled for                        Beluga-Linux-x86-64-intel-openmpi
 # Source code revision number                                         svn:18619
 &GLOBAL
   PRINT_LEVEL  MEDIUM
   PROJECT_NAME TEST
   RUN_TYPE  GEO_OPT
 &END GLOBAL
 &MOTION
   &GEO_OPT
     MAX_ITER  500
     STEP_START_VAL  2
   &END GEO_OPT
 &END MOTION
 &FORCE_EVAL
   METHOD  QS
   STRESS_TENSOR  ANALYTICAL
   &DFT
     BASIS_SET_FILE_NAME BASIS_MOLOPT
     POTENTIAL_FILE_NAME GTH_POTENTIALS
     UKS  T
     SURFACE_DIPOLE_CORRECTION  T
     SURF_DIP_DIR  Z
     &SCF
       MAX_SCF  80
       EPS_SCF     5.0000000000000004E-06
       &OT  T
         PRECONDITIONER  FULL_ALL
       &END OT
       &OUTER_SCF  T
         OPTIMIZER  NONE
         EPS_SCF     5.0000000000000004E-06
         MAX_SCF  4
       &END OUTER_SCF
       &PRINT
         &RESTART  OFF
           BACKUP_COPIES  1
           &EACH
             JUST_ENERGY  0
             QS_SCF  0
             MD  20
           &END EACH
         &END RESTART
       &END PRINT
     &END SCF
     &QS
       EPS_DEFAULT     1.0000000000000000E-14
       METHOD  GPW
     &END QS
     &MGRID
       NGRIDS  5
       CUTOFF     1.2000000000000000E+03
     &END MGRID
     &XC
       DENSITY_CUTOFF     1.0000000000000000E-10
       GRADIENT_CUTOFF     1.0000000000000000E-10
       TAU_CUTOFF     1.0000000000000000E-10
       &XC_FUNCTIONAL  NO_SHORTCUT
         &PBE  T
         &END PBE
       &END XC_FUNCTIONAL
       &VDW_POTENTIAL
         POTENTIAL_TYPE  PAIR_POTENTIAL
         &PAIR_POTENTIAL
           R_CUTOFF     1.0000000000000009E+01
           TYPE  DFTD3
           PARAMETER_FILE_NAME dftd3.dat
           REFERENCE_FUNCTIONAL PBE
           EPS_CN     9.9999999999999995E-07
           CALCULATE_C9_TERM  T
           REFERENCE_C9_TERM  T
           LONG_RANGE_CORRECTION  F
           VERBOSE_OUTPUT  F
         &END PAIR_POTENTIAL
       &END VDW_POTENTIAL
     &END XC
   &END DFT
   &SUBSYS
     &CELL
       A     1.2864472766435110E+01    0.0000000000000000E+00    0.0000000000000000E+00
       B    -6.4322363581020028E+00    1.1140960178524477E+01    0.0000000000000000E+00
       C     0.0000000000000000E+00    0.0000000000000000E+00    3.2000000000000000E+01
       MULTIPLE_UNIT_CELL  1 1 1
       &CELL_REF
         A     1.2982353780853531E+01    0.0000000000000000E+00    0.0000000000000000E+00
         B    -6.4911768904267628E+00    1.1243048175136114E+01    0.0000000000000000E+00
         C     0.0000000000000000E+00    0.0000000000000000E+00    3.2000000000000000E+01
         MULTIPLE_UNIT_CELL  1 1 1
       &END CELL_REF
     &END CELL
     &COORD
N    8.4132722187928666E-02    2.1336141201689487E+00    2.5690147827446217E+00
Ga    9.6539877677074337E-02    1.8634174731312156E-01    3.0002527792539464E+00
N    9.2795129369993873E-02    1.3131416717010455E-01    5.1077583006390332E+00
Ga    6.3639487611703779E-02    1.9573626878280614E+00    5.8686551778592655E+00
N    6.8342419461038861E-02    1.9695806161416862E+00    7.8610042600221997E+00
Ga    6.4695574855834687E-02    1.1711277252556181E-01    8.4898010940650597E+00
N    7.0389133268825482E-02    1.1953387884162277E-01    1.0465493666448067E+01
Ga    6.9766401817270063E-02    1.9589572944773093E+00    1.1118568455643144E+01
N    7.1736682742341115E-02    1.9408915756117795E+00    1.3111313196289755E+01
Ga    7.3718091390195820E-02    1.2212526807799808E-01    1.3918140935843999E+01
N    7.4352937157100132E-02    1.2287156240198110E-01    1.6116153467751889E+01
Ga    7.3708276782942880E-02    2.1698286143762568E+00    1.6532039306336461E+01
Ga    1.3407501099075139E-01    3.8538530299338620E+00    1.4325228008402811E+00
N   -1.3956856811484220E+00    4.7005419178305017E+00    2.5295408474617598E+00
Ga   -1.6154959744665649E+00    2.8635380772190246E+00    3.2951362036940508E+00
N   -1.5456126649517301E+00    2.9011768668060669E+00    5.2793888561461966E+00
Ga   -1.5648300951574552E+00    4.7704004915326275E+00    5.8484206918612314E+00
N   -1.5434588074280928E+00    4.7674768225919655E+00    7.8445338995443841E+00
Ga   -1.5325004118688788E+00    2.9124659277332339E+00    8.4884443512445316E+00
N   -1.5260689729366854E+00    2.9140368342648122E+00    1.0481076299519028E+01
Ga   -1.5521518527969809E+00    4.7736602098328449E+00    1.1116826358253141E+01
N   -1.5674190233381937E+00    4.7824306435535853E+00    1.3110481617347876E+01
Ga   -1.5242032269225962E+00    2.9134034368876200E+00    1.3667013785977684E+01
N   -1.5489735999579393E+00    2.8962306270134208E+00    1.5628648309262381E+01
Ga   -1.3758286928035086E+00    4.6715765606904238E+00    1.6531405732104307E+01
N    6.5264901782933565E-02    3.8389897106251749E+00    1.7671986133043053E+01
N   -3.1284485120030081E+00    7.6627633727273787E+00    2.5539719156198122E+00
Ga   -3.1155623658093705E+00    5.6563958952248807E+00    2.8990288153451025E+00
N   -3.1250103261272839E+00    5.7023821112251669E+00    5.0739760193334931E+00
Ga   -3.1465141307705999E+00    7.5132454345157038E+00    5.8485313282996190E+00
N   -3.1426033318755886E+00    7.5401619909503044E+00    7.8403502500764279E+00
Ga   -3.1450854253394662E+00    5.6898919764250779E+00    8.4821086324434649E+00
N   -3.1436792634454460E+00    5.6923854170046679E+00    1.0459004097294711E+01
Ga   -3.1448205219278740E+00    7.5293605890622066E+00    1.1116594634281052E+01
N   -3.1439850019578195E+00    7.5124369657285994E+00    1.3110110116627160E+01
Ga   -3.1437502260729948E+00    5.6923130606644472E+00    1.3919017305044827E+01
N   -3.1439506579548611E+00    5.6923181975262898E+00    1.6114422113006647E+01
Ga   -3.1437664052854508E+00    7.7338741814089280E+00    1.6532212780410060E+01
Ga   -3.1614667857652421E+00    9.4253872283073523E+00    1.5443963159582621E+00
N   -4.6377828309834950E+00    1.0279048000024195E+01    2.6041025676309384E+00
Ga   -4.8636888162431662E+00    8.4098303356065749E+00    3.3153388750201316E+00
N   -4.7503993243685079E+00    8.4771995465547132E+00    5.2824376894992913E+00
Ga   -4.7744541040960113E+00    1.0343233161784310E+01    5.8679127723315574E+00
N   -4.7594000132718790E+00    1.0336449602538982E+01    7.8566295822078231E+00
Ga   -4.7484222946765406E+00    8.4759971515209109E+00    8.4786050728105362E+00
N   -4.7414513858531233E+00    8.4806736759135202E+00    1.0473706754591712E+01
Ga   -4.7705717093055755E+00    1.0339148122115853E+01    1.1118297496210529E+01
N   -4.7845102237980042E+00    1.0351149505333554E+01    1.3110978653717527E+01
Ga   -4.7404818563067455E+00    8.4835589972422465E+00    1.3667966233536294E+01
N   -4.7677517584029321E+00    8.4716072097185418E+00    1.5629264275099972E+01
Ga   -4.5856070298691716E+00    1.0240187008007595E+01    1.6532700790146617E+01
N   -3.1442494018775955E+00    9.3982827390076853E+00    1.7672205219723182E+01
N    3.3094253675434526E+00    2.0095716342502024E+00    2.7364813650421733E+00
Ga    3.3012402524556754E+00    2.4032223502030323E-01    3.3504625068108704E+00
N    3.2901489028314503E+00    1.1297137475118171E-01    5.3064352776235495E+00
Ga    3.3005630538154236E+00    1.9840988028763491E+00    5.9207890365166307E+00
N    3.2920206118317572E+00    1.9757065450731239E+00    7.8990448177045742E+00
Ga    3.2868858949565998E+00    1.0887741472627419E-01    8.5029470018704565E+00
N    3.2881787183462028E+00    1.0785448495073377E-01    1.0491798491495576E+01
Ga    3.2886097975639328E+00    1.9785684872700433E+00    1.1084398127030074E+01
N    3.2885933090735739E+00    1.9783465605095840E+00    1.3055602252969470E+01
Ga    3.2886135081595991E+00    1.0523697252680664E-01    1.3668104063360708E+01
N    3.2885373358517125E+00    1.3897491030780909E-01    1.5627689729232207E+01
Ga    3.2889526987792883E+00    1.9788316728422124E+00    1.5900248103056619E+01
N    1.5552383458620944E+00    4.6975272538228774E+00    2.6633648551479885E+00
Ga    1.7500835806279322E+00    2.8624125393448381E+00    3.3708061759368628E+00
N    1.6801234460350276E+00    2.9016630139445847E+00    5.3330991730419948E+00
Ga    1.6954326267226210E+00    4.7704786469678089E+00    5.8852624160858316E+00
N    1.6841602803039648E+00    4.7690147788561266E+00    7.8680100127466623E+00
Ga    1.6704675975347758E+00    2.9101965016173077E+00    8.4975729441106260E+00
N    1.6698539903305194E+00    2.9127653956131576E+00    1.0488759881548891E+01
Ga    1.6961380161846527E+00    4.7761300576168999E+00    1.1116733994846399E+01
N    1.7128240193833599E+00    4.7834791460941926E+00    1.3109998422362233E+01
Ga    1.6666149529342376E+00    2.9152284909421553E+00    1.3667992437716661E+01
N    1.6955584124980152E+00    2.8985254409050114E+00    1.5627628052945274E+01
Ga    1.5155449988953031E+00    4.6669839514880351E+00    1.6532723581610885E+01
N    8.1239603924751533E-02    7.5426808215101184E+00    2.7064306406379459E+00
Ga    6.5939023556533430E-02    5.7040321751733032E+00    3.3871119255179361E+00
N    7.0007197415427477E-02    5.7114279536894239E+00    5.3195803214042652E+00
Ga    9.9222947536282691E-02    7.5620389048072933E+00    5.9206131916113822E+00
N    7.6730766577624954E-02    7.5544247024544262E+00    7.8899317956574162E+00
Ga    6.7753408748037439E-02    5.6854284556289238E+00    8.4868230827099591E+00
N    7.0878357705189965E-02    5.6817847524205298E+00    1.0478577190595715E+01
Ga    7.4009243969514776E-02    7.5489452310590561E+00    1.1075041398738893E+01
N    7.3047102949053241E-02    7.5492303170184094E+00    1.3046601723392984E+01
Ga    7.2885325505808271E-02    5.6784884505492288E+00    1.3667972219259802E+01
N    7.5424473297276806E-02    5.7095887522466366E+00    1.5629370948592324E+01
Ga    6.9202790386349827E-02    7.5475371323757479E+00    1.5908472841794525E+01
N   -1.6436948992003966E+00    1.0267193619041885E+01    2.5830567066300674E+00
Ga   -1.4952244278597635E+00    8.4621879365012536E+00    3.3668059411386531E+00
N   -1.5241612797865429E+00    8.4732784538010932E+00    5.2951777618863423E+00
Ga   -1.5092971050769859E+00    1.0350208997534192E+01    5.8824763891722878E+00
N   -1.5323347028187395E+00    1.0332660576014003E+01    7.8658004490291074E+00
Ga   -1.5442452154059418E+00    8.4766667762158612E+00    8.4910035665107042E+00
N   -1.5459979488796374E+00    8.4802377301017682E+00    1.0480648644630140E+01
Ga   -1.5168795383654536E+00    1.0340531969020708E+01    1.1118747679673028E+01
N   -1.5024272188187060E+00    1.0351733233697001E+01    1.3111397170187624E+01
Ga   -1.5473784553947372E+00    8.4838830541963759E+00    1.3668234087167068E+01
N   -1.5196603523068839E+00    8.4715274324689442E+00    1.5629590979434901E+01
Ga   -1.7021605301493299E+00    1.0239993120764613E+01    1.6532986386838420E+01
N    6.5720710902761477E+00    2.0350397764245258E+00    2.5552085810482597E+00
Ga    6.5212881124960083E+00    1.4404166100923696E-01    2.9680616452810011E+00
N    6.4790614647635225E+00    1.1592173189961778E-01    5.1352334558126227E+00
Ga    6.5008578436212296E+00    1.9455728176897422E+00    5.8497126936921457E+00
N    6.5048856689039090E+00    1.9723795955713677E+00    7.8490118913735500E+00
Ga    6.5122944726446379E+00    1.1863862193607858E-01    8.4831867791650044E+00
N    6.5066149815274574E+00    1.2016940909818470E-01    1.0461423877562760E+01
Ga    6.5087775046273659E+00    1.9591518396095469E+00    1.1118003965229335E+01
N    6.5058707358276751E+00    1.9408020305395071E+00    1.3111148815240558E+01
Ga    6.5038803502980880E+00    1.2232715413870481E-01    1.3919225382273133E+01
N    6.5025689184767073E+00    1.2328428881729435E-01    1.6116794504476829E+01
Ga    6.5033793587296609E+00    2.1705423549191796E+00    1.6531988893545883E+01
Ga    7.8237410650947474E+00    3.0606862234776013E+00    8.3262961348414122E-01
N    4.8561145960427812E+00    4.7597554936331647E+00    2.6272879505359317E+00
Ga    4.9433062264211989E+00    2.8597690020646711E+00    3.2590416785864385E+00
N    4.9012949551735296E+00    2.9068694713237488E+00    5.2457566765338717E+00
Ga    4.8847362189685999E+00    4.7750189971559465E+00    5.8530556035270713E+00
N    4.8903205383949224E+00    4.7655324147140385E+00    7.8479760864805508E+00
Ga    4.9096633998391264E+00    2.9120157925970913E+00    8.5000416955972238E+00
N    4.9080442054619207E+00    2.9130715367033999E+00    1.0490452408331732E+01
Ga    4.8830837118701229E+00    4.7777227680647387E+00    1.1114527406768456E+01
N    4.8655404487225349E+00    4.7838472266725045E+00    1.3108571894453030E+01
Ga    4.9108032945162599E+00    2.9154870438462366E+00    1.3667031408258175E+01
N    4.8818492667002493E+00    2.8988039807592325E+00    1.5626656949818873E+01
Ga    5.0620691478190931E+00    4.6668859676908738E+00    1.6532557210610495E+01
N    6.5119031217018613E+00    3.8393468704115770E+00    1.7672072062690212E+01
N    3.2629645955922526E+00    7.5641288951178094E+00    2.6156147069134259E+00
N    3.2744242933696848E+00    5.6877508261827936E+00    5.1653582622974872E+00
Ga    3.2917324389296936E+00    7.5465591106993966E+00    5.8199660959143955E+00
N    3.2888606043421977E+00    7.5472692440429476E+00    7.8246188040479776E+00
Ga    3.2902114355236152E+00    5.7011226519744413E+00    8.4825657248583504E+00
N    3.2888225433468801E+00    5.6955972050087000E+00    1.0460197166386227E+01
Ga    3.2897375891019238E+00    7.5322599002478947E+00    1.1116333583879264E+01
N    3.2891368661406863E+00    7.5124451247953479E+00    1.3111613653999875E+01
Ga    3.2892936000909074E+00    5.6904623894357105E+00    1.3918221708486078E+01
N    3.2889119886962579E+00    5.6898087712550174E+00    1.6116187641526938E+01
Ga    3.2888062096197501E+00    7.7231660053659104E+00    1.6515117360185091E+01
Ga    4.1499492841313410E+00    1.0870232685484609E+01    6.6864291890072913E-01
N    1.6996349933960391E+00    1.0346270046264072E+01    2.5654749553231069E+00
Ga    1.6925551769436891E+00    8.5747105662194514E+00    3.2095830096621016E+00
N    1.6767344411457314E+00    8.4672853899908986E+00    5.2085725346853584E+00
Ga    1.6556827070208142E+00    1.0338198938107531E+01    5.8136910381098472E+00
N    1.6728234780841496E+00    1.0331455379471119E+01    7.8265290982328732E+00
Ga    1.6948479363417530E+00    8.4859249613649368E+00    8.4823045259360779E+00
N    1.6924843749362928E+00    8.4825107973682066E+00    1.0476140932864286E+01
Ga    1.6676699425733494E+00    1.0342477046593761E+01    1.1114040346880161E+01
N    1.6492978762600510E+00    1.0352293078952165E+01    1.3110599615125764E+01
Ga    1.6922198013014942E+00    8.4839797650433884E+00    1.3665658543598090E+01
N    1.6627871499408513E+00    8.4675014778056070E+00    1.5631223672138221E+01
Ga    1.8306953341129379E+00    1.0247832468173611E+01    1.6515372906263476E+01
N    3.2886218661095148E+00    9.4063830285017325E+00    1.7628717488402255E+01
N    9.6802844389797631E+00    1.9824748224106690E+00    2.6565490018590543E+00
Ga    9.6486378487587761E+00    1.5161154198463905E-01    3.2794637350998159E+00
N    9.7189866635641575E+00    1.2590445204624309E-01    5.2714005495556941E+00
Ga    9.7236228717927098E+00    1.9670075462786862E+00    5.9112313293443544E+00
N    9.7200695435535831E+00    1.9765896285186799E+00    7.8906769077953998E+00
Ga    9.7198293862860652E+00    1.0597579032842704E-01    8.4682385936189881E+00
N    9.7205641200410255E+00    1.0810653533223713E-01    1.0469657145855441E+01
Ga    9.7205307376974801E+00    1.9766283708507990E+00    1.1070812175838105E+01
N    9.7209089503480364E+00    1.9771082915719003E+00    1.3044436316043894E+01
Ga    9.7210950740634079E+00    1.0825645125870448E-01    1.3665510067747739E+01
N    9.7209150880472208E+00    1.4245743947978567E-01    1.5631337705898224E+01
Ga    9.7207597560450694E+00    1.9828143151662569E+00    1.5908024000222575E+01
N    8.1217618951308417E+00    4.6868318573720940E+00    2.5422145346700034E+00
Ga    8.1477663550290398E+00    2.8886866832707634E+00    3.3707852250488770E+00
N    8.1147381043673281E+00    2.9027646300489662E+00    5.3194545046231259E+00
Ga    8.1340306276603922E+00    4.7895619182768119E+00    5.8130646123757614E+00
N    8.1238688559736936E+00    4.7707675189640089E+00    7.8238729924643753E+00
Ga    8.1065085717794574E+00    2.9168892764321495E+00    8.4792401056749274E+00
N    8.1033887884712890E+00    2.9146086043231074E+00    1.0475542686387728E+01
Ga    8.1280810542544533E+00    4.7740383257435228E+00    1.1114474320610860E+01
N    8.1443727416927150E+00    4.7827964230216837E+00    1.3109101157101941E+01
Ga    8.1015711813882092E+00    2.9139230427833409E+00    1.3666566243838632E+01
N    8.1262384905967000E+00    2.8964861296050763E+00    1.5628194808533456E+01
Ga    7.9527019082872066E+00    4.6716488130056142E+00    1.6531408023834882E+01
N    6.4860105743807219E+00    7.5223840746806960E+00    2.6682498767518315E+00
Ga    6.5437960918831140E+00    5.6967932097696448E+00    3.2214063158945438E+00
N    6.4982272309415547E+00    5.6891924077122438E+00    5.2267719031808104E+00
Ga    6.4762993575671075E+00    7.5466254011190390E+00    5.8629510717323550E+00
N    6.4985189887229957E+00    7.5541241233770959E+00    7.8588211325566490E+00
Ga    6.5103113122647072E+00    5.6870789665945010E+00    8.4698130220459031E+00
N    6.5068556290795918E+00    5.6823818869306342E+00    1.0469200783128631E+01
Ga    6.5040058414277730E+00    7.5488999537511496E+00    1.1070587810486661E+01
N    6.5043971754921532E+00    7.5492213047266965E+00    1.3043602928360494E+01
Ga    6.5048221160867019E+00    5.6791263399893168E+00    1.3667343954572525E+01
N    6.5018817576890031E+00    5.7098942531145740E+00    1.5628632487130417E+01
Ga    6.5081736692169301E+00    7.5475091215903811E+00    1.5909136233559634E+01
N    4.8685711063360770E+00    1.0386914500468023E+01    2.5345824806944037E+00
Ga    4.9385455450197240E+00    8.5046367605561883E+00    3.1491459017522856E+00
N    4.8866755229229897E+00    8.4893003965764269E+00    5.1890808346660000E+00
Ga    4.9128077309902967E+00    1.0341453884495106E+01    5.8123958447474404E+00
N    4.9053926536071639E+00    1.0335385549259193E+01    7.8237859834180812E+00
Ga    4.8868285077744806E+00    8.4847503492015068E+00    8.4746564674970468E+00
N    4.8853462441035580E+00    8.4828939853599792E+00    1.0472032012338442E+01
Ga    4.9090417719490000E+00    1.0341629904863083E+01    1.1113617410355493E+01
N    4.9281699849808982E+00    1.0352102802512611E+01    1.3110207474796145E+01
Ga    4.8859333205293911E+00    8.4839759817544014E+00    1.3665092162360349E+01
N    4.9148447786487806E+00    8.4674602027716563E+00    1.5630699030004122E+01
Ga    4.7463368553270060E+00    1.0247570756768154E+01    1.6515250571365250E+01
O    6.3733668412613653E-01    4.1811526393428426E+00   -2.9646587185877521E-01
H    3.1242305583530356E+00    5.0018232245068193E+00    3.4642700198159071E-01
C    9.1242623556390778E-01    3.0816798713237943E+00   -1.1729530870328406E+00
H    1.5203077969775223E+00    2.2989740299599237E+00   -6.8964364152549495E-01
H   -1.3710733294607444E-02    2.6256400410517391E+00   -1.5553499975741321E+00
H    1.4813967395451944E+00    3.4772155314309336E+00   -2.0279596480689075E+00
Ga    3.1929689230864029E+00    5.6626836626696857E+00    3.1291133981826440E+00
O    3.9311610195079352E+00    5.5557099646197692E+00    5.0411968861202261E-01
H    1.8083087408928961E-02    7.5020167486454508E+00    1.6823121354251747E+00
C    4.9238932296479323E+00    4.7351433795738931E+00    1.1395178820780805E+00
H    5.8786188556676180E+00    5.1488949748512773E+00    7.8892828784887836E-01
H    3.2876750506845092E+00    7.5510621913672518E+00    1.5836294371353929E+00
H    4.8778959116332405E+00    3.6914336257935663E+00    7.8356219129066085E-01
     &END COORD
     &KIND C
       BASIS_SET DZVP-MOLOPT-SR-GTH-q4
       POTENTIAL GTH-PBE-q4
       &POTENTIAL
2 2
0.3384712400000000E+00 2 -0.8803673979999999E+01  0.1339210850000000E+01
2
0.3025757500000000E+00 1  0.9622486650000001E+01
0.2915069400000000E+00 0
       &END POTENTIAL
     &END KIND
     &KIND O
       BASIS_SET DZVP-MOLOPT-SR-GTH-q6
       POTENTIAL GTH-PBE-q6
       &POTENTIAL
2 4
0.2445543000000000E+00 2 -0.1666721480000000E+02  0.2487311320000000E+01
2
0.2209559200000000E+00 1  0.1833745811000000E+02
0.2113324700000000E+00 0
       &END POTENTIAL
     &END KIND
     &KIND H
       BASIS_SET DZVP-MOLOPT-SR-GTH-q1
       POTENTIAL GTH-PBE-q1
       &POTENTIAL
1
0.2000000000000000E+00 2 -0.4178900440000000E+01  0.7244633100000000E+00
0
       &END POTENTIAL
     &END KIND
     &KIND N
       BASIS_SET DZVP-MOLOPT-SR-GTH
       POTENTIAL GTH-PBE-q5
       &POTENTIAL
2 3
0.2837905100000000E+00 2 -0.1241522559000000E+02  0.1868095920000000E+01
2
0.2554050000000000E+00 1  0.1363026257000000E+02
0.2454945300000000E+00 0
       &END POTENTIAL
     &END KIND
     &KIND Ga
       BASIS_SET DZVP-MOLOPT-SR-GTH
       POTENTIAL GTH-PBE-q13
       &POTENTIAL
2 1 10
0.4900000000000000E+00 0
3
0.4167772300000000E+00 3  0.1047568975000000E+02 -0.4921768140000000E+01  0.8707055900000000E+00
0.7770178090000000E+01 -0.2248152160000000E+01
0.1784415450000000E+01
0.5696265200000000E+00 2  0.1777985340000000E+01  0.1958597600000000E+00
-0.2317443900000000E+00
0.2381265000000000E+00 1 -0.1624868022000000E+02
       &END POTENTIAL
     &END KIND
     &TOPOLOGY
       NUMBER_OF_ATOMS  212
       MULTIPLE_UNIT_CELL  1 1 1
     &END TOPOLOGY
     &COLVAR
       &DISTANCE
         ATOMS  127 211
       &END DISTANCE
       &PRINT
       &END PRINT
     &END COLVAR
   &END SUBSYS
 &END FORCE_EVAL
