 # Version information for this restart file 
 # current date 2019-07-21 20:43:11.461
 # current working dir /lustre04/scratch/rzk/rzk/GaN-carbene/443-adatoms-both-2x2/09-BondBreaking-CH/04-0401-H2C-to-NTop-OPT
 # Program compiled at                              Sun Apr  7 00:48:11 EDT 2019
 # Program compiled on                          beluga2.int.ets1.calculquebec.ca
 # Program compiled for                        Beluga-Linux-x86-64-intel-openmpi
 # Source code revision number                                         svn:18619
 &GLOBAL
   PRINT_LEVEL  MEDIUM
   PROJECT_NAME TEST
   RUN_TYPE  GEO_OPT
 &END GLOBAL
 &MOTION
   &GEO_OPT
     MAX_ITER  500
     STEP_START_VAL  1
   &END GEO_OPT
 &END MOTION
 &FORCE_EVAL
   METHOD  QS
   STRESS_TENSOR  ANALYTICAL
   &DFT
     BASIS_SET_FILE_NAME BASIS_MOLOPT
     POTENTIAL_FILE_NAME GTH_POTENTIALS
     UKS  T
     SURFACE_DIPOLE_CORRECTION  T
     SURF_DIP_DIR  Z
     &SCF
       MAX_SCF  80
       EPS_SCF     5.0000000000000004E-06
       &OT  T
         PRECONDITIONER  FULL_ALL
       &END OT
       &OUTER_SCF  T
         OPTIMIZER  NONE
         EPS_SCF     5.0000000000000004E-06
         MAX_SCF  4
       &END OUTER_SCF
       &PRINT
         &RESTART  OFF
           BACKUP_COPIES  1
           &EACH
             JUST_ENERGY  0
             QS_SCF  0
             MD  20
           &END EACH
         &END RESTART
       &END PRINT
     &END SCF
     &QS
       EPS_DEFAULT     1.0000000000000000E-14
       METHOD  GPW
     &END QS
     &MGRID
       NGRIDS  5
       CUTOFF     1.2000000000000000E+03
     &END MGRID
     &XC
       DENSITY_CUTOFF     1.0000000000000000E-10
       GRADIENT_CUTOFF     1.0000000000000000E-10
       TAU_CUTOFF     1.0000000000000000E-10
       &XC_FUNCTIONAL  NO_SHORTCUT
         &PBE  T
         &END PBE
       &END XC_FUNCTIONAL
       &VDW_POTENTIAL
         POTENTIAL_TYPE  PAIR_POTENTIAL
         &PAIR_POTENTIAL
           R_CUTOFF     1.0000000000000009E+01
           TYPE  DFTD3
           PARAMETER_FILE_NAME dftd3.dat
           REFERENCE_FUNCTIONAL PBE
           EPS_CN     9.9999999999999995E-07
           CALCULATE_C9_TERM  T
           REFERENCE_C9_TERM  T
           LONG_RANGE_CORRECTION  F
           VERBOSE_OUTPUT  F
         &END PAIR_POTENTIAL
       &END VDW_POTENTIAL
     &END XC
   &END DFT
   &SUBSYS
     &CELL
       A     1.2864472766435110E+01    0.0000000000000000E+00    0.0000000000000000E+00
       B    -6.4322363581020028E+00    1.1140960178524477E+01    0.0000000000000000E+00
       C     0.0000000000000000E+00    0.0000000000000000E+00    3.2000000000000000E+01
       MULTIPLE_UNIT_CELL  1 1 1
       &CELL_REF
         A     1.2982353780853531E+01    0.0000000000000000E+00    0.0000000000000000E+00
         B    -6.4911768904267628E+00    1.1243048175136114E+01    0.0000000000000000E+00
         C     0.0000000000000000E+00    0.0000000000000000E+00    3.2000000000000000E+01
         MULTIPLE_UNIT_CELL  1 1 1
       &END CELL_REF
     &END CELL
     &COORD
N    8.3578928365765817E-02    2.1288120837908586E+00    2.5708504039085316E+00
Ga    9.4467770913138238E-02    1.7935985952478758E-01    3.0039129383351821E+00
N    8.9335605864126102E-02    1.3036959737333581E-01    5.1091198338363171E+00
Ga    6.4382010022530009E-02    1.9556399065959442E+00    5.8725633104826240E+00
N    7.0483990966808130E-02    1.9696026817293573E+00    7.8598321270206633E+00
Ga    6.4630106834232551E-02    1.1708655281928215E-01    8.4932341820063577E+00
N    7.1263714790036112E-02    1.1938563690941791E-01    1.0464673566856172E+01
Ga    6.8773105525732098E-02    1.9579315571289879E+00    1.1120733119657602E+01
N    7.1654688668868594E-02    1.9402816229344375E+00    1.3109805711631706E+01
Ga    7.3740480224161353E-02    1.2151888991055194E-01    1.3921749339197767E+01
N    7.3924534280359513E-02    1.2269127443565987E-01    1.6113616491062096E+01
Ga    7.3272242497762430E-02    2.1716011936426627E+00    1.6534423229894472E+01
Ga    1.2246765597440430E-01    3.8444550232344632E+00    1.4330071311052510E+00
N   -1.3893030539936746E+00    4.6976459500438033E+00    2.5321072790479997E+00
Ga   -1.6140955386730660E+00    2.8543185255795476E+00    3.3028672299324016E+00
N   -1.5407236823015154E+00    2.9027970256329354E+00    5.2824556588910170E+00
Ga   -1.5623919877242234E+00    4.7716070721873951E+00    5.8480706438072643E+00
N   -1.5442098424793373E+00    4.7684606229855717E+00    7.8413474782433816E+00
Ga   -1.5321218637321876E+00    2.9127064513973089E+00    8.4900547120736523E+00
N   -1.5258969045266304E+00    2.9134261334206952E+00    1.0478960664177574E+01
Ga   -1.5527799997909020E+00    4.7726398603267590E+00    1.1118513726141030E+01
N   -1.5683421829934145E+00    4.7824436771010292E+00    1.3108947995949260E+01
Ga   -1.5248199757568162E+00    2.9128070417107863E+00    1.3667947797157810E+01
N   -1.5496346543229063E+00    2.8965316438405977E+00    1.5626851264003355E+01
Ga   -1.3739682669087205E+00    4.6701634150693252E+00    1.6534234477276183E+01
N    6.6408805754264000E-02    3.8390071170650222E+00    1.7675706342732575E+01
N   -3.1299771379200165E+00    7.6612646269181743E+00    2.5564489624889699E+00
Ga   -3.1081172268360522E+00    5.6686109198375085E+00    2.8898442485279063E+00
N   -3.1290274119075354E+00    5.6955679390102114E+00    5.0615024346834430E+00
Ga   -3.1454616158642610E+00    7.5123513944811746E+00    5.8445552722776588E+00
N   -3.1428258961944757E+00    7.5384092250880217E+00    7.8357707245520034E+00
Ga   -3.1440794336665401E+00    5.6907236062460838E+00    8.4878049325608185E+00
N   -3.1441785494043990E+00    5.6929132905698649E+00    1.0460438847363694E+01
Ga   -3.1455409088237847E+00    7.5301446909885152E+00    1.1118271743455937E+01
N   -3.1443504126312285E+00    7.5120406448106474E+00    1.3108001202653719E+01
Ga   -3.1444516733536854E+00    5.6926361890913881E+00    1.3922790788082009E+01
N   -3.1439580326646346E+00    5.6923130474602637E+00    1.6112461412095477E+01
Ga   -3.1439527147818902E+00    7.7367288418975280E+00    1.6535081314523651E+01
Ga   -3.1661326317613874E+00    9.4119160239408135E+00    1.4907791633129768E+00
N   -4.6408974347135796E+00    1.0282650972373265E+01    2.5987234487299595E+00
Ga   -4.8609744043146605E+00    8.4177415503280031E+00    3.3056984974189776E+00
N   -4.7488581071179432E+00    8.4792796399425825E+00    5.2774044628581098E+00
Ga   -4.7780799754556744E+00    1.0343162216799312E+01    5.8728583611951990E+00
N   -4.7590364144576052E+00    1.0336935070652395E+01    7.8575200599091195E+00
Ga   -4.7460198637429132E+00    8.4763042379260209E+00    8.4820965547770903E+00
N   -4.7411509163909535E+00    8.4812664034323770E+00    1.0472443297848193E+01
Ga   -4.7711030253560613E+00    1.0338629834981507E+01    1.1120154276649165E+01
N   -4.7846722462211417E+00    1.0351268051481652E+01    1.3108798834167642E+01
Ga   -4.7408684021956509E+00    8.4835347607332778E+00    1.3668958770503856E+01
N   -4.7679235878881849E+00    8.4708004600927911E+00    1.5627388930086775E+01
Ga   -4.5838968195460650E+00    1.0238765680708369E+01    1.6535129468904007E+01
N   -3.1440108887100391E+00    9.3992212225638010E+00    1.7676797943356803E+01
N    3.3009270507964081E+00    2.0021622152226883E+00    2.7140084239869595E+00
Ga    3.2959719039382311E+00    1.9611114707282096E-01    3.3610685988655780E+00
N    3.2913848345543077E+00    1.1991475236997103E-01    5.3053930776166078E+00
Ga    3.2914618607013000E+00    1.9794721333627232E+00    5.9489621999173172E+00
N    3.2888658490306870E+00    1.9748164715661545E+00    7.9142100922673331E+00
Ga    3.2870286806918658E+00    1.0451571761657892E-01    8.5106560161932698E+00
N    3.2877807247731008E+00    1.0672766945478149E-01    1.0493293762518446E+01
Ga    3.2887774492837587E+00    1.9778942515702858E+00    1.1085667015242535E+01
N    3.2890643341592196E+00    1.9780252391976325E+00    1.3052339813052544E+01
Ga    3.2883472878238362E+00    1.0537927363650222E-01    1.3669444553344462E+01
N    3.2885632546047017E+00    1.3955628747256055E-01    1.5626508304190983E+01
Ga    3.2891455025927816E+00    1.9789304442581936E+00    1.5901008444223052E+01
N    1.5519420315893182E+00    4.6838893968701756E+00    2.6406512411027410E+00
Ga    1.7213590221976813E+00    2.8678824660502671E+00    3.3804127943695050E+00
N    1.6873849627296091E+00    2.9022946213708858E+00    5.3277011304388946E+00
Ga    1.7002913964609250E+00    4.7774845124003411E+00    5.8782890973464914E+00
N    1.6859369630619168E+00    4.7684477977913060E+00    7.8572469447870921E+00
Ga    1.6667480391526333E+00    2.9139303315227498E+00    8.5058252766186051E+00
N    1.6691038261767599E+00    2.9123857990933475E+00    1.0490651024881283E+01
Ga    1.6961418798765855E+00    4.7760227795838635E+00    1.1119656112772178E+01
N    1.7134123999785040E+00    4.7833593578892364E+00    1.3109594965329169E+01
Ga    1.6671381505117218E+00    2.9142217811080093E+00    1.3669436294307424E+01
N    1.6959501243248378E+00    2.8984648345016129E+00    1.5626761487370203E+01
Ga    1.5144021624661890E+00    4.6665103934606371E+00    1.6535183942964160E+01
N    8.1889924746003956E-02    7.5472871237040966E+00    2.7067243316673544E+00
Ga    7.8605471326736898E-02    5.7113990452747521E+00    3.3809005165987758E+00
N    7.1707123393684694E-02    5.7098143145907612E+00    5.3104548479879643E+00
Ga    1.0047446567319201E-01    7.5613808037374355E+00    5.9176079555294621E+00
N    7.7111392229681539E-02    7.5539114386543602E+00    7.8848382814453570E+00
Ga    6.8971040018576096E-02    5.6852181015270293E+00    8.4877258468398384E+00
N    7.0627453712810609E-02    5.6809327916577868E+00    1.0476469501797318E+01
Ga    7.3409712613035819E-02    7.5494586158151247E+00    1.1075014944145762E+01
N    7.2554124058163735E-02    7.5495109271529728E+00    1.3043260410716369E+01
Ga    7.2509638689903400E-02    5.6787712159636490E+00    1.3669475541792583E+01
N    7.4958692530405269E-02    5.7098584464373374E+00    1.5628372346073277E+01
Ga    6.9503784233629212E-02    7.5478152027825614E+00    1.5908611260864914E+01
N   -1.6446791257430884E+00    1.0270166353540166E+01    2.5815895599943519E+00
Ga   -1.5004787960928854E+00    8.4642057531096189E+00    3.3573049493082388E+00
N   -1.5225584903625700E+00    8.4741561595146937E+00    5.2877023696011225E+00
Ga   -1.5037786498845147E+00    1.0349591528678173E+01    5.8822261940602756E+00
N   -1.5320827207025485E+00    1.0333724903527511E+01    7.8626975943856907E+00
Ga   -1.5442421828700272E+00    8.4758212915980540E+00    8.4914931449620141E+00
N   -1.5473536898051337E+00    8.4810074104609274E+00    1.0478114172616898E+01
Ga   -1.5171723812685951E+00    1.0340360113192061E+01    1.1121415368654967E+01
N   -1.5021966737472174E+00    1.0352293348263061E+01    1.3110080492275921E+01
Ga   -1.5479082882571948E+00    8.4840589064862222E+00    1.3669552012452526E+01
N   -1.5196364372207432E+00    8.4708270088699766E+00    1.5628101575381276E+01
Ga   -1.7036716182580094E+00    1.0238888900161056E+01    1.6535522941187612E+01
N    6.5396375013128685E+00    2.0390977640009860E+00    2.5597573761470023E+00
Ga    6.5169742453932056E+00    1.2154876173509827E-01    2.9624661462139037E+00
N    6.4821082868591731E+00    1.2160656517587054E-01    5.1226394358037899E+00
Ga    6.5069255970481938E+00    1.9469590683792397E+00    5.8536380092883284E+00
N    6.5066711782662656E+00    1.9722516755590478E+00    7.8488305659294690E+00
Ga    6.5127769728330671E+00    1.1712653760318793E-01    8.4885183681649714E+00
N    6.5057824745715829E+00    1.2029738432404008E-01    1.0462424397456500E+01
Ga    6.5092229466699996E+00    1.9589375518245760E+00    1.1120976746904232E+01
N    6.5059362251081287E+00    1.9406532324379575E+00    1.3110012042608538E+01
Ga    6.5037407268137528E+00    1.2259924009144263E-01    1.3923367016520316E+01
N    6.5029880953939490E+00    1.2311965598700875E-01    1.6114214721189818E+01
Ga    6.5039036820753751E+00    2.1721149945730431E+00    1.6533984657899463E+01
Ga    7.8523918142571887E+00    3.0491874766011446E+00    7.4843846266894465E-01
N    4.8452932403670061E+00    4.7855575894086302E+00    2.6384215564709663E+00
Ga    4.9235452743437245E+00    2.8824123754024837E+00    3.2992793275550389E+00
N    4.8869478298278199E+00    2.9014179034944996E+00    5.2616659346955483E+00
Ga    4.8828880737719089E+00    4.7772427213371378E+00    5.8663855977139487E+00
N    4.8889430120182720E+00    4.7664859384714315E+00    7.8531397435335313E+00
Ga    4.9111125217536555E+00    2.9128148058980083E+00    8.5067792849662389E+00
N    4.9086580154340353E+00    2.9131688086733512E+00    1.0491770698172735E+01
Ga    4.8840149317704711E+00    4.7778135971305478E+00    1.1117563490706267E+01
N    4.8657907282984727E+00    4.7836571119095384E+00    1.3107869310292630E+01
Ga    4.9106222151920917E+00    2.9149379393829800E+00    1.3668669891465964E+01
N    4.8817202807014279E+00    2.8988942919026304E+00    1.5625762125627798E+01
Ga    5.0634014600155499E+00    4.6665970698339807E+00    1.6534599513843691E+01
N    6.5107031351236593E+00    3.8390886406421858E+00    1.7675492682761487E+01
N    3.2763036909665266E+00    7.5524447771309093E+00    2.5968564470332551E+00
N    3.2858684162126210E+00    5.6796854909669126E+00    5.1519092095127217E+00
Ga    3.2898101688490233E+00    7.5429058415866530E+00    5.8115360639297178E+00
N    3.2885022921940967E+00    7.5446894415136478E+00    7.8147165009356501E+00
Ga    3.2879188511677202E+00    5.7027286673980306E+00    8.4865056608644771E+00
N    3.2893666069274823E+00    5.6949043100310899E+00    1.0459956126207153E+01
Ga    3.2905243377797784E+00    7.5326838955231343E+00    1.1117907973274335E+01
N    3.2894898640171353E+00    7.5119553193316806E+00    1.3109969540019334E+01
Ga    3.2899236479969711E+00    5.6906418924586051E+00    1.3923118558969328E+01
N    3.2889148786084195E+00    5.6902770625064232E+00    1.6114717030408784E+01
Ga    3.2890022261444272E+00    7.7269001545763301E+00    1.6518793847049775E+01
Ga    4.1465980355027963E+00    1.0882183478048159E+01    6.7393004983519644E-01
N    1.7031025330397540E+00    1.0340211947665662E+01    2.5703267915855941E+00
Ga    1.7002737157224848E+00    8.5615153009272884E+00    3.2081150370358120E+00
N    1.6766058102245975E+00    8.4671983113031288E+00    5.2025848827997754E+00
Ga    1.6568013063188500E+00    1.0335696240685659E+01    5.8150466676588692E+00
N    1.6716109363300184E+00    1.0331158310056189E+01    7.8243171941720515E+00
Ga    1.6958264441512980E+00    8.4845446276011494E+00    8.4833509554508506E+00
N    1.6929011583274194E+00    8.4832141205562195E+00    1.0474336707390254E+01
Ga    1.6682009480822169E+00    1.0343588891827496E+01    1.1115729421757303E+01
N    1.6487681383028387E+00    1.0353250269366887E+01    1.3108755885622045E+01
Ga    1.6920796900223929E+00    8.4842723858046707E+00    1.3666999570407654E+01
N    1.6624833387300662E+00    8.4672339517545332E+00    1.5629206990014982E+01
Ga    1.8342602373043011E+00    1.0246106804102048E+01    1.6519113052193479E+01
N    3.2884745642260804E+00    9.4058616078753499E+00    1.7633483443480340E+01
N    9.7031886265819640E+00    1.9640607769939489E+00    2.6548408067388083E+00
Ga    9.6566964420014116E+00    1.4540587953963574E-01    3.2842249050949230E+00
N    9.7180541180517359E+00    1.2326675978061100E-01    5.2732376401550827E+00
Ga    9.7251032128848216E+00    1.9657255852082061E+00    5.9108741616474321E+00
N    9.7203360227512263E+00    1.9769124467206411E+00    7.8885642336200883E+00
Ga    9.7197034436753125E+00    1.0559082391942969E-01    8.4697810815364143E+00
N    9.7210073236509373E+00    1.0836981837474841E-01    1.0467401430907072E+01
Ga    9.7209448865535020E+00    1.9761307607324627E+00    1.1071723679058445E+01
N    9.7204562461505670E+00    1.9774302656774263E+00    1.3040944590262285E+01
Ga    9.7214026180490460E+00    1.0888805767673869E-01    1.3666514964838717E+01
N    9.7208984684979374E+00    1.4320462447023224E-01    1.5628733551755287E+01
Ga    9.7205867374114998E+00    1.9825538980037685E+00    1.5907950922002863E+01
N    8.0964832641163813E+00    4.7047992197382076E+00    2.5508732647779828E+00
Ga    8.1734614819101878E+00    2.8699613004431135E+00    3.3289780988625188E+00
N    8.1177444826958745E+00    2.8986178896527242E+00    5.2909030548920875E+00
Ga    8.1348959862606964E+00    4.7812205014682885E+00    5.8164083034291565E+00
N    8.1254332320218357E+00    4.7684343469412331E+00    7.8236356983573492E+00
Ga    8.1089610510096524E+00    2.9154616253396846E+00    8.4874857105226571E+00
N    8.1034722505967611E+00    2.9145061073131275E+00    1.0477998238083877E+01
Ga    8.1278852889009965E+00    4.7739370256138045E+00    1.1116836850725708E+01
N    8.1444977393800748E+00    4.7827596718211929E+00    1.3107461408807985E+01
Ga    8.1018435347837574E+00    2.9138495171764349E+00    1.3667647308881309E+01
N    8.1267334221536025E+00    2.8969039552323270E+00    1.5626323240322986E+01
Ga    7.9506326059213777E+00    4.6703368770547256E+00    1.6533737944320304E+01
N    6.4857257386860026E+00    7.5351845250660068E+00    2.6548415421091627E+00
Ga    6.5235891164945654E+00    5.7423324693373097E+00    3.2646645355103372E+00
N    6.4979419771739844E+00    5.6992003904941564E+00    5.2523669014087835E+00
Ga    6.4761990712826689E+00    7.5621366746359602E+00    5.8785025808467983E+00
N    6.4983943845128902E+00    7.5573573012551645E+00    7.8675953116430204E+00
Ga    6.5110255722254804E+00    5.6883964229746891E+00    8.4732242558609325E+00
N    6.5072026361086834E+00    5.6825295323971803E+00    1.0468351350632881E+01
Ga    6.5045568428653109E+00    7.5494743300468841E+00    1.1070971009623435E+01
N    6.5047922526302964E+00    7.5489832763959344E+00    1.3039766668005123E+01
Ga    6.5052631508827394E+00    5.6797306675065409E+00    1.3668678635902095E+01
N    6.5023310097394074E+00    5.7100468219895690E+00    1.5627129617224632E+01
Ga    6.5078043463799977E+00    7.5475737068899820E+00    1.5908695759821418E+01
N    4.8681806743995999E+00    1.0383970882802974E+01    2.5351280775190723E+00
Ga    4.9410330040949644E+00    8.5078880975034075E+00    3.1488101989990822E+00
N    4.8837029783421384E+00    8.4871466852535278E+00    5.1864738643870023E+00
Ga    4.9094237528852398E+00    1.0337777330585819E+01    5.8182619397428352E+00
N    4.9062934152839031E+00    1.0335198623030973E+01    7.8254047879476962E+00
Ga    4.8832533115738412E+00    8.4847567143417955E+00    8.4777313016685287E+00
N    4.8860142449769857E+00    8.4833394089131779E+00    1.0470891576782385E+01
Ga    4.9093718962646067E+00    1.0342239538175564E+01    1.1114404989565092E+01
N    4.9285311711951056E+00    1.0352564874010573E+01    1.3107377735231839E+01
Ga    4.8868947469405732E+00    8.4841632469462560E+00    1.3666103194914440E+01
N    4.9152159972310407E+00    8.4671302949402065E+00    1.5628244131158002E+01
Ga    4.7426805224049966E+00    1.0245561845605700E+01    1.6518811809461745E+01
O    6.4344648204536481E-01    4.1864535326283789E+00   -2.9179935570206789E-01
H    3.1146671267220225E+00    5.0509064735500386E+00    3.1666810357954667E-01
C    9.1482285876149350E-01    3.0851900462822757E+00   -1.1706436704598471E+00
H    1.5217351948565234E+00    2.3017485953770573E+00   -6.8676788627396657E-01
H   -1.4212415268589979E-02    2.6343653202516655E+00   -1.5506430446514921E+00
H    1.4834324889826636E+00    3.4798685555786135E+00   -2.0257535071867547E+00
Ga    3.1724008489271411E+00    5.6641000419127447E+00    3.1155931325322030E+00
O    3.9505556838812539E+00    5.5359625440177549E+00    5.4996127348117485E-01
H    1.5352402894602088E-02    7.5047775669583627E+00    1.6838128527738674E+00
C    4.9576285677106133E+00    4.6896940518776233E+00    1.1361101152370503E+00
H    5.8788755732373943E+00    5.2042458200020816E+00    8.1565953579742945E-01
H    3.2856951677760393E+00    7.5726520100259807E+00    1.5689603946385502E+00
H    4.8767073072078064E+00    3.6468664046763957E+00    8.0607610753257253E-01
     &END COORD
     &KIND C
       BASIS_SET DZVP-MOLOPT-SR-GTH-q4
       POTENTIAL GTH-PBE-q4
       &POTENTIAL
2 2
0.3384712400000000E+00 2 -0.8803673979999999E+01  0.1339210850000000E+01
2
0.3025757500000000E+00 1  0.9622486650000001E+01
0.2915069400000000E+00 0
       &END POTENTIAL
     &END KIND
     &KIND O
       BASIS_SET DZVP-MOLOPT-SR-GTH-q6
       POTENTIAL GTH-PBE-q6
       &POTENTIAL
2 4
0.2445543000000000E+00 2 -0.1666721480000000E+02  0.2487311320000000E+01
2
0.2209559200000000E+00 1  0.1833745811000000E+02
0.2113324700000000E+00 0
       &END POTENTIAL
     &END KIND
     &KIND H
       BASIS_SET DZVP-MOLOPT-SR-GTH-q1
       POTENTIAL GTH-PBE-q1
       &POTENTIAL
1
0.2000000000000000E+00 2 -0.4178900440000000E+01  0.7244633100000000E+00
0
       &END POTENTIAL
     &END KIND
     &KIND N
       BASIS_SET DZVP-MOLOPT-SR-GTH
       POTENTIAL GTH-PBE-q5
       &POTENTIAL
2 3
0.2837905100000000E+00 2 -0.1241522559000000E+02  0.1868095920000000E+01
2
0.2554050000000000E+00 1  0.1363026257000000E+02
0.2454945300000000E+00 0
       &END POTENTIAL
     &END KIND
     &KIND Ga
       BASIS_SET DZVP-MOLOPT-SR-GTH
       POTENTIAL GTH-PBE-q13
       &POTENTIAL
2 1 10
0.4900000000000000E+00 0
3
0.4167772300000000E+00 3  0.1047568975000000E+02 -0.4921768140000000E+01  0.8707055900000000E+00
0.7770178090000000E+01 -0.2248152160000000E+01
0.1784415450000000E+01
0.5696265200000000E+00 2  0.1777985340000000E+01  0.1958597600000000E+00
-0.2317443900000000E+00
0.2381265000000000E+00 1 -0.1624868022000000E+02
       &END POTENTIAL
     &END KIND
     &TOPOLOGY
       NUMBER_OF_ATOMS  212
       MULTIPLE_UNIT_CELL  1 1 1
     &END TOPOLOGY
     &COLVAR
       &DISTANCE
         ATOMS  127 211
       &END DISTANCE
       &PRINT
       &END PRINT
     &END COLVAR
   &END SUBSYS
 &END FORCE_EVAL
