 # Version information for this restart file 
 # current date 2019-07-21 23:46:23.132
 # current working dir /lustre04/scratch/rzk/rzk/GaN-carbene/443-adatoms-both-2x2/09-BondBreaking-CH/04-0401-H2C-to-NTop-OPT
 # Program compiled at                              Sun Apr  7 00:48:11 EDT 2019
 # Program compiled on                          beluga2.int.ets1.calculquebec.ca
 # Program compiled for                        Beluga-Linux-x86-64-intel-openmpi
 # Source code revision number                                         svn:18619
 &GLOBAL
   PRINT_LEVEL  MEDIUM
   PROJECT_NAME TEST
   RUN_TYPE  GEO_OPT
 &END GLOBAL
 &MOTION
   &GEO_OPT
     MAX_ITER  500
     STEP_START_VAL  30
   &END GEO_OPT
 &END MOTION
 &FORCE_EVAL
   METHOD  QS
   STRESS_TENSOR  ANALYTICAL
   &DFT
     BASIS_SET_FILE_NAME BASIS_MOLOPT
     POTENTIAL_FILE_NAME GTH_POTENTIALS
     UKS  T
     SURFACE_DIPOLE_CORRECTION  T
     SURF_DIP_DIR  Z
     &SCF
       MAX_SCF  80
       EPS_SCF     5.0000000000000004E-06
       &OT  T
         PRECONDITIONER  FULL_ALL
       &END OT
       &OUTER_SCF  T
         OPTIMIZER  NONE
         EPS_SCF     5.0000000000000004E-06
         MAX_SCF  4
       &END OUTER_SCF
       &PRINT
         &RESTART  OFF
           BACKUP_COPIES  1
           &EACH
             JUST_ENERGY  0
             QS_SCF  0
             MD  20
           &END EACH
         &END RESTART
       &END PRINT
     &END SCF
     &QS
       EPS_DEFAULT     1.0000000000000000E-14
       METHOD  GPW
     &END QS
     &MGRID
       NGRIDS  5
       CUTOFF     1.2000000000000000E+03
     &END MGRID
     &XC
       DENSITY_CUTOFF     1.0000000000000000E-10
       GRADIENT_CUTOFF     1.0000000000000000E-10
       TAU_CUTOFF     1.0000000000000000E-10
       &XC_FUNCTIONAL  NO_SHORTCUT
         &PBE  T
         &END PBE
       &END XC_FUNCTIONAL
       &VDW_POTENTIAL
         POTENTIAL_TYPE  PAIR_POTENTIAL
         &PAIR_POTENTIAL
           R_CUTOFF     1.0000000000000009E+01
           TYPE  DFTD3
           PARAMETER_FILE_NAME dftd3.dat
           REFERENCE_FUNCTIONAL PBE
           EPS_CN     9.9999999999999995E-07
           CALCULATE_C9_TERM  T
           REFERENCE_C9_TERM  T
           LONG_RANGE_CORRECTION  F
           VERBOSE_OUTPUT  F
         &END PAIR_POTENTIAL
       &END VDW_POTENTIAL
     &END XC
   &END DFT
   &SUBSYS
     &CELL
       A     1.2864472766435110E+01    0.0000000000000000E+00    0.0000000000000000E+00
       B    -6.4322363581020028E+00    1.1140960178524477E+01    0.0000000000000000E+00
       C     0.0000000000000000E+00    0.0000000000000000E+00    3.2000000000000000E+01
       MULTIPLE_UNIT_CELL  1 1 1
       &CELL_REF
         A     1.2982353780853531E+01    0.0000000000000000E+00    0.0000000000000000E+00
         B    -6.4911768904267628E+00    1.1243048175136114E+01    0.0000000000000000E+00
         C     0.0000000000000000E+00    0.0000000000000000E+00    3.2000000000000000E+01
         MULTIPLE_UNIT_CELL  1 1 1
       &END CELL_REF
     &END CELL
     &COORD
N    6.8181683903922249E-02    2.1354846769428244E+00    2.5721956873138807E+00
Ga    1.1523026333889305E-01    1.9910623645401873E-01    3.0108010719936411E+00
N    9.8385792359355490E-02    1.4418790238593640E-01    5.0962342844561768E+00
Ga    7.3810023089777702E-02    1.9728011566792243E+00    5.8477990088225393E+00
N    7.2096466691537117E-02    1.9816931310766173E+00    7.8465971335622564E+00
Ga    6.8218083772262073E-02    1.2838471797636444E-01    8.4717517077283357E+00
N    7.3175271610008322E-02    1.2945948989401065E-01    1.0454567568105585E+01
Ga    7.7787465744146508E-02    1.9663230271742094E+00    1.1114634916516753E+01
N    7.6562277456579064E-02    1.9483478229505542E+00    1.3111310253564426E+01
Ga    7.7106034065416523E-02    1.2812801466546977E-01    1.3908451057005596E+01
N    7.5775036877358398E-02    1.2950731326917853E-01    1.6117048954856092E+01
Ga    7.5484149501718209E-02    2.1721153617755080E+00    1.6525411490835751E+01
Ga    1.3565647374683087E-01    3.8408443143448632E+00    1.4338729406608541E+00
N   -1.3922320744301939E+00    4.7153253315138803E+00    2.5434953742092206E+00
Ga   -1.6318307112014003E+00    2.8849674481486693E+00    3.2859582826533926E+00
N   -1.5513113288021729E+00    2.9118289397662798E+00    5.2695243663138100E+00
Ga   -1.5661743956716445E+00    4.7780888887748469E+00    5.8664212731403742E+00
N   -1.5425531844166516E+00    4.7746903909107052E+00    7.8592324264857112E+00
Ga   -1.5192101669046230E+00    2.9194229269523855E+00    8.5017890486040812E+00
N   -1.5193858696800118E+00    2.9234678212900311E+00    1.0491549378266313E+01
Ga   -1.5468907929825477E+00    4.7823938197921541E+00    1.1123960417742909E+01
N   -1.5637540704264965E+00    4.7900303826118433E+00    1.3118156324284135E+01
Ga   -1.5209372276584581E+00    2.9189781718303083E+00    1.3666729975458171E+01
N   -1.5460792900462523E+00    2.9025386522384342E+00    1.5631007525380385E+01
Ga   -1.3782661940818526E+00    4.6809781904649963E+00    1.6524192500444467E+01
N    7.4599428701368597E-02    3.8506296662773529E+00    1.7657855173751283E+01
N   -3.1215953548489619E+00    7.6785327807662638E+00    2.5848982815872517E+00
Ga   -3.1051742545651631E+00    5.6602618231813748E+00    2.9369879154380047E+00
N   -3.1280932027973742E+00    5.7101358936334812E+00    5.0976320480661528E+00
Ga   -3.1425199013916569E+00    7.5308300475673828E+00    5.8581658161241572E+00
N   -3.1380072701668111E+00    7.5523921839970347E+00    7.8496400859158708E+00
Ga   -3.1381715884812871E+00    5.7077185422243701E+00    8.5019461684986553E+00
N   -3.1384339216573887E+00    5.7027002202262267E+00    1.0474322188866147E+01
Ga   -3.1445772563772101E+00    7.5426386986097196E+00    1.1117172521451050E+01
N   -3.1419480454005217E+00    7.5215747253106437E+00    1.3111932627243011E+01
Ga   -3.1425581316306692E+00    5.7009715255606519E+00    1.3913965817332159E+01
N   -3.1415819941883503E+00    5.7010406320370750E+00    1.6117274595528091E+01
Ga   -3.1410090220548490E+00    7.7426208370655685E+00    1.6525806889829695E+01
Ga   -3.1483136281897743E+00    9.4434730947661585E+00    1.6104453936463641E+00
N   -4.6303262442944684E+00    1.0288872319144096E+01    2.6105190099137885E+00
Ga   -4.8735087405035937E+00    8.4016154354622241E+00    3.3204834492819466E+00
N   -4.7511008468655431E+00    8.4809267630293235E+00    5.2824343362855224E+00
Ga   -4.7656747452226753E+00    1.0354019656088685E+01    5.8514763898946827E+00
N   -4.7558422078841600E+00    1.0347883997440507E+01    7.8448687964666579E+00
Ga   -4.7520020407198178E+00    8.4873387097169992E+00    8.4657082272879176E+00
N   -4.7411583690456505E+00    8.4899103991247813E+00    1.0466989054260972E+01
Ga   -4.7660799941784990E+00    1.0349626013281695E+01    1.1106415333845714E+01
N   -4.7806012195945806E+00    1.0359027371428875E+01    1.3105319406393223E+01
Ga   -4.7384725463204775E+00    8.4922861607213971E+00    1.3666821897666894E+01
N   -4.7637545343565249E+00    8.4757116176522551E+00    1.5629276043581651E+01
Ga   -4.5914659211238034E+00    1.0250022365812178E+01    1.6525901825640794E+01
N   -3.1396101175834117E+00    9.4198321791152715E+00    1.7658957449615816E+01
N    3.3138547867482617E+00    2.0120832397520951E+00    2.6641759333058310E+00
Ga    3.3186573559459487E+00    2.7802536145382756E-01    3.3564838031815354E+00
N    3.2989538883349452E+00    1.3409053763244258E-01    5.3143675151438705E+00
Ga    3.3178986213180490E+00    2.0090858477077647E+00    5.8987331819324309E+00
N    3.3010520778023764E+00    1.9927978573353522E+00    7.8889886551075143E+00
Ga    3.2894158993859732E+00    1.2677571548591976E-01    8.4875590575258624E+00
N    3.2910603498633186E+00    1.2012978374160395E-01    1.0482657795994545E+01
Ga    3.2902193941295308E+00    1.9873302399994410E+00    1.1080029026165388E+01
N    3.2909583542428198E+00    1.9857848467953627E+00    1.3052183962384765E+01
Ga    3.2904737876854369E+00    1.1443115682641830E-01    1.3666117627632751E+01
N    3.2901598052699170E+00    1.4597813686071046E-01    1.5630598832096046E+01
Ga    3.2925621402351672E+00    1.9850433376464964E+00    1.5906093631374464E+01
N    1.5568967700702703E+00    4.7076356301833711E+00    2.6544875435260922E+00
Ga    1.7759077769265714E+00    2.8741262906262905E+00    3.3484218721705736E+00
N    1.6901996047944297E+00    2.9142482657813442E+00    5.3221227645108273E+00
Ga    1.6996521024178091E+00    4.7743513510779083E+00    5.8917978325073888E+00
N    1.6887612724927668E+00    4.7781750746478719E+00    7.8729743729797814E+00
Ga    1.6780481372468807E+00    2.9147455176857000E+00    8.4834773133110275E+00
N    1.6740944927882782E+00    2.9192268975582696E+00    1.0480694954062436E+01
Ga    1.7019197970368138E+00    4.7809952537289817E+00    1.1111110596728334E+01
N    1.7169376041325248E+00    4.7896858912283333E+00    1.3110099614068389E+01
Ga    1.6720404498473544E+00    2.9211426617249483E+00    1.3667741703562521E+01
N    1.6979196303073250E+00    2.9037139076399749E+00    1.5631818190252973E+01
Ga    1.5293258059771393E+00    4.6806720666953456E+00    1.6526370486598438E+01
N    8.7237813888115537E-02    7.5455616383110042E+00    2.7323786478445196E+00
Ga    7.3736564017806538E-02    5.7034007230571175E+00    3.4064449261894638E+00
N    6.9574304300473080E-02    5.7187099477546361E+00    5.3402060726691012E+00
Ga    1.0779191188626756E-01    7.5724314826975050E+00    5.9434470004609041E+00
N    8.2281409637811692E-02    7.5652109243800476E+00    7.9098587178641875E+00
Ga    7.4159478276790800E-02    5.6934778510715773E+00    8.4964627279604574E+00
N    7.4690040626839316E-02    5.6905328977039398E+00    1.0488141359519307E+01
Ga    7.8977281974536850E-02    7.5595408927155852E+00    1.1077440115200902E+01
N    7.7112748006926538E-02    7.5570014560813927E+00    1.3050517145049550E+01
Ga    7.7757536827163840E-02    5.6862183286331227E+00    1.3668510072562434E+01
N    7.7107750580395207E-02    5.7174672827565631E+00    1.5633887809333830E+01
Ga    7.5725353984793853E-02    7.5565168885811005E+00    1.5908562402369105E+01
N   -1.6326487161133243E+00    1.0281371079829588E+01    2.6040427676744251E+00
Ga   -1.4801234802278851E+00    8.4717023682572545E+00    3.3997761654477245E+00
N   -1.5135987674375981E+00    8.4829076039159332E+00    5.3218398981580579E+00
Ga   -1.5093618414123646E+00    1.0363326978331441E+01    5.8897297903324910E+00
N   -1.5265062104313578E+00    1.0344165768086867E+01    7.8733337840662818E+00
Ga   -1.5418458502939052E+00    8.4914953127741075E+00    8.4998152773705726E+00
N   -1.5431448747618670E+00    8.4906800242484710E+00    1.0489471980717047E+01
Ga   -1.5169333666050528E+00    1.0352770245451634E+01    1.1116719334463507E+01
N   -1.5006729488877775E+00    1.0360407591361678E+01    1.3112551232800383E+01
Ga   -1.5441343780566883E+00    8.4916282001422445E+00    1.3667026749662114E+01
N   -1.5175870822750204E+00    8.4738067441764553E+00    1.5629977460509922E+01
Ga   -1.6887517602573792E+00    1.0250895522358361E+01    1.6524978233181361E+01
N    6.6316775785402120E+00    2.0739537963476393E+00    2.6068930508162502E+00
Ga    6.5478762559186965E+00    1.4943434993231558E-01    3.0113852952345042E+00
N    6.4861172190907146E+00    1.3984737923062349E-01    5.1563273212859917E+00
Ga    6.4614848786416497E+00    1.9541691824506848E+00    5.9114023521882633E+00
N    6.4946090424503415E+00    1.9784918874631918E+00    7.8912722012960383E+00
Ga    6.5174789480588800E+00    1.2285550984832254E-01    8.4956497770574959E+00
N    6.5124933270697829E+00    1.2707196070162718E-01    1.0471890069575545E+01
Ga    6.5112491699025661E+00    1.9709497311708772E+00    1.1112982120160135E+01
N    6.5088766246262484E+00    1.9500141612106763E+00    1.3110233982124878E+01
Ga    6.5076958987619511E+00    1.3121133139040783E-01    1.3912466186494358E+01
N    6.5079365980633508E+00    1.3082752605335593E-01    1.6117403470740602E+01
Ga    6.5085532814340779E+00    2.1795984223556126E+00    1.6533566250878408E+01
Ga    8.1232098787611893E+00    2.8956914302890575E+00    1.2206462903482389E+00
N    4.8726207797342713E+00    4.7571372314522034E+00    2.5032469579175802E+00
Ga    4.9227122651218380E+00    2.8748565856905213E+00    3.1731911614836550E+00
N    4.9196515501253293E+00    2.9235839655749607E+00    5.2208894875994627E+00
Ga    4.9081208759611776E+00    4.7728143349804188E+00    5.8335118107411201E+00
N    4.9003220686647273E+00    4.7763038293073086E+00    7.8379688378812151E+00
Ga    4.9025041655454320E+00    2.9292875422362785E+00    8.5069278727389825E+00
N    4.9078335445388417E+00    2.9260237141062149E+00    1.0495271227604459E+01
Ga    4.8838374533319229E+00    4.7866076752834399E+00    1.1119465282571545E+01
N    4.8686918547253253E+00    4.7911731179261041E+00    1.3114166685136412E+01
Ga    4.9123534410920273E+00    2.9208173037978877E+00    1.3667454828102548E+01
N    4.8848227642307958E+00    2.9031013864541872E+00    1.5629969394729487E+01
Ga    5.0632570838621955E+00    4.6762713112364382E+00    1.6533220155177776E+01
N    6.5088638526125777E+00    3.8494025193662442E+00    1.7670464843257633E+01
N    3.2740888530666603E+00    7.5554240253359781E+00    2.6438518425677753E+00
N    3.2856560967739594E+00    5.6891766356987761E+00    5.1657505260143406E+00
Ga    3.2923885081970443E+00    7.5537505493584147E+00    5.8301725954663599E+00
N    3.2926303107568549E+00    7.5563826779838372E+00    7.8293600424475089E+00
Ga    3.2995237995037434E+00    5.7074503863918125E+00    8.4771223327373146E+00
N    3.2941762055082244E+00    5.7039588040498437E+00    1.0458801272605317E+01
Ga    3.2969961714833147E+00    7.5426379171502669E+00    1.1108661010239830E+01
N    3.2937492693312636E+00    7.5207101036811199E+00    1.3107239894878287E+01
Ga    3.2932521059930120E+00    5.7004586882488777E+00    1.3912409115257411E+01
N    3.2930035215214408E+00    5.7008220902631352E+00    1.6118406627799079E+01
Ga    3.2922835337276837E+00    7.7401577306375469E+00    1.6527046724336607E+01
Ga    4.6551859149497217E+00    1.0282382186312114E+01    5.3799856489880593E-01
N    1.6916246989763941E+00    1.0338669698318148E+01    2.5575369205299787E+00
Ga    1.7014439531270464E+00    8.5793086325183623E+00    3.2235863389098718E+00
N    1.6803092021522903E+00    8.4822165087614589E+00    5.2259510155185218E+00
Ga    1.6760357839126812E+00    1.0362082511989060E+01    5.8037298464875349E+00
N    1.6834478457365616E+00    1.0348851743104008E+01    7.8242780047902745E+00
Ga    1.7030358252582691E+00    8.5015744940720186E+00    8.4852765701035917E+00
N    1.6972542707551046E+00    8.4940338076506023E+00    1.0480244447896172E+01
Ga    1.6723962106741057E+00    1.0350835816645739E+01    1.1120541571989838E+01
N    1.6535768665241000E+00    1.0359562645545779E+01    1.3115767867238112E+01
Ga    1.6974687168564588E+00    8.4904104986224791E+00    1.3668010918540267E+01
N    1.6704355680605876E+00    8.4735564888300967E+00    1.5632213394228048E+01
Ga    1.8372380947506668E+00    1.0252609709015571E+01    1.6524718359117461E+01
N    3.2908324879076480E+00    9.4208369376248040E+00    1.7660163258699988E+01
N    9.5856526707008722E+00    2.0665522857370986E+00    2.6536853690669564E+00
Ga    9.6504419026616155E+00    1.6892315802414709E-01    3.1573975619355146E+00
N    9.7299846166740025E+00    1.5168134752818019E-01    5.2018297802507840E+00
Ga    9.7558143442137588E+00    1.9528198077778351E+00    5.9492832704402296E+00
N    9.7343892526286968E+00    1.9791092984552805E+00    7.9182059018233213E+00
Ga    9.7296849887717158E+00    1.0821732816640452E-01    8.4818133451400008E+00
N    9.7259847098875483E+00    1.1445650774692735E-01    1.0479106265989286E+01
Ga    9.7236582194004839E+00    1.9858531408542792E+00    1.1071326039257331E+01
N    9.7241769814828487E+00    1.9852908139639649E+00    1.3046661426168734E+01
Ga    9.7259674399161824E+00    1.1608526991394569E-01    1.3667616366604197E+01
N    9.7257265960826409E+00    1.4649768741472741E-01    1.5633524645004693E+01
Ga    9.7241674505490181E+00    1.9858486552656713E+00    1.5909704560841735E+01
N    8.1263460307680937E+00    4.6285202663425400E+00    2.5774811803566027E+00
Ga    8.1016437745891228E+00    2.9245946708664445E+00    3.6287091217298832E+00
N    8.1172730170729590E+00    2.9215049239132069E+00    5.4972157207807406E+00
Ga    8.1267699774557922E+00    4.8428862344851389E+00    5.8767700094315476E+00
N    8.1215779051119661E+00    4.8003624241656881E+00    7.8657023910352830E+00
Ga    8.1089253016171146E+00    2.9274086786600351E+00    8.4765869266583067E+00
N    8.1078515304534413E+00    2.9249626541835196E+00    1.0477496318059652E+01
Ga    8.1293006185249634E+00    4.7822618526527432E+00    1.1115060545127543E+01
N    8.1465721181035899E+00    4.7901284431353188E+00    1.3111737145859786E+01
Ga    8.1049052252673359E+00    2.9208186542039418E+00    1.3667938105159536E+01
N    8.1324549173475980E+00    2.9030097130643129E+00    1.5630076628295635E+01
Ga    7.9538448952705529E+00    4.6767457121891347E+00    1.6533125991233476E+01
N    6.4958366396949589E+00    7.5344550618850281E+00    2.5962195341410186E+00
Ga    6.5364427531318281E+00    5.7055438460098378E+00    3.1153290964337286E+00
N    6.5090472960233239E+00    5.6850160135544909E+00    5.1774561922974423E+00
Ga    6.4791220713395248E+00    7.5382671183295988E+00    5.8357935562413159E+00
N    6.5004332838643224E+00    7.5543740362628213E+00    7.8410157220371932E+00
Ga    6.5007236517612137E+00    5.7047006142737215E+00    8.4870587216426507E+00
N    6.5056996958669453E+00    5.6939880564201832E+00    1.0481080835947715E+01
Ga    6.5062610644253498E+00    7.5620229327098061E+00    1.1071277998502197E+01
N    6.5074348439644920E+00    7.5585280072274728E+00    1.3044776675680518E+01
Ga    6.5083244578117876E+00    5.6885201745892706E+00    1.3669005601317510E+01
N    6.5081263180193760E+00    5.7199043853968856E+00    1.5632127413854569E+01
Ga    6.5083359259258771E+00    7.5567797013163487E+00    1.5909924280950113E+01
N    4.8958443321451970E+00    1.0371662759244421E+01    2.5149164603105003E+00
Ga    4.9560144273828941E+00    8.4681792897402275E+00    3.1912282960445340E+00
N    4.8880074061977385E+00    8.4939508209623060E+00    5.1983290062759737E+00
Ga    4.9122074378251508E+00    1.0357800414667533E+01    5.7846963838531886E+00
N    4.9070642332716234E+00    1.0348010331043955E+01    7.8048698652992998E+00
Ga    4.8965826358668849E+00    8.4962553185945868E+00    8.4566692134554877E+00
N    4.8924547943974286E+00    8.4938067658906640E+00    1.0461138533923679E+01
Ga    4.9166101725365960E+00    1.0348920165777498E+01    1.1110702954726868E+01
N    4.9322322435973689E+00    1.0358862776771049E+01    1.3108840080511371E+01
Ga    4.8891182581260990E+00    8.4911692762955671E+00    1.3667385629605198E+01
N    4.9141406393138318E+00    8.4750149375183028E+00    1.5631290172877899E+01
Ga    4.7449511559072812E+00    1.0251348219063685E+01    1.6525622578088282E+01
O    5.7039115876229551E-01    4.0544251409505607E+00   -3.2441838651699795E-01
H    2.8931553923706392E+00    4.8638556642859179E+00    4.6224594788227280E-01
C    8.1677553656169910E-01    2.9005474221995464E+00   -1.1418042697932653E+00
H    1.4604067902059996E+00    2.1575712485824958E+00   -6.4217780921362833E-01
H   -1.1915633059119655E-01    2.4052420061321165E+00   -1.4466086562640552E+00
H    1.3333509015851079E+00    3.2479508717066596E+00   -2.0491003682073141E+00
Ga    3.2152012769544753E+00    5.6488514547511546E+00    3.1439900718533309E+00
O    3.6797803439497434E+00    5.4465158924805612E+00    4.8697975071241228E-01
H    1.6778720315161894E-02    7.5034026473900690E+00    1.7086788459265576E+00
C    4.8012609357554625E+00    4.7178822756057395E+00    1.0063505490501792E+00
H    5.6857068426062352E+00    5.2060207232147757E+00    5.7184578009453835E-01
H    3.2757791266406353E+00    7.5082762927306863E+00    1.6157283870619921E+00
H    4.7586019974809659E+00    3.6759145885522062E+00    6.5166411983409112E-01
     &END COORD
     &KIND C
       BASIS_SET DZVP-MOLOPT-SR-GTH-q4
       POTENTIAL GTH-PBE-q4
       &POTENTIAL
2 2
0.3384712400000000E+00 2 -0.8803673979999999E+01  0.1339210850000000E+01
2
0.3025757500000000E+00 1  0.9622486650000001E+01
0.2915069400000000E+00 0
       &END POTENTIAL
     &END KIND
     &KIND O
       BASIS_SET DZVP-MOLOPT-SR-GTH-q6
       POTENTIAL GTH-PBE-q6
       &POTENTIAL
2 4
0.2445543000000000E+00 2 -0.1666721480000000E+02  0.2487311320000000E+01
2
0.2209559200000000E+00 1  0.1833745811000000E+02
0.2113324700000000E+00 0
       &END POTENTIAL
     &END KIND
     &KIND H
       BASIS_SET DZVP-MOLOPT-SR-GTH-q1
       POTENTIAL GTH-PBE-q1
       &POTENTIAL
1
0.2000000000000000E+00 2 -0.4178900440000000E+01  0.7244633100000000E+00
0
       &END POTENTIAL
     &END KIND
     &KIND N
       BASIS_SET DZVP-MOLOPT-SR-GTH
       POTENTIAL GTH-PBE-q5
       &POTENTIAL
2 3
0.2837905100000000E+00 2 -0.1241522559000000E+02  0.1868095920000000E+01
2
0.2554050000000000E+00 1  0.1363026257000000E+02
0.2454945300000000E+00 0
       &END POTENTIAL
     &END KIND
     &KIND Ga
       BASIS_SET DZVP-MOLOPT-SR-GTH
       POTENTIAL GTH-PBE-q13
       &POTENTIAL
2 1 10
0.4900000000000000E+00 0
3
0.4167772300000000E+00 3  0.1047568975000000E+02 -0.4921768140000000E+01  0.8707055900000000E+00
0.7770178090000000E+01 -0.2248152160000000E+01
0.1784415450000000E+01
0.5696265200000000E+00 2  0.1777985340000000E+01  0.1958597600000000E+00
-0.2317443900000000E+00
0.2381265000000000E+00 1 -0.1624868022000000E+02
       &END POTENTIAL
     &END KIND
     &TOPOLOGY
       NUMBER_OF_ATOMS  212
       MULTIPLE_UNIT_CELL  1 1 1
     &END TOPOLOGY
     &COLVAR
       &DISTANCE
         ATOMS  127 211
       &END DISTANCE
       &PRINT
       &END PRINT
     &END COLVAR
   &END SUBSYS
 &END FORCE_EVAL
