 # Version information for this restart file 
 # current date 2019-07-21 21:06:20.384
 # current working dir /lustre04/scratch/rzk/rzk/GaN-carbene/443-adatoms-both-2x2/09-BondBreaking-CH/04-0401-H2C-to-NTop-OPT
 # Program compiled at                              Sun Apr  7 00:48:11 EDT 2019
 # Program compiled on                          beluga2.int.ets1.calculquebec.ca
 # Program compiled for                        Beluga-Linux-x86-64-intel-openmpi
 # Source code revision number                                         svn:18619
 &GLOBAL
   PRINT_LEVEL  MEDIUM
   PROJECT_NAME TEST
   RUN_TYPE  GEO_OPT
 &END GLOBAL
 &MOTION
   &GEO_OPT
     MAX_ITER  500
     STEP_START_VAL  6
   &END GEO_OPT
 &END MOTION
 &FORCE_EVAL
   METHOD  QS
   STRESS_TENSOR  ANALYTICAL
   &DFT
     BASIS_SET_FILE_NAME BASIS_MOLOPT
     POTENTIAL_FILE_NAME GTH_POTENTIALS
     UKS  T
     SURFACE_DIPOLE_CORRECTION  T
     SURF_DIP_DIR  Z
     &SCF
       MAX_SCF  80
       EPS_SCF     5.0000000000000004E-06
       &OT  T
         PRECONDITIONER  FULL_ALL
       &END OT
       &OUTER_SCF  T
         OPTIMIZER  NONE
         EPS_SCF     5.0000000000000004E-06
         MAX_SCF  4
       &END OUTER_SCF
       &PRINT
         &RESTART  OFF
           BACKUP_COPIES  1
           &EACH
             JUST_ENERGY  0
             QS_SCF  0
             MD  20
           &END EACH
         &END RESTART
       &END PRINT
     &END SCF
     &QS
       EPS_DEFAULT     1.0000000000000000E-14
       METHOD  GPW
     &END QS
     &MGRID
       NGRIDS  5
       CUTOFF     1.2000000000000000E+03
     &END MGRID
     &XC
       DENSITY_CUTOFF     1.0000000000000000E-10
       GRADIENT_CUTOFF     1.0000000000000000E-10
       TAU_CUTOFF     1.0000000000000000E-10
       &XC_FUNCTIONAL  NO_SHORTCUT
         &PBE  T
         &END PBE
       &END XC_FUNCTIONAL
       &VDW_POTENTIAL
         POTENTIAL_TYPE  PAIR_POTENTIAL
         &PAIR_POTENTIAL
           R_CUTOFF     1.0000000000000009E+01
           TYPE  DFTD3
           PARAMETER_FILE_NAME dftd3.dat
           REFERENCE_FUNCTIONAL PBE
           EPS_CN     9.9999999999999995E-07
           CALCULATE_C9_TERM  T
           REFERENCE_C9_TERM  T
           LONG_RANGE_CORRECTION  F
           VERBOSE_OUTPUT  F
         &END PAIR_POTENTIAL
       &END VDW_POTENTIAL
     &END XC
   &END DFT
   &SUBSYS
     &CELL
       A     1.2864472766435110E+01    0.0000000000000000E+00    0.0000000000000000E+00
       B    -6.4322363581020028E+00    1.1140960178524477E+01    0.0000000000000000E+00
       C     0.0000000000000000E+00    0.0000000000000000E+00    3.2000000000000000E+01
       MULTIPLE_UNIT_CELL  1 1 1
       &CELL_REF
         A     1.2982353780853531E+01    0.0000000000000000E+00    0.0000000000000000E+00
         B    -6.4911768904267628E+00    1.1243048175136114E+01    0.0000000000000000E+00
         C     0.0000000000000000E+00    0.0000000000000000E+00    3.2000000000000000E+01
         MULTIPLE_UNIT_CELL  1 1 1
       &END CELL_REF
     &END CELL
     &COORD
N    9.1254999586020583E-02    2.1426403780470613E+00    2.5516725106880274E+00
Ga    9.6866000075519071E-02    1.9378819083307844E-01    2.9784991681033497E+00
N    9.0548632058787895E-02    1.4027504457942508E-01    5.0864537722557177E+00
Ga    7.8086288512066698E-02    1.9614500920498465E+00    5.8473692304767635E+00
N    6.9287311403425408E-02    1.9704283676308059E+00    7.8473618727573520E+00
Ga    6.5458563496006580E-02    1.1916933000388852E-01    8.4740694539045709E+00
N    6.9556680855621431E-02    1.2026551158659264E-01    1.0455177123895238E+01
Ga    7.5172109516197544E-02    1.9570580661137742E+00    1.1111138845300246E+01
N    7.3355252487040210E-02    1.9410647640601353E+00    1.3107238535654480E+01
Ga    7.6594172523689469E-02    1.2210495554870358E-01    1.3902255658843501E+01
N    7.4529849854432867E-02    1.2259295077844395E-01    1.6116586617076859E+01
Ga    7.3165114693951191E-02    2.1696832350451691E+00    1.6530964870223151E+01
Ga    1.6988323476331821E-01    3.8554590468861849E+00    1.4247891375462935E+00
N   -1.3769333830106456E+00    4.7168741878792657E+00    2.5478124518277530E+00
Ga   -1.6038033775720293E+00    2.8785094117561383E+00    3.2799473339300720E+00
N   -1.5415523111279976E+00    2.9070701777832504E+00    5.2700611573242515E+00
Ga   -1.5725815751412862E+00    4.7704023598361367E+00    5.8645354014085322E+00
N   -1.5498149793738458E+00    4.7646849125566009E+00    7.8577310745585613E+00
Ga   -1.5216150646404101E+00    2.9085238204444059E+00    8.4984403113114393E+00
N   -1.5232157823823713E+00    2.9130082506669464E+00    1.0487698670226589E+01
Ga   -1.5523165916423296E+00    4.7715382768346872E+00    1.1121319143490037E+01
N   -1.5678893020428530E+00    4.7815884694816075E+00    1.3115323728944579E+01
Ga   -1.5248529418887733E+00    2.9105108963542170E+00    1.3664484658424339E+01
N   -1.5489809501418246E+00    2.8949860860305434E+00    1.5628044324242110E+01
Ga   -1.3768045514390630E+00    4.6719844760871263E+00    1.6529058292398471E+01
N    6.4216187942420136E-02    3.8398056739222559E+00    1.7676860866395934E+01
N   -3.1253039368832347E+00    7.6875010667801869E+00    2.5901521660626066E+00
Ga   -3.0928761060649532E+00    5.6607806048577656E+00    2.9135208658017322E+00
N   -3.1376206311277284E+00    5.6926107266229407E+00    5.0834704487752100E+00
Ga   -3.1456724943659831E+00    7.5174412071682104E+00    5.8542514065132893E+00
N   -3.1409985855472251E+00    7.5399164053872108E+00    7.8455505092396356E+00
Ga   -3.1446829374546117E+00    5.6971761458457664E+00    8.5017783492642707E+00
N   -3.1439737170118849E+00    5.6933292932212911E+00    1.0473816375699585E+01
Ga   -3.1514104027666625E+00    7.5347785596263526E+00    1.1112856835000841E+01
N   -3.1460482089098791E+00    7.5136747211531576E+00    1.3109296024225316E+01
Ga   -3.1455592586747096E+00    5.6924942323521135E+00    1.3906106054247546E+01
N   -3.1445720505143524E+00    5.6919940819936699E+00    1.6113671698637472E+01
Ga   -3.1437349578170490E+00    7.7313841870609403E+00    1.6529250628685922E+01
Ga   -3.1643134493655563E+00    9.4438143519739697E+00    1.6269251773346183E+00
N   -4.6357648156564375E+00    1.0292109700318981E+01    2.6109246248095976E+00
Ga   -4.8779594459157734E+00    8.4007774877447137E+00    3.3321361702909984E+00
N   -4.7504491476126356E+00    8.4749732027296449E+00    5.2879288573898169E+00
Ga   -4.7732756912745362E+00    1.0351899108105307E+01    5.8485032743043250E+00
N   -4.7625553760421120E+00    1.0339202454612357E+01    7.8440873610638349E+00
Ga   -4.7588844548551794E+00    8.4763150264848708E+00    8.4552898311872848E+00
N   -4.7468826790555925E+00    8.4798938312646666E+00    1.0459294724471292E+01
Ga   -4.7692632110058026E+00    1.0339456729234577E+01    1.1100663776437425E+01
N   -4.7830522032337184E+00    1.0350876037307119E+01    1.3099985617062806E+01
Ga   -4.7425672774110712E+00    8.4850250226380250E+00    1.3665582126470721E+01
N   -4.7681835754930217E+00    8.4722349571900342E+00    1.5628459658461001E+01
Ga   -4.5867861494051017E+00    1.0239983348562014E+01    1.6531197699522142E+01
N   -3.1436719350832085E+00    9.3965514503831429E+00    1.7676532065146951E+01
N    3.3143401558320282E+00    2.0188321270349459E+00    2.6529595178944390E+00
Ga    3.3170321960705476E+00    2.7681627527050279E-01    3.3629232622543053E+00
N    3.2960146403482384E+00    1.3181870807936166E-01    5.3178699869077448E+00
Ga    3.3140577637524604E+00    2.0011273655092121E+00    5.8997513781376032E+00
N    3.2984142246704904E+00    1.9832380494674633E+00    7.8923484801107398E+00
Ga    3.2841088461428338E+00    1.1647441292685591E-01    8.4784726447896990E+00
N    3.2864352636237717E+00    1.1168881741066190E-01    1.0476670838933577E+01
Ga    3.2870258110326303E+00    1.9769938411359513E+00    1.1074906433516063E+01
N    3.2892268304788757E+00    1.9781818761353545E+00    1.3050667590259392E+01
Ga    3.2871933852969617E+00    1.0667291022325391E-01    1.3664258437078828E+01
N    3.2880182192169691E+00    1.3812507027612100E-01    1.5626260145558698E+01
Ga    3.2891503784317999E+00    1.9790428210996505E+00    1.5897602310997254E+01
N    1.5753233695142461E+00    4.7157610446885210E+00    2.6636973845246605E+00
Ga    1.7777667305364295E+00    2.8855831379978012E+00    3.3514352019783571E+00
N    1.6930117413631403E+00    2.9115551500135783E+00    5.3296642060214170E+00
Ga    1.6941341335397502E+00    4.7679203406667563E+00    5.9020432607828015E+00
N    1.6829769725240300E+00    4.7695153274013578E+00    7.8789519312880909E+00
Ga    1.6753468042756472E+00    2.9035645929016449E+00    8.4792803686676468E+00
N    1.6717901884139901E+00    2.9075782086385966E+00    1.0477929917598484E+01
Ga    1.6991628750405652E+00    4.7694767133208869E+00    1.1104772346482649E+01
N    1.7139244515903016E+00    4.7811792628003840E+00    1.3103551094453330E+01
Ga    1.6684730422097216E+00    2.9144292295644334E+00    1.3664622101965220E+01
N    1.6950829452911202E+00    2.8991809677500426E+00    1.5626401871168387E+01
Ga    1.5160055256488778E+00    4.6677588385517348E+00    1.6531800981654683E+01
N    8.8669167019277476E-02    7.5483795248154291E+00    2.7310607358930130E+00
Ga    8.3537190832735100E-02    5.7073837605847126E+00    3.4137735829423730E+00
N    6.4078851995366060E-02    5.7128553305041789E+00    5.3473939389075396E+00
Ga    9.9714774197687761E-02    7.5667466405376107E+00    5.9496759692557877E+00
N    7.8623716384121203E-02    7.5556816777025348E+00    7.9147400590662791E+00
Ga    6.7272453690812931E-02    5.6829044028228237E+00    8.5007720435292846E+00
N    6.9609240953499546E-02    5.6805557667116258E+00    1.0490143529995439E+01
Ga    7.3177414582532380E-02    7.5501535942326790E+00    1.1078849150786644E+01
N    7.3486557391608781E-02    7.5496623755720318E+00    1.3051707985836533E+01
Ga    7.5244199384766577E-02    5.6778614443835513E+00    1.3665417951837902E+01
N    7.6724979724193593E-02    5.7088810292330479E+00    1.5628646552279953E+01
Ga    6.8870189077066421E-02    7.5469356441935576E+00    1.5907323200491790E+01
N   -1.6362276954075961E+00    1.0283529649811740E+01    2.5913254928869467E+00
Ga   -1.4762092528825799E+00    8.4697163319150199E+00    3.3977737407961373E+00
N   -1.5174257883526268E+00    8.4761761647050040E+00    5.3174475765382123E+00
Ga   -1.5126991009467663E+00    1.0359214321370132E+01    5.8787416311144778E+00
N   -1.5299055135707740E+00    1.0335179050907486E+01    7.8655965797880878E+00
Ga   -1.5477713483265176E+00    8.4834838491802813E+00    8.4993393102602788E+00
N   -1.5483855656085614E+00    8.4823666723865312E+00    1.0488401933222944E+01
Ga   -1.5235009186869521E+00    1.0345478542797846E+01    1.1111974050258613E+01
N   -1.5045475510967810E+00    1.0353614547314121E+01    1.3108038987391673E+01
Ga   -1.5475514690321741E+00    8.4851593553479105E+00    1.3665036566021337E+01
N   -1.5197272526311896E+00    8.4719691820991443E+00    1.5628506467044204E+01
Ga   -1.7008798568692711E+00    1.0239940739780964E+01    1.6530316065555738E+01
N    6.6121519487396325E+00    2.0860212281531658E+00    2.5682346216389953E+00
Ga    6.5523768526198367E+00    1.3800439306974618E-01    2.9810291667786259E+00
N    6.4864078802819725E+00    1.4200056210310652E-01    5.1329321169596334E+00
Ga    6.4640331552209407E+00    1.9530536487493220E+00    5.8968202141736903E+00
N    6.4950174106468053E+00    1.9709006835767058E+00    7.8783761508120618E+00
Ga    6.5097258544768319E+00    1.1608929049335448E-01    8.4930231479720675E+00
N    6.5071656881941031E+00    1.1887289598690257E-01    1.0469461666329092E+01
Ga    6.5062484289292559E+00    1.9629335083913628E+00    1.1107085601059616E+01
N    6.5051799273150612E+00    1.9427823697630604E+00    1.3104581247191726E+01
Ga    6.5014373995338515E+00    1.2491186436809769E-01    1.3903429728593771E+01
N    6.5025948107219893E+00    1.2352121757660242E-01    1.6116932640186292E+01
Ga    6.5038643228267814E+00    2.1700669148866871E+00    1.6531073331247960E+01
Ga    7.8340950537880554E+00    3.0188385269611575E+00    1.1931703544367400E+00
N    4.8921747436901803E+00    4.7593014214053904E+00    2.5167289556863750E+00
Ga    4.9044360576038013E+00    2.8736071453861225E+00    3.1816936333665549E+00
N    4.9166439900336210E+00    2.9169045084123781E+00    5.2364972794891687E+00
Ga    4.9091803727983443E+00    4.7597435780137429E+00    5.8467419741225903E+00
N    4.8956194545508538E+00    4.7652246295546350E+00    7.8447629123100624E+00
Ga    4.8984772372176844E+00    2.9162557343003690E+00    8.4996467748853792E+00
N    4.9036747774127196E+00    2.9159625982734556E+00    1.0490587640473546E+01
Ga    4.8820481283664030E+00    4.7763226178774412E+00    1.1112074249426048E+01
N    4.8663854477847162E+00    4.7824208740796248E+00    1.3107175016511498E+01
Ga    4.9099684678907503E+00    2.9142267736817913E+00    1.3663265786453911E+01
N    4.8830293376695675E+00    2.8987965761175927E+00    1.5624937134111690E+01
Ga    5.0617904507262281E+00    4.6673780855457085E+00    1.6530569454147624E+01
N    6.5124365431830480E+00    3.8398078018622193E+00    1.7676950390206429E+01
N    3.2748518404800273E+00    7.5525829519177288E+00    2.6557151058473072E+00
N    3.2900595587639638E+00    5.6797094280053777E+00    5.1727370834456021E+00
Ga    3.2880844389547854E+00    7.5555465497048520E+00    5.8351202602949090E+00
N    3.2858993573133866E+00    7.5503398408288263E+00    7.8321145393922968E+00
Ga    3.2951226305573882E+00    5.7001083285733625E+00    8.4774214347005277E+00
N    3.2919972508160633E+00    5.6950019945344108E+00    1.0458069866325463E+01
Ga    3.2963085322610874E+00    7.5329227746852823E+00    1.1107980379343976E+01
N    3.2912125096468263E+00    7.5122810272186564E+00    1.3108902415128798E+01
Ga    3.2892561124041153E+00    5.6885541735700462E+00    1.3901986229188049E+01
N    3.2890056703622532E+00    5.6897907039380655E+00    1.6116248635284300E+01
Ga    3.2889357664697649E+00    7.7183900290234293E+00    1.6513238810882555E+01
Ga    4.2150270311852518E+00    1.0735183297524944E+01    6.1280272198674113E-01
N    1.7123388431087334E+00    1.0347008897271040E+01    2.5630794939188499E+00
Ga    1.7014179483107765E+00    8.5765243057114109E+00    3.2224011822330452E+00
N    1.6687142308351630E+00    8.4792308605338214E+00    5.2285459569961370E+00
Ga    1.6570089279832358E+00    1.0350982807936209E+01    5.8195692822108391E+00
N    1.6750562826052615E+00    1.0338250960316252E+01    7.8311979537552485E+00
Ga    1.6980447208021316E+00    8.4912665531335456E+00    8.4951593356146411E+00
N    1.6938039727211303E+00    8.4849268831427480E+00    1.0487316572694354E+01
Ga    1.6685894912349610E+00    1.0344643198853801E+01    1.1117511734594911E+01
N    1.6493488889959940E+00    1.0353263876283199E+01    1.3115499379025588E+01
Ga    1.6932654386576818E+00    8.4831035245366877E+00    1.3664485717856193E+01
N    1.6635201526151195E+00    8.4670946949221246E+00    1.5633556064810609E+01
Ga    1.8272062033748373E+00    1.0249949647255855E+01    1.6512400456455453E+01
N    3.2884582856645537E+00    9.4064124846104757E+00    1.7633734496877171E+01
N    9.6423613486712156E+00    2.0275190392841238E+00    2.6802568519260230E+00
Ga    9.6594982320296090E+00    1.6516616084040844E-01    3.2457190802032057E+00
N    9.7197496329839854E+00    1.3705365922808199E-01    5.2467540054199446E+00
Ga    9.7589834335846355E+00    1.9556849802260901E+00    5.9423284608589082E+00
N    9.7288620134512716E+00    1.9731888793619403E+00    7.9100787535232451E+00
Ga    9.7263666095343648E+00    1.0035100628166330E-01    8.4753470925896828E+00
N    9.7227508758570167E+00    1.0612920484011865E-01    1.0474662823544316E+01
Ga    9.7196561217507913E+00    1.9768586728790227E+00    1.1068153473309478E+01
N    9.7193097129336987E+00    1.9770708636547718E+00    1.3043563848505526E+01
Ga    9.7222157086725680E+00    1.1006096357781958E-01    1.3664075582420459E+01
N    9.7212243413448558E+00    1.4266470521118868E-01    1.5633368689593722E+01
Ga    9.7202876328144701E+00    1.9834832388807857E+00    1.5909228015257492E+01
N    8.0984488938911223E+00    4.6384042079234087E+00    2.5511672706297497E+00
Ga    8.1613912348819735E+00    2.8970848677984495E+00    3.5743427439219477E+00
N    8.1203585238112730E+00    2.9086440821388453E+00    5.4452810827283749E+00
Ga    8.1248697990090442E+00    4.8239708585543344E+00    5.8697497622595742E+00
N    8.1179129741523965E+00    4.7840992264869131E+00    7.8572052154028142E+00
Ga    8.1061057738178146E+00    2.9151635983335109E+00    8.4769814861643180E+00
N    8.1036133168116002E+00    2.9155200438527582E+00    1.0475912432651239E+01
Ga    8.1235613635563304E+00    4.7727769172250323E+00    1.1110126812069026E+01
N    8.1424059539023439E+00    4.7816309862376398E+00    1.3107440373662330E+01
Ga    8.1010903010727233E+00    2.9125404682824940E+00    1.3663830934370070E+01
N    8.1254032279759780E+00    2.8958635507802470E+00    1.5626855982669897E+01
Ga    7.9534656057720214E+00    4.6717253131490217E+00    1.6529947480001290E+01
N    6.4958233471401661E+00    7.5342727943487295E+00    2.6184212989561000E+00
Ga    6.5252010173322308E+00    5.7244192112440588E+00    3.1534672998997459E+00
N    6.5064082907564229E+00    5.6700083157880767E+00    5.1953828621282430E+00
Ga    6.4690709932267074E+00    7.5367157992623453E+00    5.8184223469415599E+00
N    6.4933912762879613E+00    7.5425253704676969E+00    7.8323830120540165E+00
Ga    6.4979710468259411E+00    5.6970614801842823E+00    8.4787336170108745E+00
N    6.5023416396042686E+00    5.6847840961305671E+00    1.0474310727530161E+01
Ga    6.5041212158737691E+00    7.5516720676016957E+00    1.1068623865914974E+01
N    6.5041421720739905E+00    7.5491292083179857E+00    1.3042626707410456E+01
Ga    6.5040440858619126E+00    5.6799912344153709E+00    1.3665356331800108E+01
N    6.5017100630495968E+00    5.7092643464355408E+00    1.5627738416903219E+01
Ga    6.5089499075855439E+00    7.5464680688368606E+00    1.5910172691637172E+01
N    4.8711817119057308E+00    1.0385517846864781E+01    2.5161673814494976E+00
Ga    4.9536387804060515E+00    8.4937775101259820E+00    3.1596092753008369E+00
N    4.8769039030975723E+00    8.4929999181007094E+00    5.1897724528663218E+00
Ga    4.9202590501536276E+00    1.0345726726853748E+01    5.7967257059781785E+00
N    4.9060500152007895E+00    1.0338779017426752E+01    7.8127733641559418E+00
Ga    4.8943757155835916E+00    8.4851172517337723E+00    8.4556818512809695E+00
N    4.8910765600329817E+00    8.4841056916048405E+00    1.0460881178974139E+01
Ga    4.9136159469312259E+00    1.0339922360120994E+01    1.1108105419156255E+01
N    4.9289107447580394E+00    1.0351215908083788E+01    1.3108812328136727E+01
Ga    4.8874155093977754E+00    8.4829877316031101E+00    1.3665019706923083E+01
N    4.9151437315234636E+00    8.4668183008087183E+00    1.5633633341026064E+01
Ga    4.7498313660612439E+00    1.0249571682222895E+01    1.6513183639829581E+01
O    6.0968118257535098E-01    4.1517763531705318E+00   -3.1647720938048496E-01
H    3.0336714362784578E+00    4.9497258329105787E+00    3.9034314096447503E-01
C    8.9947002692518907E-01    3.0488807617061604E+00   -1.1879130641213602E+00
H    1.5159023395410720E+00    2.2743244232780802E+00   -7.0246500856197069E-01
H   -2.0358342612524366E-02    2.5798784683033968E+00   -1.5717787631337872E+00
H    1.4638722555047092E+00    3.4527591829310986E+00   -2.0418726858654153E+00
Ga    3.2237582867763632E+00    5.6567863304980515E+00    3.1691963446791536E+00
O    3.8351116145655384E+00    5.5051289635704359E+00    4.4832322565365001E-01
H    7.6675333679267670E-03    7.4905129009010514E+00    1.7090027927700380E+00
C    4.8947691035544869E+00    4.7284316020173298E+00    1.0255674176743514E+00
H    5.8337152115971715E+00    5.1582119600952749E+00    6.2477602055471937E-01
H    3.2734786474001751E+00    7.4821273758128104E+00    1.6325869824662966E+00
H    4.7962553815444924E+00    3.6937103975380787E+00    6.6173194809629721E-01
     &END COORD
     &KIND C
       BASIS_SET DZVP-MOLOPT-SR-GTH-q4
       POTENTIAL GTH-PBE-q4
       &POTENTIAL
2 2
0.3384712400000000E+00 2 -0.8803673979999999E+01  0.1339210850000000E+01
2
0.3025757500000000E+00 1  0.9622486650000001E+01
0.2915069400000000E+00 0
       &END POTENTIAL
     &END KIND
     &KIND O
       BASIS_SET DZVP-MOLOPT-SR-GTH-q6
       POTENTIAL GTH-PBE-q6
       &POTENTIAL
2 4
0.2445543000000000E+00 2 -0.1666721480000000E+02  0.2487311320000000E+01
2
0.2209559200000000E+00 1  0.1833745811000000E+02
0.2113324700000000E+00 0
       &END POTENTIAL
     &END KIND
     &KIND H
       BASIS_SET DZVP-MOLOPT-SR-GTH-q1
       POTENTIAL GTH-PBE-q1
       &POTENTIAL
1
0.2000000000000000E+00 2 -0.4178900440000000E+01  0.7244633100000000E+00
0
       &END POTENTIAL
     &END KIND
     &KIND N
       BASIS_SET DZVP-MOLOPT-SR-GTH
       POTENTIAL GTH-PBE-q5
       &POTENTIAL
2 3
0.2837905100000000E+00 2 -0.1241522559000000E+02  0.1868095920000000E+01
2
0.2554050000000000E+00 1  0.1363026257000000E+02
0.2454945300000000E+00 0
       &END POTENTIAL
     &END KIND
     &KIND Ga
       BASIS_SET DZVP-MOLOPT-SR-GTH
       POTENTIAL GTH-PBE-q13
       &POTENTIAL
2 1 10
0.4900000000000000E+00 0
3
0.4167772300000000E+00 3  0.1047568975000000E+02 -0.4921768140000000E+01  0.8707055900000000E+00
0.7770178090000000E+01 -0.2248152160000000E+01
0.1784415450000000E+01
0.5696265200000000E+00 2  0.1777985340000000E+01  0.1958597600000000E+00
-0.2317443900000000E+00
0.2381265000000000E+00 1 -0.1624868022000000E+02
       &END POTENTIAL
     &END KIND
     &TOPOLOGY
       NUMBER_OF_ATOMS  212
       MULTIPLE_UNIT_CELL  1 1 1
     &END TOPOLOGY
     &COLVAR
       &DISTANCE
         ATOMS  127 211
       &END DISTANCE
       &PRINT
       &END PRINT
     &END COLVAR
   &END SUBSYS
 &END FORCE_EVAL
