 # Version information for this restart file 
 # current date 2019-07-21 21:22:11.392
 # current working dir /lustre04/scratch/rzk/rzk/GaN-carbene/443-adatoms-both-2x2/09-BondBreaking-CH/04-0401-H2C-to-NTop-OPT
 # Program compiled at                              Sun Apr  7 00:48:11 EDT 2019
 # Program compiled on                          beluga2.int.ets1.calculquebec.ca
 # Program compiled for                        Beluga-Linux-x86-64-intel-openmpi
 # Source code revision number                                         svn:18619
 &GLOBAL
   PRINT_LEVEL  MEDIUM
   PROJECT_NAME TEST
   RUN_TYPE  GEO_OPT
 &END GLOBAL
 &MOTION
   &GEO_OPT
     MAX_ITER  500
     STEP_START_VAL  9
   &END GEO_OPT
 &END MOTION
 &FORCE_EVAL
   METHOD  QS
   STRESS_TENSOR  ANALYTICAL
   &DFT
     BASIS_SET_FILE_NAME BASIS_MOLOPT
     POTENTIAL_FILE_NAME GTH_POTENTIALS
     UKS  T
     SURFACE_DIPOLE_CORRECTION  T
     SURF_DIP_DIR  Z
     &SCF
       MAX_SCF  80
       EPS_SCF     5.0000000000000004E-06
       &OT  T
         PRECONDITIONER  FULL_ALL
       &END OT
       &OUTER_SCF  T
         OPTIMIZER  NONE
         EPS_SCF     5.0000000000000004E-06
         MAX_SCF  4
       &END OUTER_SCF
       &PRINT
         &RESTART  OFF
           BACKUP_COPIES  1
           &EACH
             JUST_ENERGY  0
             QS_SCF  0
             MD  20
           &END EACH
         &END RESTART
       &END PRINT
     &END SCF
     &QS
       EPS_DEFAULT     1.0000000000000000E-14
       METHOD  GPW
     &END QS
     &MGRID
       NGRIDS  5
       CUTOFF     1.2000000000000000E+03
     &END MGRID
     &XC
       DENSITY_CUTOFF     1.0000000000000000E-10
       GRADIENT_CUTOFF     1.0000000000000000E-10
       TAU_CUTOFF     1.0000000000000000E-10
       &XC_FUNCTIONAL  NO_SHORTCUT
         &PBE  T
         &END PBE
       &END XC_FUNCTIONAL
       &VDW_POTENTIAL
         POTENTIAL_TYPE  PAIR_POTENTIAL
         &PAIR_POTENTIAL
           R_CUTOFF     1.0000000000000009E+01
           TYPE  DFTD3
           PARAMETER_FILE_NAME dftd3.dat
           REFERENCE_FUNCTIONAL PBE
           EPS_CN     9.9999999999999995E-07
           CALCULATE_C9_TERM  T
           REFERENCE_C9_TERM  T
           LONG_RANGE_CORRECTION  F
           VERBOSE_OUTPUT  F
         &END PAIR_POTENTIAL
       &END VDW_POTENTIAL
     &END XC
   &END DFT
   &SUBSYS
     &CELL
       A     1.2864472766435110E+01    0.0000000000000000E+00    0.0000000000000000E+00
       B    -6.4322363581020028E+00    1.1140960178524477E+01    0.0000000000000000E+00
       C     0.0000000000000000E+00    0.0000000000000000E+00    3.2000000000000000E+01
       MULTIPLE_UNIT_CELL  1 1 1
       &CELL_REF
         A     1.2982353780853531E+01    0.0000000000000000E+00    0.0000000000000000E+00
         B    -6.4911768904267628E+00    1.1243048175136114E+01    0.0000000000000000E+00
         C     0.0000000000000000E+00    0.0000000000000000E+00    3.2000000000000000E+01
         MULTIPLE_UNIT_CELL  1 1 1
       &END CELL_REF
     &END CELL
     &COORD
N    7.4745045063896620E-02    2.1442012826355321E+00    2.5525651609903539E+00
Ga    1.1452494260995759E-01    1.9531971030193648E-01    2.9808706252393051E+00
N    9.8490081826934611E-02    1.4069661806367989E-01    5.0828798714397676E+00
Ga    7.7536507504981880E-02    1.9656621512455121E+00    5.8444458735949461E+00
N    7.1670637940953505E-02    1.9751705237397075E+00    7.8388523799503256E+00
Ga    6.7327055791982074E-02    1.2083622322754926E-01    8.4715859331192842E+00
N    7.0010651119550404E-02    1.2086891011221465E-01    1.0447307149895121E+01
Ga    7.4441498014750446E-02    1.9568815375326227E+00    1.1119949372575164E+01
N    7.3057520795664063E-02    1.9384281025084171E+00    1.3106162400054185E+01
Ga    7.5829883580894888E-02    1.2075776988900490E-01    1.3918295489784677E+01
N    7.4488202700593892E-02    1.2169931815081769E-01    1.6110483359523016E+01
Ga    7.3526005822086599E-02    2.1710706854254660E+00    1.6535951853203727E+01
Ga    1.5661366708036770E-01    3.8555231859033579E+00    1.4260852536381048E+00
N   -1.3881943924031803E+00    4.7230573514694552E+00    2.5359809878914339E+00
Ga   -1.6180297147781602E+00    2.8912971037599844E+00    3.2795429227575066E+00
N   -1.5481679424480543E+00    2.9067788099714091E+00    5.2662520848413914E+00
Ga   -1.5619532970135941E+00    4.7736584596203526E+00    5.8662194720711298E+00
N   -1.5458465321009103E+00    4.7678552139576862E+00    7.8534093974145041E+00
Ga   -1.5170998409898777E+00    2.9151375462883964E+00    8.5089572779092695E+00
N   -1.5211950440008495E+00    2.9162952298062645E+00    1.0487894165547610E+01
Ga   -1.5505743123147597E+00    4.7749829365691845E+00    1.1129871569790241E+01
N   -1.5682977517001568E+00    4.7825744324005681E+00    1.3112922677369921E+01
Ga   -1.5239551743831765E+00    2.9109624661803353E+00    1.3670143194052573E+01
N   -1.5492987814300465E+00    2.8951570223348275E+00    1.5625503732682207E+01
Ga   -1.3725069412147073E+00    4.6693691803232920E+00    1.6535341613126949E+01
N    6.7410685039439325E-02    3.8376157770220152E+00    1.7678906376403361E+01
N   -3.1184446079945300E+00    7.6719394011268554E+00    2.5806090871959060E+00
Ga   -3.0894186883909280E+00    5.6664469540711284E+00    2.9371902550063638E+00
N   -3.1285809785008230E+00    5.7043749334038045E+00    5.0859622820167010E+00
Ga   -3.1469027524801851E+00    7.5272192694990441E+00    5.8565028740386351E+00
N   -3.1431739299304433E+00    7.5423250163648952E+00    7.8409308682355716E+00
Ga   -3.1396010922642925E+00    5.6997497540484581E+00    8.5055356214905338E+00
N   -3.1419982878352597E+00    5.6941935136543602E+00    1.0468104232226525E+01
Ga   -3.1492619272838827E+00    7.5344356481767774E+00    1.1120469382700819E+01
N   -3.1459999835438057E+00    7.5132748113633756E+00    1.3106604140197391E+01
Ga   -3.1453683354527353E+00    5.6932479751540210E+00    1.3924388563171361E+01
N   -3.1438313419231152E+00    5.6928367442845715E+00    1.6110046381709015E+01
Ga   -3.1439922019220976E+00    7.7375050526159486E+00    1.6536224431810258E+01
Ga   -3.1458693728001981E+00    9.4423847491299249E+00    1.5979066789125445E+00
N   -4.6249982933696039E+00    1.0292384570775196E+01    2.6099342582485319E+00
Ga   -4.8717052199076427E+00    8.4045929971372040E+00    3.3183964025039581E+00
N   -4.7545066339083446E+00    8.4776894623893462E+00    5.2779437436708996E+00
Ga   -4.7671192346050706E+00    1.0352823135001817E+01    5.8426110470345494E+00
N   -4.7568372259725642E+00    1.0340354650867477E+01    7.8307210636614188E+00
Ga   -4.7556615682364471E+00    8.4796565406062925E+00    8.4642025832074079E+00
N   -4.7440735024051124E+00    8.4818162072858545E+00    1.0457712510897316E+01
Ga   -4.7698089962840182E+00    1.0340454532446547E+01    1.1107552243397125E+01
N   -4.7855134661722003E+00    1.0351665633427018E+01    1.3097848986783642E+01
Ga   -4.7422853318031750E+00    8.4860255770025823E+00    1.3669084719184950E+01
N   -4.7683819265945555E+00    8.4720306484821233E+00    1.5624137753221383E+01
Ga   -4.5845601320528813E+00    1.0238718036554424E+01    1.6537212124117818E+01
N   -3.1445619114363308E+00    9.4001634303117392E+00    1.7679167513577568E+01
N    3.3194230267698210E+00    2.0119445499149871E+00    2.6367517347764760E+00
Ga    3.3210703459204400E+00    2.8838051119896035E-01    3.3433481725118828E+00
N    3.2985008559079363E+00    1.3620769769372845E-01    5.2962399215046805E+00
Ga    3.3172414812800448E+00    2.0077076895179609E+00    5.9014235560589015E+00
N    3.2985916465625844E+00    1.9861812546366389E+00    7.8824415701923796E+00
Ga    3.2861751943797257E+00    1.1839540810578679E-01    8.4873260912852402E+00
N    3.2875761925443650E+00    1.1004869742828494E-01    1.0474569393946844E+01
Ga    3.2862283839914226E+00    1.9773488405948740E+00    1.1082033720159293E+01
N    3.2872318255474182E+00    1.9769469159439235E+00    1.3045832897907527E+01
Ga    3.2859414858064993E+00    1.0610193108466975E-01    1.3667667080480310E+01
N    3.2867160224032457E+00    1.3822765647873819E-01    1.5622426157016912E+01
Ga    3.2883691478518458E+00    1.9778226074032226E+00    1.5902297290449884E+01
N    1.5659979790883116E+00    4.7116496536925903E+00    2.6532122342085978E+00
Ga    1.7850565118716946E+00    2.8680467137498780E+00    3.3376634664053251E+00
N    1.6923120559534388E+00    2.9093511857972119E+00    5.3061007273365783E+00
Ga    1.7025499365709469E+00    4.7689999801244971E+00    5.8927259422547786E+00
N    1.6865864271158211E+00    4.7700700500984050E+00    7.8670363679715853E+00
Ga    1.6752376652802325E+00    2.9073873572512943E+00    8.4900244173971906E+00
N    1.6700792083719811E+00    2.9119614972393362E+00    1.0477546629011522E+01
Ga    1.6973339221901640E+00    4.7741381727062455E+00    1.1116590717531318E+01
N    1.7144123674942058E+00    4.7831008903348344E+00    1.3104595301962824E+01
Ga    1.6684202702582702E+00    2.9139119636993289E+00    1.3669408262105426E+01
N    1.6956067010778657E+00    2.8986169908375259E+00    1.5624011019762380E+01
Ga    1.5145388033560419E+00    4.6664073701679945E+00    1.6537270518647851E+01
N    8.8680738904105202E-02    7.5468002378892622E+00    2.7381454567964578E+00
Ga    8.0900445030611667E-02    5.7022400168733558E+00    3.4112407763761610E+00
N    7.3988993593277402E-02    5.7158682038807989E+00    5.3390494193461899E+00
Ga    1.0820861416186665E-01    7.5692735422793458E+00    5.9473568412051243E+00
N    7.6711039644409118E-02    7.5585727100671578E+00    7.9072366948827577E+00
Ga    7.0184743053195456E-02    5.6864909013676757E+00    8.4990238199656947E+00
N    7.0299022067121852E-02    5.6819350302069385E+00    1.0481033284358787E+01
Ga    7.3280667720847181E-02    7.5511717711514788E+00    1.1079554222556245E+01
N    7.3261129668093561E-02    7.5499180587563863E+00    1.3042513736680108E+01
Ga    7.4402911350291090E-02    5.6787126091187332E+00    1.3671390304435960E+01
N    7.6178621700751292E-02    5.7096980915866347E+00    1.5626348927539052E+01
Ga    7.0225950267453652E-02    7.5476521481219843E+00    1.5909737988100689E+01
N   -1.6264403294679297E+00    1.0281408621287044E+01    2.6085032759369260E+00
Ga   -1.4839291291966801E+00    8.4708093514001668E+00    3.4026089935902699E+00
N   -1.5163372922308638E+00    8.4795752165661789E+00    5.3222040613571275E+00
Ga   -1.5139931209807871E+00    1.0360600068370609E+01    5.8849366863500467E+00
N   -1.5292676534679728E+00    1.0338883533227435E+01    7.8622019052882628E+00
Ga   -1.5480913708523820E+00    8.4845583363513022E+00    8.4992666579093559E+00
N   -1.5488326745086984E+00    8.4832558447037645E+00    1.0480808899063703E+01
Ga   -1.5217656054383082E+00    1.0343725431191977E+01    1.1121216957212521E+01
N   -1.5035291067745222E+00    1.0353317696096111E+01    1.3106991162131907E+01
Ga   -1.5481458735290508E+00    8.4847395560052128E+00    1.3670502075396467E+01
N   -1.5192405329440632E+00    8.4701667688552700E+00    1.5625514085685442E+01
Ga   -1.7041586512536464E+00    1.0238374113669810E+01    1.6536053192078604E+01
N    6.6326000503275599E+00    2.0762457306321358E+00    2.6349108788097073E+00
Ga    6.5465463845972929E+00    1.3139050762209203E-01    3.0127795258168524E+00
N    6.4871343681292108E+00    1.3589578334767757E-01    5.1444132853523126E+00
Ga    6.4567408270637641E+00    1.9470590063937714E+00    5.9133924112721381E+00
N    6.4927998450452993E+00    1.9691931294265927E+00    7.8842729710788033E+00
Ga    6.5117451690667973E+00    1.1510403235730386E-01    8.5024854108073900E+00
N    6.5077759763335346E+00    1.1865948447435380E-01    1.0468242634526254E+01
Ga    6.5078870667633764E+00    1.9616889138320321E+00    1.1120453814406154E+01
N    6.5057929890225257E+00    1.9403283831252491E+00    1.3107022158992788E+01
Ga    6.5023592665662289E+00    1.2336223601121182E-01    1.3922673817809875E+01
N    6.5027246881298870E+00    1.2212813249823903E-01    1.6112223049444655E+01
Ga    6.5033869850203248E+00    2.1721914884828215E+00    1.6536349987996743E+01
Ga    7.9987281330952671E+00    2.9671188677550759E+00    1.2966507483039797E+00
N    4.8764771322073130E+00    4.7655393499078178E+00    2.4909251312472005E+00
Ga    4.9085513027755079E+00    2.8902304444506317E+00    3.1814732561579557E+00
N    4.9194466822472629E+00    2.9242577555469649E+00    5.2154910348401673E+00
Ga    4.9049694422196310E+00    4.7720418220218734E+00    5.8419453058860249E+00
N    4.8971288148168943E+00    4.7693759004305454E+00    7.8359363879114987E+00
Ga    4.9013417883016785E+00    2.9222864359417651E+00    8.5130785677283480E+00
N    4.9057007949913487E+00    2.9169062840578399E+00    1.0491179570820881E+01
Ga    4.8795246710568767E+00    4.7792978392067971E+00    1.1123029605647208E+01
N    4.8635933879440758E+00    4.7848484632317403E+00    1.3108146991798666E+01
Ga    4.9085283036694856E+00    2.9136060164128508E+00    1.3667699033391830E+01
N    4.8808104340438758E+00    2.8977539551260021E+00    1.5623086969148966E+01
Ga    5.0636755934421602E+00    4.6660191834360978E+00    1.6535985423015614E+01
N    6.5093150810566565E+00    3.8382809915134515E+00    1.7679043619057872E+01
N    3.2771549811134348E+00    7.5475391236526326E+00    2.6324178897296422E+00
N    3.2871935883367365E+00    5.6861156469868233E+00    5.1653658672207081E+00
Ga    3.2977546970628984E+00    7.5532771894585213E+00    5.8260676611586488E+00
N    3.2893276979136146E+00    7.5494058704695286E+00    7.8212865814951718E+00
Ga    3.2952798999854163E+00    5.7015658413909449E+00    8.4810089044923433E+00
N    3.2892542873885922E+00    5.6970434274110451E+00    1.0453917500889851E+01
Ga    3.2926988765006118E+00    7.5341864443338000E+00    1.1116432622943861E+01
N    3.2905137196227079E+00    7.5120691037103180E+00    1.3106208395885776E+01
Ga    3.2890912482059744E+00    5.6907893531950640E+00    1.3921914712275347E+01
N    3.2886838922440038E+00    5.6907416795299373E+00    1.6112479408378697E+01
Ga    3.2892324400433330E+00    7.7263432328964097E+00    1.6522858776647819E+01
Ga    4.2839362564187766E+00    1.0595712773024282E+01    5.8027379529500234E-01
N    1.7096990347297003E+00    1.0341219153585554E+01    2.5554218884137843E+00
Ga    1.7096089781735637E+00    8.5735745753455443E+00    3.2261594788805517E+00
N    1.6814631016486543E+00    8.4789933381085962E+00    5.2219094216792179E+00
Ga    1.6726237063713549E+00    1.0354157851661066E+01    5.8162343111025328E+00
N    1.6766318867593397E+00    1.0341816648134547E+01    7.8244605788548682E+00
Ga    1.6982257540910168E+00    8.4917971907585894E+00    8.4913865775639721E+00
N    1.6935840866787701E+00    8.4857856070390998E+00    1.0476416980943732E+01
Ga    1.6678301286177066E+00    1.0342396418374189E+01    1.1126684415939541E+01
N    1.6489216974865497E+00    1.0353121203120461E+01    1.3112615809080435E+01
Ga    1.6931046506969607E+00    8.4832122034780735E+00    1.3669974307150699E+01
N    1.6639609303146741E+00    8.4666026060213007E+00    1.5628317249650063E+01
Ga    1.8346694992233961E+00    1.0245493553081436E+01    1.6521627195444815E+01
N    3.2894443644104570E+00    9.4061077165613849E+00    1.7640294088979299E+01
N    9.5860781948652196E+00    2.0735166866628378E+00    2.6676879175340478E+00
Ga    9.6524728632153884E+00    1.7788555656460175E-01    3.2181080303429010E+00
N    9.7291239942305019E+00    1.5114350489262693E-01    5.2302123087556520E+00
Ga    9.7665848532961768E+00    1.9516863283221193E+00    5.9766982478401189E+00
N    9.7342056346810626E+00    1.9729332474907428E+00    7.9293522271890744E+00
Ga    9.7264134549776760E+00    9.8051748196902835E-02    8.4889937853742214E+00
N    9.7216604325621070E+00    1.0462633312111184E-01    1.0475898698693801E+01
Ga    9.7215941053956048E+00    1.9771077093078895E+00    1.1073149048567100E+01
N    9.7214236672022558E+00    1.9763696955571743E+00    1.3038527529098845E+01
Ga    9.7233494097156576E+00    1.0899591151924594E-01    1.3668797502413506E+01
N    9.7223022662975733E+00    1.4177707433924081E-01    1.5627611530029125E+01
Ga    9.7209394049826461E+00    1.9814881919118950E+00    1.5910995095864505E+01
N    8.1254059718415519E+00    4.6297233232840735E+00    2.5913353100893706E+00
Ga    8.1522497072727855E+00    2.9105130008586153E+00    3.6682337204059894E+00
N    8.1185956781797390E+00    2.9206929880172017E+00    5.5187349051788877E+00
Ga    8.1258772589703749E+00    4.8490925751926275E+00    5.8855243903746821E+00
N    8.1189036671832753E+00    4.7939588804340802E+00    7.8621901463969541E+00
Ga    8.1045404841529969E+00    2.9217347002124194E+00    8.4840233651098735E+00
N    8.1036066868882983E+00    2.9163157616963638E+00    1.0472839457693874E+01
Ga    8.1261416547643215E+00    4.7746885869162012E+00    1.1120065098536305E+01
N    8.1444460520864101E+00    4.7830997427102968E+00    1.3106784903499348E+01
Ga    8.1020687537668383E+00    2.9130965468184749E+00    1.3669540431172168E+01
N    8.1275034969388322E+00    2.8959921396441484E+00    1.5625243241366769E+01
Ga    7.9492175842335993E+00    4.6695339358326233E+00    1.6536450156321553E+01
N    6.5013462726220919E+00    7.5396458304204526E+00    2.5889493002262527E+00
Ga    6.5201984516053839E+00    5.7254333889081908E+00    3.1334477518596970E+00
N    6.5072218054015156E+00    5.6855883568849803E+00    5.1783989093422145E+00
Ga    6.4720764857654514E+00    7.5413803530609789E+00    5.8385685341283988E+00
N    6.4954239985209323E+00    7.5484136723262480E+00    7.8370519187244758E+00
Ga    6.4974012162919488E+00    5.6983339194815548E+00    8.4920966802329652E+00
N    6.5027510899673899E+00    5.6851211185485058E+00    1.0475528904949796E+01
Ga    6.5034368651369867E+00    7.5542044199687091E+00    1.1071926358108920E+01
N    6.5039872050315539E+00    7.5517102047783187E+00    1.3036675523040220E+01
Ga    6.5046417705636284E+00    5.6814155362139003E+00    1.3669565048885501E+01
N    6.5025713703300791E+00    5.7113904403528313E+00    1.5625237796998867E+01
Ga    6.5079049724982942E+00    7.5484223853447023E+00    1.5911955604406627E+01
N    4.8776862251170776E+00    1.0395018794931390E+01    2.5030061041707676E+00
Ga    4.9577905051531568E+00    8.4887225046105570E+00    3.1503568823480252E+00
N    4.8890616017916342E+00    8.4932926950626371E+00    5.1769018793584518E+00
Ga    4.9189509063248416E+00    1.0348542728914939E+01    5.7878547675933003E+00
N    4.9043932723608705E+00    1.0339079125980291E+01    7.8005264858412682E+00
Ga    4.8922953039600605E+00    8.4878160456524689E+00    8.4632161535384896E+00
N    4.8868938120492205E+00    8.4851737022105223E+00    1.0458307288210696E+01
Ga    4.9139215070400928E+00    1.0340724142316313E+01    1.1114641665873298E+01
N    4.9307755019893849E+00    1.0352189319921109E+01    1.3104635846183228E+01
Ga    4.8870506222167434E+00    8.4841728859443730E+00    1.3668720287969887E+01
N    4.9146524400694345E+00    8.4674851084583249E+00    1.5627178645855032E+01
Ga    4.7435976536263835E+00    1.0245489968477504E+01    1.6522522610127542E+01
O    5.9633038771996183E-01    4.1323198134467480E+00   -3.2451599689386484E-01
H    2.9495606850992173E+00    4.9462922994429022E+00    3.9457626025493042E-01
C    8.8859335283693641E-01    3.0272769465342515E+00   -1.1925187122800209E+00
H    1.5091275384460887E+00    2.2587485055405185E+00   -7.0642711729713714E-01
H   -2.7366244370119926E-02    2.5495926460350748E+00   -1.5709234845284563E+00
H    1.4479678817970989E+00    3.4227792256323601E+00   -2.0523311495519447E+00
Ga    3.2236312381888204E+00    5.6465703388341728E+00    3.1505186554246682E+00
O    3.7634392135176631E+00    5.4902655865272987E+00    4.2406560540067489E-01
H    1.6698350379528732E-02    7.5001867897261727E+00    1.7163830595327862E+00
C    4.8332951194967393E+00    4.7249690082194622E+00    9.8839015130449681E-01
H    5.7442169039941851E+00    5.1818747467531727E+00    5.8162349665828950E-01
H    3.2768419510980205E+00    7.4896878929994486E+00    1.6051690721121297E+00
H    4.7759801534671471E+00    3.6806488019555017E+00    6.4100616967067048E-01
     &END COORD
     &KIND C
       BASIS_SET DZVP-MOLOPT-SR-GTH-q4
       POTENTIAL GTH-PBE-q4
       &POTENTIAL
2 2
0.3384712400000000E+00 2 -0.8803673979999999E+01  0.1339210850000000E+01
2
0.3025757500000000E+00 1  0.9622486650000001E+01
0.2915069400000000E+00 0
       &END POTENTIAL
     &END KIND
     &KIND O
       BASIS_SET DZVP-MOLOPT-SR-GTH-q6
       POTENTIAL GTH-PBE-q6
       &POTENTIAL
2 4
0.2445543000000000E+00 2 -0.1666721480000000E+02  0.2487311320000000E+01
2
0.2209559200000000E+00 1  0.1833745811000000E+02
0.2113324700000000E+00 0
       &END POTENTIAL
     &END KIND
     &KIND H
       BASIS_SET DZVP-MOLOPT-SR-GTH-q1
       POTENTIAL GTH-PBE-q1
       &POTENTIAL
1
0.2000000000000000E+00 2 -0.4178900440000000E+01  0.7244633100000000E+00
0
       &END POTENTIAL
     &END KIND
     &KIND N
       BASIS_SET DZVP-MOLOPT-SR-GTH
       POTENTIAL GTH-PBE-q5
       &POTENTIAL
2 3
0.2837905100000000E+00 2 -0.1241522559000000E+02  0.1868095920000000E+01
2
0.2554050000000000E+00 1  0.1363026257000000E+02
0.2454945300000000E+00 0
       &END POTENTIAL
     &END KIND
     &KIND Ga
       BASIS_SET DZVP-MOLOPT-SR-GTH
       POTENTIAL GTH-PBE-q13
       &POTENTIAL
2 1 10
0.4900000000000000E+00 0
3
0.4167772300000000E+00 3  0.1047568975000000E+02 -0.4921768140000000E+01  0.8707055900000000E+00
0.7770178090000000E+01 -0.2248152160000000E+01
0.1784415450000000E+01
0.5696265200000000E+00 2  0.1777985340000000E+01  0.1958597600000000E+00
-0.2317443900000000E+00
0.2381265000000000E+00 1 -0.1624868022000000E+02
       &END POTENTIAL
     &END KIND
     &TOPOLOGY
       NUMBER_OF_ATOMS  212
       MULTIPLE_UNIT_CELL  1 1 1
     &END TOPOLOGY
     &COLVAR
       &DISTANCE
         ATOMS  127 211
       &END DISTANCE
       &PRINT
       &END PRINT
     &END COLVAR
   &END SUBSYS
 &END FORCE_EVAL
