 # Version information for this restart file 
 # current date 2019-07-21 20:55:15.795
 # current working dir /lustre04/scratch/rzk/rzk/GaN-carbene/443-adatoms-both-2x2/09-BondBreaking-CH/04-0401-H2C-to-NTop-OPT
 # Program compiled at                              Sun Apr  7 00:48:11 EDT 2019
 # Program compiled on                          beluga2.int.ets1.calculquebec.ca
 # Program compiled for                        Beluga-Linux-x86-64-intel-openmpi
 # Source code revision number                                         svn:18619
 &GLOBAL
   PRINT_LEVEL  MEDIUM
   PROJECT_NAME TEST
   RUN_TYPE  GEO_OPT
 &END GLOBAL
 &MOTION
   &GEO_OPT
     MAX_ITER  500
     STEP_START_VAL  4
   &END GEO_OPT
 &END MOTION
 &FORCE_EVAL
   METHOD  QS
   STRESS_TENSOR  ANALYTICAL
   &DFT
     BASIS_SET_FILE_NAME BASIS_MOLOPT
     POTENTIAL_FILE_NAME GTH_POTENTIALS
     UKS  T
     SURFACE_DIPOLE_CORRECTION  T
     SURF_DIP_DIR  Z
     &SCF
       MAX_SCF  80
       EPS_SCF     5.0000000000000004E-06
       &OT  T
         PRECONDITIONER  FULL_ALL
       &END OT
       &OUTER_SCF  T
         OPTIMIZER  NONE
         EPS_SCF     5.0000000000000004E-06
         MAX_SCF  4
       &END OUTER_SCF
       &PRINT
         &RESTART  OFF
           BACKUP_COPIES  1
           &EACH
             JUST_ENERGY  0
             QS_SCF  0
             MD  20
           &END EACH
         &END RESTART
       &END PRINT
     &END SCF
     &QS
       EPS_DEFAULT     1.0000000000000000E-14
       METHOD  GPW
     &END QS
     &MGRID
       NGRIDS  5
       CUTOFF     1.2000000000000000E+03
     &END MGRID
     &XC
       DENSITY_CUTOFF     1.0000000000000000E-10
       GRADIENT_CUTOFF     1.0000000000000000E-10
       TAU_CUTOFF     1.0000000000000000E-10
       &XC_FUNCTIONAL  NO_SHORTCUT
         &PBE  T
         &END PBE
       &END XC_FUNCTIONAL
       &VDW_POTENTIAL
         POTENTIAL_TYPE  PAIR_POTENTIAL
         &PAIR_POTENTIAL
           R_CUTOFF     1.0000000000000009E+01
           TYPE  DFTD3
           PARAMETER_FILE_NAME dftd3.dat
           REFERENCE_FUNCTIONAL PBE
           EPS_CN     9.9999999999999995E-07
           CALCULATE_C9_TERM  T
           REFERENCE_C9_TERM  T
           LONG_RANGE_CORRECTION  F
           VERBOSE_OUTPUT  F
         &END PAIR_POTENTIAL
       &END VDW_POTENTIAL
     &END XC
   &END DFT
   &SUBSYS
     &CELL
       A     1.2864472766435110E+01    0.0000000000000000E+00    0.0000000000000000E+00
       B    -6.4322363581020028E+00    1.1140960178524477E+01    0.0000000000000000E+00
       C     0.0000000000000000E+00    0.0000000000000000E+00    3.2000000000000000E+01
       MULTIPLE_UNIT_CELL  1 1 1
       &CELL_REF
         A     1.2982353780853531E+01    0.0000000000000000E+00    0.0000000000000000E+00
         B    -6.4911768904267628E+00    1.1243048175136114E+01    0.0000000000000000E+00
         C     0.0000000000000000E+00    0.0000000000000000E+00    3.2000000000000000E+01
         MULTIPLE_UNIT_CELL  1 1 1
       &END CELL_REF
     &END CELL
     &COORD
N    9.4698421406590988E-02    2.1317802561100812E+00    2.5582229801942589E+00
Ga    8.9906980638230688E-02    1.9125049903667074E-01    2.9942623101978918E+00
N    9.4397043455093491E-02    1.3508122780042273E-01    5.1003758152535141E+00
Ga    6.9526613105470841E-02    1.9600764257741150E+00    5.8556163660298939E+00
N    6.6250726917153627E-02    1.9705965854626777E+00    7.8566789657581095E+00
Ga    6.5584309780585937E-02    1.1802254014697960E-01    8.4813060016407142E+00
N    6.9906389795131973E-02    1.1976938444519664E-01    1.0464184786161770E+01
Ga    7.2293768079879958E-02    1.9600134132520850E+00    1.1112228920619637E+01
N    7.2144530461015682E-02    1.9419558129355203E+00    1.3110750383964467E+01
Ga    7.5149312782415031E-02    1.2311223718261009E-01    1.3908810702749006E+01
N    7.4508745253705974E-02    1.2318273563649927E-01    1.6118832759222233E+01
Ga    7.3432021965250088E-02    2.1688336381957383E+00    1.6529873692694935E+01
Ga    1.5839272869948903E-01    3.8552464174339538E+00    1.4308824903640966E+00
N   -1.3883478548302983E+00    4.7072655910317227E+00    2.5365898374024178E+00
Ga   -1.6026724889917667E+00    2.8724462356996314E+00    3.2821072453189362E+00
N   -1.5484224322255227E+00    2.9051579739332398E+00    5.2726808562190328E+00
Ga   -1.5729082200331890E+00    4.7708023120505834E+00    5.8580280657722428E+00
N   -1.5463198036840951E+00    4.7648683124349551E+00    7.8548303923648470E+00
Ga   -1.5295657939166252E+00    2.9094273700925859E+00    8.4913884528256993E+00
N   -1.5264937113632051E+00    2.9136835466866922E+00    1.0486917049288406E+01
Ga   -1.5528358162744891E+00    4.7731805713102560E+00    1.1114636644316652E+01
N   -1.5673982490837655E+00    4.7822713744467329E+00    1.3112646073034893E+01
Ga   -1.5245673082935209E+00    2.9127878043623321E+00    1.3664244316788478E+01
N   -1.5486629672974794E+00    2.8954899426617478E+00    1.5629442540693830E+01
Ga   -1.3777669440074896E+00    4.6724533412863867E+00    1.6528725435731321E+01
N    6.4432774204990453E-02    3.8398185961190752E+00    1.7671637815108994E+01
N   -3.1309931871169110E+00    7.6783846194020091E+00    2.5647356767468881E+00
Ga   -3.1107690058356816E+00    5.6503070669197548E+00    2.9053854254753264E+00
N   -3.1324409824450448E+00    5.7002449792885557E+00    5.0847471326975597E+00
Ga   -3.1461295813466825E+00    7.5159459165486275E+00    5.8529116847741287E+00
N   -3.1421783163101966E+00    7.5407931134694755E+00    7.8465128513927835E+00
Ga   -3.1467094825714899E+00    5.6917452729424785E+00    8.4845044181301077E+00
N   -3.1444640592612121E+00    5.6913320853771632E+00    1.0464061769006772E+01
Ga   -3.1467251834216174E+00    7.5298228848183841E+00    1.1111525044519730E+01
N   -3.1439867997151487E+00    7.5122240331512451E+00    1.3110775933692286E+01
Ga   -3.1443058926622163E+00    5.6916909800412805E+00    1.3910198369418378E+01
N   -3.1437687303817867E+00    5.6921131439167665E+00    1.6115563230534089E+01
Ga   -3.1437511588277580E+00    7.7305991468980499E+00    1.6528741068683146E+01
Ga   -3.1616143727390642E+00    9.4439399990651154E+00    1.6184451574024226E+00
N   -4.6414124506878549E+00    1.0282639351187955E+01    2.6006546879065762E+00
Ga   -4.8682934513508185E+00    8.4058131669744665E+00    3.3339844726722005E+00
N   -4.7541418898780501E+00    8.4697230122156366E+00    5.2894843019198570E+00
Ga   -4.7708428745832379E+00    1.0344372340170043E+01    5.8545861576893792E+00
N   -4.7599437737877910E+00    1.0337035043303604E+01    7.8515494769451948E+00
Ga   -4.7561451924375593E+00    8.4753389792484306E+00    8.4659010737076379E+00
N   -4.7443183216465847E+00    8.4798519767215659E+00    1.0469937256428697E+01
Ga   -4.7683352984592799E+00    1.0339914423423938E+01    1.1109959678385563E+01
N   -4.7834787610482579E+00    1.0351242137950887E+01    1.3109422984845910E+01
Ga   -4.7405282084893035E+00    8.4839179708724117E+00    1.3665734252634381E+01
N   -4.7680873365273264E+00    8.4722376791721867E+00    1.5630806077197505E+01
Ga   -4.5873374579287525E+00    1.0241014941531901E+01    1.6529786408958735E+01
N   -3.1442715704275943E+00    9.3966739733604481E+00    1.7671287304514060E+01
N    3.3153940254200078E+00    2.0098753497051840E+00    2.7203330740108984E+00
Ga    3.3073215648903629E+00    2.7321450863118568E-01    3.3556932708189597E+00
N    3.2906113662561878E+00    1.1718594047150582E-01    5.3198890595363686E+00
Ga    3.3141217245565149E+00    1.9941980507292150E+00    5.8937680496878260E+00
N    3.2997044812370580E+00    1.9807343671577524E+00    7.8872996107841882E+00
Ga    3.2857571315150778E+00    1.1721558021374083E-01    8.4867419945407239E+00
N    3.2879124344961017E+00    1.1187570826203937E-01    1.0485103390918546E+01
Ga    3.2899474427954667E+00    1.9791149496495277E+00    1.1078758884508517E+01
N    3.2890349058716684E+00    1.9788281423557517E+00    1.3056186806773368E+01
Ga    3.2889845764963073E+00    1.0582982296330100E-01    1.3665399553584228E+01
N    3.2884814552658850E+00    1.3838827573390228E-01    1.5628676858567932E+01
Ga    3.2889748353115125E+00    1.9791219194143466E+00    1.5898146560203394E+01
N    1.5677615398804179E+00    4.7193083165998155E+00    2.6717542273781771E+00
Ga    1.7779959481563636E+00    2.8768044806781687E+00    3.3578865225972656E+00
N    1.6826232296969066E+00    2.9057604924700948E+00    5.3392112305359616E+00
Ga    1.6890956932471473E+00    4.7661716047443834E+00    5.8956724367018545E+00
N    1.6828889355222092E+00    4.7682021597575446E+00    7.8805013032925899E+00
Ga    1.6766853814808769E+00    2.9033675954110651E+00    8.4829902122414200E+00
N    1.6728909388587274E+00    2.9089233054833858E+00    1.0483396630973081E+01
Ga    1.6973703839186780E+00    4.7725557606469433E+00    1.1106905012902795E+01
N    1.7125009130082320E+00    4.7827105323457797E+00    1.3107130945662043E+01
Ga    1.6671128894767120E+00    2.9153664567845601E+00    1.3665475667836631E+01
N    1.6948996198117336E+00    2.8988841716235525E+00    1.5628496601219098E+01
Ga    1.5167518886333360E+00    4.6677175140728187E+00    1.6530544301717125E+01
N    8.1373988463354724E-02    7.5430354465725715E+00    2.7138660454802377E+00
Ga    6.6701976883340938E-02    5.7012233955456466E+00    3.4026960721673776E+00
N    6.0878736162360066E-02    5.7113603759009379E+00    5.3383764382405516E+00
Ga    1.0135670576213497E-01    7.5622321960526691E+00    5.9334994813342901E+00
N    7.7103363944233061E-02    7.5550038663333305E+00    7.9041290089041212E+00
Ga    6.7531161742159812E-02    5.6834524300602496E+00    8.4908619095932014E+00
N    6.9642345305880052E-02    5.6818956421728215E+00    1.0486397156488707E+01
Ga    7.3529545905297311E-02    7.5489607867635877E+00    1.1074849051193492E+01
N    7.3504329343063834E-02    7.5491547808244288E+00    1.3051349734483612E+01
Ga    7.3577928289787556E-02    5.6778725858992551E+00    1.3665475189512355E+01
N    7.6189632820492931E-02    5.7091635651492814E+00    1.5630403551178480E+01
Ga    6.8870503060289176E-02    7.5469199771278328E+00    1.5909446165686587E+01
N   -1.6431822544655874E+00    1.0273561262419813E+01    2.5766994725194654E+00
Ga   -1.4858348774878760E+00    8.4657605444354225E+00    3.3859978223546832E+00
N   -1.5194354227752853E+00    8.4697370515830421E+00    5.3096835822640562E+00
Ga   -1.5180104466186741E+00    1.0351836029678031E+01    5.8797367142543271E+00
N   -1.5322192830158394E+00    1.0333332764618865E+01    7.8686030876813415E+00
Ga   -1.5457975614141048E+00    8.4806489177195807E+00    8.4941591844734550E+00
N   -1.5460808949401952E+00    8.4808917663341941E+00    1.0487688398662504E+01
Ga   -1.5190805677710613E+00    1.0343607507829528E+01    1.1111313471232620E+01
N   -1.5027383843332298E+00    1.0352277143137979E+01    1.3109836828092499E+01
Ga   -1.5472960212562423E+00    8.4846976574994954E+00    1.3665235207480414E+01
N   -1.5193316752844721E+00    8.4721214732832255E+00    1.5630606371312233E+01
Ga   -1.7006228943020885E+00    1.0240735092954532E+01    1.6530006670160326E+01
N    6.5865439280391609E+00    2.0778545713032521E+00    2.5657093629704781E+00
Ga    6.5448425572922844E+00    1.5287146484689099E-01    2.9725294602624888E+00
N    6.4782650337082064E+00    1.2662654971761006E-01    5.1471187228845565E+00
Ga    6.4806075080263330E+00    1.9500130161575351E+00    5.8737490396112682E+00
N    6.4990300722685523E+00    1.9716755197560958E+00    7.8678339286758954E+00
Ga    6.5098383093485603E+00    1.1898187672122044E-01    8.4825684334658753E+00
N    6.5070777777926549E+00    1.2104951974446571E-01    1.0464473990046482E+01
Ga    6.5073304366973250E+00    1.9617165089403963E+00    1.1108401572334166E+01
N    6.5058859017840538E+00    1.9416355244773222E+00    1.3107399360203440E+01
Ga    6.5026609794069561E+00    1.2391549194155478E-01    1.3908715326656662E+01
N    6.5024826858709108E+00    1.2318321392783707E-01    1.6118572142991081E+01
Ga    6.5035023009744561E+00    2.1692443645388506E+00    1.6529942623607138E+01
Ga    7.8100960098933756E+00    3.0476371845711392E+00    9.6071371121299165E-01
N    4.9002886638833205E+00    4.7588576693058640E+00    2.5581841275480754E+00
Ga    4.9129887725214170E+00    2.8721792097776828E+00    3.2047319552593749E+00
N    4.9201679996012082E+00    2.9141216925375470E+00    5.2332412509031201E+00
Ga    4.8978480231657304E+00    4.7647222526443747E+00    5.8393784418138059E+00
N    4.8939720798016682E+00    4.7642508390355323E+00    7.8394393935097053E+00
Ga    4.9045418613059093E+00    2.9146005452986903E+00    8.4906555153920227E+00
N    4.9062726932948628E+00    2.9132266424860895E+00    1.0486091503244497E+01
Ga    4.8837305200017056E+00    4.7749951582907668E+00    1.1108637445208254E+01
N    4.8660267610320540E+00    4.7829350878991352E+00    1.3107593470024653E+01
Ga    4.9112979565900705E+00    2.9151517405570595E+00    1.3664238824638897E+01
N    4.8826694135260373E+00    2.8990925221847066E+00    1.5627406684010934E+01
Ga    5.0605594754393577E+00    4.6677465268637857E+00    1.6530065498994031E+01
N    6.5126698653044315E+00    3.8402479259542406E+00    1.7671476761878509E+01
N    3.2689952929645871E+00    7.5616687632524338E+00    2.6419277376480230E+00
N    3.2759819939319508E+00    5.6889594565155202E+00    5.1863241241777693E+00
Ga    3.2889431695104103E+00    7.5529493045863330E+00    5.8314654846887022E+00
N    3.2891718705293411E+00    7.5496844505543175E+00    7.8352024719175999E+00
Ga    3.2953650977688302E+00    5.6978450663297631E+00    8.4760026496532515E+00
N    3.2913876051210988E+00    5.6944122059956186E+00    1.0460144757350143E+01
Ga    3.2915965623298131E+00    7.5317967979601406E+00    1.1109645858716307E+01
N    3.2891523255337032E+00    7.5125116131254268E+00    1.3112171095413636E+01
Ga    3.2892487081547230E+00    5.6886327587015435E+00    1.3907993877732917E+01
N    3.2885849109557808E+00    5.6895476635719238E+00    1.6118243284620259E+01
Ga    3.2887796052488758E+00    7.7174103207861062E+00    1.6511303564636979E+01
Ga    4.1691942063661136E+00    1.0825061887928142E+01    6.4944992088077291E-01
N    1.7100276620000257E+00    1.0345177441393266E+01    2.5570651874227113E+00
Ga    1.6945879944012219E+00    8.5805193673306004E+00    3.2109070216046547E+00
N    1.6728447892389291E+00    8.4731331353989088E+00    5.2178946525998544E+00
Ga    1.6540289208661616E+00    1.0343138843395467E+01    5.8155520221893529E+00
N    1.6735716348555363E+00    1.0335274478398887E+01    7.8317329647686460E+00
Ga    1.6963180669808331E+00    8.4892786362769446E+00    8.4854201033888934E+00
N    1.6917439785644279E+00    8.4837578326948826E+00    1.0483488976656840E+01
Ga    1.6669056605140611E+00    1.0343994779136850E+01    1.1111386625219842E+01
N    1.6491082036024565E+00    1.0352353027721607E+01    1.3113180208261813E+01
Ga    1.6923236437180569E+00    8.4840533818729078E+00    1.3663892764127384E+01
N    1.6632524510186748E+00    8.4676555800957498E+00    1.5634611549096023E+01
Ga    1.8263651975536030E+00    1.0250525245225928E+01    1.6511472239626372E+01
N    3.2887355506917078E+00    9.4060705113912491E+00    1.7626643277079125E+01
N    9.6692776902717146E+00    2.0018486989911062E+00    2.6634879680271233E+00
Ga    9.6476017568584496E+00    1.5732264144955035E-01    3.2661268164972999E+00
N    9.7189421354924939E+00    1.3003632940754312E-01    5.2619184026800117E+00
Ga    9.7354517800850218E+00    1.9636264791853602E+00    5.9197034789831688E+00
N    9.7205450605578534E+00    1.9767966322624604E+00    7.8988634706313405E+00
Ga    9.7224517545593621E+00    1.0486621116969549E-01    8.4686255213601314E+00
N    9.7207577660358933E+00    1.0854328610158272E-01    1.0474244530761849E+01
Ga    9.7180576063918824E+00    1.9782922199296202E+00    1.1067141707355225E+01
N    9.7199178520108536E+00    1.9773711950525565E+00    1.3046149898616161E+01
Ga    9.7206131233279365E+00    1.0916444411042577E-01    1.3663224321045242E+01
N    9.7208844304563584E+00    1.4210582423051138E-01    1.5634241575666229E+01
Ga    9.7207526617922539E+00    1.9834338391419895E+00    1.5909226859013032E+01
N    8.0994513342618770E+00    4.6571291973216766E+00    2.5521667348283068E+00
Ga    8.1475360213864576E+00    2.8912284093687961E+00    3.4663620840509535E+00
N    8.1115467912865054E+00    2.9099086143118922E+00    5.3814174272713498E+00
Ga    8.1302435022126023E+00    4.8074217569897151E+00    5.8408383271717490E+00
N    8.1195203697752216E+00    4.7786693118990433E+00    7.8424741823924400E+00
Ga    8.1024788988396637E+00    2.9182924453879941E+00    8.4703232891015308E+00
N    8.1024648088099482E+00    2.9154558996152455E+00    1.0472868864293345E+01
Ga    8.1261620980070433E+00    4.7726641507166949E+00    1.1108400946923130E+01
N    8.1440708168601521E+00    4.7819601392699047E+00    1.3108198813800557E+01
Ga    8.1008349003611357E+00    2.9134457590972374E+00    1.3664088913682011E+01
N    8.1257083672894499E+00    2.8958087166291655E+00    1.5629196796599890E+01
Ga    7.9548569402122604E+00    4.6726916492941140E+00    1.6528813393875204E+01
N    6.4875112971463462E+00    7.5265972867742290E+00    2.6641790962962508E+00
Ga    6.5460293011593880E+00    5.6918295404546448E+00    3.1833996997776133E+00
N    6.5046598434026333E+00    5.6705697602702525E+00    5.2054059746582100E+00
Ga    6.4718722790861110E+00    7.5300058841445674E+00    5.8315482651786441E+00
N    6.4968770744795945E+00    7.5418764317225433E+00    7.8385247533596090E+00
Ga    6.5033953669584603E+00    5.6871023856143319E+00    8.4692048479724598E+00
N    6.5054665069628941E+00    5.6818788431748857E+00    1.0470602076948843E+01
Ga    6.5044612022782751E+00    7.5470972518720512E+00    1.1069235122318728E+01
N    6.5041667398537086E+00    7.5485482517210318E+00    1.3047276023171639E+01
Ga    6.5046194984677577E+00    5.6781085995051255E+00    1.3665186895489549E+01
N    6.5012835792727426E+00    5.7093551142498606E+00    1.5629942445782522E+01
Ga    6.5087068757175759E+00    7.5467678076037314E+00    1.5910385994974956E+01
N    4.8689235529476234E+00    1.0385008358302587E+01    2.5254327020157676E+00
Ga    4.9372965392660095E+00    8.5045606620792054E+00    3.1606393040491416E+00
N    4.8843847987753080E+00    8.4888801370963929E+00    5.1925458440356866E+00
Ga    4.9195943795479540E+00    1.0343613467149691E+01    5.7997249596474392E+00
N    4.9051844348875164E+00    1.0337132280084758E+01    7.8181297086518775E+00
Ga    4.8942621918264910E+00    8.4841778278808775E+00    8.4632646662993327E+00
N    4.8889482759973317E+00    8.4830990662589603E+00    1.0469349925208741E+01
Ga    4.9097378095023734E+00    1.0341335901536171E+01    1.1110487736051073E+01
N    4.9277784410049179E+00    1.0351892457796366E+01    1.3113189109162505E+01
Ga    4.8860063807131837E+00    8.4834599596336560E+00    1.3664028824845401E+01
N    4.9145863148662032E+00    8.4674820194435867E+00    1.5634715683303844E+01
Ga    4.7507442622644325E+00    1.0250368844952524E+01    1.6511361712228908E+01
O    6.2433368275017043E-01    4.1682811432126297E+00   -3.0407500662404502E-01
H    3.1055038829860377E+00    4.9677083495416605E+00    3.7584290364861328E-01
C    9.0696204673412639E-01    3.0706803403783729E+00   -1.1794479115954697E+00
H    1.5167600242111090E+00    2.2898716406857336E+00   -6.9577411978224923E-01
H   -1.4216174948286253E-02    2.6048766986555516E+00   -1.5640715645081729E+00
H    1.4748208604650512E+00    3.4684893006543285E+00   -2.0339954247527836E+00
Ga    3.2216880861852291E+00    5.6543508784951770E+00    3.1688311971826373E+00
O    3.8926931315994149E+00    5.5345433752065709E+00    4.8031069263830684E-01
H    1.6350978508524086E-02    7.4949555957646590E+00    1.6892146647500736E+00
C    4.9115843124541190E+00    4.7217307679977756E+00    1.0818946506394915E+00
H    5.8712799758055887E+00    5.1518677757196967E+00    7.4002506006950208E-01
H    3.2761955876166597E+00    7.5159371864036881E+00    1.6139372343644425E+00
H    4.8268324884417266E+00    3.6884295392608957E+00    7.1442069639994188E-01
     &END COORD
     &KIND C
       BASIS_SET DZVP-MOLOPT-SR-GTH-q4
       POTENTIAL GTH-PBE-q4
       &POTENTIAL
2 2
0.3384712400000000E+00 2 -0.8803673979999999E+01  0.1339210850000000E+01
2
0.3025757500000000E+00 1  0.9622486650000001E+01
0.2915069400000000E+00 0
       &END POTENTIAL
     &END KIND
     &KIND O
       BASIS_SET DZVP-MOLOPT-SR-GTH-q6
       POTENTIAL GTH-PBE-q6
       &POTENTIAL
2 4
0.2445543000000000E+00 2 -0.1666721480000000E+02  0.2487311320000000E+01
2
0.2209559200000000E+00 1  0.1833745811000000E+02
0.2113324700000000E+00 0
       &END POTENTIAL
     &END KIND
     &KIND H
       BASIS_SET DZVP-MOLOPT-SR-GTH-q1
       POTENTIAL GTH-PBE-q1
       &POTENTIAL
1
0.2000000000000000E+00 2 -0.4178900440000000E+01  0.7244633100000000E+00
0
       &END POTENTIAL
     &END KIND
     &KIND N
       BASIS_SET DZVP-MOLOPT-SR-GTH
       POTENTIAL GTH-PBE-q5
       &POTENTIAL
2 3
0.2837905100000000E+00 2 -0.1241522559000000E+02  0.1868095920000000E+01
2
0.2554050000000000E+00 1  0.1363026257000000E+02
0.2454945300000000E+00 0
       &END POTENTIAL
     &END KIND
     &KIND Ga
       BASIS_SET DZVP-MOLOPT-SR-GTH
       POTENTIAL GTH-PBE-q13
       &POTENTIAL
2 1 10
0.4900000000000000E+00 0
3
0.4167772300000000E+00 3  0.1047568975000000E+02 -0.4921768140000000E+01  0.8707055900000000E+00
0.7770178090000000E+01 -0.2248152160000000E+01
0.1784415450000000E+01
0.5696265200000000E+00 2  0.1777985340000000E+01  0.1958597600000000E+00
-0.2317443900000000E+00
0.2381265000000000E+00 1 -0.1624868022000000E+02
       &END POTENTIAL
     &END KIND
     &TOPOLOGY
       NUMBER_OF_ATOMS  212
       MULTIPLE_UNIT_CELL  1 1 1
     &END TOPOLOGY
     &COLVAR
       &DISTANCE
         ATOMS  127 211
       &END DISTANCE
       &PRINT
       &END PRINT
     &END COLVAR
   &END SUBSYS
 &END FORCE_EVAL
