 # Version information for this restart file 
 # current date 2019-07-21 21:00:40.686
 # current working dir /lustre04/scratch/rzk/rzk/GaN-carbene/443-adatoms-both-2x2/09-BondBreaking-CH/04-0401-H2C-to-NTop-OPT
 # Program compiled at                              Sun Apr  7 00:48:11 EDT 2019
 # Program compiled on                          beluga2.int.ets1.calculquebec.ca
 # Program compiled for                        Beluga-Linux-x86-64-intel-openmpi
 # Source code revision number                                         svn:18619
 &GLOBAL
   PRINT_LEVEL  MEDIUM
   PROJECT_NAME TEST
   RUN_TYPE  GEO_OPT
 &END GLOBAL
 &MOTION
   &GEO_OPT
     MAX_ITER  500
     STEP_START_VAL  5
   &END GEO_OPT
 &END MOTION
 &FORCE_EVAL
   METHOD  QS
   STRESS_TENSOR  ANALYTICAL
   &DFT
     BASIS_SET_FILE_NAME BASIS_MOLOPT
     POTENTIAL_FILE_NAME GTH_POTENTIALS
     UKS  T
     SURFACE_DIPOLE_CORRECTION  T
     SURF_DIP_DIR  Z
     &SCF
       MAX_SCF  80
       EPS_SCF     5.0000000000000004E-06
       &OT  T
         PRECONDITIONER  FULL_ALL
       &END OT
       &OUTER_SCF  T
         OPTIMIZER  NONE
         EPS_SCF     5.0000000000000004E-06
         MAX_SCF  4
       &END OUTER_SCF
       &PRINT
         &RESTART  OFF
           BACKUP_COPIES  1
           &EACH
             JUST_ENERGY  0
             QS_SCF  0
             MD  20
           &END EACH
         &END RESTART
       &END PRINT
     &END SCF
     &QS
       EPS_DEFAULT     1.0000000000000000E-14
       METHOD  GPW
     &END QS
     &MGRID
       NGRIDS  5
       CUTOFF     1.2000000000000000E+03
     &END MGRID
     &XC
       DENSITY_CUTOFF     1.0000000000000000E-10
       GRADIENT_CUTOFF     1.0000000000000000E-10
       TAU_CUTOFF     1.0000000000000000E-10
       &XC_FUNCTIONAL  NO_SHORTCUT
         &PBE  T
         &END PBE
       &END XC_FUNCTIONAL
       &VDW_POTENTIAL
         POTENTIAL_TYPE  PAIR_POTENTIAL
         &PAIR_POTENTIAL
           R_CUTOFF     1.0000000000000009E+01
           TYPE  DFTD3
           PARAMETER_FILE_NAME dftd3.dat
           REFERENCE_FUNCTIONAL PBE
           EPS_CN     9.9999999999999995E-07
           CALCULATE_C9_TERM  T
           REFERENCE_C9_TERM  T
           LONG_RANGE_CORRECTION  F
           VERBOSE_OUTPUT  F
         &END PAIR_POTENTIAL
       &END VDW_POTENTIAL
     &END XC
   &END DFT
   &SUBSYS
     &CELL
       A     1.2864472766435110E+01    0.0000000000000000E+00    0.0000000000000000E+00
       B    -6.4322363581020028E+00    1.1140960178524477E+01    0.0000000000000000E+00
       C     0.0000000000000000E+00    0.0000000000000000E+00    3.2000000000000000E+01
       MULTIPLE_UNIT_CELL  1 1 1
       &CELL_REF
         A     1.2982353780853531E+01    0.0000000000000000E+00    0.0000000000000000E+00
         B    -6.4911768904267628E+00    1.1243048175136114E+01    0.0000000000000000E+00
         C     0.0000000000000000E+00    0.0000000000000000E+00    3.2000000000000000E+01
         MULTIPLE_UNIT_CELL  1 1 1
       &END CELL_REF
     &END CELL
     &COORD
N    9.5021196358519106E-02    2.1348914068839879E+00    2.5542120804763311E+00
Ga    9.0260973568999370E-02    1.9334836010424200E-01    2.9884530131328031E+00
N    9.2849901874813623E-02    1.3697469507323892E-01    5.0949288441714415E+00
Ga    7.3650428579852573E-02    1.9607727036322435E+00    5.8512635972131841E+00
N    6.6977270767943228E-02    1.9704084126995287E+00    7.8533409646398518E+00
Ga    6.5658841822592323E-02    1.1853224301786766E-01    8.4781265319061934E+00
N    6.9789510625674067E-02    1.1985153298266517E-01    1.0461386103331822E+01
Ga    7.3567239422256653E-02    1.9590444596550520E+00    1.1110676994376695E+01
N    7.2527251558470757E-02    1.9419600130300523E+00    1.3109525172353615E+01
Ga    7.5813318670011162E-02    1.2291573858846674E-01    1.3904909677349703E+01
N    7.4490608431893784E-02    1.2307633760180468E-01    1.6118419099440242E+01
Ga    7.3297922563663465E-02    2.1689795759088542E+00    1.6529939922056727E+01
Ga    1.6556062813892317E-01    3.8554587384797281E+00    1.4288284938343421E+00
N   -1.3825465677860240E+00    4.7107386603171895E+00    2.5421300579253816E+00
Ga   -1.6007649921121785E+00    2.8746612939089826E+00    3.2799900727264810E+00
N   -1.5460484041667528E+00    2.9063694474313291E+00    5.2711924635965328E+00
Ga   -1.5739413355484355E+00    4.7707774499630080E+00    5.8613247075835639E+00
N   -1.5480248385640074E+00    4.7643097124349625E+00    7.8573431007810903E+00
Ga   -1.5264714800493904E+00    2.9083949335787067E+00    8.4939643719749256E+00
N   -1.5255571486903081E+00    2.9132334279686809E+00    1.0488199594446378E+01
Ga   -1.5528425249011597E+00    4.7724197326936695E+00    1.1116075020574037E+01
N   -1.5676165240673163E+00    4.7820056525602741E+00    1.3113786880903453E+01
Ga   -1.5248572091975960E+00    2.9119240614269049E+00    1.3663565640779046E+01
N   -1.5487076680527525E+00    2.8952907469095490E+00    1.5629032634255271E+01
Ga   -1.3778523222686043E+00    4.6724834937152764E+00    1.6528516424386765E+01
N    6.4212706053292865E-02    3.8400422145550870E+00    1.7673461833851501E+01
N   -3.1301306174395473E+00    7.6831146434093185E+00    2.5744315013322763E+00
Ga   -3.1042889216070932E+00    5.6522811128424220E+00    2.9071587755863293E+00
N   -3.1356960102071452E+00    5.6970566907130094E+00    5.0858011560040852E+00
Ga   -3.1455204781946913E+00    7.5167016079938103E+00    5.8537920636363863E+00
N   -3.1418630842758017E+00    7.5407257558619438E+00    7.8471250887292605E+00
Ga   -3.1463034328023984E+00    5.6939509903310856E+00    8.4906639964874255E+00
N   -3.1444508447435333E+00    5.6919032511791654E+00    1.0468519730189040E+01
Ga   -3.1486501178250879E+00    7.5316074803974873E+00    1.1110905899509303E+01
N   -3.1446604227845274E+00    7.5126177010437889E+00    1.3110320635807176E+01
Ga   -3.1448717969630993E+00    5.6918665377932625E+00    1.3907124557011430E+01
N   -3.1440162933324074E+00    5.6920007925503535E+00    1.6114888046707563E+01
Ga   -3.1437597518553893E+00    7.7302594288829578E+00    1.6528400704804859E+01
Ga   -3.1627939799639386E+00    9.4457194157127944E+00    1.6317224640447032E+00
N   -4.6408041779690192E+00    1.0286725578938940E+01    2.6028753580811435E+00
Ga   -4.8703876693425681E+00    8.4048342762509414E+00    3.3357898412541829E+00
N   -4.7537090695753559E+00    8.4700958450532848E+00    5.2893677392876421E+00
Ga   -4.7715988423706595E+00    1.0347004399802085E+01    5.8516569074290983E+00
N   -4.7611047116027549E+00    1.0337692768942071E+01    7.8494476839699008E+00
Ga   -4.7579653037495033E+00    8.4756693454362679E+00    8.4610890823934692E+00
N   -4.7457539112822165E+00    8.4797536359657073E+00    1.0466322648912103E+01
Ga   -4.7684006559020569E+00    1.0339828649293278E+01    1.1105727973192709E+01
N   -4.7830492032124692E+00    1.0351055995316896E+01    1.3106236403441258E+01
Ga   -4.7412395072062559E+00    8.4842175177527750E+00    1.3665081616078734E+01
N   -4.7681047194204442E+00    8.4723029949862276E+00    1.5630254088706369E+01
Ga   -4.5874141062290459E+00    1.0240793453200272E+01    1.6529771452068132E+01
N   -3.1440290029589062E+00    9.3963187540378996E+00    1.7673007685598755E+01
N    3.3152486792436244E+00    2.0153200799210751E+00    2.6971835147981076E+00
Ga    3.3114338687702092E+00    2.7782881271016191E-01    3.3591914560758660E+00
N    3.2923217505104145E+00    1.2157538771530206E-01    5.3218008629383782E+00
Ga    3.3148607425722467E+00    1.9967956999042817E+00    5.8924748943856207E+00
N    3.3002292969036358E+00    1.9820947082800817E+00    7.8878372835156503E+00
Ga    3.2847941872121713E+00    1.1814062955069547E-01    8.4819806446272441E+00
N    3.2872495390344416E+00    1.1243273276292133E-01    1.0481741653792556E+01
Ga    3.2892394525574300E+00    1.9784965171961173E+00    1.1076540532026478E+01
N    3.2893813404056953E+00    1.9787381909996027E+00    1.3054570192892175E+01
Ga    3.2885036822002376E+00    1.0620023485942048E-01    1.3664461704014334E+01
N    3.2884246498137086E+00    1.3820719347379945E-01    1.5628083540166193E+01
Ga    3.2891031332011385E+00    1.9791859513779837E+00    1.5897632847888204E+01
N    1.5718220019236697E+00    4.7198928743955495E+00    2.6702400435259768E+00
Ga    1.7795798884066778E+00    2.8817807473820900E+00    3.3549621081744152E+00
N    1.6866698974767316E+00    2.9089311538832652E+00    5.3376185563194989E+00
Ga    1.6898304764109922E+00    4.7666318825882250E+00    5.8988025462010425E+00
N    1.6827735726558128E+00    4.7684146186042442E+00    7.8815432078383516E+00
Ga    1.6770164547282294E+00    2.9024968787856471E+00    8.4796078915980697E+00
N    1.6730126769403393E+00    2.9076771646042308E+00    1.0480955690937382E+01
Ga    1.6982727074122452E+00    4.7708709704498693E+00    1.1104448333274306E+01
N    1.7128409189688745E+00    4.7820574747166775E+00    1.3105567988742836E+01
Ga    1.6676552315744837E+00    2.9150073330444601E+00    1.3664587143537776E+01
N    1.6948657600246584E+00    2.8990704214629504E+00    1.5627952719747109E+01
Ga    1.5167579909699411E+00    4.6678602009603907E+00    1.6530680374866588E+01
N    8.3840662461203155E-02    7.5453780529124765E+00    2.7203577570955400E+00
Ga    7.3382383728994277E-02    5.7036403717877802E+00    3.4074022078257555E+00
N    6.0449215776000174E-02    5.7116308973846630E+00    5.3429857281268607E+00
Ga    1.0091902272810306E-01    7.5634447808202117E+00    5.9398408390652797E+00
N    7.7898094366351950E-02    7.5551696445516372E+00    7.9091904479732440E+00
Ga    6.7556193057420638E-02    5.6827977524793631E+00    8.4946324776712867E+00
N    6.9443501876190375E-02    5.6814361438138841E+00    1.0489091818253224E+01
Ga    7.3280014214163761E-02    7.5493733834426111E+00    1.1075912281061742E+01
N    7.3547775114596314E-02    7.5493517918562141E+00    1.3052268997171215E+01
Ga    7.4145959760991711E-02    5.6778266660109908E+00    1.3664821315640070E+01
N    7.6469804367590474E-02    5.7089501962076383E+00    1.5630010341544933E+01
Ga    6.8749777951035734E-02    7.5468252246409229E+00    1.5909038039177959E+01
N   -1.6404188881420283E+00    1.0277339550427843E+01    2.5799316791005431E+00
Ga   -1.4816644006274315E+00    8.4668133227888198E+00    3.3911415529798608E+00
N   -1.5180196427998898E+00    8.4712447208943722E+00    5.3128550162805013E+00
Ga   -1.5173773754766238E+00    1.0354094108101689E+01    5.8791703351931153E+00
N   -1.5317157181664354E+00    1.0333982655997472E+01    7.8684904317444913E+00
Ga   -1.5465166091202600E+00    8.4819256074376064E+00    8.4962973735610738E+00
N   -1.5468988767308360E+00    8.4814502294545200E+00    1.0489195660388072E+01
Ga   -1.5209851792835238E+00    1.0344637978249072E+01    1.1110234256682311E+01
N   -1.5033422001507923E+00    1.0352811478041932E+01    1.3109058291642640E+01
Ga   -1.5474018385225858E+00    8.4849519987059221E+00    1.3664422445545338E+01
N   -1.5194810822134501E+00    8.4722465095798682E+00    1.5630049064605693E+01
Ga   -1.7003985125195349E+00    1.0240636397078600E+01    1.6529738283975746E+01
N    6.5951693267348652E+00    2.0862750372629293E+00    2.5614630849033850E+00
Ga    6.5505232897755645E+00    1.5212504209319905E-01    2.9744750221650196E+00
N    6.4812180789660392E+00    1.3282966278646302E-01    5.1445413183735988E+00
Ga    6.4731465324852131E+00    1.9531016555015015E+00    5.8818695994195673E+00
N    6.4967700697149304E+00    1.9713445327319064E+00    7.8725311345259152E+00
Ga    6.5093774575820476E+00    1.1805892727690544E-01    8.4858602504176286E+00
N    6.5070947901793126E+00    1.2037093840730072E-01    1.0466904225251467E+01
Ga    6.5067050402341504E+00    1.9624298095788937E+00    1.1106260736659491E+01
N    6.5056968975726148E+00    1.9422652092694219E+00    1.3105858381719376E+01
Ga    6.5020879382530117E+00    1.2453918019680833E-01    1.3905088345742490E+01
N    6.5025345369189909E+00    1.2331235653718298E-01    1.6118077633696291E+01
Ga    6.5036567267058709E+00    2.1692246875388967E+00    1.6529978066249775E+01
Ga    7.8116501308975810E+00    3.0366857754319017E+00    1.0532591468058425E+00
N    4.8980843805932404E+00    4.7576694010939233E+00    2.5462202092193786E+00
Ga    4.9087123404086519E+00    2.8685131639658787E+00    3.1926296469610698E+00
N    4.9197921864916063E+00    2.9165589318743690E+00    5.2344942343493628E+00
Ga    4.9037697731054246E+00    4.7616757778926759E+00    5.8412890721626551E+00
N    4.8949247294873475E+00    4.7642328221138994E+00    7.8410396437330672E+00
Ga    4.9015958847249657E+00    2.9151125246322755E+00    8.4920230611621736E+00
N    4.9051409818223792E+00    2.9142267535928337E+00    1.0487114904478517E+01
Ga    4.8833502472220758E+00    4.7750387524667106E+00    1.1108767119353899E+01
N    4.8664831238279911E+00    4.7824854410101647E+00    1.3107383388647060E+01
Ga    4.9110325282803595E+00    2.9148139839995633E+00    1.3663422866608455E+01
N    4.8830396041444226E+00    2.8991380691318458E+00    1.5626759434654218E+01
Ga    5.0606405374653338E+00    4.6678381073199748E+00    1.6529840702117717E+01
N    6.5127329809988526E+00    3.8402874203446964E+00    1.7673180361324523E+01
N    3.2725389975981507E+00    7.5595190355445840E+00    2.6504311610181857E+00
N    3.2821182572804997E+00    5.6849793468744130E+00    5.1835497870675722E+00
Ga    3.2877599495303103E+00    7.5539930686466308E+00    5.8337596505165230E+00
N    3.2882295062989053E+00    7.5502244916520356E+00    7.8353906300571952E+00
Ga    3.2957312527900333E+00    5.6981935690710142E+00    8.4755591476432315E+00
N    3.2921715492504040E+00    5.6943230223452339E+00    1.0459635767805672E+01
Ga    3.2936042393574154E+00    7.5320591016934708E+00    1.1107796972368323E+01
N    3.2898282086435011E+00    7.5125316405184241E+00    1.3111181350391542E+01
Ga    3.2893408615070796E+00    5.6883141900103116E+00    1.3904127324603756E+01
N    3.2886782624584927E+00    5.6895811483700305E+00    1.6117803891606748E+01
Ga    3.2888580065118029E+00    7.7167989484747794E+00    1.6511269417868423E+01
Ga    4.1840302517715573E+00    1.0795300873060786E+01    6.3677638285398908E-01
N    1.7113324865019606E+00    1.0345080190017509E+01    2.5592993525839849E+00
Ga    1.6972835170194263E+00    8.5788743931102633E+00    3.2140020750242160E+00
N    1.6707850366680739E+00    8.4757244471905846E+00    5.2218975524035347E+00
Ga    1.6543531577569870E+00    1.0345587971525886E+01    5.8175537120796541E+00
N    1.6742859949190017E+00    1.0336656284197156E+01    7.8327365773288440E+00
Ga    1.6972742227698174E+00    8.4902047059040342E+00    8.4891853235268400E+00
N    1.6923172747467412E+00    8.4843046815258365E+00    1.0486237914377959E+01
Ga    1.6674651837564973E+00    1.0344520164099867E+01    1.1112627551157212E+01
N    1.6491551365530068E+00    1.0352716602146197E+01    1.3114287282223149E+01
Ga    1.6926195117814029E+00    8.4837999753356712E+00    1.3663549841074760E+01
N    1.6633665482630187E+00    8.4675108955057148E+00    1.5634800409492607E+01
Ga    1.8259133237651994E+00    1.0250811052962858E+01    1.6511173918937839E+01
N    3.2885872538629788E+00    9.4060878529581071E+00    1.7628699855775182E+01
N    9.6618217473881565E+00    2.0104818993360332E+00    2.6706274264596885E+00
Ga    9.6513617739189641E+00    1.5979530168397305E-01    3.2582678834648164E+00
N    9.7188201239448659E+00    1.3219443603875153E-01    5.2560153295844909E+00
Ga    9.7443796266899803E+00    1.9610317828599395E+00    5.9269651224264228E+00
N    9.7232650259852296E+00    1.9755323178579820E+00    7.9031896684849903E+00
Ga    9.7243435823222306E+00    1.0318684650448628E-01    8.4708378164509863E+00
N    9.7215907515579936E+00    1.0787661617854277E-01    1.0475278698571971E+01
Ga    9.7182080778468229E+00    1.9780222662758231E+00    1.1066769613637168E+01
N    9.7193705813156672E+00    1.9773930740831325E+00    1.3045598504546776E+01
Ga    9.7210267412441720E+00    1.0968680665372033E-01    1.3662841456765598E+01
N    9.7209067910308349E+00    1.4229432532679623E-01    1.5634339873962000E+01
Ga    9.7205578016525500E+00    1.9836229676926254E+00    1.5909417462546305E+01
N    8.0967641397443000E+00    4.6500518844803507E+00    2.5503491506144580E+00
Ga    8.1505062209105716E+00    2.8933906625466652E+00    3.5041716616185759E+00
N    8.1152864505402000E+00    2.9093116540740867E+00    5.4035909886590927E+00
Ga    8.1269615443357317E+00    4.8131980213054160E+00    5.8521881923212726E+00
N    8.1185042956810403E+00    4.7814162824242317E+00    7.8491738226229080E+00
Ga    8.1031154141223336E+00    2.9171910494130295E+00    8.4713503563935291E+00
N    8.1027024843054569E+00    2.9156724795722853E+00    1.0474111594333353E+01
Ga    8.1250100561933749E+00    4.7726277211966392E+00    1.1107791727171445E+01
N    8.1433887614625231E+00    4.7816307849709982E+00    1.3107761654897399E+01
Ga    8.1008187348011003E+00    2.9130957474539914E+00    1.3663437439725774E+01
N    8.1254066064537049E+00    2.8957963733388143E+00    1.5628554504064304E+01
Ga    7.9548422497443614E+00    4.6726184721726085E+00    1.6528739427584604E+01
N    6.4897526432670478E+00    7.5293613719819463E+00    2.6542617878574877E+00
Ga    6.5409484797550341E+00    5.6983253434495555E+00    3.1690272670150290E+00
N    6.5051022505698102E+00    5.6692353048927400E+00    5.1988981666708964E+00
Ga    6.4702566338999477E+00    7.5306693537938951E+00    5.8247795627478958E+00
N    6.4954991890790605E+00    7.5405405867687714E+00    7.8350888000515395E+00
Ga    6.5007541076799225E+00    5.6902967891816836E+00    8.4720696800933748E+00
N    6.5041799840864032E+00    5.6827812199149124E+00    1.0472154714465804E+01
Ga    6.5044844995778819E+00    7.5482515777868491E+00    1.1068854157385552E+01
N    6.5041709271474408E+00    7.5484385028530125E+00    1.3046411433704293E+01
Ga    6.5044616522256851E+00    5.6785855386663551E+00    1.3664732069498452E+01
N    6.5013027239191086E+00    5.7090640508091948E+00    1.5629397079538471E+01
Ga    6.5089090835412202E+00    7.5464579077730534E+00    1.5910425884668705E+01
N    4.8698720660028663E+00    1.0384452259007285E+01    2.5216170009433276E+00
Ga    4.9404130064141665E+00    8.5024389506594655E+00    3.1618313519334764E+00
N    4.8815046300513281E+00    8.4894057187119039E+00    5.1914851283987939E+00
Ga    4.9208323819446624E+00    1.0344092255279719E+01    5.7976302774356290E+00
N    4.9057031933785114E+00    1.0337837050844126E+01    7.8162525266136234E+00
Ga    4.8950169113401847E+00    8.4844737600982114E+00    8.4595014719661101E+00
N    4.8904753555304064E+00    8.4834615679667955E+00    1.0466541625698248E+01
Ga    4.9112130565671102E+00    1.0340850874783307E+01    1.1109075092967663E+01
N    4.9279258987698933E+00    1.0351616494169967E+01    1.3112232952602765E+01
Ga    4.8865934698202924E+00    8.4831983787987593E+00    1.3663885660810095E+01
N    4.9147650702070731E+00    8.4672029941576223E+00    1.5634935275583272E+01
Ga    4.7510875239991570E+00    1.0250514693446950E+01    1.6511244573535670E+01
O    6.1867802438382058E-01    4.1617963140390719E+00   -3.0862651267015118E-01
H    3.0810327793610641E+00    4.9605586220040738E+00    3.8150119821858103E-01
C    9.0419270873556801E-01    3.0626960713254023E+00   -1.1825961712065911E+00
H    1.5165297464446423E+00    2.2843537003470313E+00   -6.9818267547742618E-01
H   -1.6304682169335036E-02    2.5956886108857664E+00   -1.5675914540432545E+00
H    1.4707922942725153E+00    3.4635753455096010E+00   -2.0366077556597930E+00
Ga    3.2217906457802550E+00    5.6568821026472698E+00    3.1735720677014974E+00
O    3.8736886437960960E+00    5.5152413019237372E+00    4.6811580624397592E-01
H    1.2994424252747754E-02    7.4923614514608863E+00    1.6965483351787050E+00
C    4.9109149538467465E+00    4.7253480572256166E+00    1.0658316751068508E+00
H    5.8631990870380415E+00    5.1525326901150299E+00    6.9154817876346186E-01
H    3.2734846385785286E+00    7.5007263594302920E+00    1.6246325988119417E+00
H    4.8096060095243880E+00    3.6953929879149214E+00    6.8716510240656725E-01
     &END COORD
     &KIND C
       BASIS_SET DZVP-MOLOPT-SR-GTH-q4
       POTENTIAL GTH-PBE-q4
       &POTENTIAL
2 2
0.3384712400000000E+00 2 -0.8803673979999999E+01  0.1339210850000000E+01
2
0.3025757500000000E+00 1  0.9622486650000001E+01
0.2915069400000000E+00 0
       &END POTENTIAL
     &END KIND
     &KIND O
       BASIS_SET DZVP-MOLOPT-SR-GTH-q6
       POTENTIAL GTH-PBE-q6
       &POTENTIAL
2 4
0.2445543000000000E+00 2 -0.1666721480000000E+02  0.2487311320000000E+01
2
0.2209559200000000E+00 1  0.1833745811000000E+02
0.2113324700000000E+00 0
       &END POTENTIAL
     &END KIND
     &KIND H
       BASIS_SET DZVP-MOLOPT-SR-GTH-q1
       POTENTIAL GTH-PBE-q1
       &POTENTIAL
1
0.2000000000000000E+00 2 -0.4178900440000000E+01  0.7244633100000000E+00
0
       &END POTENTIAL
     &END KIND
     &KIND N
       BASIS_SET DZVP-MOLOPT-SR-GTH
       POTENTIAL GTH-PBE-q5
       &POTENTIAL
2 3
0.2837905100000000E+00 2 -0.1241522559000000E+02  0.1868095920000000E+01
2
0.2554050000000000E+00 1  0.1363026257000000E+02
0.2454945300000000E+00 0
       &END POTENTIAL
     &END KIND
     &KIND Ga
       BASIS_SET DZVP-MOLOPT-SR-GTH
       POTENTIAL GTH-PBE-q13
       &POTENTIAL
2 1 10
0.4900000000000000E+00 0
3
0.4167772300000000E+00 3  0.1047568975000000E+02 -0.4921768140000000E+01  0.8707055900000000E+00
0.7770178090000000E+01 -0.2248152160000000E+01
0.1784415450000000E+01
0.5696265200000000E+00 2  0.1777985340000000E+01  0.1958597600000000E+00
-0.2317443900000000E+00
0.2381265000000000E+00 1 -0.1624868022000000E+02
       &END POTENTIAL
     &END KIND
     &TOPOLOGY
       NUMBER_OF_ATOMS  212
       MULTIPLE_UNIT_CELL  1 1 1
     &END TOPOLOGY
     &COLVAR
       &DISTANCE
         ATOMS  127 211
       &END DISTANCE
       &PRINT
       &END PRINT
     &END COLVAR
   &END SUBSYS
 &END FORCE_EVAL
