 # Version information for this restart file 
 # current date 2019-07-13 21:36:25.048
 # current working dir /lustre04/scratch/rzk/rzk/GaN-carbene/443-adatoms-both-2x2/09-BondBreaking-CH/02-0401-CH-to-NTop-PES
 # Program compiled at                              Sun Apr  7 00:48:11 EDT 2019
 # Program compiled on                          beluga2.int.ets1.calculquebec.ca
 # Program compiled for                        Beluga-Linux-x86-64-intel-openmpi
 # Source code revision number                                         svn:18619
 &GLOBAL
   PRINT_LEVEL  MEDIUM
   PROJECT_NAME TEST
   RUN_TYPE  GEO_OPT
 &END GLOBAL
 &MOTION
   &GEO_OPT
     MAX_ITER  500
   &END GEO_OPT
 &END MOTION
 &FORCE_EVAL
   METHOD  QS
   STRESS_TENSOR  ANALYTICAL
   &DFT
     BASIS_SET_FILE_NAME BASIS_MOLOPT
     POTENTIAL_FILE_NAME GTH_POTENTIALS
     UKS  T
     SURFACE_DIPOLE_CORRECTION  T
     SURF_DIP_DIR  Z
     &SCF
       MAX_SCF  80
       EPS_SCF     5.0000000000000004E-06
       &OT  T
         PRECONDITIONER  FULL_ALL
       &END OT
       &OUTER_SCF  T
         OPTIMIZER  NONE
         EPS_SCF     5.0000000000000004E-06
         MAX_SCF  4
       &END OUTER_SCF
       &PRINT
         &RESTART  OFF
           BACKUP_COPIES  1
           &EACH
             JUST_ENERGY  0
             QS_SCF  0
             MD  20
           &END EACH
         &END RESTART
       &END PRINT
     &END SCF
     &QS
       EPS_DEFAULT     1.0000000000000000E-14
       METHOD  GPW
     &END QS
     &MGRID
       NGRIDS  5
       CUTOFF     1.2000000000000000E+03
     &END MGRID
     &XC
       DENSITY_CUTOFF     1.0000000000000000E-10
       GRADIENT_CUTOFF     1.0000000000000000E-10
       TAU_CUTOFF     1.0000000000000000E-10
       &XC_FUNCTIONAL  NO_SHORTCUT
         &PBE  T
         &END PBE
       &END XC_FUNCTIONAL
       &VDW_POTENTIAL
         POTENTIAL_TYPE  PAIR_POTENTIAL
         &PAIR_POTENTIAL
           R_CUTOFF     1.0000000000000009E+01
           TYPE  DFTD3
           PARAMETER_FILE_NAME dftd3.dat
           REFERENCE_FUNCTIONAL PBE
           EPS_CN     9.9999999999999995E-07
           CALCULATE_C9_TERM  T
           REFERENCE_C9_TERM  T
           LONG_RANGE_CORRECTION  F
           VERBOSE_OUTPUT  F
         &END PAIR_POTENTIAL
       &END VDW_POTENTIAL
     &END XC
   &END DFT
   &SUBSYS
     &CELL
       A     1.2864472766435110E+01    0.0000000000000000E+00    0.0000000000000000E+00
       B    -6.4322363581020028E+00    1.1140960178524477E+01    0.0000000000000000E+00
       C     0.0000000000000000E+00    0.0000000000000000E+00    3.2000000000000000E+01
       MULTIPLE_UNIT_CELL  1 1 1
       &CELL_REF
         A     1.2982353780853531E+01    0.0000000000000000E+00    0.0000000000000000E+00
         B    -6.4911768904267628E+00    1.1243048175136114E+01    0.0000000000000000E+00
         C     0.0000000000000000E+00    0.0000000000000000E+00    3.2000000000000000E+01
         MULTIPLE_UNIT_CELL  1 1 1
       &END CELL_REF
     &END CELL
     &COORD
 N                  0.01154979    1.98052019    2.54204395
 Ga                 0.02568139   -0.00356663    2.90884544
 N                  0.01850166   -0.00016124    5.05672741
 Ga                 0.01058498    1.81239054    5.83649723
 N                  0.01143670    1.83390902    7.82746311
 Ga                 0.01319591   -0.01974779    8.45045730
 N                  0.01380309   -0.01634904   10.42681748
 Ga                 0.01231477    1.82177088   11.07499740
 N                  0.01399174    1.80299119   13.07466659
 Ga                 0.01342499   -0.02636147   13.86359424
 N                  0.01443867   -0.02705763   16.07313671
 Ga                 0.01410781    1.97378422   16.43622913
 Ga                -0.00446984    3.66653658    1.52876769
 N                 -1.46891198    4.57440060    2.53271223
 Ga                -1.68863573    2.70411581    3.32656495
 N                 -1.59606257    2.77717102    5.28363918
 Ga                -1.62626710    4.64800112    5.82423111
 N                 -1.60179216    4.63794661    7.81562366
 Ga                -1.58786473    2.77853704    8.45400804
 N                 -1.58404092    2.77867886   10.44766926
 Ga                -1.61165170    4.63738028   11.07666833
 N                 -1.62700867    4.64726386   13.07586828
 Ga                -1.58339314    2.77604646   13.61866181
 N                 -1.59985406    2.76702685   15.59607799
 Ga                -1.47893223    4.56148756   16.43624861
 N                  0.01529165    3.69926449   17.55733708
 N                 -3.19185251    7.53116075    2.51960285
 Ga                -3.19232409    5.57918738    2.87017459
 N                 -3.19837548    5.55322431    5.03074411
 Ga                -3.20766591    7.38912726    5.79510944
 N                 -3.20039230    7.40258495    7.79558414
 Ga                -3.20591905    5.55946505    8.45147812
 N                 -3.20392567    5.55551601   10.42604670
 Ga                -3.20440085    7.39668157   11.07263415
 N                 -3.20251000    7.37799034   13.06611661
 Ga                -3.21236300    5.56161944   13.86561855
 N                 -3.21380025    5.56254417   16.07395110
 Ga                -3.20438083    7.61762099   16.49992157
 Ga                -3.23114220    9.31398957    1.27235948
 N                 -4.70836417   10.15799278    2.53224102
 Ga                -4.88752664    8.31667858    3.24175695
 N                 -4.81125186    8.34371705    5.23408754
 Ga                -4.82918701   10.21297766    5.80070587
 N                 -4.81749050   10.20401696    7.80419513
 Ga                -4.80404152    8.34602643    8.43107815
 N                 -4.79964054    8.34524493   10.42866643
 Ga                -4.82509795   10.20249781   11.07262761
 N                 -4.84082703   10.21364961   13.06612874
 Ga                -4.80073014    8.34670128   13.62663889
 N                 -4.82730268    8.33226238   15.58475526
 Ga                -4.63494108   10.09443236   16.49811951
 N                 -3.19402057    9.27494559   17.64101650
 N                  3.21631552    1.84762896    2.62356576
 Ga                 3.23009419    0.07198029    3.26686429
 N                  3.23238152   -0.00903153    5.25490983
 Ga                 3.23007470    1.83220214    5.90026789
 N                  3.23122989    1.84185310    7.87389511
 Ga                 3.22908241   -0.02961548    8.45227884
 N                  3.23097983   -0.02840647   10.44487735
 Ga                 3.23091444    1.84018928   11.03871515
 N                  3.22899120    1.84306821   13.01134957
 Ga                 3.22979804   -0.02989005   13.62923687
 N                  3.22364350    0.00827108   15.58882710
 Ga                 3.23267967    1.84288074   15.86756976
 N                  1.49864912    4.55513952    2.55351509
 Ga                 1.70234469    2.69705753    3.33328137
 N                  1.62244702    2.76808694    5.29250585
 Ga                 1.64125806    4.63154333    5.84758985
 N                  1.62831421    4.63354475    7.82715667
 Ga                 1.61266568    2.77251541    8.45922989
 N                  1.61100710    2.77716143   10.45101247
 Ga                 1.63965499    4.63789287   11.07527503
 N                  1.65708875    4.64746658   13.07552567
 Ga                 1.61137858    2.77647410   13.61899365
 N                  1.62822643    2.76733628   15.59640213
 Ga                 1.50940912    4.56301217   16.43765533
 N                  0.02453921    7.43299692    2.67152251
 Ga                 0.02470267    5.60369204    3.35445419
 N                  0.01763456    5.57918144    5.27977542
 Ga                 0.03231886    7.43748163    5.88900604
 N                  0.02022517    7.41896640    7.85594952
 Ga                 0.01236351    5.55200422    8.45485090
 N                  0.01390967    5.54505261   10.44563220
 Ga                 0.01548484    7.41467250   11.03599961
 N                  0.01573306    7.41042388   13.00881582
 Ga                 0.01515102    5.54315840   13.61953509
 N                  0.01435939    5.56407819   15.59658408
 Ga                 0.01494041    7.41575696   15.86656747
 N                 -1.69058378   10.15366526    2.52696904
 Ga                -1.59452590    8.36156636    3.30250236
 N                 -1.57713537    8.33867901    5.25021188
 Ga                -1.57206916   10.22281280    5.81345619
 N                 -1.58732676   10.20104541    7.81158942
 Ga                -1.60463917    8.34723395    8.44673144
 N                 -1.60361090    8.34510121   10.43888065
 Ga                -1.57732159   10.20572195   11.07927563
 N                 -1.56012424   10.21598309   13.07339687
 Ga                -1.60599771    8.34776976   13.62839236
 N                 -1.57755109    8.32530422   15.58817949
 Ga                -1.75705464   10.10398927   16.49960544
 N                  6.44590282    1.97304490    2.55024411
 Ga                 6.45450886   -0.02743291    2.88573052
 N                  6.43854469   -0.00234830    5.06711911
 Ga                 6.44835334    1.81328014    5.82551028
 N                  6.44613920    1.83523313    7.82059740
 Ga                 6.44679815   -0.01691349    8.45244882
 N                  6.44724121   -0.01511179   10.42790550
 Ga                 6.44661287    1.82329065   11.08287873
 N                  6.44694640    1.80452594   13.07542091
 Ga                 6.44802112   -0.01452115   13.88634529
 N                  6.44724878   -0.01284268   16.07965051
 Ga                 6.44758066    2.03161497   16.50455901
 Ga                 6.44933690    3.69755913    1.58142736
 N                  4.94286921    4.55542920    2.55681064
 Ga                 4.73518646    2.68504184    3.32078070
 N                  4.83611739    2.76766405    5.27644504
 Ga                 4.82857564    4.63441454    5.82821433
 N                  4.83150243    4.63219799    7.81566623
 Ga                 4.84873742    2.77546514    8.45844138
 N                  4.84897742    2.77728490   10.44940861
 Ga                 4.82678351    4.63820024   11.07495610
 N                  4.80980434    4.64605426   13.06789978
 Ga                 4.85113284    2.77820884   13.63174772
 N                  4.81686358    2.76596542   15.59089815
 Ga                 5.01605722    4.52860732   16.50495031
 N                  6.44793240    3.69079001   17.64804083
 N                  3.22783104    7.38107917    2.61297377
 N                  3.22797430    5.53256390    5.07867216
 Ga                 3.23303915    7.40335612    5.78310466
 N                  3.22782950    7.40495829    7.78379839
 Ga                 3.23366970    5.56287368    8.45054236
 N                  3.23193554    5.55796820   10.42469141
 Ga                 3.23437489    7.39760373   11.07392659
 N                  3.23274389    7.37830303   13.06729212
 Ga                 3.24197138    5.56183436   13.86696079
 N                  3.24306733    5.56237769   16.07603719
 Ga                 3.23354765    7.62125299   16.50630746
 Ga                 3.15195815    9.31718652    1.17638134
 N                  1.70310225   10.21646153    2.49621852
 Ga                 1.63783917    8.43753957    3.19615978
 N                  1.61985383    8.34066944    5.17989391
 Ga                 1.59247094   10.21226694    5.79734077
 N                  1.61098182   10.19767717    7.80069279
 Ga                 1.63735749    8.35023009    8.45048817
 N                  1.63524908    8.34665056   10.44049397
 Ga                 1.60896844   10.20807735   11.07717363
 N                  1.59149391   10.21599953   13.07189329
 Ga                 1.63666688    8.34816972   13.62900077
 N                  1.60666711    8.32538429   15.58863359
 Ga                 1.79129799   10.10133723   16.50490288
 N                  3.22428189    9.27527521   17.64825198
 N                  9.67505492    1.82416428    2.63214051
 Ga                 9.63493972    0.04734424    3.30773603
 N                  9.65871595   -0.00501069    5.27905663
 Ga                 9.65929909    1.84286655    5.89737651
 N                  9.65852543    1.84708577    7.87028520
 Ga                 9.66063306   -0.02762701    8.43624696
 N                  9.66177104   -0.02720824   10.43443184
 Ga                 9.66077970    1.84055973   11.03248509
 N                  9.66433488    1.84272832   13.00669946
 Ga                 9.66420690   -0.02881149   13.62904755
 N                  9.67021736    0.00807241   15.58839433
 Ga                 9.66079149    1.84181810   15.86860796
 N                  7.94377236    4.57719380    2.54865566
 Ga                 8.16821350    2.70231897    3.30688995
 N                  8.05523332    2.77451440    5.26554246
 Ga                 8.07539230    4.64869093    5.80233571
 N                  8.06194856    4.63521429    7.80226906
 Ga                 8.04157584    2.78087184    8.45335251
 N                  8.04148446    2.77850147   10.44630134
 Ga                 8.06594863    4.63737904   11.07670933
 N                  8.08365607    4.64592290   13.06884055
 Ga                 8.04329097    2.77762923   13.63116490
 N                  8.07737644    2.76596665   15.59049664
 Ga                 7.87733001    4.52803086   16.50358653
 N                  6.43343965    7.44698486    2.58986442
 Ga                 6.43330342    5.71712136    3.29342351
 N                  6.44118241    5.56761908    5.25282219
 Ga                 6.43235731    7.43835668    5.84392680
 N                  6.44173171    7.41775203    7.83127604
 Ga                 6.44829700    5.55456139    8.43742009
 N                  6.44709929    5.54597637   10.43281792
 Ga                 6.44656297    7.41390010   11.02801988
 N                  6.44657577    7.41226645   12.99908159
 Ga                 6.44645605    5.54570612   13.63059149
 N                  6.44661074    5.57654027   15.58790330
 Ga                 6.44645309    7.41298592   15.86652431
 N                  4.75501700   10.22646431    2.49396536
 Ga                 4.90841799    8.38349239    3.16930681
 N                  4.82549635    8.35443490    5.18425211
 Ga                 4.86119912   10.21299036    5.79526289
 N                  4.84762387   10.20252377    7.79876492
 Ga                 4.82921269    8.34797517    8.43211703
 N                  4.82775500    8.34581519   10.42871324
 Ga                 4.85090638   10.20405186   11.06885712
 N                  4.86847406   10.21364673   13.06356836
 Ga                 4.83027081    8.34718953   13.62737409
 N                  4.85674443    8.33274357   15.58528123
 Ga                 4.66002722   10.09239746   16.50399596
 O                  0.35571968    3.84967410   -0.46330371
 H                  0.04145174    4.78167226   -0.70153797
 C                  1.78285805    3.73400705   -0.80663039
 H                  2.40674830    4.25129364   -0.06123765
 H                  2.01918857    2.66521815   -0.80864221
 H                  1.92759380    4.15404385   -1.80847528
 Ga                 3.21515501    5.44545171    3.02464873
 O                 -0.48337416    6.31967373   -1.05941828
 H                 -0.03812236    7.39625184    1.64740456
 C                 -1.66527075    6.62498779   -0.89374429
 H                 -2.00592025    7.66800965   -1.06764086
 H                  3.19588593    7.24799400    1.50913905
 H                 -2.42105375    5.87864417   -0.57569859
     &END COORD
     &KIND C
       BASIS_SET DZVP-MOLOPT-SR-GTH-q4
       POTENTIAL GTH-PBE-q4
       &POTENTIAL
2 2
0.3384712400000000E+00 2 -0.8803673979999999E+01  0.1339210850000000E+01
2
0.3025757500000000E+00 1  0.9622486650000001E+01
0.2915069400000000E+00 0
       &END POTENTIAL
     &END KIND
     &KIND O
       BASIS_SET DZVP-MOLOPT-SR-GTH-q6
       POTENTIAL GTH-PBE-q6
       &POTENTIAL
2 4
0.2445543000000000E+00 2 -0.1666721480000000E+02  0.2487311320000000E+01
2
0.2209559200000000E+00 1  0.1833745811000000E+02
0.2113324700000000E+00 0
       &END POTENTIAL
     &END KIND
     &KIND H
       BASIS_SET DZVP-MOLOPT-SR-GTH-q1
       POTENTIAL GTH-PBE-q1
       &POTENTIAL
1
0.2000000000000000E+00 2 -0.4178900440000000E+01  0.7244633100000000E+00
0
       &END POTENTIAL
     &END KIND
     &KIND N
       BASIS_SET DZVP-MOLOPT-SR-GTH
       POTENTIAL GTH-PBE-q5
       &POTENTIAL
2 3
0.2837905100000000E+00 2 -0.1241522559000000E+02  0.1868095920000000E+01
2
0.2554050000000000E+00 1  0.1363026257000000E+02
0.2454945300000000E+00 0
       &END POTENTIAL
     &END KIND
     &KIND Ga
       BASIS_SET DZVP-MOLOPT-SR-GTH
       POTENTIAL GTH-PBE-q13
       &POTENTIAL
2 1 10
0.4900000000000000E+00 0
3
0.4167772300000000E+00 3  0.1047568975000000E+02 -0.4921768140000000E+01  0.8707055900000000E+00
0.7770178090000000E+01 -0.2248152160000000E+01
0.1784415450000000E+01
0.5696265200000000E+00 2  0.1777985340000000E+01  0.1958597600000000E+00
-0.2317443900000000E+00
0.2381265000000000E+00 1 -0.1624868022000000E+02
       &END POTENTIAL
     &END KIND
     &TOPOLOGY
       NUMBER_OF_ATOMS  212
       MULTIPLE_UNIT_CELL  1 1 1
     &END TOPOLOGY
     &COLVAR
       &DISTANCE
         ATOMS  127 211
       &END DISTANCE
       &PRINT
       &END PRINT
     &END COLVAR
   &END SUBSYS
 &END FORCE_EVAL
