 # Version information for this restart file 
 # current date 2019-07-20 11:17:15.193
 # current working dir /lustre04/scratch/rzk/rzk/GaN-carbene/443-adatoms-both-2x2/09-BondBreaking-CH/02-0401-CH-to-NTop-PES/Phase05-OptimizeAdjustedIntermed909
 # Program compiled at                              Sun Apr  7 00:48:11 EDT 2019
 # Program compiled on                          beluga2.int.ets1.calculquebec.ca
 # Program compiled for                        Beluga-Linux-x86-64-intel-openmpi
 # Source code revision number                                         svn:18619
 &GLOBAL
   PRINT_LEVEL  MEDIUM
   PROJECT_NAME TEST
   RUN_TYPE  GEO_OPT
 &END GLOBAL
 &MOTION
   &GEO_OPT
     MAX_ITER  500
     STEP_START_VAL  159
   &END GEO_OPT
 &END MOTION
 &FORCE_EVAL
   METHOD  QS
   STRESS_TENSOR  ANALYTICAL
   &DFT
     BASIS_SET_FILE_NAME BASIS_MOLOPT
     POTENTIAL_FILE_NAME GTH_POTENTIALS
     UKS  T
     SURFACE_DIPOLE_CORRECTION  T
     SURF_DIP_DIR  Z
     &SCF
       MAX_SCF  80
       EPS_SCF     5.0000000000000004E-06
       &OT  T
         PRECONDITIONER  FULL_ALL
       &END OT
       &OUTER_SCF  T
         OPTIMIZER  NONE
         EPS_SCF     5.0000000000000004E-06
         MAX_SCF  4
       &END OUTER_SCF
       &PRINT
         &RESTART  OFF
           BACKUP_COPIES  1
           &EACH
             JUST_ENERGY  0
             QS_SCF  0
             MD  20
           &END EACH
         &END RESTART
       &END PRINT
     &END SCF
     &QS
       EPS_DEFAULT     1.0000000000000000E-14
       METHOD  GPW
     &END QS
     &MGRID
       NGRIDS  5
       CUTOFF     1.2000000000000000E+03
     &END MGRID
     &XC
       DENSITY_CUTOFF     1.0000000000000000E-10
       GRADIENT_CUTOFF     1.0000000000000000E-10
       TAU_CUTOFF     1.0000000000000000E-10
       &XC_FUNCTIONAL  NO_SHORTCUT
         &PBE  T
         &END PBE
       &END XC_FUNCTIONAL
       &VDW_POTENTIAL
         POTENTIAL_TYPE  PAIR_POTENTIAL
         &PAIR_POTENTIAL
           R_CUTOFF     1.0000000000000009E+01
           TYPE  DFTD3
           PARAMETER_FILE_NAME dftd3.dat
           REFERENCE_FUNCTIONAL PBE
           EPS_CN     9.9999999999999995E-07
           CALCULATE_C9_TERM  T
           REFERENCE_C9_TERM  T
           LONG_RANGE_CORRECTION  F
           VERBOSE_OUTPUT  F
         &END PAIR_POTENTIAL
       &END VDW_POTENTIAL
     &END XC
   &END DFT
   &SUBSYS
     &CELL
       A     1.2864472766435110E+01    0.0000000000000000E+00    0.0000000000000000E+00
       B    -6.4322363581020028E+00    1.1140960178524477E+01    0.0000000000000000E+00
       C     0.0000000000000000E+00    0.0000000000000000E+00    3.2000000000000000E+01
       MULTIPLE_UNIT_CELL  1 1 1
       &CELL_REF
         A     1.2982353780853531E+01    0.0000000000000000E+00    0.0000000000000000E+00
         B    -6.4911768904267628E+00    1.1243048175136114E+01    0.0000000000000000E+00
         C     0.0000000000000000E+00    0.0000000000000000E+00    3.2000000000000000E+01
         MULTIPLE_UNIT_CELL  1 1 1
       &END CELL_REF
     &END CELL
     &COORD
N    5.2063438820376846E-02    1.9669213455436494E+00    2.5329440562449537E+00
Ga    6.6880175051968097E-02   -1.3216912276772087E-02    2.9216565592954056E+00
N    5.8651010958819277E-02   -1.7026836441630680E-02    5.0533248472996108E+00
Ga    4.6520338137472854E-02    1.7962400195867347E+00    5.8292194110210929E+00
N    4.5870434490728272E-02    1.8174027619642723E+00    7.8199273572325270E+00
Ga    4.4864609440344705E-02   -3.7583236578165015E-02    8.4395810267657350E+00
N    4.5474187998021012E-02   -3.2101150450935721E-02    1.0417628687470501E+01
Ga    4.5182034899908248E-02    1.8070033378964310E+00    1.1070026465370594E+01
N    4.6105106273389165E-02    1.7896353340732676E+00    1.3065294985465094E+01
Ga    4.5402629567154559E-02   -3.1484130423829970E-02    1.3862658826288779E+01
N    4.4833309333323648E-02   -3.1623447514316887E-02    1.6068180625572211E+01
Ga    4.6371138212883425E-02    2.0070478958787041E+00    1.6477780677587187E+01
Ga    3.3076289650075738E-02    3.6524918373206692E+00    1.5185775725828168E+00
N   -1.4461959122355956E+00    4.5434185596943957E+00    2.5470208943636261E+00
Ga   -1.6534304799321922E+00    2.6773613143835986E+00    3.3152973336288465E+00
N   -1.5645179272000016E+00    2.7509265226160320E+00    5.2746084429413749E+00
Ga   -1.5868358387677195E+00    4.6204227704485747E+00    5.8181073976190056E+00
N   -1.5689352679919095E+00    4.6188871916953520E+00    7.8065809002036657E+00
Ga   -1.5538156256274072E+00    2.7597345589883719E+00    8.4484763280314521E+00
N   -1.5518586468265054E+00    2.7629432753408913E+00    1.0439929544180474E+01
Ga   -1.5781347239916916E+00    4.6228507502377019E+00    1.1069854728977328E+01
N   -1.5936157030450651E+00    4.6314868742954571E+00    1.3064665116211343E+01
Ga   -1.5509586090511733E+00    2.7617264810726954E+00    1.3618810420915771E+01
N   -1.5780422171729880E+00    2.7460143942706878E+00    1.5583481053345299E+01
Ga   -1.4051260595319166E+00    4.5214637291921074E+00    1.6478469162933610E+01
N    3.8242739759111272E-02    3.6784182757258375E+00    1.7612414113232962E+01
N   -3.1529587387004692E+00    7.4753333032434579E+00    2.4690759153024908E+00
Ga   -3.1569793969396303E+00    5.5399135327640208E+00    2.9461422316254220E+00
N   -3.1684648291029842E+00    5.5309102418700906E+00    5.0447153182908728E+00
Ga   -3.1766153208912535E+00    7.3767567453365350E+00    5.7856437639481335E+00
N   -3.1688605370957053E+00    7.3879378489650005E+00    7.7842375291543187E+00
Ga   -3.1717479786405702E+00    5.5443753839363641E+00    8.4403842099236410E+00
N   -3.1704299815323709E+00    5.5418503676224073E+00    1.0415822642970975E+01
Ga   -3.1721816304497223E+00    7.3810037664101085E+00    1.1065588064458209E+01
N   -3.1701449590901309E+00    7.3613515598604025E+00    1.3061580096505489E+01
Ga   -3.1706678132778281E+00    5.5413715406814372E+00    1.3864526365540902E+01
N   -3.1712976643660644E+00    5.5398495417486933E+00    1.6068439439097890E+01
Ga   -3.1698181182944900E+00    7.5780908635508473E+00    1.6478867752890686E+01
Ga   -3.1894084874724977E+00    9.4495371733560898E+00    1.2559653126046408E+00
N   -4.6659023266776778E+00    1.0151615150001042E+01    2.5377106289691400E+00
Ga   -4.8426464242106295E+00    8.2855000946410158E+00    3.1929580392259203E+00
N   -4.7738239395611597E+00    8.3235506099042169E+00    5.1998819206486173E+00
Ga   -4.7985056926678453E+00    1.0186566906412706E+01    5.7924530437128103E+00
N   -4.7860874588990230E+00    1.0183932769130942E+01    7.7953368951360407E+00
Ga   -4.7741327087791756E+00    8.3286391791939582E+00    8.4223927306566022E+00
N   -4.7688101974667036E+00    8.3292502070103698E+00    1.0422069875287384E+01
Ga   -4.7941557620322568E+00    1.0187726257521051E+01    1.1065131647440653E+01
N   -4.8097545264878558E+00    1.0199763828440773E+01    1.3061917798229075E+01
Ga   -4.7671406581868396E+00    8.3320216882894851E+00    1.3618760790413218E+01
N   -4.7941156800998561E+00    8.3159959932208078E+00    1.5583011343363864E+01
Ga   -4.6209668701200002E+00    1.0091751683607919E+01    1.6478537177760181E+01
N   -3.1778803227767476E+00    9.2490633759456671E+00    1.7613033683368648E+01
N    3.2567173440882935E+00    1.8293065034143583E+00    2.6425242292257400E+00
Ga    3.2640856538279781E+00    6.7736502758598618E-02    3.3030105984533837E+00
N    3.2644802693353170E+00   -2.6538172252816367E-02    5.2716338325014318E+00
Ga    3.2603257059186141E+00    1.8215111596304627E+00    5.9003337525146256E+00
N    3.2629455271996752E+00    1.8266332665264386E+00    7.8712927371823840E+00
Ga    3.2601145744327491E+00   -4.6815452830755791E-02    8.4410957725466123E+00
N    3.2616666852201397E+00   -4.4168113833251366E-02    1.0435605037920848E+01
Ga    3.2621095425174329E+00    1.8252731652882370E+00    1.1029482575413786E+01
N    3.2624834816470560E+00    1.8264311711022243E+00    1.3002096639889920E+01
Ga    3.2627451970756600E+00   -4.4083477723524465E-02    1.3618486400780895E+01
N    3.2638940274638752E+00   -1.2220434695628439E-02    1.5581783063881185E+01
Ga    3.2626376433828268E+00    1.8267104436452111E+00    1.5859867090882924E+01
N    1.5301578626739525E+00    4.5410781396435853E+00    2.5385225262730029E+00
Ga    1.7398087768504400E+00    2.6901130168166514E+00    3.3224280729986417E+00
N    1.6550334572758192E+00    2.7550729393907516E+00    5.2844503505716807E+00
Ga    1.6754579178792630E+00    4.6191824366987513E+00    5.8343369468124484E+00
N    1.6609770873478358E+00    4.6192336649313042E+00    7.8160071647140423E+00
Ga    1.6445682064266134E+00    2.7593655822739063E+00    8.4533915104509401E+00
N    1.6431479991211313E+00    2.7629718334173461E+00    1.0442964313140992E+01
Ga    1.6698288331781617E+00    4.6241609941158321E+00    1.1068712418322544E+01
N    1.6863675423020819E+00    4.6319198738691103E+00    1.3063501845800472E+01
Ga    1.6432569680150153E+00    2.7625346607706147E+00    1.3618904396111159E+01
N    1.6708890811805992E+00    2.7478970787257992E+00    1.5582269486516001E+01
Ga    1.4910492359137251E+00    4.5175635055482548E+00    1.6479608048428322E+01
N    5.2566476849030513E-02    7.4083913103739745E+00    2.6468677452778429E+00
Ga    5.0546357107832021E-02    5.5822557201611236E+00    3.3430702946911990E+00
N    4.7950834829457292E-02    5.5600501159031142E+00    5.2684525818196315E+00
Ga    6.3338485711732048E-02    7.4210640465502795E+00    5.8634712621783454E+00
N    5.0360433831059738E-02    7.4037748555729710E+00    7.8361307453375098E+00
Ga    4.4864209931995074E-02    5.5379764301921597E+00    8.4417801011676445E+00
N    4.5161851504161486E-02    5.5311339464892431E+00    1.0433053316180800E+01
Ga    4.6294970122737721E-02    7.3990779850985815E+00    1.1026968758186232E+01
N    4.6709091536664880E-02    7.3980876604821928E+00    1.2999076390249270E+01
Ga    4.6763070317598174E-02    5.5285028306366968E+00    1.3619919077544013E+01
N    4.8024335947754758E-02    5.5589786415059983E+00    1.5582796206020259E+01
Ga    4.6318295803616023E-02    7.3978078547289066E+00    1.5861582674019088E+01
N   -1.6688470154308308E+00    1.0145687730058555E+01    2.5296727263781551E+00
Ga   -1.5735679025166529E+00    8.3310442694825628E+00    3.2626428433272672E+00
N   -1.5504339179323243E+00    8.3190223239261716E+00    5.2189938262022633E+00
Ga   -1.5385471401901529E+00    1.0197269634605910E+01    5.8081941008371238E+00
N   -1.5548931573369833E+00    1.0182302042445972E+01    7.8043478597935154E+00
Ga   -1.5717257071276838E+00    8.3295664657696022E+00    8.4356667015283762E+00
N   -1.5728199286557918E+00    8.3294762171282279E+00    1.0429463080629954E+01
Ga   -1.5465462645588641E+00    1.0189762166622115E+01    1.1066586274254119E+01
N   -1.5295152175185258E+00    1.0200323757899536E+01    1.3062232969466457E+01
Ga   -1.5729761401266358E+00    8.3326390757586264E+00    1.3618825721679233E+01
N   -1.5454556869088334E+00    8.3176272196387711E+00    1.5581772411378202E+01
Ga   -1.7254093402408086E+00    1.0087844998529651E+01    1.6479439176156571E+01
N    6.4755938479356239E+00    1.9515270861459548E+00    2.5570687760800652E+00
Ga    6.4867699749484711E+00   -4.3051262107102931E-02    2.8980476914297402E+00
N    6.4646105973056915E+00   -2.0551567311436720E-02    5.0681762612014181E+00
Ga    6.4834200207816108E+00    1.7945033762691940E+00    5.8257506405008552E+00
N    6.4809232670696701E+00    1.8186478708063858E+00    7.8181250416446222E+00
Ga    6.4811086837444094E+00   -3.6058978669575997E-02    8.4410331592805878E+00
N    6.4793678011432370E+00   -3.1760396345189075E-02    1.0418408114730910E+01
Ga    6.4790182164308963E+00    1.8079363817135539E+00    1.1069803386098476E+01
N    6.4789520253014681E+00    1.7896255846979368E+00    1.3064989419565531E+01
Ga    6.4787392665919947E+00   -3.0872978671023243E-02    1.3864086821533395E+01
N    6.4774071072306159E+00   -3.1442981788566367E-02    1.6068848669162762E+01
Ga    6.4789961903519329E+00    2.0072233472240946E+00    1.6476938574375584E+01
Ga    6.4687381078672281E+00    3.6713856405181828E+00    1.5802134814652569E+00
N    4.9773223864140643E+00    4.5359548178013265E+00    2.5688743026683176E+00
Ga    4.7715283207864854E+00    2.6736313211024409E+00    3.3330580712830691E+00
N    4.8714908911396320E+00    2.7518266271141920E+00    5.2860702126407961E+00
Ga    4.8586193578374059E+00    4.6229747075204655E+00    5.8200457141361017E+00
N    4.8631011581417294E+00    4.6185867878809397E+00    7.8079137589487679E+00
Ga    4.8815190607236367E+00    2.7613328080074342E+00    8.4506607605741841E+00
N    4.8811278625707697E+00    2.7628693927073829E+00    1.0441515067902818E+01
Ga    4.8570498393516530E+00    4.6247100264657881E+00    1.1066102255104747E+01
N    4.8392798345616432E+00    4.6319584316376119E+00    1.3062295542734670E+01
Ga    4.8824280029052431E+00    2.7626765617642031E+00    1.3618670161816523E+01
N    4.8544262365036017E+00    2.7465015158978865E+00    1.5583331814070332E+01
Ga    5.0274539177474908E+00    4.5217519072528507E+00    1.6477949391475843E+01
N    6.4713258913897640E+00    3.6789070937668633E+00    1.7611207047588643E+01
N    3.2579208638099018E+00    7.3679309797957631E+00    2.5402597164089515E+00
N    3.2607178555911447E+00    5.5177117780127505E+00    5.0601196260791408E+00
Ga    3.2670170944849244E+00    7.3883699688657201E+00    5.7600157625392381E+00
N    3.2614575298251136E+00    7.3906008770368752E+00    7.7669956385221637E+00
Ga    3.2643714048796433E+00    5.5503814943079650E+00    8.4396898500416651E+00
N    3.2626876919393539E+00    5.5440653597398208E+00    1.0415368299065012E+01
Ga    3.2640213287831221E+00    7.3819703222364659E+00    1.1066906581753225E+01
N    3.2629035287253507E+00    7.3618900500838143E+00    1.3062135877074169E+01
Ga    3.2627028712264146E+00    5.5415134996626385E+00    1.3864249721677814E+01
N    3.2612882624088266E+00    5.5399213108734475E+00    1.6068602209954093E+01
Ga    3.2628750826790993E+00    7.5786164086954173E+00    1.6478515128513529E+01
Ga    3.8032854795791970E+00    1.0575656043602384E+01    6.8953923504129799E-01
N    1.7151660099280244E+00    1.0202922590399309E+01    2.5025610778083354E+00
Ga    1.6760274159569897E+00    8.4161964466252357E+00    3.1589355223038651E+00
N    1.6521212788641599E+00    8.3174743376379023E+00    5.1536912818104881E+00
Ga    1.6246714039573709E+00    1.0186432229719378E+01    5.7783361887774758E+00
N    1.6433676679589164E+00    1.0179033061232680E+01    7.7859116777499553E+00
Ga    1.6687520875553188E+00    8.3319841100628853E+00    8.4332251674754843E+00
N    1.6660075946110744E+00    8.3299249326645590E+00    1.0427807799394300E+01
Ga    1.6409905654674786E+00    1.0190203100558975E+01    1.1065440112261468E+01
N    1.6233213053495685E+00    1.0200347858151254E+01    1.3061772674720618E+01
Ga    1.6662582313860934E+00    8.3329228457978033E+00    1.3619570174966265E+01
N    1.6384826708364513E+00    8.3162308842027244E+00    1.5583531139648903E+01
Ga    1.8118713809259794E+00    1.0091891850047531E+01    1.6478391201174002E+01
N    3.2550733994402195E+00    9.2493588291272602E+00    1.7612697070451627E+01
N    9.7135195616777761E+00    1.7848059080071978E+00    2.6167305724983194E+00
Ga    9.6555166938091652E+00    2.0006377783862738E-03    3.2965563316242075E+00
N    9.6924840706540021E+00   -2.9964890180936839E-02    5.2677024593090902E+00
Ga    9.6957555994426698E+00    1.8162418104115956E+00    5.8899952923394912E+00
N    9.6933247985113109E+00    1.8269602936971390E+00    7.8628189243630304E+00
Ga    9.6950984969310952E+00   -4.9333723476893555E-02    8.4237193551829819E+00
N    9.6941910042995350E+00   -4.4733084524421575E-02    1.0424475903013718E+01
Ga    9.6937612621261238E+00    1.8235621233509549E+00    1.1025032096425400E+01
N    9.6946725539264467E+00    1.8255650094220337E+00    1.2998714173184323E+01
Ga    9.6954341416985947E+00   -4.3747581880921274E-02    1.3618170457202732E+01
N    9.6966952358059828E+00   -1.2235450041994970E-02    1.5581302268147757E+01
Ga    9.6945443566557863E+00    1.8265882488081551E+00    1.5860171480090603E+01
N    7.9819062997523806E+00    4.5474540618845261E+00    2.5427678362190176E+00
Ga    8.2042890407026583E+00    2.6704316041184941E+00    3.2951988998015502E+00
N    8.0926926131235231E+00    2.7502339462152325E+00    5.2568486017380911E+00
Ga    8.1025467016298105E+00    4.6227341329734077E+00    5.8036669798630882E+00
N    8.0942391174249178E+00    4.6177396960310064E+00    7.7980262356910020E+00
Ga    8.0780854971274927E+00    2.7625389204186352E+00    8.4484483819335257E+00
N    8.0757208596615051E+00    2.7637673564358285E+00    1.0439430114395002E+01
Ga    8.0999692595056096E+00    4.6241772035318407E+00    1.1067053830665692E+01
N    8.1180477607243215E+00    4.6317179117511316E+00    1.3062233838432158E+01
Ga    8.0762208354345759E+00    2.7623925024628928E+00    1.3617526144521573E+01
N    8.1034592315633223E+00    2.7480605119089678E+00    1.5581087165933633E+01
Ga    7.9236513129669444E+00    4.5178737947932079E+00    1.6478313341478472E+01
N    6.4708037534796139E+00    7.4188443876047971E+00    2.5653522824680546E+00
Ga    6.4694605912656398E+00    5.6939611172617717E+00    3.2860878379211815E+00
N    6.4771081800398180E+00    5.5482331907936233E+00    5.2449860676927198E+00
Ga    6.4640089972665988E+00    7.4247770168056118E+00    5.8159437649274759E+00
N    6.4739962181213997E+00    7.4036063343087362E+00    7.8111641622698347E+00
Ga    6.4796409566883169E+00    5.5424770093096383E+00    8.4264682907593880E+00
N    6.4790900728251977E+00    5.5320212653614718E+00    1.0424048319242448E+01
Ga    6.4770198211965244E+00    7.3988915252451761E+00    1.1021303497134602E+01
N    6.4780777946099217E+00    7.3981242678801289E+00    1.2995094011778750E+01
Ga    6.4790056169615902E+00    5.5292372621545338E+00    1.3618479397434324E+01
N    6.4801964497740672E+00    5.5591623701374511E+00    1.5581585084616380E+01
Ga    6.4784662536734228E+00    7.3976541317433346E+00    1.5861919065418924E+01
N    4.8126617792083559E+00    1.0223355852882598E+01    2.4835088120357738E+00
Ga    4.9315179222897703E+00    8.3623680565657637E+00    3.1120950728920320E+00
N    4.8580162340400834E+00    8.3344165517589950E+00    5.1453711418464065E+00
Ga    4.8960185052161869E+00    1.0186806512809934E+01    5.7728568355998267E+00
N    4.8817823796854638E+00    1.0183082603449771E+01    7.7824708780394580E+00
Ga    4.8617222996134180E+00    8.3311625564156824E+00    8.4201571090833873E+00
N    4.8587536800055089E+00    8.3300435174709335E+00    1.0419840271299559E+01
Ga    4.8836720135449854E+00    1.0188686746498044E+01    1.1062100337063272E+01
N    4.9015484683446173E+00    1.0199949027202711E+01    1.3059178874442834E+01
Ga    4.8601432519840451E+00    8.3330273355471753E+00    1.3618250335166346E+01
N    4.8871379735964622E+00    8.3181623665382336E+00    1.5581117022545806E+01
Ga    4.7069987737770749E+00    1.0087931129958388E+01    1.6479171313451580E+01
O   -8.5875514229517655E-02    4.1270242217278152E+00   -4.2160522301524678E-01
H   -7.0554942441115531E-01    4.9587179287891825E+00   -4.7061614693246190E-01
C    1.1790787282659758E+00    4.4193488897927207E+00   -1.0987899168290762E+00
H    1.7006497374153082E+00    5.2473142561818547E+00   -6.0214442311802907E-01
H    1.7934341714053923E+00    3.5138627256486656E+00   -1.0452038176946949E+00
H    9.5943031588603722E-01    4.6667297434735282E+00   -2.1433760919711715E+00
Ga    3.2496242776607227E+00    5.4440360752863262E+00    3.0005948468639456E+00
O   -1.5478347000960200E+00    6.2429506424958099E+00   -5.8267832549936438E-01
H   -9.8328658400993474E-03    7.3616051064412762E+00    1.6229105295842856E+00
C   -2.7223579770133122E+00    6.2835128378473799E+00   -1.8648313836379699E-01
H   -3.3417328683312673E+00    7.1762576102059041E+00   -3.7002976739479609E-01
H    3.2639308494758086E+00    7.4354995347221093E+00    1.5145536477532702E+00
H   -3.2027387287347304E+00    5.4200100423243285E+00    3.0841987025733797E-01
     &END COORD
     &KIND C
       BASIS_SET DZVP-MOLOPT-SR-GTH-q4
       POTENTIAL GTH-PBE-q4
       &POTENTIAL
2 2
0.3384712400000000E+00 2 -0.8803673979999999E+01  0.1339210850000000E+01
2
0.3025757500000000E+00 1  0.9622486650000001E+01
0.2915069400000000E+00 0
       &END POTENTIAL
     &END KIND
     &KIND O
       BASIS_SET DZVP-MOLOPT-SR-GTH-q6
       POTENTIAL GTH-PBE-q6
       &POTENTIAL
2 4
0.2445543000000000E+00 2 -0.1666721480000000E+02  0.2487311320000000E+01
2
0.2209559200000000E+00 1  0.1833745811000000E+02
0.2113324700000000E+00 0
       &END POTENTIAL
     &END KIND
     &KIND H
       BASIS_SET DZVP-MOLOPT-SR-GTH-q1
       POTENTIAL GTH-PBE-q1
       &POTENTIAL
1
0.2000000000000000E+00 2 -0.4178900440000000E+01  0.7244633100000000E+00
0
       &END POTENTIAL
     &END KIND
     &KIND N
       BASIS_SET DZVP-MOLOPT-SR-GTH
       POTENTIAL GTH-PBE-q5
       &POTENTIAL
2 3
0.2837905100000000E+00 2 -0.1241522559000000E+02  0.1868095920000000E+01
2
0.2554050000000000E+00 1  0.1363026257000000E+02
0.2454945300000000E+00 0
       &END POTENTIAL
     &END KIND
     &KIND Ga
       BASIS_SET DZVP-MOLOPT-SR-GTH
       POTENTIAL GTH-PBE-q13
       &POTENTIAL
2 1 10
0.4900000000000000E+00 0
3
0.4167772300000000E+00 3  0.1047568975000000E+02 -0.4921768140000000E+01  0.8707055900000000E+00
0.7770178090000000E+01 -0.2248152160000000E+01
0.1784415450000000E+01
0.5696265200000000E+00 2  0.1777985340000000E+01  0.1958597600000000E+00
-0.2317443900000000E+00
0.2381265000000000E+00 1 -0.1624868022000000E+02
       &END POTENTIAL
     &END KIND
     &TOPOLOGY
       NUMBER_OF_ATOMS  212
       MULTIPLE_UNIT_CELL  1 1 1
     &END TOPOLOGY
     &COLVAR
       &DISTANCE
         ATOMS  127 211
       &END DISTANCE
       &PRINT
       &END PRINT
     &END COLVAR
   &END SUBSYS
 &END FORCE_EVAL
