 # Version information for this restart file 
 # current date 2019-07-20 11:12:39.993
 # current working dir /lustre04/scratch/rzk/rzk/GaN-carbene/443-adatoms-both-2x2/09-BondBreaking-CH/02-0401-CH-to-NTop-PES/Phase05-OptimizeAdjustedIntermed909
 # Program compiled at                              Sun Apr  7 00:48:11 EDT 2019
 # Program compiled on                          beluga2.int.ets1.calculquebec.ca
 # Program compiled for                        Beluga-Linux-x86-64-intel-openmpi
 # Source code revision number                                         svn:18619
 &GLOBAL
   PRINT_LEVEL  MEDIUM
   PROJECT_NAME TEST
   RUN_TYPE  GEO_OPT
 &END GLOBAL
 &MOTION
   &GEO_OPT
     MAX_ITER  500
     STEP_START_VAL  157
   &END GEO_OPT
 &END MOTION
 &FORCE_EVAL
   METHOD  QS
   STRESS_TENSOR  ANALYTICAL
   &DFT
     BASIS_SET_FILE_NAME BASIS_MOLOPT
     POTENTIAL_FILE_NAME GTH_POTENTIALS
     UKS  T
     SURFACE_DIPOLE_CORRECTION  T
     SURF_DIP_DIR  Z
     &SCF
       MAX_SCF  80
       EPS_SCF     5.0000000000000004E-06
       &OT  T
         PRECONDITIONER  FULL_ALL
       &END OT
       &OUTER_SCF  T
         OPTIMIZER  NONE
         EPS_SCF     5.0000000000000004E-06
         MAX_SCF  4
       &END OUTER_SCF
       &PRINT
         &RESTART  OFF
           BACKUP_COPIES  1
           &EACH
             JUST_ENERGY  0
             QS_SCF  0
             MD  20
           &END EACH
         &END RESTART
       &END PRINT
     &END SCF
     &QS
       EPS_DEFAULT     1.0000000000000000E-14
       METHOD  GPW
     &END QS
     &MGRID
       NGRIDS  5
       CUTOFF     1.2000000000000000E+03
     &END MGRID
     &XC
       DENSITY_CUTOFF     1.0000000000000000E-10
       GRADIENT_CUTOFF     1.0000000000000000E-10
       TAU_CUTOFF     1.0000000000000000E-10
       &XC_FUNCTIONAL  NO_SHORTCUT
         &PBE  T
         &END PBE
       &END XC_FUNCTIONAL
       &VDW_POTENTIAL
         POTENTIAL_TYPE  PAIR_POTENTIAL
         &PAIR_POTENTIAL
           R_CUTOFF     1.0000000000000009E+01
           TYPE  DFTD3
           PARAMETER_FILE_NAME dftd3.dat
           REFERENCE_FUNCTIONAL PBE
           EPS_CN     9.9999999999999995E-07
           CALCULATE_C9_TERM  T
           REFERENCE_C9_TERM  T
           LONG_RANGE_CORRECTION  F
           VERBOSE_OUTPUT  F
         &END PAIR_POTENTIAL
       &END VDW_POTENTIAL
     &END XC
   &END DFT
   &SUBSYS
     &CELL
       A     1.2864472766435110E+01    0.0000000000000000E+00    0.0000000000000000E+00
       B    -6.4322363581020028E+00    1.1140960178524477E+01    0.0000000000000000E+00
       C     0.0000000000000000E+00    0.0000000000000000E+00    3.2000000000000000E+01
       MULTIPLE_UNIT_CELL  1 1 1
       &CELL_REF
         A     1.2982353780853531E+01    0.0000000000000000E+00    0.0000000000000000E+00
         B    -6.4911768904267628E+00    1.1243048175136114E+01    0.0000000000000000E+00
         C     0.0000000000000000E+00    0.0000000000000000E+00    3.2000000000000000E+01
         MULTIPLE_UNIT_CELL  1 1 1
       &END CELL_REF
     &END CELL
     &COORD
N    5.2414820721121295E-02    1.9670590990065748E+00    2.5334681010444418E+00
Ga    6.6390250579337173E-02   -1.1863337879820154E-02    2.9218623291444676E+00
N    5.7618129383316445E-02   -1.6051632626957121E-02    5.0535831435297354E+00
Ga    4.6613432179967440E-02    1.7971323756100503E+00    5.8311596418789247E+00
N    4.6161215797619282E-02    1.8178467647966357E+00    7.8205934285389489E+00
Ga    4.4323557219517327E-02   -3.6655471296760674E-02    8.4394875476136324E+00
N    4.5515571487255310E-02   -3.1902270743268950E-02    1.0416657360736211E+01
Ga    4.5229386899800529E-02    1.8065067918851321E+00    1.1069203939717037E+01
N    4.5862473990769412E-02    1.7902361318137880E+00    1.3064176222552847E+01
Ga    4.5490456379781254E-02   -3.1543634095438415E-02    1.3859267103281640E+01
N    4.5371424333656978E-02   -3.2677064380378894E-02    1.6065656428483837E+01
Ga    4.6800095815771409E-02    2.0045903895613661E+00    1.6477580153577577E+01
Ga    3.3661551653739977E-02    3.6527541830938310E+00    1.5200221221761896E+00
N   -1.4460360003787172E+00    4.5431521499951870E+00    2.5478044849774908E+00
Ga   -1.6531120146117717E+00    2.6766486892802641E+00    3.3155338867149822E+00
N   -1.5645424866686171E+00    2.7508871768026451E+00    5.2746637222752577E+00
Ga   -1.5855970912929862E+00    4.6205081383150199E+00    5.8191147515350021E+00
N   -1.5683763398146835E+00    4.6192852724267759E+00    7.8068184547927668E+00
Ga   -1.5529036606308646E+00    2.7603838617754501E+00    8.4481593130639414E+00
N   -1.5513935262533327E+00    2.7635020335057496E+00    1.0439338295879008E+01
Ga   -1.5779569873385690E+00    4.6235618510739780E+00    1.1069212253698547E+01
N   -1.5937662578555027E+00    4.6313675535153491E+00    1.3063674609341501E+01
Ga   -1.5508589110646192E+00    2.7620314267674919E+00    1.3617952033912799E+01
N   -1.5773888522039459E+00    2.7463456025800053E+00    1.5583874431410417E+01
Ga   -1.4065884888344458E+00    4.5228759059501495E+00    1.6478527160380310E+01
N    3.6201894523387450E-02    3.6761099475753913E+00    1.7613705060276157E+01
N   -3.1528531228765555E+00    7.4758075390769196E+00    2.4674660335099907E+00
Ga   -3.1562200215423331E+00    5.5398823267715702E+00    2.9464927779066370E+00
N   -3.1682663393465833E+00    5.5299811516101496E+00    5.0454101991994404E+00
Ga   -3.1760291166885026E+00    7.3765107306204163E+00    5.7859005213551278E+00
N   -3.1687988257444597E+00    7.3884718388254003E+00    7.7841009601560991E+00
Ga   -3.1706063478074582E+00    5.5450586839014919E+00    8.4404894650453368E+00
N   -3.1699710396169043E+00    5.5425268341267113E+00    1.0415272147426091E+01
Ga   -3.1723590188691051E+00    7.3817824806933903E+00    1.1064876278133116E+01
N   -3.1700195562556628E+00    7.3610486728491509E+00    1.3060570506355562E+01
Ga   -3.1706076839226571E+00    5.5415795360100590E+00    1.3862980546710514E+01
N   -3.1719243624759734E+00    5.5397142418640462E+00    1.6066274674439768E+01
Ga   -3.1696069388611621E+00    7.5770723681505627E+00    1.6479187597080166E+01
Ga   -3.1895692444268091E+00    9.4502796800189373E+00    1.2566686211841722E+00
N   -4.6660454204100379E+00    1.0151705360226803E+01    2.5365949032523201E+00
Ga   -4.8435433362557800E+00    8.2842841560938147E+00    3.1926662245448405E+00
N   -4.7743926069486218E+00    8.3230868943135352E+00    5.2003142445790393E+00
Ga   -4.7995344472383552E+00    1.0186966807425057E+01    5.7941435134771506E+00
N   -4.7866251417531016E+00    1.0184643864380710E+01    7.7961773360492508E+00
Ga   -4.7742396796051798E+00    8.3290021610473968E+00    8.4224249677131535E+00
N   -4.7689322778277967E+00    8.3297570086237531E+00    1.0421147307580245E+01
Ga   -4.7945237142054120E+00    1.0187841212064546E+01    1.1064361159569886E+01
N   -4.8095787037742559E+00    1.0199812680962784E+01    1.3060754877696233E+01
Ga   -4.7668179222778200E+00    8.3320568433288695E+00    1.3617614144263253E+01
N   -4.7938221773567484E+00    8.3163198661881008E+00    1.5582319813656708E+01
Ga   -4.6197184082414431E+00    1.0091268896161223E+01    1.6479272460266319E+01
N   -3.1783331110668325E+00    9.2467975726470897E+00    1.7614958651126198E+01
N    3.2569032334639441E+00    1.8298894799661101E+00    2.6428262208105471E+00
Ga    3.2639526655215270E+00    6.8880508949271738E-02    3.3030055159459675E+00
N    3.2642577560396773E+00   -2.6125065580406844E-02    5.2719651761415580E+00
Ga    3.2598882771478288E+00    1.8229721015334068E+00    5.9004448945893504E+00
N    3.2618949220139726E+00    1.8269347086159071E+00    7.8708526480412457E+00
Ga    3.2598125594792191E+00   -4.6357899949150579E-02    8.4408922640009436E+00
N    3.2610953322711187E+00   -4.4221981356124422E-02    1.0434354500265274E+01
Ga    3.2610849065310186E+00    1.8246003237158746E+00    1.1028956890194975E+01
N    3.2620687085440347E+00    1.8266419256182655E+00    1.3001407615491361E+01
Ga    3.2627754758145064E+00   -4.4313285051622298E-02    1.3617126635064457E+01
N    3.2637575733887365E+00   -1.3096041238310069E-02    1.5579964864362562E+01
Ga    3.2626923899750189E+00    1.8254951094985310E+00    1.5859638671387579E+01
N    1.5311702273060712E+00    4.5420133431259595E+00    2.5392395366417233E+00
Ga    1.7404406797382208E+00    2.6908717792573364E+00    3.3228192324926979E+00
N    1.6544100418168164E+00    2.7562119984972733E+00    5.2847610346292155E+00
Ga    1.6764626659315758E+00    4.6203757980450719E+00    5.8352808478243645E+00
N    1.6606961091769394E+00    4.6194106046373706E+00    7.8158694187482052E+00
Ga    1.6439941189572711E+00    2.7604325974832382E+00    8.4526472559157710E+00
N    1.6426717604610233E+00    2.7632865120506724E+00    1.0441717753383893E+01
Ga    1.6691190188030223E+00    4.6244929474536098E+00    1.1067043340349830E+01
N    1.6858331307553882E+00    4.6317939938144583E+00    1.3062043227450053E+01
Ga    1.6429045108777662E+00    2.7623143197936511E+00    1.3617676873662106E+01
N    1.6704580696797569E+00    2.7485523167428845E+00    1.5581757246371895E+01
Ga    1.4909402919015013E+00    4.5176091523732245E+00    1.6480292478292821E+01
N    5.3218352072201415E-02    7.4087176679218150E+00    2.6462666656606779E+00
Ga    5.1169750965710172E-02    5.5837044917867562E+00    3.3428055498318194E+00
N    4.8539660173598863E-02    5.5600746975982744E+00    5.2681270241433129E+00
Ga    6.4423194609965678E-02    7.4203811648677522E+00    5.8640288746926537E+00
N    5.0380507032820709E-02    7.4036621340749509E+00    7.8357256162002624E+00
Ga    4.5276121344883763E-02    5.5384531146255993E+00    8.4407685441413456E+00
N    4.4974162643693034E-02    5.5315216393984477E+00    1.0431464739981312E+01
Ga    4.5779555123433437E-02    7.3991585097592418E+00    1.1026121341779898E+01
N    4.6403794426677004E-02    7.3977470990929861E+00    1.2998309800031185E+01
Ga    4.6110149744745574E-02    5.5283796632955271E+00    1.3618211573868491E+01
N    4.8305739674327927E-02    5.5579095801498015E+00    1.5581557126607313E+01
Ga    4.5379192126679818E-02    7.3977951125832178E+00    1.5861237412845229E+01
N   -1.6694038877915662E+00    1.0145498765104026E+01    2.5283475897324661E+00
Ga   -1.5719247208540259E+00    8.3295629402692164E+00    3.2621946030173903E+00
N   -1.5494297113540982E+00    8.3185253942757083E+00    5.2187423760583700E+00
Ga   -1.5381814402219314E+00    1.0197019985796267E+01    5.8088496454413363E+00
N   -1.5553380328432722E+00    1.0182367867790719E+01    7.8045312410665577E+00
Ga   -1.5710247415950980E+00    8.3291932831114597E+00    8.4353954903922581E+00
N   -1.5728001105441605E+00    8.3293575056583915E+00    1.0428229934603474E+01
Ga   -1.5475398894849377E+00    1.0189276796040113E+01    1.1065562665496579E+01
N   -1.5291708002420004E+00    1.0200399835293961E+01    1.3061147704626059E+01
Ga   -1.5733902672613658E+00    8.3326479716449224E+00    1.3617767239523239E+01
N   -1.5460153517439053E+00    8.3177950840624497E+00    1.5580533685466248E+01
Ga   -1.7263087165518294E+00    1.0087182679970326E+01    1.6479480849851171E+01
N    6.4747417907362648E+00    1.9513467009907546E+00    2.5579651990879930E+00
Ga    6.4875896069669219E+00   -4.3306500710882809E-02    2.8980971649957556E+00
N    6.4651336714391645E+00   -2.0272548216805669E-02    5.0683364075442476E+00
Ga    6.4828901702624782E+00    1.7950762528077675E+00    5.8257520617734091E+00
N    6.4804352333045578E+00    1.8187503353605312E+00    7.8179978651397963E+00
Ga    6.4810991324442435E+00   -3.6662232375213079E-02    8.4408972750653763E+00
N    6.4790789918543217E+00   -3.2151520921636860E-02    1.0417798233545192E+01
Ga    6.4789275012279575E+00    1.8077152338649149E+00    1.1069533606223368E+01
N    6.4791019093415159E+00    1.7892753751325827E+00    1.3064210137794667E+01
Ga    6.4787212004175831E+00   -3.1112821702651641E-02    1.3864236673958196E+01
N    6.4762339368150794E+00   -3.2402033417593915E-02    1.6068099459630648E+01
Ga    6.4796920650042926E+00    2.0060342491401522E+00    1.6475249118069069E+01
Ga    6.4656635557567972E+00    3.6719469555102853E+00    1.5804915424581065E+00
N    4.9765787913720292E+00    4.5364299922897464E+00    2.5694997955576921E+00
Ga    4.7706927166879058E+00    2.6759248877888351E+00    3.3326055997473212E+00
N    4.8714462190194681E+00    2.7527819470618797E+00    5.2858461104719234E+00
Ga    4.8573657548604343E+00    4.6242241607696233E+00    5.8189901995661808E+00
N    4.8621943320257373E+00    4.6193227546801747E+00    7.8065789214269872E+00
Ga    4.8803254838161214E+00    2.7620684172434360E+00    8.4496139310242011E+00
N    4.8804378756268241E+00    2.7631369369506293E+00    1.0440579910097510E+01
Ga    4.8568329161089530E+00    4.6257069435602123E+00    1.1065106787511469E+01
N    4.8390944826062432E+00    4.6317959313502453E+00    1.3061010435620284E+01
Ga    4.8826840225607651E+00    2.7623466169022586E+00    1.3617884488175616E+01
N    4.8535248117895193E+00    2.7464574861633664E+00    1.5582722536688330E+01
Ga    5.0294763496316994E+00    4.5216703323424028E+00    1.6477632070697585E+01
N    6.4711976465959253E+00    3.6757079525635596E+00    1.7608501758477477E+01
N    3.2579650539626668E+00    7.3675162544301509E+00    2.5405402659439007E+00
N    3.2603648803714527E+00    5.5186039034732053E+00    5.0603071876085108E+00
Ga    3.2669977354884980E+00    7.3879490640961247E+00    5.7606648078891531E+00
N    3.2613710003604539E+00    7.3908317293375516E+00    7.7665418136118589E+00
Ga    3.2632046879211720E+00    5.5511619050577217E+00    8.4379314365531712E+00
N    3.2620977056037566E+00    5.5445894342572943E+00    1.0413631810472200E+01
Ga    3.2642010774101866E+00    7.3828813193587477E+00    1.1065369148889205E+01
N    3.2625488643398914E+00    7.3621479649945121E+00    1.3060449644007130E+01
Ga    3.2625279937637650E+00    5.5417280572391778E+00    1.3862354926290561E+01
N    3.2609384309780030E+00    5.5388086397523644E+00    1.6066538121056603E+01
Ga    3.2635941782298348E+00    7.5773801319100746E+00    1.6478518320467561E+01
Ga    3.8056454335891767E+00    1.0571305535443578E+01    6.9056606324264280E-01
N    1.7149350368260265E+00    1.0202316948644686E+01    2.5030986679748080E+00
Ga    1.6754346045397794E+00    8.4155906439765431E+00    3.1593823473508307E+00
N    1.6522829669751813E+00    8.3169267194040870E+00    5.1540467472164222E+00
Ga    1.6255276560252911E+00    1.0185551775947774E+01    5.7788084919006391E+00
N    1.6435219831801609E+00    1.0178948451129681E+01    7.7857973468051132E+00
Ga    1.6686294441536960E+00    8.3313976388705999E+00    8.4321131720677194E+00
N    1.6655836105953328E+00    8.3297904425557157E+00    1.0426342103554409E+01
Ga    1.6414780382981187E+00    1.0190043847692280E+01    1.1064637854822061E+01
N    1.6229821842270908E+00    1.0200717447889625E+01    1.3060532377998095E+01
Ga    1.6659708534460169E+00    8.3335007156477801E+00    1.3618105846345024E+01
N    1.6386335064447783E+00    8.3160184246892275E+00    1.5583244391511274E+01
Ga    1.8111259929215917E+00    1.0092865486840267E+01    1.6477694161810224E+01
N    3.2529866411832158E+00    9.2479512751359447E+00    1.7612701408042156E+01
N    9.7134592923935994E+00    1.7844224960387047E+00    2.6175452844726737E+00
Ga    9.6550957326099702E+00    1.5213564670440599E-03    3.2970328040175056E+00
N    9.6927501066245849E+00   -2.9795083708247225E-02    5.2678768740444450E+00
Ga    9.6961510024356876E+00    1.8158920253134339E+00    5.8906611421141726E+00
N    9.6941223891875694E+00    1.8270056534749466E+00    7.8629078979977107E+00
Ga    9.6954648366483873E+00   -4.9652829786862862E-02    8.4232070280811016E+00
N    9.6946721903679993E+00   -4.4922094103078951E-02    1.0423429281361569E+01
Ga    9.6944187696686761E+00    1.8231086751392862E+00    1.1024892055185484E+01
N    9.6950470034000826E+00    1.8260085708964688E+00    1.2998151796379474E+01
Ga    9.6952973249065533E+00   -4.3804305582978015E-02    1.3616468418752902E+01
N    9.6976526421879665E+00   -1.2757058212710407E-02    1.5579864021210589E+01
Ga    9.6939694468502484E+00    1.8260820290421509E+00    1.5860743603448308E+01
N    7.9814979722017840E+00    4.5476930450258681E+00    2.5436536156077247E+00
Ga    8.2040741068972487E+00    2.6698305990917657E+00    3.2953214628346150E+00
N    8.0928905519531451E+00    2.7501937124090685E+00    5.2567264053722189E+00
Ga    8.1013718756677306E+00    4.6231614998965709E+00    5.8039833957820708E+00
N    8.0945627898186636E+00    4.6186736288237675E+00    7.7981325692541192E+00
Ga    8.0785185530601780E+00    2.7627697449642956E+00    8.4480107355347389E+00
N    8.0760266979378947E+00    2.7643157920291621E+00    1.0439112079587765E+01
Ga    8.1003579000213808E+00    4.6254367733846697E+00    1.1067023777353489E+01
N    8.1185085705445967E+00    4.6316271288608402E+00    1.3061391308400349E+01
Ga    8.0760952712575680E+00    2.7625439141795742E+00    1.3616757746569244E+01
N    8.1045486062685796E+00    2.7483699900969318E+00    1.5579789363844883E+01
Ga    7.9219444743886518E+00    4.5172843759771100E+00    1.6477563902327660E+01
N    6.4700608357868443E+00    7.4180611790319997E+00    2.5650001571138539E+00
Ga    6.4668040251585666E+00    5.6935511867439734E+00    3.2859259242988146E+00
N    6.4764190878061232E+00    5.5482386947629516E+00    5.2446561540446108E+00
Ga    6.4620526756113996E+00    7.4243245988879023E+00    5.8164107138348582E+00
N    6.4735650069124615E+00    7.4044008184017427E+00    7.8109689200990591E+00
Ga    6.4788741556454799E+00    5.5431873956838693E+00    8.4255120476262473E+00
N    6.4790861519392946E+00    5.5327128291846179E+00    1.0422978714405218E+01
Ga    6.4769485808947111E+00    7.3999123610540334E+00    1.1020695436552389E+01
N    6.4782086061544959E+00    7.3982395347554046E+00    1.2993863960940365E+01
Ga    6.4793964474209496E+00    5.5292059113000311E+00    1.3616702552286501E+01
N    6.4804818486779920E+00    5.5597299037347945E+00    1.5579065210613850E+01
Ga    6.4788305312779615E+00    7.3972921259673345E+00    1.5862361386546716E+01
N    4.8134633034287333E+00    1.0222908506464758E+01    2.4846371985797213E+00
Ga    4.9315456492360878E+00    8.3612522958732836E+00    3.1133651347949067E+00
N    4.8571878759419738E+00    8.3344903048353984E+00    5.1459023705302247E+00
Ga    4.8953821875945760E+00    1.0186058235148069E+01    5.7746687339195093E+00
N    4.8820885267850924E+00    1.0183501517776000E+01    7.7830532156558565E+00
Ga    4.8607777602959477E+00    8.3316356831591243E+00    8.4190021179434034E+00
N    4.8587030020982684E+00    8.3306543810263793E+00    1.0418254082747991E+01
Ga    4.8842615455180747E+00    1.0188859724095300E+01    1.1061375860978428E+01
N    4.9012804775088874E+00    1.0200245795357644E+01    1.3057791092064845E+01
Ga    4.8602126299609969E+00    8.3334213511607640E+00    1.3616260007394892E+01
N    4.8874421379546344E+00    8.3186313023403642E+00    1.5579661471556955E+01
Ga    4.7059924242091657E+00    1.0086952982161492E+01    1.6479644518527774E+01
O   -8.6464526071455258E-02    4.1277702274573072E+00   -4.1918012001141658E-01
H   -7.0049777205054475E-01    4.9611526266587456E+00   -4.6946077033034983E-01
C    1.1788324671557742E+00    4.4203668219676624E+00   -1.0970962823477812E+00
H    1.7030085566197837E+00    5.2477609708210009E+00   -6.0134787223300457E-01
H    1.7923453345450628E+00    3.5135055140285183E+00   -1.0443745858455229E+00
H    9.5944177471076775E-01    4.6671927449334927E+00   -2.1421622225840844E+00
Ga    3.2511539184905507E+00    5.4435242087571387E+00    3.0020612564474831E+00
O   -1.5439418262998339E+00    6.2471266092225930E+00   -5.7528587710575474E-01
H   -8.9967522633911893E-03    7.3612523465982242E+00    1.6227874693145556E+00
C   -2.7200710949366971E+00    6.2871479586593733E+00   -1.7699795261085097E-01
H   -3.3383290293849672E+00    7.1793872294046484E+00   -3.6164597293272771E-01
H    3.2635916400795222E+00    7.4350557541835718E+00    1.5149071543848895E+00
H   -3.1998993588393656E+00    5.4174284899747596E+00    3.1169985569365399E-01
     &END COORD
     &KIND C
       BASIS_SET DZVP-MOLOPT-SR-GTH-q4
       POTENTIAL GTH-PBE-q4
       &POTENTIAL
2 2
0.3384712400000000E+00 2 -0.8803673979999999E+01  0.1339210850000000E+01
2
0.3025757500000000E+00 1  0.9622486650000001E+01
0.2915069400000000E+00 0
       &END POTENTIAL
     &END KIND
     &KIND O
       BASIS_SET DZVP-MOLOPT-SR-GTH-q6
       POTENTIAL GTH-PBE-q6
       &POTENTIAL
2 4
0.2445543000000000E+00 2 -0.1666721480000000E+02  0.2487311320000000E+01
2
0.2209559200000000E+00 1  0.1833745811000000E+02
0.2113324700000000E+00 0
       &END POTENTIAL
     &END KIND
     &KIND H
       BASIS_SET DZVP-MOLOPT-SR-GTH-q1
       POTENTIAL GTH-PBE-q1
       &POTENTIAL
1
0.2000000000000000E+00 2 -0.4178900440000000E+01  0.7244633100000000E+00
0
       &END POTENTIAL
     &END KIND
     &KIND N
       BASIS_SET DZVP-MOLOPT-SR-GTH
       POTENTIAL GTH-PBE-q5
       &POTENTIAL
2 3
0.2837905100000000E+00 2 -0.1241522559000000E+02  0.1868095920000000E+01
2
0.2554050000000000E+00 1  0.1363026257000000E+02
0.2454945300000000E+00 0
       &END POTENTIAL
     &END KIND
     &KIND Ga
       BASIS_SET DZVP-MOLOPT-SR-GTH
       POTENTIAL GTH-PBE-q13
       &POTENTIAL
2 1 10
0.4900000000000000E+00 0
3
0.4167772300000000E+00 3  0.1047568975000000E+02 -0.4921768140000000E+01  0.8707055900000000E+00
0.7770178090000000E+01 -0.2248152160000000E+01
0.1784415450000000E+01
0.5696265200000000E+00 2  0.1777985340000000E+01  0.1958597600000000E+00
-0.2317443900000000E+00
0.2381265000000000E+00 1 -0.1624868022000000E+02
       &END POTENTIAL
     &END KIND
     &TOPOLOGY
       NUMBER_OF_ATOMS  212
       MULTIPLE_UNIT_CELL  1 1 1
     &END TOPOLOGY
     &COLVAR
       &DISTANCE
         ATOMS  127 211
       &END DISTANCE
       &PRINT
       &END PRINT
     &END COLVAR
   &END SUBSYS
 &END FORCE_EVAL
