 # Version information for this restart file 
 # current date 2019-07-20 08:09:41.181
 # current working dir /lustre04/scratch/rzk/rzk/GaN-carbene/443-adatoms-both-2x2/09-BondBreaking-CH/02-0401-CH-to-NTop-PES/Phase05-OptimizeAdjustedIntermed909
 # Program compiled at                              Sun Apr  7 00:48:11 EDT 2019
 # Program compiled on                          beluga2.int.ets1.calculquebec.ca
 # Program compiled for                        Beluga-Linux-x86-64-intel-openmpi
 # Source code revision number                                         svn:18619
 &GLOBAL
   PRINT_LEVEL  MEDIUM
   PROJECT_NAME TEST
   RUN_TYPE  GEO_OPT
 &END GLOBAL
 &MOTION
   &GEO_OPT
     MAX_ITER  500
     STEP_START_VAL  123
   &END GEO_OPT
 &END MOTION
 &FORCE_EVAL
   METHOD  QS
   STRESS_TENSOR  ANALYTICAL
   &DFT
     BASIS_SET_FILE_NAME BASIS_MOLOPT
     POTENTIAL_FILE_NAME GTH_POTENTIALS
     UKS  T
     SURFACE_DIPOLE_CORRECTION  T
     SURF_DIP_DIR  Z
     &SCF
       MAX_SCF  80
       EPS_SCF     5.0000000000000004E-06
       &OT  T
         PRECONDITIONER  FULL_ALL
       &END OT
       &OUTER_SCF  T
         OPTIMIZER  NONE
         EPS_SCF     5.0000000000000004E-06
         MAX_SCF  4
       &END OUTER_SCF
       &PRINT
         &RESTART  OFF
           BACKUP_COPIES  1
           &EACH
             JUST_ENERGY  0
             QS_SCF  0
             MD  20
           &END EACH
         &END RESTART
       &END PRINT
     &END SCF
     &QS
       EPS_DEFAULT     1.0000000000000000E-14
       METHOD  GPW
     &END QS
     &MGRID
       NGRIDS  5
       CUTOFF     1.2000000000000000E+03
     &END MGRID
     &XC
       DENSITY_CUTOFF     1.0000000000000000E-10
       GRADIENT_CUTOFF     1.0000000000000000E-10
       TAU_CUTOFF     1.0000000000000000E-10
       &XC_FUNCTIONAL  NO_SHORTCUT
         &PBE  T
         &END PBE
       &END XC_FUNCTIONAL
       &VDW_POTENTIAL
         POTENTIAL_TYPE  PAIR_POTENTIAL
         &PAIR_POTENTIAL
           R_CUTOFF     1.0000000000000009E+01
           TYPE  DFTD3
           PARAMETER_FILE_NAME dftd3.dat
           REFERENCE_FUNCTIONAL PBE
           EPS_CN     9.9999999999999995E-07
           CALCULATE_C9_TERM  T
           REFERENCE_C9_TERM  T
           LONG_RANGE_CORRECTION  F
           VERBOSE_OUTPUT  F
         &END PAIR_POTENTIAL
       &END VDW_POTENTIAL
     &END XC
   &END DFT
   &SUBSYS
     &CELL
       A     1.2864472766435110E+01    0.0000000000000000E+00    0.0000000000000000E+00
       B    -6.4322363581020028E+00    1.1140960178524477E+01    0.0000000000000000E+00
       C     0.0000000000000000E+00    0.0000000000000000E+00    3.2000000000000000E+01
       MULTIPLE_UNIT_CELL  1 1 1
       &CELL_REF
         A     1.2982353780853531E+01    0.0000000000000000E+00    0.0000000000000000E+00
         B    -6.4911768904267628E+00    1.1243048175136114E+01    0.0000000000000000E+00
         C     0.0000000000000000E+00    0.0000000000000000E+00    3.2000000000000000E+01
         MULTIPLE_UNIT_CELL  1 1 1
       &END CELL_REF
     &END CELL
     &COORD
N    5.3024948196191413E-02    1.9685646569072777E+00    2.5328981136473545E+00
Ga    6.6769745772759292E-02   -1.1101991168711372E-02    2.9217111885337697E+00
N    5.9925867122534969E-02   -1.5168475815297615E-02    5.0531230751123024E+00
Ga    4.7314306355130523E-02    1.7979903208529167E+00    5.8288627722016617E+00
N    4.6947379309478288E-02    1.8189993392615602E+00    7.8197078721260107E+00
Ga    4.5711874322647665E-02   -3.5861186355726479E-02    8.4399270209690069E+00
N    4.6240425811655550E-02   -3.1642937357096140E-02    1.0417741338264504E+01
Ga    4.6186259580107275E-02    1.8072579431955393E+00    1.1070141286167416E+01
N    4.6758754858639583E-02    1.7881069183742124E+00    1.3064883074161724E+01
Ga    4.5905129602365313E-02   -3.2702791177378857E-02    1.3864440995396164E+01
N    4.5286946732197242E-02   -3.4634083252359629E-02    1.6068427648656300E+01
Ga    4.6025753821224896E-02    2.0057400688869280E+00    1.6480576277239845E+01
Ga    3.3851466255749967E-02    3.6533116085445183E+00    1.5181626285668761E+00
N   -1.4449167874254127E+00    4.5460575668741567E+00    2.5453795131657486E+00
Ga   -1.6526640569699298E+00    2.6794326259286207E+00    3.3146592301861548E+00
N   -1.5633751157223161E+00    2.7529734146354174E+00    5.2740504852512249E+00
Ga   -1.5857183106735115E+00    4.6226182935816524E+00    5.8177923669740093E+00
N   -1.5676692896727589E+00    4.6206188280136606E+00    7.8064855657583188E+00
Ga   -1.5527302397590470E+00    2.7613283511544582E+00    8.4485085738968895E+00
N   -1.5509438269791074E+00    2.7631786041708111E+00    1.0439843581061062E+01
Ga   -1.5772362734688683E+00    4.6230414014058185E+00    1.1069582892131837E+01
N   -1.5931235590906851E+00    4.6300248147310592E+00    1.3064041551165117E+01
Ga   -1.5503087407631395E+00    2.7600555204052815E+00    1.3618933389479027E+01
N   -1.5787962200403372E+00    2.7419196818312277E+00    1.5582206329782464E+01
Ga   -1.4018317757425296E+00    4.5149054241626869E+00    1.6480982082277368E+01
N    3.9558207835970964E-02    3.6745763191727150E+00    1.7614757757899678E+01
N   -3.1517276430610717E+00    7.4785466255308615E+00    2.4706366107048394E+00
Ga   -3.1555843615473980E+00    5.5412712401630051E+00    2.9450143607173787E+00
N   -3.1667475844503219E+00    5.5337400519642506E+00    5.0434752006604953E+00
Ga   -3.1754985196890422E+00    7.3785496650025744E+00    5.7868753110645343E+00
N   -3.1678108258307835E+00    7.3896807137013978E+00    7.7851480200689336E+00
Ga   -3.1706906671670949E+00    5.5456537366126133E+00    8.4406901852351215E+00
N   -3.1697244239653570E+00    5.5423258374494884E+00    1.0416014059145141E+01
Ga   -3.1715371005942012E+00    7.3813278558366857E+00    1.1065718384566880E+01
N   -3.1697066878186284E+00    7.3599664548965205E+00    1.3061342425900087E+01
Ga   -3.1697101546570310E+00    5.5398087746641824E+00    1.3864803429499405E+01
N   -3.1703016565341322E+00    5.5364602394687923E+00    1.6069384360735754E+01
Ga   -3.1697444798974570E+00    7.5747573078034245E+00    1.6478863863543143E+01
Ga   -3.1887518599048197E+00    9.4418969113267224E+00    1.2624448750436092E+00
N   -4.6652279322719661E+00    1.0152675351193913E+01    2.5374199892248610E+00
Ga   -4.8429778275504578E+00    8.2869972826229255E+00    3.1953806050418545E+00
N   -4.7726160192060476E+00    8.3258770864713050E+00    5.2010601455922876E+00
Ga   -4.7976807094781311E+00    1.0188886034036738E+01    5.7931597055441770E+00
N   -4.7850367438774875E+00    1.0185650609572797E+01    7.7959422677866677E+00
Ga   -4.7732133690192651E+00    8.3302489758023892E+00    8.4228696530088314E+00
N   -4.7681929488531978E+00    8.3298449904571097E+00    1.0422536198077834E+01
Ga   -4.7936818850804039E+00    1.0188220241319483E+01    1.1065658449262671E+01
N   -4.8095669941983514E+00    1.0198280755041690E+01    1.3062137145568723E+01
Ga   -4.7666109233814495E+00    8.3304407793103366E+00    1.3619263741800317E+01
N   -4.7938403434696886E+00    8.3116731283068628E+00    1.5583244630174383E+01
Ga   -4.6217015813745910E+00    1.0087914262449786E+01    1.6478450126680098E+01
N   -3.1779884277957016E+00    9.2458118142220993E+00    1.7610655040879138E+01
N    3.2577390319595594E+00    1.8316606924322623E+00    2.6414868290031945E+00
Ga    3.2650104225007102E+00    6.9876170736602114E-02    3.3010460879828778E+00
N    3.2654666422696628E+00   -2.4708865386258168E-02    5.2701716729178676E+00
Ga    3.2611808850740016E+00    1.8231666566406497E+00    5.9006698983224126E+00
N    3.2638819852039451E+00    1.8282998302324891E+00    7.8716483205368686E+00
Ga    3.2610307400705754E+00   -4.5106226681634200E-02    8.4418808549879607E+00
N    3.2622800930851157E+00   -4.3694768120510978E-02    1.0436088031475427E+01
Ga    3.2628356477588629E+00    1.8257417371700047E+00    1.1029416093648685E+01
N    3.2632257758556831E+00    1.8248882205133530E+00    1.3002086098143776E+01
Ga    3.2631078617431353E+00   -4.6099135217104910E-02    1.3619223112764782E+01
N    3.2644136341635179E+00   -1.5862277809694722E-02    1.5582957220091950E+01
Ga    3.2626900860980967E+00    1.8232230698804002E+00    1.5860001994543854E+01
N    1.5307335015431773E+00    4.5425573477596490E+00    2.5366536412599152E+00
Ga    1.7404192086048937E+00    2.6916485777023245E+00    3.3221252850823482E+00
N    1.6561266290446854E+00    2.7569531524505035E+00    5.2839725635343457E+00
Ga    1.6763673727252446E+00    4.6211523748758818E+00    5.8346222000833077E+00
N    1.6622358553113845E+00    4.6210177034385751E+00    7.8160772437847577E+00
Ga    1.6453743568494743E+00    2.7609795141448603E+00    8.4535139111972040E+00
N    1.6440583656861114E+00    2.7634560839492357E+00    1.0442806496831352E+01
Ga    1.6708858559981081E+00    4.6244810846359465E+00    1.1068461240992818E+01
N    1.6873588709541583E+00    4.6307908864279561E+00    1.3062889601273158E+01
Ga    1.6436142727569385E+00    2.7612580837477920E+00    1.3619441012271201E+01
N    1.6715811111533947E+00    2.7435847229274004E+00    1.5581982052197656E+01
Ga    1.4889365055698609E+00    4.5123325345733010E+00    1.6481840136334590E+01
N    5.3898952291188046E-02    7.4104160801613679E+00    2.6469260680359437E+00
Ga    5.1555877184665137E-02    5.5837087037604398E+00    3.3420694194059544E+00
N    4.9276678427170061E-02    5.5620096487104966E+00    5.2675271348380379E+00
Ga    6.4607837449305677E-02    7.4227031116575874E+00    5.8638150597034597E+00
N    5.1531221442655296E-02    7.4052106175564596E+00    7.8364004620609888E+00
Ga    4.5997007667802133E-02    5.5392916181957901E+00    8.4422327767243210E+00
N    4.6203237232097009E-02    5.5315117341625655E+00    1.0433051916769520E+01
Ga    4.7304659183324056E-02    7.3993341489243001E+00    1.1026663774246135E+01
N    4.7143669847378160E-02    7.3965821309912272E+00    1.2998527002526233E+01
Ga    4.7420606332626687E-02    5.5265644711282915E+00    1.3620613973045284E+01
N    4.7573482747544665E-02    5.5558799973039363E+00    1.5582858010998130E+01
Ga    4.6835195514949905E-02    7.3939347322368105E+00    1.5861161155283272E+01
N   -1.6667650701809738E+00    1.0146572144542864E+01    2.5287451784879602E+00
Ga   -1.5711512231363001E+00    8.3323143616777582E+00    3.2645115051497817E+00
N   -1.5493780752815487E+00    8.3212203490754035E+00    5.2199813335177074E+00
Ga   -1.5373546846690849E+00    1.0199569906365396E+01    5.8086072230140173E+00
N   -1.5540827757832416E+00    1.0183927908473184E+01    7.8047368370068702E+00
Ga   -1.5705698576703986E+00    8.3311215252441659E+00    8.4361746805264133E+00
N   -1.5720306262809385E+00    8.3299701282332297E+00    1.0429779139173156E+01
Ga   -1.5457993987568965E+00    1.0190164921451247E+01    1.1066568243274586E+01
N   -1.5288998171823169E+00    1.0198727109845400E+01    1.3062158008012947E+01
Ga   -1.5725625987788918E+00    8.3308445452380226E+00    1.3619337474051797E+01
N   -1.5454145585363803E+00    8.3136480300512456E+00    1.5582150020322814E+01
Ga   -1.7252601832072822E+00    1.0083561303335552E+01    1.6479539876093991E+01
N    6.4771396015479441E+00    1.9530776537041556E+00    2.5563214128990297E+00
Ga    6.4898478099560988E+00   -4.0618440077262778E-02    2.8970040691974770E+00
N    6.4657166067360015E+00   -1.8775241828885316E-02    5.0672463721075598E+00
Ga    6.4851162876193040E+00    1.7962103710029795E+00    5.8253093258861872E+00
N    6.4818624505986246E+00    1.8202295757179923E+00    7.8180560258337239E+00
Ga    6.4820138120379607E+00   -3.4491175567006364E-02    8.4413827024281822E+00
N    6.4801869058180621E+00   -3.1257101737147283E-02    1.0418648512906088E+01
Ga    6.4795230291795294E+00    1.8082884848424481E+00    1.1069836635447317E+01
N    6.4793078951803214E+00    1.7883260625124631E+00    1.3065200329020042E+01
Ga    6.4793037145466377E+00   -3.2713410880442301E-02    1.3864260647120053E+01
N    6.4778301644293057E+00   -3.5133316790781903E-02    1.6069482498503632E+01
Ga    6.4793764342808480E+00    2.0015611014034107E+00    1.6476157650106721E+01
Ga    6.4710136768879680E+00    3.6736389438683430E+00    1.5803825066738222E+00
N    4.9783263213703206E+00    4.5383337171434537E+00    2.5688066311704132E+00
Ga    4.7731600367595606E+00    2.6746678467660212E+00    3.3328724766389901E+00
N    4.8725122600946102E+00    2.7536734211716776E+00    5.2858152316063887E+00
Ga    4.8598534442855987E+00    4.6251166727205568E+00    5.8206465706432704E+00
N    4.8640196110113507E+00    4.6203774129614592E+00    7.8084897028654261E+00
Ga    4.8824871139552828E+00    2.7628613319077142E+00    8.4508871130497845E+00
N    4.8818438808273523E+00    2.7635178372428171E+00    1.0441710117094756E+01
Ga    4.8575649659333475E+00    4.6251219098461140E+00    1.1066324423283151E+01
N    4.8394448520422566E+00    4.6308197782893714E+00    1.3062613358588154E+01
Ga    4.8828048445255341E+00    2.7614096056661990E+00    1.3619064153727244E+01
N    4.8556769055981892E+00    2.7427143343056133E+00    1.5584146962281558E+01
Ga    5.0247189712938063E+00    4.5190290442949328E+00    1.6476453730820957E+01
N    6.4711026487633037E+00    3.6759131181100089E+00    1.7609093675199816E+01
N    3.2590971996207250E+00    7.3700403642805972E+00    2.5399182507251639E+00
N    3.2618260671476329E+00    5.5196242886823184E+00    5.0601912424941755E+00
Ga    3.2681176756357924E+00    7.3907240055489218E+00    5.7604286274078094E+00
N    3.2625121355351823E+00    7.3920903642805085E+00    7.7673822018021470E+00
Ga    3.2653041214303804E+00    5.5519391803735996E+00    8.4403234506073535E+00
N    3.2636500541694518E+00    5.5448269575174924E+00    1.0415626409749136E+01
Ga    3.2649673979327614E+00    7.3825729237615194E+00    1.1067012741842827E+01
N    3.2635114782448658E+00    7.3604223200851635E+00    1.3061990336209995E+01
Ga    3.2627721077161245E+00    5.5402680992881166E+00    1.3865482706707390E+01
N    3.2610489422668594E+00    5.5367729585980419E+00    1.6069329592388733E+01
Ga    3.2626690893602692E+00    7.5760254409286141E+00    1.6480404172502524E+01
Ga    3.8007598513849441E+00    1.0586553306376308E+01    6.9115120635702720E-01
N    1.7172345606451662E+00    1.0204677729312065E+01    2.5013590990542278E+00
Ga    1.6773056221237004E+00    8.4185695796499260E+00    3.1586993343724146E+00
N    1.6530476222599524E+00    8.3195250515362194E+00    5.1531606100351492E+00
Ga    1.6258115594356080E+00    1.0188542406511511E+01    5.7783746931139444E+00
N    1.6442320930219811E+00    1.0180470847170119E+01    7.7859561698787285E+00
Ga    1.6697723282042423E+00    8.3334919767638436E+00    8.4335417035522688E+00
N    1.6670077151747476E+00    8.3304106800123527E+00    1.0427787744111718E+01
Ga    1.6419011317360808E+00    1.0190458030219101E+01    1.1065239490011615E+01
N    1.6237427097765567E+00    1.0198772716902694E+01    1.3061652925074958E+01
Ga    1.6667115290494412E+00    8.3310031381680609E+00    1.3620094959019648E+01
N    1.6385150549357934E+00    8.3128428445040061E+00    1.5583027114086036E+01
Ga    1.8141983036122338E+00    1.0086453893615438E+01    1.6480865243484839E+01
N    3.2562547928217667E+00    9.2452089644440143E+00    1.7617523281668760E+01
N    9.7147048243154472E+00    1.7863521418876536E+00    2.6161948993111386E+00
Ga    9.6571849030682504E+00    4.0776558620016839E-03    3.2975816404179796E+00
N    9.6935015266356768E+00   -2.7722108534194073E-02    5.2681226460060531E+00
Ga    9.6967417339575164E+00    1.8185030327932667E+00    5.8899028341461088E+00
N    9.6943581790442455E+00    1.8286016176693702E+00    7.8627164333537323E+00
Ga    9.6961353798499257E+00   -4.7719955829378484E-02    8.4237313877286599E+00
N    9.6950742722446162E+00   -4.4464624650976198E-02    1.0424305499570961E+01
Ga    9.6944771579064373E+00    1.8237005252575207E+00    1.1024673584749870E+01
N    9.6948931655164596E+00    1.8240744823670938E+00    1.2998453503076869E+01
Ga    9.6959939638954822E+00   -4.5378015804851811E-02    1.3618899923738482E+01
N    9.6961122798343826E+00   -1.5852111297434465E-02    1.5581567369986800E+01
Ga    9.6949518221915163E+00    1.8226214571304822E+00    1.5860131975719767E+01
N    7.9840271176521354E+00    4.5500854618815616E+00    2.5415080310498008E+00
Ga    8.2060653758083237E+00    2.6732769081340728E+00    3.2942009318154470E+00
N    8.0939065206987149E+00    2.7521646906570170E+00    5.2559832762297471E+00
Ga    8.1042580008307024E+00    4.6248881371460193E+00    5.8028674572110885E+00
N    8.0950909061238701E+00    4.6194917085799529E+00    7.7976618628547314E+00
Ga    8.0791488077359404E+00    2.7641502125703221E+00    8.4484821482432810E+00
N    8.0762751194291731E+00    2.7642172261389208E+00    1.0439586455049616E+01
Ga    8.1006548029370897E+00    4.6245268537384652E+00    1.1067088535504697E+01
N    8.1184583082059554E+00    4.6302997165645428E+00    1.3062497478646373E+01
Ga    8.0767209695439615E+00    2.7607021898321982E+00    1.3617927278717628E+01
N    8.1028905123624160E+00    2.7441407191648430E+00    1.5581818857287425E+01
Ga    7.9260275904903743E+00    4.5145087499792478E+00    1.6476614462574794E+01
N    6.4715296185032578E+00    7.4210059552052892E+00    2.5648537923959869E+00
Ga    6.4725538532276774E+00    5.6961864361851173E+00    3.2861324132449905E+00
N    6.4781194097046582E+00    5.5504553000949448E+00    5.2451327273784596E+00
Ga    6.4648353435389438E+00    7.4270353898323140E+00    5.8166650040139771E+00
N    6.4747379073699003E+00    7.4052183507026896E+00    7.8118728447671595E+00
Ga    6.4807617578690513E+00    5.5438960455304578E+00    8.4269705248497946E+00
N    6.4796780321744976E+00    5.5323959640240270E+00    1.0424484376306152E+01
Ga    6.4775831348140240E+00    7.3991639071323672E+00    1.1021433592847542E+01
N    6.4786651258589067E+00    7.3963016242291619E+00    1.2995302948922426E+01
Ga    6.4792128801948499E+00    5.5273766121687231E+00    1.3619593894416905E+01
N    6.4804805248551300E+00    5.5546161948130459E+00    1.5583666989665540E+01
Ga    6.4782914762322061E+00    7.3940084948757576E+00    1.5861149845800151E+01
N    4.8135612489188260E+00    1.0225536578828253E+01    2.4835053256738724E+00
Ga    4.9326867536792642E+00    8.3652768896528418E+00    3.1119095073930896E+00
N    4.8590407492719292E+00    8.3365576652821982E+00    5.1453199329195103E+00
Ga    4.8970744858717010E+00    1.0188905354427794E+01    5.7729698276845847E+00
N    4.8828325889972666E+00    1.0184656552624888E+01    7.7826005829693194E+00
Ga    4.8625891311061302E+00    8.3330113548026432E+00    8.4206250122626791E+00
N    4.8596100275352478E+00    8.3306039271100634E+00    1.0420050755952657E+01
Ga    4.8845831941056277E+00    1.0189022316895880E+01    1.1062267692216381E+01
N    4.9023771674795471E+00    1.0198467745313220E+01    1.3059301197447098E+01
Ga    4.8606457609506055E+00    8.3312752645965436E+00    1.3619376145305660E+01
N    4.8871977910136897E+00    8.3140671777701769E+00    1.5581486232267917E+01
Ga    4.7062878353798014E+00    1.0083708620457154E+01    1.6480902302930062E+01
O   -9.0662599260311380E-02    4.1144572373491091E+00   -4.2554199497280798E-01
H   -7.2029082601987227E-01    4.9372571600604864E+00   -4.8094650641257575E-01
C    1.1703144414804612E+00    4.4192384943323963E+00   -1.1059099698823802E+00
H    1.6819568689244990E+00    5.2554503906144889E+00   -6.1324629683512377E-01
H    1.7953231182076383E+00    3.5215201961539000E+00   -1.0496923820250021E+00
H    9.4669883291827173E-01    4.6603306231816379E+00   -2.1514078594744310E+00
Ga    3.2498640091244866E+00    5.4462799617199407E+00    3.0005440730624744E+00
O   -1.5677834302474685E+00    6.2167734853379688E+00   -6.0774348333961348E-01
H   -8.8499279059302341E-03    7.3645885405317051E+00    1.6239747373121358E+00
C   -2.7385201971478210E+00    6.2741567998269741E+00   -2.0364385019054240E-01
H   -3.3478821732185251E+00    7.1733312343638644E+00   -3.8983620739379449E-01
H    3.2653673178570712E+00    7.4379771774230798E+00    1.5145848430681843E+00
H   -3.2231322296925402E+00    5.4203813130195524E+00    3.0618791268100143E-01
     &END COORD
     &KIND C
       BASIS_SET DZVP-MOLOPT-SR-GTH-q4
       POTENTIAL GTH-PBE-q4
       &POTENTIAL
2 2
0.3384712400000000E+00 2 -0.8803673979999999E+01  0.1339210850000000E+01
2
0.3025757500000000E+00 1  0.9622486650000001E+01
0.2915069400000000E+00 0
       &END POTENTIAL
     &END KIND
     &KIND O
       BASIS_SET DZVP-MOLOPT-SR-GTH-q6
       POTENTIAL GTH-PBE-q6
       &POTENTIAL
2 4
0.2445543000000000E+00 2 -0.1666721480000000E+02  0.2487311320000000E+01
2
0.2209559200000000E+00 1  0.1833745811000000E+02
0.2113324700000000E+00 0
       &END POTENTIAL
     &END KIND
     &KIND H
       BASIS_SET DZVP-MOLOPT-SR-GTH-q1
       POTENTIAL GTH-PBE-q1
       &POTENTIAL
1
0.2000000000000000E+00 2 -0.4178900440000000E+01  0.7244633100000000E+00
0
       &END POTENTIAL
     &END KIND
     &KIND N
       BASIS_SET DZVP-MOLOPT-SR-GTH
       POTENTIAL GTH-PBE-q5
       &POTENTIAL
2 3
0.2837905100000000E+00 2 -0.1241522559000000E+02  0.1868095920000000E+01
2
0.2554050000000000E+00 1  0.1363026257000000E+02
0.2454945300000000E+00 0
       &END POTENTIAL
     &END KIND
     &KIND Ga
       BASIS_SET DZVP-MOLOPT-SR-GTH
       POTENTIAL GTH-PBE-q13
       &POTENTIAL
2 1 10
0.4900000000000000E+00 0
3
0.4167772300000000E+00 3  0.1047568975000000E+02 -0.4921768140000000E+01  0.8707055900000000E+00
0.7770178090000000E+01 -0.2248152160000000E+01
0.1784415450000000E+01
0.5696265200000000E+00 2  0.1777985340000000E+01  0.1958597600000000E+00
-0.2317443900000000E+00
0.2381265000000000E+00 1 -0.1624868022000000E+02
       &END POTENTIAL
     &END KIND
     &TOPOLOGY
       NUMBER_OF_ATOMS  212
       MULTIPLE_UNIT_CELL  1 1 1
     &END TOPOLOGY
     &COLVAR
       &DISTANCE
         ATOMS  127 211
       &END DISTANCE
       &PRINT
       &END PRINT
     &END COLVAR
   &END SUBSYS
 &END FORCE_EVAL
