 # Version information for this restart file 
 # current date 2019-07-20 08:01:44.072
 # current working dir /lustre04/scratch/rzk/rzk/GaN-carbene/443-adatoms-both-2x2/09-BondBreaking-CH/02-0401-CH-to-NTop-PES/Phase05-OptimizeAdjustedIntermed909
 # Program compiled at                              Sun Apr  7 00:48:11 EDT 2019
 # Program compiled on                          beluga2.int.ets1.calculquebec.ca
 # Program compiled for                        Beluga-Linux-x86-64-intel-openmpi
 # Source code revision number                                         svn:18619
 &GLOBAL
   PRINT_LEVEL  MEDIUM
   PROJECT_NAME TEST
   RUN_TYPE  GEO_OPT
 &END GLOBAL
 &MOTION
   &GEO_OPT
     MAX_ITER  500
     STEP_START_VAL  121
   &END GEO_OPT
 &END MOTION
 &FORCE_EVAL
   METHOD  QS
   STRESS_TENSOR  ANALYTICAL
   &DFT
     BASIS_SET_FILE_NAME BASIS_MOLOPT
     POTENTIAL_FILE_NAME GTH_POTENTIALS
     UKS  T
     SURFACE_DIPOLE_CORRECTION  T
     SURF_DIP_DIR  Z
     &SCF
       MAX_SCF  80
       EPS_SCF     5.0000000000000004E-06
       &OT  T
         PRECONDITIONER  FULL_ALL
       &END OT
       &OUTER_SCF  T
         OPTIMIZER  NONE
         EPS_SCF     5.0000000000000004E-06
         MAX_SCF  4
       &END OUTER_SCF
       &PRINT
         &RESTART  OFF
           BACKUP_COPIES  1
           &EACH
             JUST_ENERGY  0
             QS_SCF  0
             MD  20
           &END EACH
         &END RESTART
       &END PRINT
     &END SCF
     &QS
       EPS_DEFAULT     1.0000000000000000E-14
       METHOD  GPW
     &END QS
     &MGRID
       NGRIDS  5
       CUTOFF     1.2000000000000000E+03
     &END MGRID
     &XC
       DENSITY_CUTOFF     1.0000000000000000E-10
       GRADIENT_CUTOFF     1.0000000000000000E-10
       TAU_CUTOFF     1.0000000000000000E-10
       &XC_FUNCTIONAL  NO_SHORTCUT
         &PBE  T
         &END PBE
       &END XC_FUNCTIONAL
       &VDW_POTENTIAL
         POTENTIAL_TYPE  PAIR_POTENTIAL
         &PAIR_POTENTIAL
           R_CUTOFF     1.0000000000000009E+01
           TYPE  DFTD3
           PARAMETER_FILE_NAME dftd3.dat
           REFERENCE_FUNCTIONAL PBE
           EPS_CN     9.9999999999999995E-07
           CALCULATE_C9_TERM  T
           REFERENCE_C9_TERM  T
           LONG_RANGE_CORRECTION  F
           VERBOSE_OUTPUT  F
         &END PAIR_POTENTIAL
       &END VDW_POTENTIAL
     &END XC
   &END DFT
   &SUBSYS
     &CELL
       A     1.2864472766435110E+01    0.0000000000000000E+00    0.0000000000000000E+00
       B    -6.4322363581020028E+00    1.1140960178524477E+01    0.0000000000000000E+00
       C     0.0000000000000000E+00    0.0000000000000000E+00    3.2000000000000000E+01
       MULTIPLE_UNIT_CELL  1 1 1
       &CELL_REF
         A     1.2982353780853531E+01    0.0000000000000000E+00    0.0000000000000000E+00
         B    -6.4911768904267628E+00    1.1243048175136114E+01    0.0000000000000000E+00
         C     0.0000000000000000E+00    0.0000000000000000E+00    3.2000000000000000E+01
         MULTIPLE_UNIT_CELL  1 1 1
       &END CELL_REF
     &END CELL
     &COORD
N    5.2353829263871790E-02    1.9687578848622842E+00    2.5346290898422632E+00
Ga    6.8228581079890563E-02   -1.1642983278960533E-02    2.9215688671342464E+00
N    5.8392166025199976E-02   -1.4969393881263894E-02    5.0538600129008531E+00
Ga    4.6276032841666891E-02    1.7983479483270104E+00    5.8296173044908883E+00
N    4.5250967326038435E-02    1.8190886247753364E+00    7.8205702247049613E+00
Ga    4.4266753187265424E-02   -3.5925784795396903E-02    8.4407337192322256E+00
N    4.4826380461553142E-02   -3.1378690539347449E-02    1.0418829498059649E+01
Ga    4.4407965308309087E-02    1.8076149616812798E+00    1.1071435706069963E+01
N    4.5236023212871450E-02    1.7892034282768277E+00    1.3066517877177796E+01
Ga    4.3909836195123418E-02   -3.1936272390107240E-02    1.3864538949072010E+01
N    4.3091563438240374E-02   -3.2862798493119995E-02    1.6069509396396413E+01
Ga    4.5344857110144188E-02    2.0066862529505385E+00    1.6479375607728805E+01
Ga    3.4479042118103660E-02    3.6526906573610347E+00    1.5187654784679621E+00
N   -1.4457859951871086E+00    4.5458963972363637E+00    2.5448817482451513E+00
Ga   -1.6536418114331892E+00    2.6793708393102635E+00    3.3150063468452466E+00
N   -1.5648146402288339E+00    2.7533994068257805E+00    5.2745669599303815E+00
Ga   -1.5872102537647768E+00    4.6227591851429066E+00    5.8187918691119762E+00
N   -1.5694013795319628E+00    4.6205877177563730E+00    7.8073855482892132E+00
Ga   -1.5544222579585116E+00    2.7612729544896171E+00    8.4492952842302191E+00
N   -1.5526250796290175E+00    2.7635503008853139E+00    1.0440760080551106E+01
Ga   -1.5787225869363752E+00    4.6232132565334272E+00    1.1071224857243621E+01
N   -1.5943728354377724E+00    4.6308267844899058E+00    1.3065776690134198E+01
Ga   -1.5520229987763225E+00    2.7609779756214268E+00    1.3620063487433882E+01
N   -1.5795588445137627E+00    2.7447624714683303E+00    1.5584140429720266E+01
Ga   -1.4038136727289887E+00    4.5184731899607788E+00    1.6480469369913070E+01
N    3.7647970241062804E-02    3.6759862082666475E+00    1.7615541796854707E+01
N   -3.1533518919403489E+00    7.4804736681089272E+00    2.4706425468589210E+00
Ga   -3.1569198473357436E+00    5.5437843708250751E+00    2.9440485887307530E+00
N   -3.1686180151242911E+00    5.5334222765812857E+00    5.0441600766332728E+00
Ga   -3.1769441276904100E+00    7.3787957459888887E+00    5.7871400457181394E+00
N   -3.1692883351802710E+00    7.3893634601071074E+00    7.7858166134959044E+00
Ga   -3.1721739467723178E+00    5.5457207418955745E+00    8.4419690288707852E+00
N   -3.1711019040507891E+00    5.5425643186294540E+00    1.0417367304854288E+01
Ga   -3.1728375560648123E+00    7.3816982429263112E+00    1.1067162555319889E+01
N   -3.1710615564375000E+00    7.3611105462215072E+00    1.3063353017712554E+01
Ga   -3.1709880759849085E+00    5.5405271279080548E+00    1.3865311022567326E+01
N   -3.1717047396705089E+00    5.5377697600768672E+00    1.6069888864186769E+01
Ga   -3.1705847237973632E+00    7.5745678778749062E+00    1.6477535547081445E+01
Ga   -3.1899502059885432E+00    9.4401127909844043E+00    1.2555299655149288E+00
N   -4.6658744215085646E+00    1.0152907230920340E+01    2.5372987807063616E+00
Ga   -4.8440394339556940E+00    8.2891485307655230E+00    3.1952219629627296E+00
N   -4.7745592555580654E+00    8.3256355855652338E+00    5.2018441242601190E+00
Ga   -4.7983040355183926E+00    1.0189257072636126E+01    5.7931671712103308E+00
N   -4.7864629567485490E+00    1.0185706242069811E+01    7.7964752995047055E+00
Ga   -4.7745692731825091E+00    8.3303259013653292E+00    8.4239688512859789E+00
N   -4.7694289667146794E+00    8.3300928187084633E+00    1.0423784287175517E+01
Ga   -4.7950883097518728E+00    1.0188439767597437E+01    1.1066933835206179E+01
N   -4.8106293366251656E+00    1.0199226229075688E+01    1.3063901320446009E+01
Ga   -4.7682131232709102E+00    8.3314244075833397E+00    1.3619864674242287E+01
N   -4.7946006503129306E+00    8.3140773360379665E+00    1.5584471177111517E+01
Ga   -4.6242603442077668E+00    1.0091391799536122E+01    1.6476933381255048E+01
N   -3.1795404272408585E+00    9.2474660312995560E+00    1.7610157123838000E+01
N    3.2568221892425049E+00    1.8316526550946246E+00    2.6417926622063468E+00
Ga    3.2643870547386244E+00    6.8645042688391403E-02    3.3000716609856000E+00
N    3.2643299785008253E+00   -2.4339264484955825E-02    5.2706377664377788E+00
Ga    3.2602964504784100E+00    1.8229863927220584E+00    5.9007374536775599E+00
N    3.2626050160418907E+00    1.8281166855432438E+00    7.8720657181786784E+00
Ga    3.2597211681015588E+00   -4.5258160979410322E-02    8.4426972431422627E+00
N    3.2609974577629464E+00   -4.3588359127391917E-02    1.0437391318788048E+01
Ga    3.2614043015018686E+00    1.8258169000115676E+00    1.1031089626272472E+01
N    3.2618293117697790E+00    1.8256401617088842E+00    1.3003735528991891E+01
Ga    3.2618401233046619E+00   -4.4794629190372651E-02    1.3619501887652099E+01
N    3.2633832163751784E+00   -1.4068603876515384E-02    1.5583163482042742E+01
Ga    3.2613603462993601E+00    1.8251145900652617E+00    1.5860382527038356E+01
N    1.5301547998714440E+00    4.5430119813210101E+00    2.5386631547430913E+00
Ga    1.7403147104663430E+00    2.6915216636367179E+00    3.3235449611828680E+00
N    1.6551188588423034E+00    2.7572444144410491E+00    5.2853300737451612E+00
Ga    1.6754296546650107E+00    4.6211206177283941E+00    5.8354879520270568E+00
N    1.6605595094456667E+00    4.6209381247931525E+00    7.8171500920968411E+00
Ga    1.6441105792043469E+00    2.7608157781239093E+00    8.4543400787685048E+00
N    1.6425587669517756E+00    2.7634975131421222E+00    1.0444170211646837E+01
Ga    1.6692052245223312E+00    4.6246602168920266E+00    1.1070353167133769E+01
N    1.6854822635177871E+00    4.6313010598713289E+00    1.3064910127317381E+01
Ga    1.6423781840611003E+00    2.7619181844993235E+00    1.3620189589050639E+01
N    1.6703838788400074E+00    2.7462608238745276E+00    1.5582890911828782E+01
Ga    1.4886248776390367E+00    4.5152554643082956E+00    1.6481460302310058E+01
N    5.2267286882686968E-02    7.4107011004705887E+00    2.6483537139750535E+00
Ga    5.0401663904796869E-02    5.5844013780625543E+00    3.3432298155217746E+00
N    4.7920470745707378E-02    5.5619672874174002E+00    5.2690359919051772E+00
Ga    6.3389993047205051E-02    7.4230541905654155E+00    5.8650038071694759E+00
N    5.0054109981605532E-02    7.4052858401556945E+00    7.8376209963198562E+00
Ga    4.4384559611086449E-02    5.5394170514189058E+00    8.4432070625507443E+00
N    4.4480295184547783E-02    5.5317918255831557E+00    1.0434366641637407E+01
Ga    4.5667537594222589E-02    7.3996727757177299E+00    1.1028410096147898E+01
N    4.5542575436158625E-02    7.3976205032937701E+00    1.3000238263353435E+01
Ga    4.5916811268872766E-02    5.5279366896359523E+00    1.3621028202569587E+01
N    4.6577481171343048E-02    5.5574186898381708E+00    1.5583263505397721E+01
Ga    4.5441420294703674E-02    7.3958940689818036E+00    1.5861875052273852E+01
N   -1.6685763731312890E+00    1.0147022029385562E+01    2.5288537282266144E+00
Ga   -1.5729359093265132E+00    8.3347363836459571E+00    3.2652415194330584E+00
N   -1.5504823528399720E+00    8.3212067594441930E+00    5.2212291786565013E+00
Ga   -1.5389563733209417E+00    1.0200117952085224E+01    5.8089887372966365E+00
N   -1.5553004373372610E+00    1.0184018342097190E+01    7.8055645590091176E+00
Ga   -1.5721277998393812E+00    8.3311641027955545E+00    8.4371424048003778E+00
N   -1.5735065319042651E+00    8.3302557337256680E+00    1.0430996842840520E+01
Ga   -1.5471376099210303E+00    1.0190320212680959E+01    1.1068214631647567E+01
N   -1.5305444252738023E+00    1.0199713906439117E+01    1.3063989270489040E+01
Ga   -1.5736502669356951E+00    8.3319844357002903E+00    1.3619852586849616E+01
N   -1.5467366850821811E+00    8.3160971217074326E+00    1.5583020682872336E+01
Ga   -1.7248513541823143E+00    1.0086770332705470E+01    1.6477869277544531E+01
N    6.4754215478414778E+00    1.9544222841776573E+00    2.5566199278183630E+00
Ga    6.4856122125528008E+00   -4.1178963677928414E-02    2.8962877770578199E+00
N    6.4643117898227835E+00   -1.8205960310480298E-02    5.0684826048088834E+00
Ga    6.4829496232297741E+00    1.7965643734858898E+00    5.8262575271604797E+00
N    6.4805393860390614E+00    1.8202900683895569E+00    7.8188902464126651E+00
Ga    6.4807610190875788E+00   -3.4384288824837267E-02    8.4422484453907511E+00
N    6.4786349599102264E+00   -3.1061989819606849E-02    1.0419749439426628E+01
Ga    6.4783706448992682E+00    1.8084977077384934E+00    1.1071257275175094E+01
N    6.4780169938763708E+00    1.7889808470157911E+00    1.3066807790991300E+01
Ga    6.4783848161503332E+00   -3.2137903564593569E-02    1.3865281836762666E+01
N    6.4771422574371416E+00   -3.3615053172382364E-02    1.6070044800503798E+01
Ga    6.4778401079416481E+00    2.0031770563267077E+00    1.6476396470501570E+01
Ga    6.4678653156999086E+00    3.6742398979254980E+00    1.5806758333407782E+00
N    4.9772293769915876E+00    4.5383048457524326E+00    2.5695994404560203E+00
Ga    4.7713303483973419E+00    2.6753181742490151E+00    3.3335266195769879E+00
N    4.8710792731540602E+00    2.7540579213942142E+00    5.2864968690570420E+00
Ga    4.8582114309696136E+00    4.6247048588329749E+00    5.8212598757046550E+00
N    4.8626235180029695E+00    4.6201513174473545E+00    7.8091144289975212E+00
Ga    4.8811654326708265E+00    2.7627734432681192E+00    8.4518698419125613E+00
N    4.8804553033777047E+00    2.7634745059092536E+00    1.0443010772687327E+01
Ga    4.8562383803704225E+00    4.6252856238526974E+00    1.1067997690364939E+01
N    4.8382610541124436E+00    4.6314754714932587E+00    1.3064563378166930E+01
Ga    4.8814703897937664E+00    2.7619993808073664E+00    1.3619952966443583E+01
N    4.8536767955487869E+00    2.7446433205954950E+00    1.5585097678691161E+01
Ga    5.0237463761768710E+00    4.5213477938732689E+00    1.6477458358279030E+01
N    6.4694258221450127E+00    3.6768668925753984E+00    1.7609841749320193E+01
N    3.2575721506712614E+00    7.3703868833593846E+00    2.5407955723957629E+00
N    3.2605591941488696E+00    5.5197257113637326E+00    5.0607607711389617E+00
Ga    3.2667077538617897E+00    7.3903176290788117E+00    5.7609532089156383E+00
N    3.2609196730474022E+00    7.3920908470426587E+00    7.7680135873864549E+00
Ga    3.2639785012175144E+00    5.5518785958075156E+00    8.4413043861900121E+00
N    3.2620886639163698E+00    5.5447835413506823E+00    1.0416897919750529E+01
Ga    3.2632735776548660E+00    7.3826323250765560E+00    1.1068763804408448E+01
N    3.2620602400859937E+00    7.3615555566171000E+00    1.3063627721601026E+01
Ga    3.2611770949370307E+00    5.5414059299983940E+00    1.3866407028095898E+01
N    3.2595611373598028E+00    5.5388492839294221E+00    1.6069913039458719E+01
Ga    3.2616137046392391E+00    7.5798147013299308E+00    1.6482215282763949E+01
Ga    3.8105643527636852E+00    1.0578045818836792E+01    6.8695811098732085E-01
N    1.7147436369454525E+00    1.0205297329172385E+01    2.5019681995592489E+00
Ga    1.6757204949226425E+00    8.4189694105177821E+00    3.1594936554672102E+00
N    1.6519855620870660E+00    8.3196743250780223E+00    5.1546507203499150E+00
Ga    1.6240418050759293E+00    1.0188843297520840E+01    5.7790825216621586E+00
N    1.6429369251891028E+00    1.0180581355458578E+01    7.7869012269494897E+00
Ga    1.6683866962601896E+00    8.3335617031608500E+00    8.4347069859992860E+00
N    1.6653280120521792E+00    8.3306559566456215E+00    1.0429125403024992E+01
Ga    1.6403532887265444E+00    1.0190745390720107E+01    1.1066809608793779E+01
N    1.6224773113875299E+00    1.0199750533758507E+01    1.3062766402381119E+01
Ga    1.6652443510608193E+00    8.3323451234036323E+00    1.3621182241970615E+01
N    1.6364504832608031E+00    8.3144277306632350E+00    1.5584008529646198E+01
Ga    1.8141524519593200E+00    1.0087909991943738E+01    1.6482048430269721E+01
N    3.2546082659320263E+00    9.2472562864033350E+00    1.7617783162710491E+01
N    9.7133495031784509E+00    1.7876104746504495E+00    2.6151752437438605E+00
Ga    9.6549318255009258E+00    4.4925631194275544E-03    3.2952143819593789E+00
N    9.6920529733870993E+00   -2.7964702348843563E-02    5.2671815816510019E+00
Ga    9.6953238823530654E+00    1.8182923159824158E+00    5.8900463308189606E+00
N    9.6928031993900206E+00    1.8285590319927079E+00    7.8632236884269666E+00
Ga    9.6944793922290664E+00   -4.7663348135335064E-02    8.4248363409018658E+00
N    9.6934731977014135E+00   -4.3956032696318724E-02    1.0425559743821712E+01
Ga    9.6931164599913018E+00    1.8241178317863675E+00    1.1026309109959472E+01
N    9.6934268955686740E+00    1.8250420193798345E+00    1.2999823948965071E+01
Ga    9.6945233759683127E+00   -4.4561969398009639E-02    1.3619742972785797E+01
N    9.6952149825648331E+00   -1.3256506194620927E-02    1.5581882140278246E+01
Ga    9.6937172582326383E+00    1.8247457584259230E+00    1.5860546171544330E+01
N    7.9817152053717182E+00    4.5503413916066791E+00    2.5424882604644794E+00
Ga    8.2041975014734607E+00    2.6726335836271797E+00    3.2947775953065190E+00
N    8.0922712852575760E+00    2.7526293602721590E+00    5.2567627531847272E+00
Ga    8.1024019174959836E+00    4.6249783035632426E+00    5.8043506609351816E+00
N    8.0939469925876963E+00    4.6193421567163364E+00    7.7989715349601498E+00
Ga    8.0776164054878112E+00    2.7640103786809367E+00    8.4493672083065938E+00
N    8.0750431466464416E+00    2.7643776814506946E+00    1.0440518206149950E+01
Ga    8.0993346901824097E+00    4.6245962072186781E+00    1.1068632026478079E+01
N    8.1171497642093922E+00    4.6311527702567084E+00    1.3064108382367273E+01
Ga    8.0753637754809322E+00    2.7616588139881229E+00    1.3618859320689797E+01
N    8.1020059914337903E+00    2.7466206192776457E+00    1.5582922901392116E+01
Ga    7.9238786020027829E+00    4.5167590286680319E+00    1.6478018963987324E+01
N    6.4706338256091511E+00    7.4211562530568154E+00    2.5656287572247458E+00
Ga    6.4692340763968224E+00    5.6967252227815610E+00    3.2870947983919176E+00
N    6.4765999578608584E+00    5.5503800491754332E+00    5.2459145087911940E+00
Ga    6.4633097424611021E+00    7.4268469036435993E+00    5.8176997423132857E+00
N    6.4734244943479284E+00    7.4051578434336216E+00    7.8128386957309459E+00
Ga    6.4792248742697662E+00    5.5437599847681680E+00    8.4280013417560831E+00
N    6.4784666463163028E+00    5.5326628278843906E+00    1.0425697576377749E+01
Ga    6.4763503800504365E+00    7.3995851296988144E+00    1.1023026461569152E+01
N    6.4773814477848370E+00    7.3974013188986847E+00    1.2996799173682154E+01
Ga    6.4780912973766975E+00    5.5286607729759840E+00    1.3619737889408386E+01
N    6.4795259517196735E+00    5.5571697996349876E+00    1.5583425128301590E+01
Ga    6.4773596426941404E+00    7.3961596093374125E+00    1.5863212830355826E+01
N    4.8127810913938118E+00    1.0226076141040322E+01    2.4830960818758738E+00
Ga    4.9312068515512006E+00    8.3648858457396997E+00    3.1119803948272136E+00
N    4.8575833236202017E+00    8.3364199830493053E+00    5.1456967247466210E+00
Ga    4.8956293803470476E+00    1.0189003217179518E+01    5.7734249339562291E+00
N    4.8811238920998496E+00    1.0184664744016210E+01    7.7833188322978115E+00
Ga    4.8609881867016345E+00    8.3327320800451297E+00    8.4217436669460142E+00
N    4.8580977079124583E+00    8.3308044670140564E+00    1.0421385638000244E+01
Ga    4.8829814048624263E+00    1.0189427251228196E+01    1.1063683766492881E+01
N    4.9006748215342943E+00    1.0199454817520511E+01    1.3060340779914753E+01
Ga    4.8592688480614212E+00    8.3326013861831303E+00    1.3619926484671998E+01
N    4.8869650806527556E+00    8.3160957028826736E+00    1.5581772905729226E+01
Ga    4.7032564259455549E+00    1.0084707792363103E+01    1.6482736464676048E+01
O   -7.6470073256672322E-02    4.1010443267333381E+00   -4.2861116508131525E-01
H   -7.0111444232113718E-01    4.9256741597336102E+00   -4.9304231790355468E-01
C    1.1908195399029924E+00    4.3929936558318268E+00   -1.1009285028611662E+00
H    1.7033624388377477E+00    5.2318359939909147E+00   -6.1262683269843177E-01
H    1.8108061359319918E+00    3.4928027596086313E+00   -1.0299139163737567E+00
H    9.7572689673976731E-01    4.6232553563802572E+00   -2.1502431850942201E+00
Ga    3.2495641553889345E+00    5.4465063586340339E+00    3.0011220090455830E+00
O   -1.5531538521197303E+00    6.2086902312369228E+00   -6.2328509097791784E-01
H   -1.0378750453584811E-02    7.3646956142455959E+00    1.6240021729886671E+00
C   -2.7218078411570854E+00    6.2617326056619618E+00   -2.1462535156416751E-01
H   -3.3384226785510385E+00    7.1564936257866139E+00   -4.0270948336988738E-01
H    3.2628031803740831E+00    7.4376079195624030E+00    1.5146262125054113E+00
H   -3.2002017847373891E+00    5.4109290819059384E+00    3.0336353086624090E-01
     &END COORD
     &KIND C
       BASIS_SET DZVP-MOLOPT-SR-GTH-q4
       POTENTIAL GTH-PBE-q4
       &POTENTIAL
2 2
0.3384712400000000E+00 2 -0.8803673979999999E+01  0.1339210850000000E+01
2
0.3025757500000000E+00 1  0.9622486650000001E+01
0.2915069400000000E+00 0
       &END POTENTIAL
     &END KIND
     &KIND O
       BASIS_SET DZVP-MOLOPT-SR-GTH-q6
       POTENTIAL GTH-PBE-q6
       &POTENTIAL
2 4
0.2445543000000000E+00 2 -0.1666721480000000E+02  0.2487311320000000E+01
2
0.2209559200000000E+00 1  0.1833745811000000E+02
0.2113324700000000E+00 0
       &END POTENTIAL
     &END KIND
     &KIND H
       BASIS_SET DZVP-MOLOPT-SR-GTH-q1
       POTENTIAL GTH-PBE-q1
       &POTENTIAL
1
0.2000000000000000E+00 2 -0.4178900440000000E+01  0.7244633100000000E+00
0
       &END POTENTIAL
     &END KIND
     &KIND N
       BASIS_SET DZVP-MOLOPT-SR-GTH
       POTENTIAL GTH-PBE-q5
       &POTENTIAL
2 3
0.2837905100000000E+00 2 -0.1241522559000000E+02  0.1868095920000000E+01
2
0.2554050000000000E+00 1  0.1363026257000000E+02
0.2454945300000000E+00 0
       &END POTENTIAL
     &END KIND
     &KIND Ga
       BASIS_SET DZVP-MOLOPT-SR-GTH
       POTENTIAL GTH-PBE-q13
       &POTENTIAL
2 1 10
0.4900000000000000E+00 0
3
0.4167772300000000E+00 3  0.1047568975000000E+02 -0.4921768140000000E+01  0.8707055900000000E+00
0.7770178090000000E+01 -0.2248152160000000E+01
0.1784415450000000E+01
0.5696265200000000E+00 2  0.1777985340000000E+01  0.1958597600000000E+00
-0.2317443900000000E+00
0.2381265000000000E+00 1 -0.1624868022000000E+02
       &END POTENTIAL
     &END KIND
     &TOPOLOGY
       NUMBER_OF_ATOMS  212
       MULTIPLE_UNIT_CELL  1 1 1
     &END TOPOLOGY
     &COLVAR
       &DISTANCE
         ATOMS  127 211
       &END DISTANCE
       &PRINT
       &END PRINT
     &END COLVAR
   &END SUBSYS
 &END FORCE_EVAL
