 # Version information for this restart file 
 # current date 2019-07-20 07:57:47.529
 # current working dir /lustre04/scratch/rzk/rzk/GaN-carbene/443-adatoms-both-2x2/09-BondBreaking-CH/02-0401-CH-to-NTop-PES/Phase05-OptimizeAdjustedIntermed909
 # Program compiled at                              Sun Apr  7 00:48:11 EDT 2019
 # Program compiled on                          beluga2.int.ets1.calculquebec.ca
 # Program compiled for                        Beluga-Linux-x86-64-intel-openmpi
 # Source code revision number                                         svn:18619
 &GLOBAL
   PRINT_LEVEL  MEDIUM
   PROJECT_NAME TEST
   RUN_TYPE  GEO_OPT
 &END GLOBAL
 &MOTION
   &GEO_OPT
     MAX_ITER  500
     STEP_START_VAL  120
   &END GEO_OPT
 &END MOTION
 &FORCE_EVAL
   METHOD  QS
   STRESS_TENSOR  ANALYTICAL
   &DFT
     BASIS_SET_FILE_NAME BASIS_MOLOPT
     POTENTIAL_FILE_NAME GTH_POTENTIALS
     UKS  T
     SURFACE_DIPOLE_CORRECTION  T
     SURF_DIP_DIR  Z
     &SCF
       MAX_SCF  80
       EPS_SCF     5.0000000000000004E-06
       &OT  T
         PRECONDITIONER  FULL_ALL
       &END OT
       &OUTER_SCF  T
         OPTIMIZER  NONE
         EPS_SCF     5.0000000000000004E-06
         MAX_SCF  4
       &END OUTER_SCF
       &PRINT
         &RESTART  OFF
           BACKUP_COPIES  1
           &EACH
             JUST_ENERGY  0
             QS_SCF  0
             MD  20
           &END EACH
         &END RESTART
       &END PRINT
     &END SCF
     &QS
       EPS_DEFAULT     1.0000000000000000E-14
       METHOD  GPW
     &END QS
     &MGRID
       NGRIDS  5
       CUTOFF     1.2000000000000000E+03
     &END MGRID
     &XC
       DENSITY_CUTOFF     1.0000000000000000E-10
       GRADIENT_CUTOFF     1.0000000000000000E-10
       TAU_CUTOFF     1.0000000000000000E-10
       &XC_FUNCTIONAL  NO_SHORTCUT
         &PBE  T
         &END PBE
       &END XC_FUNCTIONAL
       &VDW_POTENTIAL
         POTENTIAL_TYPE  PAIR_POTENTIAL
         &PAIR_POTENTIAL
           R_CUTOFF     1.0000000000000009E+01
           TYPE  DFTD3
           PARAMETER_FILE_NAME dftd3.dat
           REFERENCE_FUNCTIONAL PBE
           EPS_CN     9.9999999999999995E-07
           CALCULATE_C9_TERM  T
           REFERENCE_C9_TERM  T
           LONG_RANGE_CORRECTION  F
           VERBOSE_OUTPUT  F
         &END PAIR_POTENTIAL
       &END VDW_POTENTIAL
     &END XC
   &END DFT
   &SUBSYS
     &CELL
       A     1.2864472766435110E+01    0.0000000000000000E+00    0.0000000000000000E+00
       B    -6.4322363581020028E+00    1.1140960178524477E+01    0.0000000000000000E+00
       C     0.0000000000000000E+00    0.0000000000000000E+00    3.2000000000000000E+01
       MULTIPLE_UNIT_CELL  1 1 1
       &CELL_REF
         A     1.2982353780853531E+01    0.0000000000000000E+00    0.0000000000000000E+00
         B    -6.4911768904267628E+00    1.1243048175136114E+01    0.0000000000000000E+00
         C     0.0000000000000000E+00    0.0000000000000000E+00    3.2000000000000000E+01
         MULTIPLE_UNIT_CELL  1 1 1
       &END CELL_REF
     &END CELL
     &COORD
N    5.0656306677871854E-02    1.9676032265058179E+00    2.5374477235322552E+00
Ga    7.1260298893940435E-02   -1.3603577139146028E-02    2.9231758842259761E+00
N    5.5257356207553489E-02   -1.5156425734717038E-02    5.0554559898133800E+00
Ga    4.4790208771856133E-02    1.7989097900837354E+00    5.8308036499086038E+00
N    4.1433405504025016E-02    1.8190957189358359E+00    7.8218448359180837E+00
Ga    4.1376807715668734E-02   -3.6394409141269880E-02    8.4415707658516244E+00
N    4.2051838873361225E-02   -3.0802766702260065E-02    1.0420459816321545E+01
Ga    4.0355517516247344E-02    1.8085775213473332E+00    1.1073471205924928E+01
N    4.1884251127563950E-02    1.7920690414925711E+00    1.3069919029639031E+01
Ga    4.0440098803114471E-02   -3.1105436188523058E-02    1.3862040443054047E+01
N    3.8777391858408859E-02   -2.9078224415567518E-02    1.6071242990175072E+01
Ga    4.4653657048011011E-02    2.0084579304532388E+00    1.6475011812468384E+01
Ga    3.4163340774244343E-02    3.6506971558367503E+00    1.5197478348297309E+00
N   -1.4485831703717627E+00    4.5439009753698487E+00    2.5444084941024654E+00
Ga   -1.6556157870311952E+00    2.6773804226631577E+00    3.3160638141619079E+00
N   -1.5678787941698413E+00    2.7531038062967887E+00    5.2752883232236343E+00
Ga   -1.5902033353629954E+00    4.6221419345752794E+00    5.8198490303051820E+00
N   -1.5731486493698639E+00    4.6200957023346483E+00    7.8080158347000594E+00
Ga   -1.5582054533575369E+00    2.7611859420228426E+00    8.4502725719980045E+00
N   -1.5564742907076177E+00    2.7644603942157802E+00    1.0441946176801379E+01
Ga   -1.5822337198941381E+00    4.6237871285694663E+00    1.1073956449328060E+01
N   -1.5969446759798149E+00    4.6328506538129410E+00    1.3069431556778401E+01
Ga   -1.5561670216820656E+00    2.7632135922698118E+00    1.3621373745761101E+01
N   -1.5808343212850280E+00    2.7519720953144344E+00    1.5589028881694178E+01
Ga   -1.4094164859160387E+00    4.5290722233828236E+00    1.6477723113043979E+01
N    3.2479898724732843E-02    3.6796309034196426E+00    1.7616940547957654E+01
N   -3.1563542094378616E+00    7.4819274157689852E+00    2.4685317634049952E+00
Ga   -3.1601880488998288E+00    5.5477863196264110E+00    2.9422743233710422E+00
N   -3.1728712034225950E+00    5.5308860958427255E+00    5.0455418899877467E+00
Ga   -3.1799922300522079E+00    7.3779707935682000E+00    5.7859615224678382E+00
N   -3.1722649449482914E+00    7.3880692938031176E+00    7.7856750452964940E+00
Ga   -3.1752062098586609E+00    5.5455803965195196E+00    8.4433991248378231E+00
N   -3.1741962849756411E+00    5.5434226910330686E+00    1.0419042351000723E+01
Ga   -3.1755437476015831E+00    7.3827853897842441E+00    1.1069678274030863E+01
N   -3.1739426969740125E+00    7.3651783282443999E+00    1.3066970754407695E+01
Ga   -3.1743114691075940E+00    5.5438046398097685E+00    1.3864553897373730E+01
N   -3.1755499054976450E+00    5.5414803419882830E+00    1.6070366643334332E+01
Ga   -3.1723953310569413E+00    7.5780490544758745E+00    1.6475092499389945E+01
Ga   -3.1927735620792941E+00    9.4401799719174981E+00    1.2412520792515518E+00
N   -4.6672699591489977E+00    1.0152321136627359E+01    2.5375417275452810E+00
Ga   -4.8452261744748402E+00    8.2913503868188503E+00    3.1938313702403356E+00
N   -4.7788691097505849E+00    8.3236770969465894E+00    5.2020676312769654E+00
Ga   -4.7993616097127045E+00    1.0188566094773575E+01    5.7927775425056609E+00
N   -4.7895112103103363E+00    1.0185290895191685E+01    7.7969229291738600E+00
Ga   -4.7771179339270171E+00    8.3299107534781847E+00    8.4253368281295131E+00
N   -4.7719719114761032E+00    8.3307043860842374E+00    1.0425397719973095E+01
Ga   -4.7978434981878895E+00    1.0188763852679365E+01    1.1069312367614998E+01
N   -4.8118665512319181E+00    1.0201251469698175E+01    1.3066809590218693E+01
Ga   -4.7718521209569804E+00    8.3340691727415432E+00    1.3620539066378745E+01
N   -4.7967186711795593E+00    8.3201473449620753E+00    1.5585829989770378E+01
Ga   -4.6259265369971443E+00    1.0098016786639617E+01    1.6474115531673512E+01
N   -3.1819974856272366E+00    9.2515062062210109E+00    1.7612269592814961E+01
N    3.2543704040715475E+00    1.8299827728505513E+00    2.6420970244454312E+00
Ga    3.2634170959851510E+00    6.4932766885268861E-02    3.2996810367201728E+00
N    3.2618886981320392E+00   -2.4559549234962005E-02    5.2719953343613231E+00
Ga    3.2582627775840658E+00    1.8220685397644525E+00    5.9004719787604216E+00
N    3.2596663346902366E+00    1.8271402755261203E+00    7.8721184878358343E+00
Ga    3.2571641521741359E+00   -4.6114869992563527E-02    8.4435061196255514E+00
N    3.2583157210087408E+00   -4.3497537382476283E-02    1.0439268544661575E+01
Ga    3.2584568129304810E+00    1.8258223656295409E+00    1.1034271001264491E+01
N    3.2584552088577969E+00    1.8271594206992174E+00    1.3006554190949805E+01
Ga    3.2593173124029575E+00   -4.1751753521606177E-02    1.3619210651752406E+01
N    3.2608066207981512E+00   -8.7761556221057774E-03    1.5581644032486601E+01
Ga    3.2590428339569737E+00    1.8293098373818688E+00    1.5860379026155831E+01
N    1.5288165536514675E+00    4.5432375954008553E+00    2.5419371247493032E+00
Ga    1.7396486614208686E+00    2.6908348451928537E+00    3.3257041094919275E+00
N    1.6531483890616137E+00    2.7573103002998942E+00    5.2869954763820024E+00
Ga    1.6737749953095500E+00    4.6201423069726522E+00    5.8364399603091970E+00
N    1.6566858404606466E+00    4.6203984387360633E+00    7.8182761116743666E+00
Ga    1.6414975496813538E+00    2.7604066524060595E+00    8.4551764009762334E+00
N    1.6394031436749763E+00    2.7634856302076911E+00    1.0446292419449390E+01
Ga    1.6652996596945662E+00    4.6252645909137629E+00    1.1073417941500603E+01
N    1.6805820614491960E+00    4.6322679720591680E+00    1.3068930207291716E+01
Ga    1.6401700472400114E+00    2.7632795545437512E+00    1.3620429360080431E+01
N    1.6679965559756720E+00    2.7532314666142974E+00    1.5584561277277567E+01
Ga    1.4883815427153180E+00    4.5229961231051874E+00    1.6479134898377264E+01
N    4.8940627553200430E-02    7.4094193269234294E+00    2.6497963650912975E+00
Ga    4.7847528206475309E-02    5.5845456859978677E+00    3.3454869569313330E+00
N    4.5182395965192454E-02    5.5606735734010382E+00    5.2713506756344719E+00
Ga    6.1097365081109377E-02    7.4225043965894448E+00    5.8664317559112265E+00
N    4.6873662408165165E-02    7.4049325971709345E+00    7.8387944630540991E+00
Ga    4.0836159295817617E-02    5.5394612602070605E+00    8.4439226576160316E+00
N    4.0453844977439958E-02    5.5328298430250920E+00    1.0436078741835885E+01
Ga    4.1786798159034223E-02    7.4008605834221743E+00    1.1031740653353586E+01
N    4.1739776102920137E-02    7.4003850873916592E+00    1.3003273178350796E+01
Ga    4.2472595488968881E-02    5.5319679767024317E+00    1.3620035879963005E+01
N    4.4828248845920071E-02    5.5615853464044589E+00    1.5583163197556599E+01
Ga    4.1771945221860278E-02    7.4016531448714806E+00    1.5862924293159072E+01
N   -1.6726441052320320E+00    1.0146231974448103E+01    2.5285829339685963E+00
Ga   -1.5769731452803222E+00    8.3370431607760835E+00    3.2649608440296336E+00
N   -1.5524988374641793E+00    8.3195163904652993E+00    5.2219588622732660E+00
Ga   -1.5423223576769307E+00    1.0199860318203152E+01    5.8091479844510001E+00
N   -1.5577310036574803E+00    1.0183580917108742E+01    7.8065526183449183E+00
Ga   -1.5753162271556358E+00    8.3307019026874247E+00    8.4381660492625024E+00
N   -1.5768188335883251E+00    8.3311140677475404E+00    1.0432541290963490E+01
Ga   -1.5500827142951252E+00    1.0190568546072255E+01    1.1071638759991377E+01
N   -1.5350565039725819E+00    1.0201960739351367E+01    1.3067146775218113E+01
Ga   -1.5759978040867018E+00    8.3354351083417129E+00    1.3620179165566542E+01
N   -1.5493268823105992E+00    8.3221046190931176E+00    1.5583576311826603E+01
Ga   -1.7268363169497358E+00    1.0093506081876843E+01    1.6474222887194454E+01
N    6.4712723373822225E+00    1.9559788712547168E+00    2.5566661586119328E+00
Ga    6.4762773687220987E+00   -4.2979886681649086E-02    2.8946428901842300E+00
N    6.4614374784075492E+00   -1.8060114607719394E-02    5.0708062211287563E+00
Ga    6.4774885925847476E+00    1.7965954494748553E+00    5.8274126014876151E+00
N    6.4777771319294377E+00    1.8199891760253972E+00    7.8198827942282279E+00
Ga    6.4780009060243007E+00   -3.4602798929596397E-02    8.4433306975988440E+00
N    6.4748585970985824E+00   -3.0514359017305020E-02    1.0421308233989524E+01
Ga    6.4755876236345049E+00    1.8089582952827785E+00    1.1073753978698795E+01
N    6.4749485321958069E+00    1.7905851209224175E+00    1.3069744723421845E+01
Ga    6.4751539875017157E+00   -3.1198710772154546E-02    1.3865562027932697E+01
N    6.4748230089503478E+00   -2.9575000879477821E-02    1.6070142772140162E+01
Ga    6.4743768628392413E+00    2.0079875898229358E+00    1.6477237889488521E+01
Ga    6.4607270513974955E+00    3.6740008926175718E+00    1.5800202141525401E+00
N    4.9740481301350350E+00    4.5371081191107345E+00    2.5706510915646916E+00
Ga    4.7672459852120745E+00    2.6753228862996306E+00    3.3344589564730911E+00
N    4.8674949236029788E+00    2.7542904536590163E+00    5.2867413542484885E+00
Ga    4.8542195108216575E+00    4.6228803049394411E+00    5.8214928742508265E+00
N    4.8594440920049475E+00    4.6192692303619269E+00    7.8091143037577844E+00
Ga    4.8782085124658137E+00    2.7622742161449616E+00    8.4527947368517005E+00
N    4.8773384450399861E+00    2.7632469165535642E+00    1.0444644205815813E+01
Ga    4.8533724814078916E+00    4.6255255118726240E+00    1.1070470293667624E+01
N    4.8360870747552678E+00    4.6326638815426762E+00    1.3067892861329675E+01
Ga    4.8779601316511227E+00    2.7629501803880054E+00    1.3620871954229125E+01
N    4.8491079497424527E+00    2.7504098045923091E+00    1.5586492095886147E+01
Ga    5.0241615722861930E+00    4.5266804898591273E+00    1.6480717279400878E+01
N    6.4668115163943458E+00    3.6783598021679382E+00    1.7613600426570333E+01
N    3.2547219002073415E+00    7.3698691566944330E+00    2.5406348799551188E+00
N    3.2577121512219747E+00    5.5192355872272332E+00    5.0604480061574835E+00
Ga    3.2632666626015130E+00    7.3879725294072092E+00    5.7612361933273082E+00
N    3.2572004535291170E+00    7.3920177338533692E+00    7.7682458521747835E+00
Ga    3.2609225719975807E+00    5.5515046834303412E+00    8.4417749833313120E+00
N    3.2586544290636215E+00    5.5447211214434091E+00    1.0418253880432800E+01
Ga    3.2592223169828811E+00    7.3829372845996701E+00    1.1071031066498712E+01
N    3.2586304318448511E+00    7.3652984505699459E+00    1.3066035989075115E+01
Ga    3.2579081493802926E+00    5.5443555321204956E+00    1.3865127740345487E+01
N    3.2566597597947595E+00    5.5432364605041373E+00    1.6070096217535408E+01
Ga    3.2598630896274514E+00    7.5879934073098374E+00    1.6484200282978854E+01
Ga    3.8347781020704765E+00    1.0559760840862474E+01    6.7772259667630996E-01
N    1.7094347826736302E+00    1.0205478738205974E+01    2.5031291368236781E+00
Ga    1.6725054520301992E+00    8.4177648151838262E+00    3.1596060316005663E+00
N    1.6499442437285325E+00    8.3186042158802707E+00    5.1562559721142698E+00
Ga    1.6196905771018046E+00    1.0187671841467347E+01    5.7803111230732771E+00
N    1.6401051540479212E+00    1.0180237465244216E+01    7.7883164445335868E+00
Ga    1.6650495088617538E+00    8.3332417752456127E+00    8.4362364728582868E+00
N    1.6613412773327194E+00    8.3313993184680726E+00    1.0430995111693953E+01
Ga    1.6363665643842362E+00    1.0191435356006608E+01    1.1069409956643312E+01
N    1.6195346484791093E+00    1.0202332685014802E+01    1.3064233429610818E+01
Ga    1.6612543207842043E+00    8.3360121041002095E+00    1.3622089944433215E+01
N    1.6324614227112848E+00    8.3184932962905549E+00    1.5585933362663384E+01
Ga    1.8122966433365038E+00    1.0093457765190458E+01    1.6482133768458709E+01
N    3.2498984134699227E+00    9.2529996280645168E+00    1.7618411021084967E+01
N    9.7105911077021023E+00    1.7891060097475056E+00    2.6127823991157269E+00
Ga    9.6500672027305576E+00    4.3503440896398848E-03    3.2909483692763715E+00
N    9.6888510551529379E+00   -3.0058173225789228E-02    5.2652298995388280E+00
Ga    9.6921720668580846E+00    1.8169438564032476E+00    5.8897107436858027E+00
N    9.6894874629117336E+00    1.8280848032467247E+00    7.8634729401400163E+00
Ga    9.6904878126156504E+00   -4.7937736859067943E-02    8.4266094355328196E+00
N    9.6897484692610103E+00   -4.2833511131822773E-02    1.0427710124256292E+01
Ga    9.6899403801210031E+00    1.8253437840439948E+00    1.1029321084127554E+01
N    9.6901806647548927E+00    1.8271260854663589E+00    1.3002384059063701E+01
Ga    9.6909662497183326E+00   -4.2780753279148841E-02    1.3619687802314068E+01
N    9.6938473940183112E+00   -7.0455816821889724E-03    1.5581491840344560E+01
Ga    9.6905178436377177E+00    1.8300748492193912E+00    1.5860860620844610E+01
N    7.9768629810206377E+00    4.5491822710193812E+00    2.5441263098924272E+00
Ga    8.1997486337796115E+00    2.6695654615009938E+00    3.2956190181814358E+00
N    8.0886712346194258E+00    2.7528029049532901E+00    5.2579633323012001E+00
Ga    8.0978472264214414E+00    4.6245907828635655E+00    5.8068123407957879E+00
N    8.0917326506854756E+00    4.6184281348003493E+00    7.8009209003555453E+00
Ga    8.0741742343722454E+00    2.7633198401010817E+00    8.4505994372324196E+00
N    8.0720762859625061E+00    2.7647701629592714E+00    1.0441804796856559E+01
Ga    8.0965904494385406E+00    4.6248831071111320E+00    1.1071359271953026E+01
N    8.1140581096664679E+00    4.6331716674045511E+00    1.3067089753298458E+01
Ga    8.0722476838652746E+00    2.7638960943829991E+00    1.3619474740694455E+01
N    8.1000715355337558E+00    2.7534639648179060E+00    1.5584481573433667E+01
Ga    7.9181775277289086E+00    4.5229478089336288E+00    1.6482226300861093E+01
N    6.4694886914511587E+00    7.4200880318849753E+00    2.5664346058585212E+00
Ga    6.4622723251302023E+00    5.6964221494597966E+00    3.2879362895446964E+00
N    6.4728557965906637E+00    5.5490725326099311E+00    5.2457789021414154E+00
Ga    6.4602137248155360E+00    7.4249376760561416E+00    5.8189145001595266E+00
N    6.4708077224195293E+00    7.4046994632703376E+00    7.8137384726025552E+00
Ga    6.4758394665456889E+00    5.5429856103921011E+00    8.4286956101681376E+00
N    6.4759310891256563E+00    5.5334788673565418E+00    1.0427074819462772E+01
Ga    6.4740227410164222E+00    7.4006900636874438E+00    1.1025924237195403E+01
N    6.4745631705922291E+00    7.4005028496040319E+00    1.2999121748523866E+01
Ga    6.4756910546651936E+00    5.5323947722845483E+00    1.3617917886594418E+01
N    6.4772733483211287E+00    5.5635552907639756E+00    1.5580521168149136E+01
Ga    6.4759759545363300E+00    7.4016893116758240E+00    1.5866671179072004E+01
N    4.8116175006452986E+00    1.0226119773714858E+01    2.4816963337770162E+00
Ga    4.9284113933671465E+00    8.3622212561937879E+00    3.1115574019044319E+00
N    4.8542956283087841E+00    8.3345965965946203E+00    5.1456712445542374E+00
Ga    4.8928725803976532E+00    1.0187663175564488E+01    5.7740760240230875E+00
N    4.8773459673959270E+00    1.0184457232836525E+01    7.7843181667597365E+00
Ga    4.8575059345435028E+00    8.3315338652233955E+00    8.4229431364905203E+00
N    4.8549549090364028E+00    8.3312885976145363E+00    1.0423319955597490E+01
Ga    4.8795988223179121E+00    1.0190482575543063E+01    1.1066061727438273E+01
N    4.8965152675020622E+00    1.0201914820973847E+01    1.3061670425339065E+01
Ga    4.8566069611563361E+00    8.3360037667141906E+00    1.3619219168042324E+01
N    4.8864010314852138E+00    8.3213470753569787E+00    1.5581167781479129E+01
Ga    4.6976209099210902E+00    1.0088000072003259E+01    1.6484899159273876E+01
O   -5.1199956790942594E-02    4.0802385244815378E+00   -4.3267909394605691E-01
H   -6.6208229649521377E-01    4.9145605876001834E+00   -5.1163533339177558E-01
C    1.2311863862149948E+00    4.3417168761725078E+00   -1.0859153251513975E+00
H    1.7506020863467768E+00    5.1823084914924564E+00   -6.0524050611436564E-01
H    1.8365029424392976E+00    3.4331447731755684E+00   -9.8529256807308019E-01
H    1.0351268028265852E+00    4.5497258629429620E+00   -2.1448093589643209E+00
Ga    3.2483057823028014E+00    5.4460015016735808E+00    3.0014785983134620E+00
O   -1.5141772152018571E+00    6.2048029901477948E+00   -6.4258194483238018E-01
H   -1.3332849991889686E-02    7.3624485172142453E+00    1.6220883352101401E+00
C   -2.6787365326939714E+00    6.2441827388834001E+00   -2.2418279525281912E-01
H   -3.3119156207321132E+00    7.1306496406500566E+00   -4.0817666090610416E-01
H    3.2580898271119572E+00    7.4355841964880813E+00    1.5124238245116319E+00
H   -3.1450475117182846E+00    5.3942726779109211E+00    3.0039134259089090E-01
     &END COORD
     &KIND C
       BASIS_SET DZVP-MOLOPT-SR-GTH-q4
       POTENTIAL GTH-PBE-q4
       &POTENTIAL
2 2
0.3384712400000000E+00 2 -0.8803673979999999E+01  0.1339210850000000E+01
2
0.3025757500000000E+00 1  0.9622486650000001E+01
0.2915069400000000E+00 0
       &END POTENTIAL
     &END KIND
     &KIND O
       BASIS_SET DZVP-MOLOPT-SR-GTH-q6
       POTENTIAL GTH-PBE-q6
       &POTENTIAL
2 4
0.2445543000000000E+00 2 -0.1666721480000000E+02  0.2487311320000000E+01
2
0.2209559200000000E+00 1  0.1833745811000000E+02
0.2113324700000000E+00 0
       &END POTENTIAL
     &END KIND
     &KIND H
       BASIS_SET DZVP-MOLOPT-SR-GTH-q1
       POTENTIAL GTH-PBE-q1
       &POTENTIAL
1
0.2000000000000000E+00 2 -0.4178900440000000E+01  0.7244633100000000E+00
0
       &END POTENTIAL
     &END KIND
     &KIND N
       BASIS_SET DZVP-MOLOPT-SR-GTH
       POTENTIAL GTH-PBE-q5
       &POTENTIAL
2 3
0.2837905100000000E+00 2 -0.1241522559000000E+02  0.1868095920000000E+01
2
0.2554050000000000E+00 1  0.1363026257000000E+02
0.2454945300000000E+00 0
       &END POTENTIAL
     &END KIND
     &KIND Ga
       BASIS_SET DZVP-MOLOPT-SR-GTH
       POTENTIAL GTH-PBE-q13
       &POTENTIAL
2 1 10
0.4900000000000000E+00 0
3
0.4167772300000000E+00 3  0.1047568975000000E+02 -0.4921768140000000E+01  0.8707055900000000E+00
0.7770178090000000E+01 -0.2248152160000000E+01
0.1784415450000000E+01
0.5696265200000000E+00 2  0.1777985340000000E+01  0.1958597600000000E+00
-0.2317443900000000E+00
0.2381265000000000E+00 1 -0.1624868022000000E+02
       &END POTENTIAL
     &END KIND
     &TOPOLOGY
       NUMBER_OF_ATOMS  212
       MULTIPLE_UNIT_CELL  1 1 1
     &END TOPOLOGY
     &COLVAR
       &DISTANCE
         ATOMS  127 211
       &END DISTANCE
       &PRINT
       &END PRINT
     &END COLVAR
   &END SUBSYS
 &END FORCE_EVAL
