 # Version information for this restart file 
 # current date 2019-07-20 08:06:09.510
 # current working dir /lustre04/scratch/rzk/rzk/GaN-carbene/443-adatoms-both-2x2/09-BondBreaking-CH/02-0401-CH-to-NTop-PES/Phase05-OptimizeAdjustedIntermed909
 # Program compiled at                              Sun Apr  7 00:48:11 EDT 2019
 # Program compiled on                          beluga2.int.ets1.calculquebec.ca
 # Program compiled for                        Beluga-Linux-x86-64-intel-openmpi
 # Source code revision number                                         svn:18619
 &GLOBAL
   PRINT_LEVEL  MEDIUM
   PROJECT_NAME TEST
   RUN_TYPE  GEO_OPT
 &END GLOBAL
 &MOTION
   &GEO_OPT
     MAX_ITER  500
     STEP_START_VAL  122
   &END GEO_OPT
 &END MOTION
 &FORCE_EVAL
   METHOD  QS
   STRESS_TENSOR  ANALYTICAL
   &DFT
     BASIS_SET_FILE_NAME BASIS_MOLOPT
     POTENTIAL_FILE_NAME GTH_POTENTIALS
     UKS  T
     SURFACE_DIPOLE_CORRECTION  T
     SURF_DIP_DIR  Z
     &SCF
       MAX_SCF  80
       EPS_SCF     5.0000000000000004E-06
       &OT  T
         PRECONDITIONER  FULL_ALL
       &END OT
       &OUTER_SCF  T
         OPTIMIZER  NONE
         EPS_SCF     5.0000000000000004E-06
         MAX_SCF  4
       &END OUTER_SCF
       &PRINT
         &RESTART  OFF
           BACKUP_COPIES  1
           &EACH
             JUST_ENERGY  0
             QS_SCF  0
             MD  20
           &END EACH
         &END RESTART
       &END PRINT
     &END SCF
     &QS
       EPS_DEFAULT     1.0000000000000000E-14
       METHOD  GPW
     &END QS
     &MGRID
       NGRIDS  5
       CUTOFF     1.2000000000000000E+03
     &END MGRID
     &XC
       DENSITY_CUTOFF     1.0000000000000000E-10
       GRADIENT_CUTOFF     1.0000000000000000E-10
       TAU_CUTOFF     1.0000000000000000E-10
       &XC_FUNCTIONAL  NO_SHORTCUT
         &PBE  T
         &END PBE
       &END XC_FUNCTIONAL
       &VDW_POTENTIAL
         POTENTIAL_TYPE  PAIR_POTENTIAL
         &PAIR_POTENTIAL
           R_CUTOFF     1.0000000000000009E+01
           TYPE  DFTD3
           PARAMETER_FILE_NAME dftd3.dat
           REFERENCE_FUNCTIONAL PBE
           EPS_CN     9.9999999999999995E-07
           CALCULATE_C9_TERM  T
           REFERENCE_C9_TERM  T
           LONG_RANGE_CORRECTION  F
           VERBOSE_OUTPUT  F
         &END PAIR_POTENTIAL
       &END VDW_POTENTIAL
     &END XC
   &END DFT
   &SUBSYS
     &CELL
       A     1.2864472766435110E+01    0.0000000000000000E+00    0.0000000000000000E+00
       B    -6.4322363581020028E+00    1.1140960178524477E+01    0.0000000000000000E+00
       C     0.0000000000000000E+00    0.0000000000000000E+00    3.2000000000000000E+01
       MULTIPLE_UNIT_CELL  1 1 1
       &CELL_REF
         A     1.2982353780853531E+01    0.0000000000000000E+00    0.0000000000000000E+00
         B    -6.4911768904267628E+00    1.1243048175136114E+01    0.0000000000000000E+00
         C     0.0000000000000000E+00    0.0000000000000000E+00    3.2000000000000000E+01
         MULTIPLE_UNIT_CELL  1 1 1
       &END CELL_REF
     &END CELL
     &COORD
N    5.2626808668290496E-02    1.9685647643341699E+00    2.5343239805793689E+00
Ga    6.7821750894079838E-02   -1.1493323803220840E-02    2.9222375506935840E+00
N    5.8972176126105030E-02   -1.5054586156849169E-02    5.0539196543742628E+00
Ga    4.6753585061331621E-02    1.7982369875752924E+00    5.8294713527826891E+00
N    4.5841898328406808E-02    1.8191428220123964E+00    7.8203724778946473E+00
Ga    4.4790210692134014E-02   -3.5816845336587598E-02    8.4405550865873771E+00
N    4.5289361383978800E-02   -3.1386705105732431E-02    1.0418493607241491E+01
Ga    4.4981256934213981E-02    1.8075486746112335E+00    1.1071054077894606E+01
N    4.5866217145509619E-02    1.7888671864731440E+00    1.3066042363440300E+01
Ga    4.4618047164664693E-02   -3.2299841931855998E-02    1.3864344212708930E+01
N    4.3904937657223364E-02   -3.3551007205275228E-02    1.6068881799967368E+01
Ga    4.5598417590069301E-02    2.0060524656307233E+00    1.6479712662753673E+01
Ga    3.4085037916670703E-02    3.6526775306645956E+00    1.5185106941362561E+00
N   -1.4455478910063699E+00    4.5458625993657913E+00    2.5452016272439000E+00
Ga   -1.6532249000634209E+00    2.6792816785592848E+00    3.3151181212728127E+00
N   -1.5642875822706106E+00    2.7531606518055551E+00    5.2745704985497772E+00
Ga   -1.5867287063697746E+00    4.6226987795575551E+00    5.8184362816437893E+00
N   -1.5688185122734171E+00    4.6206533504480625E+00    7.8070807920750367E+00
Ga   -1.5538334142957542E+00    2.7613956644986994E+00    8.4490727577463041E+00
N   -1.5520286760637754E+00    2.7635117003909548E+00    1.0440468922230066E+01
Ga   -1.5782457975821049E+00    4.6232266844651457E+00    1.1070654027633198E+01
N   -1.5938631255932560E+00    4.6306271181723542E+00    1.3065230497937007E+01
Ga   -1.5513377268381494E+00    2.7607173581656412E+00    1.3619445783567809E+01
N   -1.5792037322248800E+00    2.7438608055842231E+00    1.5583478088050235E+01
Ga   -1.4034416237819034E+00    4.5174022488916297E+00    1.6480612312771715E+01
N    3.8385674962816987E-02    3.6755700925529178E+00    1.7614984154716460E+01
N   -3.1528120105105706E+00    7.4795304571460566E+00    2.4706487612868964E+00
Ga   -3.1564708741663043E+00    5.5427617975242418E+00    2.9446993110447997E+00
N   -3.1680423223190068E+00    5.5334609194846180E+00    5.0441142582973022E+00
Ga   -3.1765111313277647E+00    7.3786676527553983E+00    5.7871647380657869E+00
N   -3.1688053894448105E+00    7.3894933804390872E+00    7.7857084441137436E+00
Ga   -3.1717000465783403E+00    5.5456923525703514E+00    8.4414909068233452E+00
N   -3.1706050953337463E+00    5.5425876969638921E+00    1.0416832545701951E+01
Ga   -3.1723858047190223E+00    7.3816416877543887E+00    1.1066650314772733E+01
N   -3.1706065837917508E+00    7.3609284456041957E+00    1.3062640890410382E+01
Ga   -3.1705867694933105E+00    5.5404373532325755E+00    1.3864853762295194E+01
N   -3.1713080588359257E+00    5.5374585085204142E+00    1.6069480010589590E+01
Ga   -3.1703562274535186E+00    7.5750430881175950E+00    1.6478415244519827E+01
Ga   -3.1896702280020839E+00    9.4406415806220885E+00    1.2575442179234693E+00
N   -4.6657034938604003E+00    1.0152651185633248E+01    2.5376425079281719E+00
Ga   -4.8435662186245327E+00    8.2882125407724097E+00    3.1953885700224691E+00
N   -4.7739378111774808E+00    8.3257023881610372E+00    5.2017163276579517E+00
Ga   -4.7980347606123379E+00    1.0189110642623337E+01    5.7933364665003424E+00
N   -4.7859869609805088E+00    1.0185739760296251E+01    7.7964446886262335E+00
Ga   -4.7741436611070203E+00    8.3303262233809985E+00    8.4235897158754973E+00
N   -4.7689979516180045E+00    8.3301161487601298E+00    1.0423343369093377E+01
Ga   -4.7946520204496936E+00    1.0188461930624152E+01    1.1066557201356158E+01
N   -4.8101500891952726E+00    1.0198919049787836E+01    1.3063297367459191E+01
Ga   -4.7677708688128968E+00    8.3311118042262038E+00    1.3619493240904800E+01
N   -4.7943786366013477E+00    8.3131976004513248E+00    1.5583800810486016E+01
Ga   -4.6231337312320315E+00    1.0090012913240862E+01    1.6477719828327132E+01
N   -3.1790512238293682E+00    9.2469822326816349E+00    1.7610600852796491E+01
N    3.2570579418513939E+00    1.8315688920063973E+00    2.6415394887612451E+00
Ga    3.2644914021452642E+00    6.9012270094406691E-02    3.3004815355084611E+00
N    3.2646926339980422E+00   -2.4515480541415280E-02    5.2705027777016573E+00
Ga    3.2606151976890980E+00    1.8229718072786245E+00    5.9006772823363960E+00
N    3.2630526452378668E+00    1.8282680950496095E+00    7.8719100747124715E+00
Ga    3.2601511672543833E+00   -4.5103076080143231E-02    8.4424133910444379E+00
N    3.2614492690637227E+00   -4.3547748041109377E-02    1.0436952772193681E+01
Ga    3.2618774688544807E+00    1.8258914746778885E+00    1.1030601136640209E+01
N    3.2622514861145619E+00    1.8254529137348410E+00    1.3003223177482099E+01
Ga    3.2622891516491506E+00   -4.5133234223965264E-02    1.3619405535994865E+01
N    3.2637026570462466E+00   -1.4575199928748419E-02    1.5582998056698495E+01
Ga    3.2618395217314684E+00    1.8244709460031785E+00    1.5860167597196547E+01
N    1.5303177816608724E+00    4.5427855640258912E+00    2.5379033442395662E+00
Ga    1.7403650815234395E+00    2.6914861703322996E+00    3.3231888425859668E+00
N    1.6555281488555509E+00    2.7571666644264696E+00    5.2849214758752492E+00
Ga    1.6757414249095810E+00    4.6211428177214930E+00    5.8351411780505291E+00
N    1.6611186451205637E+00    4.6210334358615821E+00    7.8167561882777976E+00
Ga    1.6445517592359056E+00    2.7609822951511056E+00    8.4539949670974099E+00
N    1.6430458410988609E+00    2.7635533316363228E+00    1.0443654119567682E+01
Ga    1.6697630652258524E+00    4.6246813122687476E+00    1.1069688126981063E+01
N    1.6861512767245201E+00    4.6311397395397726E+00    1.3064226539010395E+01
Ga    1.6428497689208199E+00    2.7617747732880669E+00    1.3619889614672555E+01
N    1.6706985941451811E+00    2.7454155954249129E+00    1.5582676706065456E+01
Ga    1.4890589938474623E+00    4.5143935295051776E+00    1.6481360811297940E+01
N    5.2634628943202748E-02    7.4106260570523794E+00    2.6476897635414764E+00
Ga    5.0728921012963279E-02    5.5841889136393856E+00    3.3427255340362940E+00
N    4.8362692170525232E-02    5.5619479322023109E+00    5.2684428440190105E+00
Ga    6.3747189435347212E-02    7.4229051636501691E+00    5.8646110947745429E+00
N    5.0529295751085800E-02    7.4052668932402632E+00    7.8372403527617314E+00
Ga    4.4915888782331707E-02    5.5394035346135322E+00    8.4428127630090550E+00
N    4.5045489763421993E-02    5.5317597981659867E+00    1.0433862234125757E+01
Ga    4.6193856573098650E-02    7.3996034727817541E+00    1.1027826487834288E+01
N    4.6079488322434817E-02    7.3972032876559188E+00    1.2999629087604164E+01
Ga    4.6522079379444234E-02    5.5274805579587412E+00    1.3620812577880859E+01
N    4.6913990213938224E-02    5.5567078097532274E+00    1.5583266044447413E+01
Ga    4.5899782113246891E-02    7.3952342705252221E+00    1.5861669107361500E+01
N   -1.6679987306447854E+00    1.0146788803892587E+01    2.5289554105155982E+00
Ga   -1.5724989851848563E+00    8.3337560149299126E+00    3.2650989916094191E+00
N   -1.5501974576890751E+00    8.3212635216788389E+00    5.2209152289007132E+00
Ga   -1.5384692691577344E+00    1.0199998888024005E+01    5.8090386738164899E+00
N   -1.5548804269711867E+00    1.0184070782014462E+01    7.8054630615624001E+00
Ga   -1.5715904927529196E+00    8.3311969020671981E+00    8.4367684041355613E+00
N   -1.5730028117362502E+00    8.3302763344386275E+00    1.0430554928739697E+01
Ga   -1.5466328076849494E+00    1.0190352398638938E+01    1.1067691715221448E+01
N   -1.5300971922985085E+00    1.0199397981908556E+01    1.3063355685191706E+01
Ga   -1.5731976698018975E+00    8.3316437622371939E+00    1.3619540816183395E+01
N   -1.5462888354847200E+00    8.3151765188127946E+00    1.5582538440058254E+01
Ga   -1.7253126645603885E+00    1.0085510494663517E+01    1.6478739235403641E+01
N    6.4760220065187584E+00    1.9538952804140446E+00    2.5565803294507643E+00
Ga    6.4870951304112339E+00   -4.1018099739380774E-02    2.8966752315477544E+00
N    6.4647344744721291E+00   -1.8439000560920352E-02    5.0681956347919819E+00
Ga    6.4836804567576527E+00    1.7963980786263374E+00    5.8259765339704392E+00
N    6.4810088188652619E+00    1.8203666369861662E+00    7.8186719912439031E+00
Ga    6.4812137498847155E+00   -3.4320993150845636E-02    8.4419806672553594E+00
N    6.4791896853756663E+00   -3.1064758777894365E-02    1.0419365985228369E+01
Ga    6.4788258482907066E+00    1.8084757417580268E+00    1.1070805489317642E+01
N    6.4783809867029269E+00    1.7888514438375587E+00    1.3066307349824948E+01
Ga    6.4786755003963812E+00   -3.2390728441426472E-02    1.3864642168394823E+01
N    6.4773227806851894E+00   -3.4101190826234626E-02    1.6069545777118776E+01
Ga    6.4783035706288574E+00    2.0025524172957372E+00    1.6476302696934386E+01
Ga    6.4692527222902223E+00    3.6739496315898053E+00    1.5802591067464946E+00
N    4.9776541924685462E+00    4.5382213493724040E+00    2.5692718169020692E+00
Ga    4.7718904455672675E+00    2.6749071296746649E+00    3.3333333237298097E+00
N    4.8715627262939645E+00    2.7539309830184506E+00    5.2862751473836012E+00
Ga    4.8587684576975549E+00    4.6248345441399970E+00    5.8210982682511219E+00
N    4.8630739415766433E+00    4.6202518804533206E+00    7.8089416162381369E+00
Ga    4.8816391620958353E+00    2.7628840450384953E+00    8.4514931000535878E+00
N    4.8809446144194579E+00    2.7635168900388885E+00    1.0442543753454581E+01
Ga    4.8566837172568924E+00    4.6253038563621081E+00    1.1067375019682798E+01
N    4.8386789034570326E+00    4.6312683932686110E+00    1.3063849571411183E+01
Ga    4.8818151762400710E+00    2.7618454011885913E+00    1.3619522270166488E+01
N    4.8543757078164900E+00    2.7440557325715544E+00    1.5584639013425415E+01
Ga    5.0240386564673374E+00    4.5206173780359533E+00    1.6476901733379865E+01
N    6.4700730667300723E+00    3.6766706175020962E+00    1.7609073760037791E+01
N    3.2582415308281898E+00    7.3704094892297931E+00    2.5404036752496424E+00
N    3.2610193473360791E+00    5.5196516459138358E+00    5.0605303637196712E+00
Ga    3.2671324360933793E+00    7.3903988832139547E+00    5.7608157366629804E+00
N    3.2614457189767072E+00    7.3921237851645172E+00    7.7678831061446800E+00
Ga    3.2644207611648741E+00    5.5519170777856939E+00    8.4409021358489813E+00
N    3.2625907177560975E+00    5.5448656514300305E+00    1.0416395361708984E+01
Ga    3.2638299605002183E+00    7.3826658217823029E+00    1.1068151585195299E+01
N    3.2625524981212517E+00    7.3612378939322296E+00    1.3063004523248695E+01
Ga    3.2617606511144621E+00    5.5411154303040107E+00    1.3865808453055299E+01
N    3.2601877798142751E+00    5.5382259230098763E+00    1.6069358295767145E+01
Ga    3.2619543715691370E+00    7.5787598878918274E+00    1.6481456386921671E+01
Ga    3.8086171187244275E+00    1.0581439018169384E+01    6.8861988893661641E-01
N    1.7156597248595329E+00    1.0205085860794668E+01    2.5019581763483103E+00
Ga    1.6761852101663808E+00    8.4186708736111147E+00    3.1589974384874782E+00
N    1.6523015891583930E+00    8.3195582256772678E+00    5.1540444579062079E+00
Ga    1.6245658071702407E+00    1.0188650626899157E+01    5.7790155629653279E+00
N    1.6434043685170048E+00    1.0180568782332356E+01    7.7867371855764773E+00
Ga    1.6688116816313900E+00    8.3335351218601659E+00    8.4343323018941554E+00
N    1.6658696801024420E+00    8.3306486687597321E+00    1.0428668008214027E+01
Ga    1.6408685622204358E+00    1.0190711395964788E+01    1.1066338059790827E+01
N    1.6229523725558366E+00    1.0199346305446998E+01    1.3062378219332363E+01
Ga    1.6656984537528670E+00    8.3318333789105363E+00    1.3620568497362139E+01
N    1.6371132671664153E+00    8.3138305525595442E+00    1.5583373172146088E+01
Ga    1.8141680031781577E+00    1.0087319209879139E+01    1.6481611244473228E+01
N    3.2552970289566958E+00    9.2467358797600898E+00    1.7617676267367692E+01
N    9.7139793633047518E+00    1.7869339399580195E+00    2.6156523092240662E+00
Ga    9.6557851708128997E+00    4.2037763643327430E-03    3.2963280014979577E+00
N    9.6925924861422228E+00   -2.7972760899128996E-02    5.2677391794314179E+00
Ga    9.6957974657452155E+00    1.8183568843068401E+00    5.8901897717879521E+00
N    9.6933467234130060E+00    1.8286077025736978E+00    7.8632047414211721E+00
Ga    9.6950589118625849E+00   -4.7652725291731778E-02    8.4246323785508856E+00
N    9.6940140467623728E+00   -4.4087554290151626E-02    1.0425235697302160E+01
Ga    9.6936257647653221E+00    1.8240626620773519E+00    1.1025807060299041E+01
N    9.6939924479996016E+00    1.8247407187351103E+00    1.2999450489382017E+01
Ga    9.6950459211252280E+00   -4.4888053633826509E-02    1.3619271983803518E+01
N    9.6955463899232139E+00   -1.4109673356170473E-02    1.5581644973797133E+01
Ga    9.6941285763633562E+00    1.8240117940424880E+00    1.5860539275320191E+01
N    7.9826306236189577E+00    4.5501325432041515E+00    2.5422379021015526E+00
Ga    8.2049526063635607E+00    2.6727295203579353E+00    3.2945176049153604E+00
N    8.0928523994802681E+00    2.7523885499053433E+00    5.2564552466849515E+00
Ga    8.1030437592022295E+00    4.6248498928352353E+00    5.8038775677331138E+00
N    8.0943205255516322E+00    4.6194197671564652E+00    7.7985255616946105E+00
Ga    8.0781386822907475E+00    2.7641640139206087E+00    8.4490972329504910E+00
N    8.0755019107102157E+00    2.7643709889525296E+00    1.0440221869975478E+01
Ga    8.0998474778120197E+00    4.6246407635456661E+00    1.1068053284431913E+01
N    8.1175000659114023E+00    4.6309461130297853E+00    1.3063535601697293E+01
Ga    8.0758368762095909E+00    2.7613847615179425E+00    1.3618328236387690E+01
N    8.1022913468333506E+00    2.7458792990237830E+00    1.5582464148644393E+01
Ga    7.9247534063780396E+00    4.5161896361309442E+00    1.6477458810374689E+01
N    6.4709734321403491E+00    7.4210971866818340E+00    2.5654129025563255E+00
Ga    6.4705669479601982E+00    5.6965045513080383E+00    3.2867772011813066E+00
N    6.4771352130435718E+00    5.5503104017521450E+00    5.2456538893638989E+00
Ga    6.4638978285470898E+00    7.4267886829453982E+00    5.8175029146715636E+00
N    6.4738600811015621E+00    7.4051258874038508E+00    7.8126184371161083E+00
Ga    6.4797489096057515E+00    5.5437653079375666E+00    8.4276113864500619E+00
N    6.4789030413828650E+00    5.5326133106424802E+00    1.0425237999945809E+01
Ga    6.4767712019833796E+00    7.3994898947809533E+00    1.1022467924182424E+01
N    6.4777971749102985E+00    7.3970432300110964E+00    1.2996191697087390E+01
Ga    6.4784073832419740E+00    5.5283479398933828E+00    1.3619580554197798E+01
N    6.4798678295118544E+00    5.5562407029215324E+00    1.5583397257948965E+01
Ga    6.4776675951022016E+00    7.3954305429936928E+00    1.5862287271789778E+01
N    4.8131695994810206E+00    1.0225808256857157E+01    2.4836718552373691E+00
Ga    4.9318146661297639E+00    8.3649786694788766E+00    3.1123115761925311E+00
N    4.8581551082735297E+00    8.3364622909018689E+00    5.1458410714798184E+00
Ga    4.8962312857975121E+00    1.0188952879447923E+01    5.7735791003836479E+00
N    4.8817345546676769E+00    1.0184692278857742E+01    7.7832837811164115E+00
Ga    4.8615457506463597E+00    8.3328021230322697E+00    8.4213862336041565E+00
N    4.8585879172074513E+00    8.3308131251090476E+00    1.0420924675548299E+01
Ga    4.8835452790259355E+00    1.0189359128794163E+01    1.1063269425012063E+01
N    4.9012377406155494E+00    1.0199029696681473E+01    1.3059965919570308E+01
Ga    4.8597639782896724E+00    8.3320941917812998E+00    1.3619559092821920E+01
N    4.8870497686062402E+00    8.3153662849940133E+00    1.5581408780604621E+01
Ga    4.7043921345809929E+00    1.0084317351534358E+01    1.6481967255754999E+01
O   -8.1487094326549103E-02    4.1055693562799727E+00   -4.2757923610548154E-01
H   -7.0825630324708011E-01    4.9296215960137140E+00   -4.8860653836341028E-01
C    1.1836166406018567E+00    4.4023031658668792E+00   -1.1025562049202731E+00
H    1.6956227681635514E+00    5.2406728492339836E+00   -6.1324790036859600E-01
H    1.8051200168096579E+00    3.5030772321697712E+00   -1.0364502694297431E+00
H    9.6481515787526617E-01    4.6354109678991238E+00   -2.1510551685333672E+00
Ga    3.2496110943859695E+00    5.4464702722096510E+00    3.0007558994315096E+00
O   -1.5592567973323876E+00    6.2107596043912316E+00   -6.1789258120212054E-01
H   -1.0309265624513548E-02    7.3649226223363566E+00    1.6237632283233088E+00
C   -2.7284638205498464E+00    6.2648196488909313E+00   -2.0970459765485208E-01
H   -3.3432203257590958E+00    7.1607021868268887E+00   -3.9741300828886561E-01
H    3.2642506479333657E+00    7.4381290559866962E+00    1.5144430464585592E+00
H   -3.2084833006444002E+00    5.4127398933357593E+00    3.0569904275521542E-01
     &END COORD
     &KIND C
       BASIS_SET DZVP-MOLOPT-SR-GTH-q4
       POTENTIAL GTH-PBE-q4
       &POTENTIAL
2 2
0.3384712400000000E+00 2 -0.8803673979999999E+01  0.1339210850000000E+01
2
0.3025757500000000E+00 1  0.9622486650000001E+01
0.2915069400000000E+00 0
       &END POTENTIAL
     &END KIND
     &KIND O
       BASIS_SET DZVP-MOLOPT-SR-GTH-q6
       POTENTIAL GTH-PBE-q6
       &POTENTIAL
2 4
0.2445543000000000E+00 2 -0.1666721480000000E+02  0.2487311320000000E+01
2
0.2209559200000000E+00 1  0.1833745811000000E+02
0.2113324700000000E+00 0
       &END POTENTIAL
     &END KIND
     &KIND H
       BASIS_SET DZVP-MOLOPT-SR-GTH-q1
       POTENTIAL GTH-PBE-q1
       &POTENTIAL
1
0.2000000000000000E+00 2 -0.4178900440000000E+01  0.7244633100000000E+00
0
       &END POTENTIAL
     &END KIND
     &KIND N
       BASIS_SET DZVP-MOLOPT-SR-GTH
       POTENTIAL GTH-PBE-q5
       &POTENTIAL
2 3
0.2837905100000000E+00 2 -0.1241522559000000E+02  0.1868095920000000E+01
2
0.2554050000000000E+00 1  0.1363026257000000E+02
0.2454945300000000E+00 0
       &END POTENTIAL
     &END KIND
     &KIND Ga
       BASIS_SET DZVP-MOLOPT-SR-GTH
       POTENTIAL GTH-PBE-q13
       &POTENTIAL
2 1 10
0.4900000000000000E+00 0
3
0.4167772300000000E+00 3  0.1047568975000000E+02 -0.4921768140000000E+01  0.8707055900000000E+00
0.7770178090000000E+01 -0.2248152160000000E+01
0.1784415450000000E+01
0.5696265200000000E+00 2  0.1777985340000000E+01  0.1958597600000000E+00
-0.2317443900000000E+00
0.2381265000000000E+00 1 -0.1624868022000000E+02
       &END POTENTIAL
     &END KIND
     &TOPOLOGY
       NUMBER_OF_ATOMS  212
       MULTIPLE_UNIT_CELL  1 1 1
     &END TOPOLOGY
     &COLVAR
       &DISTANCE
         ATOMS  127 211
       &END DISTANCE
       &PRINT
       &END PRINT
     &END COLVAR
   &END SUBSYS
 &END FORCE_EVAL
