 # Version information for this restart file 
 # current date 2019-07-20 11:15:00.951
 # current working dir /lustre04/scratch/rzk/rzk/GaN-carbene/443-adatoms-both-2x2/09-BondBreaking-CH/02-0401-CH-to-NTop-PES/Phase05-OptimizeAdjustedIntermed909
 # Program compiled at                              Sun Apr  7 00:48:11 EDT 2019
 # Program compiled on                          beluga2.int.ets1.calculquebec.ca
 # Program compiled for                        Beluga-Linux-x86-64-intel-openmpi
 # Source code revision number                                         svn:18619
 &GLOBAL
   PRINT_LEVEL  MEDIUM
   PROJECT_NAME TEST
   RUN_TYPE  GEO_OPT
 &END GLOBAL
 &MOTION
   &GEO_OPT
     MAX_ITER  500
     STEP_START_VAL  158
   &END GEO_OPT
 &END MOTION
 &FORCE_EVAL
   METHOD  QS
   STRESS_TENSOR  ANALYTICAL
   &DFT
     BASIS_SET_FILE_NAME BASIS_MOLOPT
     POTENTIAL_FILE_NAME GTH_POTENTIALS
     UKS  T
     SURFACE_DIPOLE_CORRECTION  T
     SURF_DIP_DIR  Z
     &SCF
       MAX_SCF  80
       EPS_SCF     5.0000000000000004E-06
       &OT  T
         PRECONDITIONER  FULL_ALL
       &END OT
       &OUTER_SCF  T
         OPTIMIZER  NONE
         EPS_SCF     5.0000000000000004E-06
         MAX_SCF  4
       &END OUTER_SCF
       &PRINT
         &RESTART  OFF
           BACKUP_COPIES  1
           &EACH
             JUST_ENERGY  0
             QS_SCF  0
             MD  20
           &END EACH
         &END RESTART
       &END PRINT
     &END SCF
     &QS
       EPS_DEFAULT     1.0000000000000000E-14
       METHOD  GPW
     &END QS
     &MGRID
       NGRIDS  5
       CUTOFF     1.2000000000000000E+03
     &END MGRID
     &XC
       DENSITY_CUTOFF     1.0000000000000000E-10
       GRADIENT_CUTOFF     1.0000000000000000E-10
       TAU_CUTOFF     1.0000000000000000E-10
       &XC_FUNCTIONAL  NO_SHORTCUT
         &PBE  T
         &END PBE
       &END XC_FUNCTIONAL
       &VDW_POTENTIAL
         POTENTIAL_TYPE  PAIR_POTENTIAL
         &PAIR_POTENTIAL
           R_CUTOFF     1.0000000000000009E+01
           TYPE  DFTD3
           PARAMETER_FILE_NAME dftd3.dat
           REFERENCE_FUNCTIONAL PBE
           EPS_CN     9.9999999999999995E-07
           CALCULATE_C9_TERM  T
           REFERENCE_C9_TERM  T
           LONG_RANGE_CORRECTION  F
           VERBOSE_OUTPUT  F
         &END PAIR_POTENTIAL
       &END VDW_POTENTIAL
     &END XC
   &END DFT
   &SUBSYS
     &CELL
       A     1.2864472766435110E+01    0.0000000000000000E+00    0.0000000000000000E+00
       B    -6.4322363581020028E+00    1.1140960178524477E+01    0.0000000000000000E+00
       C     0.0000000000000000E+00    0.0000000000000000E+00    3.2000000000000000E+01
       MULTIPLE_UNIT_CELL  1 1 1
       &CELL_REF
         A     1.2982353780853531E+01    0.0000000000000000E+00    0.0000000000000000E+00
         B    -6.4911768904267628E+00    1.1243048175136114E+01    0.0000000000000000E+00
         C     0.0000000000000000E+00    0.0000000000000000E+00    3.2000000000000000E+01
         MULTIPLE_UNIT_CELL  1 1 1
       &END CELL_REF
     &END CELL
     &COORD
N    5.2077153679881402E-02    1.9671968504260815E+00    2.5328453351504909E+00
Ga    6.6693233741555377E-02   -1.2867449097083374E-02    2.9212173809224562E+00
N    5.8467373616744055E-02   -1.6739959030207290E-02    5.0531865797065239E+00
Ga    4.6476685831736232E-02    1.7964750307385602E+00    5.8293265414716426E+00
N    4.5855331318675668E-02    1.8175564396658430E+00    7.8199397190582722E+00
Ga    4.4650698513377197E-02   -3.7370529423512364E-02    8.4394257608378851E+00
N    4.5449379244624950E-02   -3.2143501675089135E-02    1.0417423096528331E+01
Ga    4.5137202655924531E-02    1.8068216859004185E+00    1.1069828400499922E+01
N    4.6133677182026621E-02    1.7895703792099791E+00    1.3065014635321658E+01
Ga    4.5420346130237474E-02   -3.1547890317807969E-02    1.3862297061771734E+01
N    4.4854591986107514E-02   -3.1780247930104394E-02    1.6067966003307948E+01
Ga    4.6338552844559053E-02    2.0069168704544023E+00    1.6478047436443013E+01
Ga    3.2984129191716081E-02    3.6527151220206400E+00    1.5186915626791448E+00
N   -1.4462287975494617E+00    4.5436107576761726E+00    2.5469933197863659E+00
Ga   -1.6535339525660784E+00    2.6774126742693687E+00    3.3150556111421734E+00
N   -1.5644784535696359E+00    2.7511527932387656E+00    5.2744310179644645E+00
Ga   -1.5868099783072434E+00    4.6206271172586542E+00    5.8181613158859289E+00
N   -1.5688102268527377E+00    4.6189885112787801E+00    7.8065493128560730E+00
Ga   -1.5537887502012355E+00    2.7598691366543648E+00    8.4482744065605022E+00
N   -1.5517940184469348E+00    2.7629196206866955E+00    1.0439724816946081E+01
Ga   -1.5781179692709297E+00    4.6228304732696603E+00    1.1069681753477292E+01
N   -1.5936120033935008E+00    4.6314057837178302E+00    1.3064440930473653E+01
Ga   -1.5509627449309231E+00    2.7616144459016656E+00    1.3618559230888570E+01
N   -1.5780890861408972E+00    2.7458394133267596E+00    1.5583180305575581E+01
Ga   -1.4050137597390917E+00    4.5211493893657773E+00    1.6478768358005485E+01
N    3.7972830570996034E-02    3.6779865684799677E+00    1.7613085200881791E+01
N   -3.1529233862435651E+00    7.4754663195447568E+00    2.4689601254559599E+00
Ga   -3.1570824703038629E+00    5.5399246612113169E+00    2.9459397374616527E+00
N   -3.1684399949472408E+00    5.5309341211263661E+00    5.0445170547761284E+00
Ga   -3.1765354558907082E+00    7.3767378357980755E+00    5.7855700732988353E+00
N   -3.1688124529947239E+00    7.3880045171894366E+00    7.7842338191165981E+00
Ga   -3.1715786984836867E+00    5.5443839997831121E+00    8.4402924261415073E+00
N   -3.1703770155679849E+00    5.5418980284138888E+00    1.0415716144787940E+01
Ga   -3.1722460022135679E+00    7.3810066217809380E+00    1.1065547298960217E+01
N   -3.1701849000161353E+00    7.3613233652598309E+00    1.3061495550680219E+01
Ga   -3.1705815403262285E+00    5.5413191292773449E+00    1.3864387388341024E+01
N   -3.1713445821616246E+00    5.5396092205015597E+00    1.6068290963847268E+01
Ga   -3.1698856993742046E+00    7.5774546618729977E+00    1.6478670943670860E+01
Ga   -3.1894571106526106E+00    9.4497263644403109E+00    1.2564025224474011E+00
N   -4.6658976652819133E+00    1.0151863133972904E+01    2.5375766712086469E+00
Ga   -4.8427856769750202E+00    8.2856081740776286E+00    3.1927242542354257E+00
N   -4.7739020898599014E+00    8.3236090872025930E+00    5.1997935369257666E+00
Ga   -4.7986764304261262E+00    1.0186782953612219E+01    5.7925110468461467E+00
N   -4.7862239162637605E+00    1.0184094743810412E+01    7.7954220517017321E+00
Ga   -4.7741496251387980E+00    8.3286890986706812E+00    8.4223631089987698E+00
N   -4.7688427813966410E+00    8.3293138464031493E+00    1.0422033771127701E+01
Ga   -4.7943296568725353E+00    1.0187735458747845E+01    1.1065113615797690E+01
N   -4.8096885090364676E+00    1.0199658798409121E+01    1.3061801089281660E+01
Ga   -4.7671916654149484E+00    8.3319420848308496E+00    1.3618557115101991E+01
N   -4.7939811590290144E+00    8.3158696367282730E+00    1.5582895042327655E+01
Ga   -4.6212247503101178E+00    1.0091657275649762E+01    1.6478369482725611E+01
N   -3.1780737968647053E+00    9.2486118839998621E+00    1.7613196161323284E+01
N    3.2567832581605138E+00    1.8296016180635626E+00    2.6425319044172961E+00
Ga    3.2640608795870532E+00    6.8053839076667455E-02    3.3027873383802695E+00
N    3.2644666777988669E+00   -2.6300038945073021E-02    5.2715510217098762E+00
Ga    3.2602426808275493E+00    1.8218077698994477E+00    5.9002950413814563E+00
N    3.2627737571532642E+00    1.8267912473239685E+00    7.8712403474926784E+00
Ga    3.2601034232506296E+00   -4.6703622013426094E-02    8.4409626404194675E+00
N    3.2615035464655815E+00   -4.4260648214397749E-02    1.0435462094160771E+01
Ga    3.2619252374867695E+00    1.8251407614562885E+00    1.1029354251233929E+01
N    3.2624759446859479E+00    1.8262755779804625E+00    1.3001907009647230E+01
Ga    3.2626794469821858E+00   -4.4180152042058073E-02    1.3618383639288169E+01
N    3.2638869673825779E+00   -1.2666937128719639E-02    1.5581722251012165E+01
Ga    3.2625358222233172E+00    1.8263532392101998E+00    1.5859751133871137E+01
N    1.5301412499168257E+00    4.5413370623634846E+00    2.5386150880197524E+00
Ga    1.7398164409685357E+00    2.6902172260928645E+00    3.3223970653313364E+00
N    1.6549590366997258E+00    2.7553676739075845E+00    5.2844499455106204E+00
Ga    1.6755415462751846E+00    4.6194050460130178E+00    5.8345949094000149E+00
N    1.6609307888419471E+00    4.6193287965705219E+00    7.8160549860400179E+00
Ga    1.6443982432055610E+00    2.7595682154489927E+00    8.4532448470331474E+00
N    1.6430229543083381E+00    2.7629200757460741E+00    1.0442773277768723E+01
Ga    1.6697254445886087E+00    4.6241246794434705E+00    1.1068476897657467E+01
N    1.6862976362438526E+00    4.6317963648702767E+00    1.3063226453668811E+01
Ga    1.6432500398259333E+00    2.7623977638530794E+00    1.3618722934548416E+01
N    1.6708458278384168E+00    2.7476881847531867E+00    1.5582011254636345E+01
Ga    1.4906621506060385E+00    4.5171653900829005E+00    1.6479921634040092E+01
N    5.2766643368313923E-02    7.4085931818115709E+00    2.6469244816043345E+00
Ga    5.0394483650949874E-02    5.5826322351875257E+00    3.3430431765562094E+00
N    4.8046270918472786E-02    5.5601468768728868E+00    5.2684602855082323E+00
Ga    6.3477297678628267E-02    7.4210956423910694E+00    5.8635643768599888E+00
N    5.0415143715824062E-02    7.4037445487379072E+00    7.8360960131767854E+00
Ga    4.4878158409369276E-02    5.5380235297259430E+00    8.4415870336847050E+00
N    4.5126066345317392E-02    5.5311110695400183E+00    1.0432792454424888E+01
Ga    4.6254394631416902E-02    7.3990226726709505E+00    1.1026751061399880E+01
N    4.6607505403200571E-02    7.3980142973585545E+00    1.2998829722157748E+01
Ga    4.6714682726129213E-02    5.5284394831166024E+00    1.3619747283944280E+01
N    4.7912071360075886E-02    5.5587576093557942E+00    1.5582583333242141E+01
Ga    4.6132818482767950E-02    7.3976159896791396E+00    1.5861352864833224E+01
N   -1.6688089966876065E+00    1.0145879787888417E+01    2.5295750348584063E+00
Ga   -1.5732733932393927E+00    8.3310169440445616E+00    3.2623833808939975E+00
N   -1.5502695447464672E+00    8.3190687012769491E+00    5.2188332372137536E+00
Ga   -1.5384399007385423E+00    1.0197404089260395E+01    5.8081359319721484E+00
N   -1.5548916026851158E+00    1.0182323659728633E+01    7.8043231824866819E+00
Ga   -1.5715801620670595E+00    8.3295077205599082E+00    8.4355601873733317E+00
N   -1.5728830752045031E+00    8.3293926787420709E+00    1.0429311000154582E+01
Ga   -1.5467231635913139E+00    1.0189633859375729E+01    1.1066449875738577E+01
N   -1.5296635884408190E+00    1.0200193908474203E+01    1.3062093034807706E+01
Ga   -1.5730219490343451E+00    8.3325188646802673E+00    1.3618682597413732E+01
N   -1.5457375627773300E+00    8.3175629139326492E+00    1.5581693028305072E+01
Ga   -1.7254255346777918E+00    1.0087652442727293E+01    1.6479219008996367E+01
N    6.4755266049258182E+00    1.9516892588701338E+00    2.5571176326191409E+00
Ga    6.4870606375565254E+00   -4.2716892869398018E-02    2.8977620212376722E+00
N    6.4647237070001937E+00   -2.0309619427684902E-02    5.0680297999770660E+00
Ga    6.4834133263888214E+00    1.7947413461119477E+00    5.8255851112617139E+00
N    6.4808944747175774E+00    1.8187161717655720E+00    7.8179880267996609E+00
Ga    6.4811865148518484E+00   -3.6063282879207445E-02    8.4408794354434544E+00
N    6.4793106981233404E+00   -3.1898774308902249E-02    1.0418285484755321E+01
Ga    6.4789992403396734E+00    1.8078620962191525E+00    1.1069691623298056E+01
N    6.4788935982652234E+00    1.7894357850482787E+00    1.3064907247264621E+01
Ga    6.4786650687794767E+00   -3.1117828683730097E-02    1.3864027439115711E+01
N    6.4772506775276888E+00   -3.1669585992752158E-02    1.6068895724036928E+01
Ga    6.4789906195018547E+00    2.0068575763158090E+00    1.6476865226445984E+01
Ga    6.4688437359520590E+00    3.6715061907479583E+00    1.5805204906386765E+00
N    4.9772392282061091E+00    4.5362064409368976E+00    2.5690035656673302E+00
Ga    4.7715908317888616E+00    2.6737697027174478E+00    3.3330284292050250E+00
N    4.8714413179129501E+00    2.7520997562417593E+00    5.2860413202125471E+00
Ga    4.8585520288585160E+00    4.6232254303662748E+00    5.8199667161458617E+00
N    4.8629587336963214E+00    4.6187668687973638E+00    7.8077651175452987E+00
Ga    4.8814411942857161E+00    2.7614680331105386E+00    8.4504374115979051E+00
N    4.8809985911964935E+00    2.7628694439834818E+00    1.0441370459720954E+01
Ga    4.8569642338659298E+00    4.6248119959373923E+00    1.1066054033535039E+01
N    4.8391732547193760E+00    4.6319275772913562E+00    1.3062224896126335E+01
Ga    4.8824070370720181E+00    2.7625985715136494E+00    1.3618520922795879E+01
N    4.8543413121652357E+00    2.7461927312841370E+00    1.5583230153474849E+01
Ga    5.0274406913210887E+00    4.5216227491772036E+00    1.6477913254541413E+01
N    6.4712576658360117E+00    3.6784493311089004E+00    1.7610541622802351E+01
N    3.2578946119753267E+00    7.3681441458672712E+00    2.5404254218738571E+00
N    3.2606774370945444E+00    5.5179116435008853E+00    5.0603032898761029E+00
Ga    3.2670583151272128E+00    7.3884741353394290E+00    5.7602050932367996E+00
N    3.2614047074107773E+00    7.3906068325271885E+00    7.7669904236044562E+00
Ga    3.2641932613882600E+00    5.5504689101262921E+00    8.4394815275474038E+00
N    3.2625929243606921E+00    5.5441132116866987E+00    1.0415151988201172E+01
Ga    3.2640425675404501E+00    7.3820510101958918E+00    1.1066726254523930E+01
N    3.2629051318171416E+00    7.3617797653261778E+00    1.3061898335631222E+01
Ga    3.2625447178164340E+00    5.5414582125665932E+00    1.3864235685194053E+01
N    3.2611787300177784E+00    5.5396156608181570E+00    1.6068513652632934E+01
Ga    3.2629116893548114E+00    7.5781675802776256E+00    1.6478719768528325E+01
Ga    3.8034840587509717E+00    1.0575794542631698E+01    6.8916268582700135E-01
N    1.7151988280288335E+00    1.0203137838859218E+01    2.5024459747458510E+00
Ga    1.6758782040217739E+00    8.4165658707045843E+00    3.1590304465387700E+00
N    1.6521954926290814E+00    8.3175384554743452E+00    5.1537902421218362E+00
Ga    1.6247542549482104E+00    1.0186522632386861E+01    5.7782774987370988E+00
N    1.6434011085741393E+00    1.0179005296659264E+01    7.7858217912631984E+00
Ga    1.6687245336232823E+00    8.3319579322321147E+00    8.4330232615771905E+00
N    1.6659824376480838E+00    8.3298484135569364E+00    1.0427571169136510E+01
Ga    1.6411193823484018E+00    1.0190112048309237E+01    1.1065209934388191E+01
N    1.6232639444124588E+00    1.0200306871006172E+01    1.3061517849108723E+01
Ga    1.6662252724266915E+00    8.3328557557383096E+00    1.3619307438257689E+01
N    1.6384374569416966E+00    8.3161115045610163E+00    1.5583424155558939E+01
Ga    1.8118117046528894E+00    1.0091713713187881E+01    1.6478605678636765E+01
N    3.2549235862870618E+00    9.2490059229008779E+00    1.7613010664623214E+01
N    9.7133480583351659E+00    1.7850733440682782E+00    2.6166109322624891E+00
Ga    9.6554804783361536E+00    2.2827511028314204E-03    3.2962906120218562E+00
N    9.6924818287543228E+00   -2.9830918151403780E-02    5.2675525177815290E+00
Ga    9.6957722423136747E+00    1.8163799251992196E+00    5.8898073238586335E+00
N    9.6934178522977152E+00    1.8270124166773756E+00    7.8626372961643218E+00
Ga    9.6951021489118610E+00   -4.9275387119269300E-02    8.4234854610926533E+00
N    9.6942878790583968E+00   -4.4828296336891268E-02    1.0424249314586831E+01
Ga    9.6938578642098960E+00    1.8234056783981223E+00    1.1024880239324032E+01
N    9.6945951444392762E+00    1.8254683571906174E+00    1.2998512197648934E+01
Ga    9.6954403140782137E+00   -4.3887920344376982E-02    1.3617997378615001E+01
N    9.6966181399689457E+00   -1.2509032634056156E-02    1.5581241267355395E+01
Ga    9.6944627396724297E+00    1.8263336695705137E+00    1.5860353867732139E+01
N    7.9819216277749625E+00    4.5476850944278473E+00    2.5428770983337023E+00
Ga    8.2042734944896409E+00    2.6706228231369455E+00    3.2951525522459963E+00
N    8.0926675176279730E+00    2.7504468072890345E+00    5.2567448073321597E+00
Ga    8.1025029776496176E+00    4.6229598325550167E+00    5.8035901280261877E+00
N    8.0942859187637772E+00    4.6179088119438632E+00    7.7979537658915028E+00
Ga    8.0781917889353920E+00    2.7626174582039611E+00    8.4482184831869240E+00
N    8.0757660864088088E+00    2.7637903254698255E+00    1.0439302289588813E+01
Ga    8.1000254251481927E+00    4.6242862507174491E+00    1.1067078827113457E+01
N    8.1180616041601041E+00    4.6316839798588463E+00    1.3062224196441671E+01
Ga    8.0761375462513865E+00    2.7623276984451879E+00    1.3617448470536711E+01
N    8.1034432824275733E+00    2.7478096181323433E+00    1.5581005614507669E+01
Ga    7.9234855451169652E+00    4.5176322906701856E+00    1.6478264685093563E+01
N    6.4707394725024718E+00    7.4188574099086653E+00    2.5653483423768755E+00
Ga    6.4696234378585844E+00    5.6941104400042821E+00    3.2861148877741329E+00
N    6.4770245525485226E+00    5.5483643724993179E+00    5.2449806173306053E+00
Ga    6.4637412229112385E+00    7.4248781495395750E+00    5.8159106630288502E+00
N    6.4738677674042604E+00    7.4037306610263025E+00    7.8111499223457663E+00
Ga    6.4796088852416878E+00    5.5425253768703522E+00    8.4263237131230309E+00
N    6.4790604761887147E+00    5.5321033976039713E+00    1.0423965553687232E+01
Ga    6.4769613745869350E+00    7.3990140442918682E+00    1.1021331743719882E+01
N    6.4780789433965236E+00    7.3980112293659621E+00    1.2995022696171921E+01
Ga    6.4789744001597542E+00    5.5291312064070901E+00    1.3618384896667935E+01
N    6.4802091841660898E+00    5.5590956625403862E+00    1.5581499513820527E+01
Ga    6.4784790943300434E+00    7.3974764981553518E+00    1.5862064039560048E+01
N    4.8126266229456265E+00    1.0223671944691308E+01    2.4832866308438937E+00
Ga    4.9316595963140610E+00    8.3626582387068158E+00    3.1119583151835113E+00
N    4.8578648115523251E+00    8.3345221924551574E+00    5.1452820042539011E+00
Ga    4.8959059572410544E+00    1.0186837500082913E+01    5.7728889880917631E+00
N    4.8817363455364031E+00    1.0183143870536668E+01    7.7824429457804456E+00
Ga    4.8615305119860555E+00    8.3312987833772318E+00    8.4199990958026181E+00
N    4.8587279573650743E+00    8.3301088654681994E+00    1.0419668642593615E+01
Ga    4.8837496320432479E+00    1.0188694030593089E+01    1.1061973673830503E+01
N    4.9015686719105069E+00    1.0199887746734145E+01    1.3058938773659474E+01
Ga    4.8601453559517145E+00    8.3329837172783172E+00    1.3618032500112690E+01
N    4.8871447110766058E+00    8.3179881405351690E+00    1.5580998885099609E+01
Ga    4.7068921646214958E+00    1.0087631607993201E+01    1.6479417150709963E+01
O   -8.5471663790585364E-02    4.1262687109177563E+00   -4.2185417182341806E-01
H   -7.0405765561146350E-01    4.9579645936536938E+00   -4.7130318419981437E-01
C    1.1797608525392755E+00    4.4182537862893128E+00   -1.0987022955442689E+00
H    1.7012998750475761E+00    5.2465073940856355E+00   -6.0231584404726546E-01
H    1.7938683042439794E+00    3.5127300366333674E+00   -1.0447220693462820E+00
H    9.6063578322431642E-01    4.6651882060806136E+00   -2.1434061982545276E+00
Ga    3.2495960220337059E+00    5.4442987014711131E+00    3.0010050730775419E+00
O   -1.5466592845909033E+00    6.2429329816437402E+00   -5.8215063596985850E-01
H   -9.4558205912615035E-03    7.3617200135096237E+00    1.6231487119973707E+00
C   -2.7215079561224980E+00    6.2843547021881641E+00   -1.8635929943565205E-01
H   -3.3402528484191647E+00    7.1773768160232638E+00   -3.7071882776241522E-01
H    3.2635852656467326E+00    7.4355456575491496E+00    1.5147131953256403E+00
H   -3.2023728218324576E+00    5.4206085784274007E+00    3.0795716118347655E-01
     &END COORD
     &KIND C
       BASIS_SET DZVP-MOLOPT-SR-GTH-q4
       POTENTIAL GTH-PBE-q4
       &POTENTIAL
2 2
0.3384712400000000E+00 2 -0.8803673979999999E+01  0.1339210850000000E+01
2
0.3025757500000000E+00 1  0.9622486650000001E+01
0.2915069400000000E+00 0
       &END POTENTIAL
     &END KIND
     &KIND O
       BASIS_SET DZVP-MOLOPT-SR-GTH-q6
       POTENTIAL GTH-PBE-q6
       &POTENTIAL
2 4
0.2445543000000000E+00 2 -0.1666721480000000E+02  0.2487311320000000E+01
2
0.2209559200000000E+00 1  0.1833745811000000E+02
0.2113324700000000E+00 0
       &END POTENTIAL
     &END KIND
     &KIND H
       BASIS_SET DZVP-MOLOPT-SR-GTH-q1
       POTENTIAL GTH-PBE-q1
       &POTENTIAL
1
0.2000000000000000E+00 2 -0.4178900440000000E+01  0.7244633100000000E+00
0
       &END POTENTIAL
     &END KIND
     &KIND N
       BASIS_SET DZVP-MOLOPT-SR-GTH
       POTENTIAL GTH-PBE-q5
       &POTENTIAL
2 3
0.2837905100000000E+00 2 -0.1241522559000000E+02  0.1868095920000000E+01
2
0.2554050000000000E+00 1  0.1363026257000000E+02
0.2454945300000000E+00 0
       &END POTENTIAL
     &END KIND
     &KIND Ga
       BASIS_SET DZVP-MOLOPT-SR-GTH
       POTENTIAL GTH-PBE-q13
       &POTENTIAL
2 1 10
0.4900000000000000E+00 0
3
0.4167772300000000E+00 3  0.1047568975000000E+02 -0.4921768140000000E+01  0.8707055900000000E+00
0.7770178090000000E+01 -0.2248152160000000E+01
0.1784415450000000E+01
0.5696265200000000E+00 2  0.1777985340000000E+01  0.1958597600000000E+00
-0.2317443900000000E+00
0.2381265000000000E+00 1 -0.1624868022000000E+02
       &END POTENTIAL
     &END KIND
     &TOPOLOGY
       NUMBER_OF_ATOMS  212
       MULTIPLE_UNIT_CELL  1 1 1
     &END TOPOLOGY
     &COLVAR
       &DISTANCE
         ATOMS  127 211
       &END DISTANCE
       &PRINT
       &END PRINT
     &END COLVAR
   &END SUBSYS
 &END FORCE_EVAL
