 # Version information for this restart file 
 # current date 2019-05-23 15:45:30.958
 # current working dir /lustre03/project/6004141/rzk/GaN-carbene/01-Methanol/02-OH-ads
 # Program compiled at                              Sun Apr  7 00:48:11 EDT 2019
 # Program compiled on                          beluga2.int.ets1.calculquebec.ca
 # Program compiled for                        Beluga-Linux-x86-64-intel-openmpi
 # Source code revision number                                         svn:18619
 &GLOBAL
   PRINT_LEVEL  MEDIUM
   PROJECT_NAME TEST
   RUN_TYPE  GEO_OPT
 &END GLOBAL
 &MOTION
   &GEO_OPT
     MAX_ITER  500
     STEP_START_VAL  30
   &END GEO_OPT
 &END MOTION
 &FORCE_EVAL
   METHOD  QS
   STRESS_TENSOR  ANALYTICAL
   &DFT
     BASIS_SET_FILE_NAME BASIS_MOLOPT
     POTENTIAL_FILE_NAME GTH_POTENTIALS
     &SCF
       MAX_SCF  100
       EPS_SCF     5.0000000000000004E-06
       &OT  T
         PRECONDITIONER  FULL_ALL
       &END OT
       &OUTER_SCF  T
         OPTIMIZER  NONE
         EPS_SCF     5.0000000000000004E-06
         MAX_SCF  4
       &END OUTER_SCF
       &PRINT
         &RESTART  OFF
           BACKUP_COPIES  1
           &EACH
             JUST_ENERGY  0
             QS_SCF  0
             MD  20
           &END EACH
         &END RESTART
       &END PRINT
     &END SCF
     &QS
       EPS_DEFAULT     1.0000000000000000E-14
       ALMO_SCF  F
       METHOD  GPW
     &END QS
     &MGRID
       NGRIDS  5
       CUTOFF     1.2000000000000000E+03
     &END MGRID
     &XC
       DENSITY_CUTOFF     1.0000000000000000E-10
       GRADIENT_CUTOFF     1.0000000000000000E-10
       TAU_CUTOFF     1.0000000000000000E-10
       &XC_FUNCTIONAL  NO_SHORTCUT
         &PBE  T
         &END PBE
       &END XC_FUNCTIONAL
       &VDW_POTENTIAL
         POTENTIAL_TYPE  PAIR_POTENTIAL
         &PAIR_POTENTIAL
           R_CUTOFF     1.0000000000000005E+01
           TYPE  DFTD3
           PARAMETER_FILE_NAME dftd3.dat
           REFERENCE_FUNCTIONAL PBE
           EPS_CN     9.9999999999999995E-07
           CALCULATE_C9_TERM  T
           REFERENCE_C9_TERM  T
           LONG_RANGE_CORRECTION  F
           VERBOSE_OUTPUT  F
         &END PAIR_POTENTIAL
       &END VDW_POTENTIAL
     &END XC
   &END DFT
   &SUBSYS
     &CELL
       A     9.7367653356401487E+00    0.0000000000000000E+00    0.0000000000000000E+00
       B    -4.8591341382960209E+00    8.4162672083210595E+00    0.0000000000000000E+00
       C     0.0000000000000000E+00    0.0000000000000000E+00    3.0744000000000000E+01
       MULTIPLE_UNIT_CELL  1 1 1
       &CELL_REF
         A     9.5580000000000052E+00    0.0000000000000000E+00    0.0000000000000000E+00
         B    -4.7790000000000026E+00    8.2774708093716640E+00    0.0000000000000000E+00
         C     0.0000000000000000E+00    0.0000000000000000E+00    3.0744000000000000E+01
         MULTIPLE_UNIT_CELL  1 1 1
       &END CELL_REF
     &END CELL
     &COORD
Ga    3.5217101813899655E-03   -4.6512625563486032E-03   -6.2674426203175670E-01
N    6.9195645785253774E-03    1.8699388748464127E+00    5.3089580407045678E-01
Ga    8.8873007178159220E-03    1.8381890189048344E+00    2.5605628649331602E+00
N    6.4293787683431863E-03   -4.3490943267127683E-03    3.1935990221381583E+00
Ga    9.5309526402194162E-03   -3.1188253344318051E-03    5.1837253420163867E+00
N    1.2630823262624607E-02    1.8718461320487183E+00    5.7693691147690132E+00
Ga    1.3027958238644298E-02    1.8696980131736232E+00    7.7676279723526136E+00
N    9.4235518627187407E-03   -3.5820763171523864E-03    8.3683495519111890E+00
Ga    1.0098879588748623E-02   -2.7430812879725591E-03    1.0365675263232655E+01
N    1.3553012601059410E-02    1.8679401881800979E+00    1.0975589693840243E+01
Ga    1.6069817223252587E-02    1.8685261632124428E+00    1.2973455736448059E+01
N    1.6037193187888550E-02   -5.1407399083429513E-03    1.3572310233708532E+01
Ga    1.8188039234313329E-02   -3.4159311231718816E-04    1.5574610021092919E+01
N    1.8332652959962555E-02    1.8805664242782396E+00    1.6130006138655876E+01
Ga    9.6534967277381329E-03    1.8737554608674387E+00    1.8160852620307736E+01
N    1.2324691119519917E-02    1.3411336750378505E-02    1.8627206402197540E+01
Ga   -1.6147673600864287E+00    2.8006919118131868E+00    2.4846775638156199E-01
N   -1.6171040355085626E+00    4.6707293767985716E+00    5.2858730603390525E-01
Ga   -1.5859454809696543E+00    4.6871353842275045E+00    2.5590791789905341E+00
N   -1.6132399015558163E+00    2.8014223451453328E+00    3.1510411815631199E+00
Ga   -1.6104119929436720E+00    2.8024641247045605E+00    5.1620464473282839E+00
N   -1.6099231410892469E+00    4.6726741692724785E+00    5.7687829896901395E+00
Ga   -1.6079723309757079E+00    4.6721475755079762E+00    7.7672064600431572E+00
N   -1.6088817735638319E+00    2.8019604836429464E+00    8.3717199141445615E+00
Ga   -1.6072118374639288E+00    2.8032874019068190E+00    1.0367225183055742E+01
N   -1.6062091934930101E+00    4.6740648763396759E+00    1.0975626861434639E+01
Ga   -1.6045705791745546E+00    4.6764259027904789E+00    1.2973380536709579E+01
N   -1.6144427606117242E+00    2.7999797879264325E+00    1.3565275611409183E+01
Ga   -1.6173542797810845E+00    2.8016678678993538E+00    1.5563020165675205E+01
N   -1.5947146256655480E+00    4.6762101760414065E+00    1.6141091360164928E+01
Ga   -1.6059816791043697E+00    4.6849739096327223E+00    1.8176138843458922E+01
N   -1.6091034782440203E+00    2.8101372170618752E+00    1.8593958650275098E+01
Ga   -3.2358615770483072E+00    5.6075885944677859E+00    2.4884327288951269E-01
N   -3.2294752741528852E+00    7.4769764784619337E+00    5.3071562430436647E-01
Ga   -3.2552668377436649E+00    7.4927791173673697E+00    2.5606574184785535E+00
N   -3.2325512427880043E+00    5.6067770103057031E+00    3.1507494989773974E+00
Ga   -3.2297077872049802E+00    5.6082693144990250E+00    5.1613854307633185E+00
N   -3.2242745970115294E+00    7.4778325640246290E+00    5.7697489950409055E+00
Ga   -3.2252501558569708E+00    7.4772690788465992E+00    7.7683062417198343E+00
N   -3.2292018204139357E+00    5.6060005483653512E+00    8.3713583715611204E+00
Ga   -3.2285864170099754E+00    5.6065126328023380E+00    1.0367026720152042E+01
N   -3.2270059359123850E+00    7.4781622051503822E+00    1.0966305571450491E+01
Ga   -3.2281494624862290E+00    7.4773576224424083E+00    1.2958484355124465E+01
N   -3.2278078712505907E+00    5.6124630790357175E+00    1.3574671595156525E+01
Ga   -3.2214513394821922E+00    5.6142958081417875E+00    1.5577731029653902E+01
N   -3.2246930427944394E+00    7.4823324489727625E+00    1.6220514851140752E+01
Ga   -3.2167121576582840E+00    7.4936929848244294E+00    1.8321937113262589E+01
N   -3.2239047765766951E+00    5.6137713814792027E+00    1.8625345049394376E+01
Ga    3.2494017312792400E+00   -5.6695317156955274E-03    2.4847903643525279E-01
N    3.2490978662179639E+00    1.8654768251779461E+00    5.2988491818992978E-01
Ga    3.2789501693793279E+00    1.8810957703876767E+00    2.5615873301986660E+00
N    3.2522500002756360E+00   -4.1271022375888779E-03    3.1512245133929091E+00
Ga    3.2548176229441497E+00   -3.0091071546332285E-03    5.1621810442899498E+00
N    3.2548441393481347E+00    1.8669546884772656E+00    5.7698769298384720E+00
Ga    3.2560283148539053E+00    1.8669848294105951E+00    7.7685670019584165E+00
N    3.2557885358183238E+00   -4.0352123373564664E-03    8.3719089577435710E+00
Ga    3.2558481658629566E+00   -4.1104080607308703E-03    1.0367031909624934E+01
N    3.2568812702157146E+00    1.8669267654343586E+00    1.0973760692937530E+01
Ga    3.2516814869825477E+00    1.8678996579717211E+00    1.2970145121846652E+01
N    3.2487339758534937E+00   -8.2166761085247023E-03    1.3567926488045131E+01
Ga    3.2545807206568629E+00   -3.6145689725184450E-03    1.5570713703138196E+01
N    3.2695486367772957E+00    1.8697417832299592E+00    1.6128954915658007E+01
Ga    3.2811387178914124E+00    1.8773068296405218E+00    1.8167079659405321E+01
N    3.2714423486065485E+00    1.2320317323567724E-02    1.8624724828971647E+01
Ga    1.6283920766242044E+00    2.8010674243238571E+00    2.4873158976168949E-01
N    1.6361552519638660E+00    4.6712986606114661E+00    5.2863313728528483E-01
Ga    1.6100902562110500E+00    4.6869446197093563E+00    2.5593622698989695E+00
N    1.6324281276035146E+00    2.8011264107633362E+00    3.1504236530565679E+00
Ga    1.6353099293966173E+00    2.8021966690443474E+00    5.1611111424306406E+00
N    1.6405515465747988E+00    4.6720557587652749E+00    5.7688413350801495E+00
Ga    1.6400869710120856E+00    4.6717852429643596E+00    7.7678957763235452E+00
N    1.6354199889119816E+00    2.8017954942099483E+00    8.3740663661222605E+00
Ga    1.6358489355221264E+00    2.8029680973274704E+00    1.0370457411481008E+01
N    1.6415200784043682E+00    4.6751859450962510E+00    1.0976307426542546E+01
Ga    1.6465855823676787E+00    4.6777005691773086E+00    1.2975480235998411E+01
N    1.6345818873676747E+00    2.8093946731405572E+00    1.3584622099613835E+01
Ga    1.6432233412392583E+00    2.8257782240648015E+00    1.5596840421928849E+01
N    1.6436963597509373E+00    4.6753216965082771E+00    1.6209095433015833E+01
Ga    1.6473656185510883E+00    4.6787378054452677E+00    1.8772929908820508E+01
N    1.6441765126633445E+00    2.7865555983353936E+00    1.8604997912280243E+01
Ga    9.4130876192839406E-03    5.6069071411915674E+00   -6.2303509726345663E-01
N    1.3209531664635420E-02    7.4810422776124748E+00    5.2909353580596685E-01
Ga    1.4906689589978634E-02    7.4495821054020865E+00    2.5599887669787065E+00
N    1.2584285517044899E-02    5.6065117095604835E+00    3.1916781217747130E+00
Ga    1.5441745357625429E-02    5.6078117811152000E+00    5.1820325835015240E+00
N    1.8391304621593094E-02    7.4822393754411172E+00    5.7693995280439987E+00
Ga    1.9175055627469788E-02    7.4794482233086201E+00    7.7680625194618411E+00
N    1.6336631136031465E-02    5.6061459936963409E+00    8.3704579012868390E+00
Ga    1.7301285152578436E-02    5.6062718104365583E+00    1.0368608390776858E+01
N    1.7308161533347889E-02    7.4769923836010150E+00    1.0974358756145129E+01
Ga    1.6166290789024582E-02    7.4712306317267201E+00    1.2971109327929424E+01
N    2.2412340323398901E-02    5.6004711325557750E+00    1.3585858804803433E+01
Ga    3.8868374138984980E-02    5.6004968154151191E+00    1.5599067831128787E+01
N    2.6572995746315175E-02    7.4884887990292883E+00    1.6123468742032074E+01
Ga    3.2929100071465142E-02    7.5059763059168283E+00    1.8155174838778791E+01
N    1.0305617906613228E-03    5.6403539430391296E+00    1.8624643311645759E+01
Ga    6.4949789136401481E+00   -5.0714482422264916E-03    2.4900980218626423E-01
N    6.5005869255803139E+00    1.8663113379585166E+00    5.2979325575432012E-01
Ga    6.4758245775317391E+00    1.8814519645482330E+00    2.5620803711643583E+00
N    6.4975984759306522E+00   -4.1214845149909630E-03    3.1509080690335747E+00
Ga    6.5003808216908396E+00   -2.8241496837527816E-03    5.1619027149669918E+00
N    6.5062089740410478E+00    1.8669555229310688E+00    5.7710463995573935E+00
Ga    6.5049583166366149E+00    1.8662801695080717E+00    7.7706748541298198E+00
N    6.5007342680532743E+00   -5.4055498354692658E-03    8.3733645838518136E+00
Ga    6.5015190246710448E+00   -7.1857693523651968E-03    1.0369680755732716E+01
N    6.5041363888421362E+00    1.8680847062547346E+00    1.0959586838844988E+01
Ga    6.5045653813527657E+00    1.8679777686470722E+00    1.2949306582340240E+01
N    6.5032880856395856E+00   -4.4417342224266666E-03    1.3545781973051984E+01
Ga    6.5041479450906214E+00    1.9539306475546843E-03    1.5535881953230389E+01
N    6.4903281405619024E+00    1.8599833233906566E+00    1.6140468173643281E+01
Ga    6.4994465524353791E+00    1.8689717423209533E+00    1.8206787181576516E+01
N    6.5077263856193479E+00   -1.4883014700977407E-03    1.8657224879542969E+01
Ga    4.8747506820472131E+00    2.8017152320658281E+00   -6.0146996965277189E-01
N    4.8786784951148112E+00    4.6748422873069444E+00    5.3099522179759773E-01
Ga    4.8806264059583198E+00    4.6446034809418482E+00    2.5627308565438520E+00
N    4.8778294073075799E+00    2.8009967303094361E+00    3.1931182135536686E+00
Ga    4.8808085560319769E+00    2.8022141862896581E+00    5.1842562155577419E+00
N    4.8839646643260872E+00    4.6773618033866420E+00    5.7686730880125365E+00
Ga    4.8838552889342219E+00    4.6748809752839744E+00    7.7671435909266409E+00
N    4.8800295320627800E+00    2.8020659561928798E+00    8.3694807653072960E+00
Ga    4.8789112248961972E+00    2.8035966957492331E+00    1.0367225960166726E+01
N    4.8843162223550536E+00    4.6757806195066678E+00    1.0974068822710256E+01
Ga    4.8828483248370409E+00    4.6816916479050192E+00    1.2971679993208129E+01
N    4.8818848386751723E+00    2.8028017107814009E+00    1.3550067086598668E+01
Ga    4.8866350567277168E+00    2.8007704292341091E+00    1.5540944600064053E+01
N    4.9011133714688473E+00    4.6664010303582515E+00    1.6149092962747886E+01
Ga    4.9011505191854141E+00    4.6753924284118629E+00    1.8194087777887912E+01
N    4.8838916971231505E+00    2.8153981351159354E+00    1.8640529699756154E+01
Ga    3.2559073567766013E+00    5.6067183063339154E+00    2.4931241670630835E-01
N    3.2548351633698855E+00    7.4761092900944233E+00    5.3107576532672318E-01
Ga    3.2858577155484041E+00    7.4926522946498686E+00    2.5604711832867584E+00
N    3.2581103031665979E+00    5.6066993221424077E+00    3.1509331047759690E+00
Ga    3.2609787001100128E+00    5.6080730447658125E+00    5.1616273309478560E+00
N    3.2610987396942650E+00    7.4780470033900679E+00    5.7693221351174913E+00
Ga    3.2622335352697553E+00    7.4773333412750391E+00    7.7676728626715077E+00
N    3.2614091030615677E+00    5.6065935637016011E+00    8.3708438272730561E+00
Ga    3.2627225055442923E+00    5.6074842197149861E+00    1.0366359030265683E+01
N    3.2673918978485292E+00    7.4769576207545079E+00    1.0973222604433321E+01
Ga    3.2714340631365997E+00    7.4725246667671614E+00    1.2970622661725143E+01
N    3.2655699615027514E+00    5.6087482853700026E+00    1.3602902959949482E+01
Ga    3.2567521946333402E+00    5.6056875635752235E+00    1.5627872115872570E+01
N    3.2658968568300475E+00    7.4986147236006673E+00    1.6146019928974354E+01
Ga    3.2669586872796641E+00    7.5072405800256510E+00    1.8189731818812408E+01
N    3.2782576575873632E+00    5.6261004876431633E+00    1.8607606480406208E+01
O    1.4212255874864119E+00    4.7655035878616649E+00    2.1015931768619549E+01
H    8.5315984477157381E-01    5.5609273286210215E+00    2.1022713531592423E+01
C    6.5175923455353957E-01    3.6719619997843700E+00    2.1600961455997798E+01
H   -3.2283905995807965E-01    3.5592529096703864E+00    2.1104507504443504E+01
H    1.2414336901445961E+00    2.7633350774320755E+00    2.1441512007688008E+01
H    5.1835346402507598E-01    3.8523045235932840E+00    2.2674632133283662E+01
     &END COORD
     &KIND C
       BASIS_SET DZVP-MOLOPT-SR-GTH-q4
       POTENTIAL GTH-PBE-q4
       &POTENTIAL
 2 2
  0.3384712400000000E+00 2 -0.8803673979999999E+01  0.1339210850000000E+01
 2
  0.3025757500000000E+00 1  0.9622486650000001E+01
  0.2915069400000000E+00 0
         # Potential name:  GTH-PBE-Q4  for symbol:  C
         # Potential read from the potential filename: GTH_POTENTIALS
       &END POTENTIAL
     &END KIND
     &KIND O
       BASIS_SET DZVP-MOLOPT-SR-GTH-q6
       POTENTIAL GTH-PBE-q6
       &POTENTIAL
 2 4
  0.2445543000000000E+00 2 -0.1666721480000000E+02  0.2487311320000000E+01
 2
  0.2209559200000000E+00 1  0.1833745811000000E+02
  0.2113324700000000E+00 0
         # Potential name:  GTH-PBE-Q6  for symbol:  O
         # Potential read from the potential filename: GTH_POTENTIALS
       &END POTENTIAL
     &END KIND
     &KIND H
       BASIS_SET DZVP-MOLOPT-SR-GTH-q1
       POTENTIAL GTH-PBE-q1
       &POTENTIAL
 1
  0.2000000000000000E+00 2 -0.4178900440000000E+01  0.7244633100000000E+00
 0
         # Potential name:  GTH-PBE-Q1  for symbol:  H
         # Potential read from the potential filename: GTH_POTENTIALS
       &END POTENTIAL
     &END KIND
     &KIND N
       BASIS_SET DZVP-MOLOPT-SR-GTH-q5
       POTENTIAL GTH-PBE-q5
       &POTENTIAL
 2 3
  0.2837905100000000E+00 2 -0.1241522559000000E+02  0.1868095920000000E+01
 2
  0.2554050000000000E+00 1  0.1363026257000000E+02
  0.2454945300000000E+00 0
         # Potential name:  GTH-PBE-Q5  for symbol:  N
         # Potential read from the potential filename: GTH_POTENTIALS
       &END POTENTIAL
     &END KIND
     &KIND Ga
       BASIS_SET DZVP-MOLOPT-SR-GTH-q13
       POTENTIAL GTH-PBE-q13
       &POTENTIAL
 2 1 10
  0.4900000000000000E+00 0
 3
  0.4167772300000000E+00 3  0.1047568975000000E+02 -0.4921768140000000E+01  0.8707055900000000E+00
  0.7770178090000000E+01 -0.2248152160000000E+01
  0.1784415450000000E+01
  0.5696265200000000E+00 2  0.1777985340000000E+01  0.1958597600000000E+00
 -0.2317443900000000E+00
  0.2381265000000000E+00 1 -0.1624868022000000E+02
         # Potential name:  GTH-PBE-Q13  for symbol:  GA
         # Potential read from the potential filename: GTH_POTENTIALS
       &END POTENTIAL
     &END KIND
     &TOPOLOGY
       NUMBER_OF_ATOMS  150
       MULTIPLE_UNIT_CELL  1 1 1
     &END TOPOLOGY
   &END SUBSYS
 &END FORCE_EVAL
