 # Version information for this restart file 
 # current date 2019-05-23 15:48:24.509
 # current working dir /lustre03/project/6004141/rzk/GaN-carbene/01-Methanol/02-OH-ads
 # Program compiled at                              Sun Apr  7 00:48:11 EDT 2019
 # Program compiled on                          beluga2.int.ets1.calculquebec.ca
 # Program compiled for                        Beluga-Linux-x86-64-intel-openmpi
 # Source code revision number                                         svn:18619
 &GLOBAL
   PRINT_LEVEL  MEDIUM
   PROJECT_NAME TEST
   RUN_TYPE  GEO_OPT
 &END GLOBAL
 &MOTION
   &GEO_OPT
     MAX_ITER  500
     STEP_START_VAL  32
   &END GEO_OPT
 &END MOTION
 &FORCE_EVAL
   METHOD  QS
   STRESS_TENSOR  ANALYTICAL
   &DFT
     BASIS_SET_FILE_NAME BASIS_MOLOPT
     POTENTIAL_FILE_NAME GTH_POTENTIALS
     &SCF
       MAX_SCF  100
       EPS_SCF     5.0000000000000004E-06
       &OT  T
         PRECONDITIONER  FULL_ALL
       &END OT
       &OUTER_SCF  T
         OPTIMIZER  NONE
         EPS_SCF     5.0000000000000004E-06
         MAX_SCF  4
       &END OUTER_SCF
       &PRINT
         &RESTART  OFF
           BACKUP_COPIES  1
           &EACH
             JUST_ENERGY  0
             QS_SCF  0
             MD  20
           &END EACH
         &END RESTART
       &END PRINT
     &END SCF
     &QS
       EPS_DEFAULT     1.0000000000000000E-14
       ALMO_SCF  F
       METHOD  GPW
     &END QS
     &MGRID
       NGRIDS  5
       CUTOFF     1.2000000000000000E+03
     &END MGRID
     &XC
       DENSITY_CUTOFF     1.0000000000000000E-10
       GRADIENT_CUTOFF     1.0000000000000000E-10
       TAU_CUTOFF     1.0000000000000000E-10
       &XC_FUNCTIONAL  NO_SHORTCUT
         &PBE  T
         &END PBE
       &END XC_FUNCTIONAL
       &VDW_POTENTIAL
         POTENTIAL_TYPE  PAIR_POTENTIAL
         &PAIR_POTENTIAL
           R_CUTOFF     1.0000000000000005E+01
           TYPE  DFTD3
           PARAMETER_FILE_NAME dftd3.dat
           REFERENCE_FUNCTIONAL PBE
           EPS_CN     9.9999999999999995E-07
           CALCULATE_C9_TERM  T
           REFERENCE_C9_TERM  T
           LONG_RANGE_CORRECTION  F
           VERBOSE_OUTPUT  F
         &END PAIR_POTENTIAL
       &END VDW_POTENTIAL
     &END XC
   &END DFT
   &SUBSYS
     &CELL
       A     9.7367653356401487E+00    0.0000000000000000E+00    0.0000000000000000E+00
       B    -4.8591341382960209E+00    8.4162672083210595E+00    0.0000000000000000E+00
       C     0.0000000000000000E+00    0.0000000000000000E+00    3.0744000000000000E+01
       MULTIPLE_UNIT_CELL  1 1 1
       &CELL_REF
         A     9.5580000000000052E+00    0.0000000000000000E+00    0.0000000000000000E+00
         B    -4.7790000000000026E+00    8.2774708093716640E+00    0.0000000000000000E+00
         C     0.0000000000000000E+00    0.0000000000000000E+00    3.0744000000000000E+01
         MULTIPLE_UNIT_CELL  1 1 1
       &END CELL_REF
     &END CELL
     &COORD
Ga    4.6955695000618141E-03   -4.4089425784815811E-03   -6.2769102631154816E-01
N    7.6772140493803365E-03    1.8700123533125710E+00    5.3078555404366423E-01
Ga    8.9643046977943598E-03    1.8380865381160771E+00    2.5602356229492460E+00
N    6.4191434344804078E-03   -4.3413883204086560E-03    3.1936229503312612E+00
Ga    8.9726336400711999E-03   -3.3086183628802212E-03    5.1836795857802649E+00
N    1.1772047920069414E-02    1.8715477306721646E+00    5.7692335861282471E+00
Ga    1.2306750929301830E-02    1.8697163146563056E+00    7.7674365557442222E+00
N    8.7307569796368240E-03   -3.5769712118943336E-03    8.3680386481716447E+00
Ga    9.6937735640475631E-03   -2.4475872866601715E-03    1.0365149395109931E+01
N    1.3382508770066099E-02    1.8679678026220250E+00    1.0975305187323860E+01
Ga    1.6359857934050370E-02    1.8683772050090317E+00    1.2973307723803966E+01
N    1.5990433725372132E-02   -4.7363257859749418E-03    1.3572640402487227E+01
Ga    1.8013264475104200E-02    2.7975341961991601E-04    1.5575630871221403E+01
N    1.7816623206643040E-02    1.8814087669844095E+00    1.6132758735790393E+01
Ga    8.9711963406788366E-03    1.8740752456560106E+00    1.8165131617436749E+01
N    1.2915067277248395E-02    1.3333594211934465E-02    1.8624815278593967E+01
Ga   -1.6141962385381510E+00    2.8011347859115641E+00    2.4913895676362890E-01
N   -1.6162223309555048E+00    4.6710868231806950E+00    5.2988116969065624E-01
Ga   -1.5860301631417819E+00    4.6871704857767691E+00    2.5598372854338178E+00
N   -1.6130983341344540E+00    2.8012506525950460E+00    3.1512837892779459E+00
Ga   -1.6111204799564693E+00    2.8021431874979545E+00    5.1620240567854472E+00
N   -1.6106653994282827E+00    4.6723160700850883E+00    5.7690496414870580E+00
Ga   -1.6085302628420752E+00    4.6719669792653260E+00    7.7672601709153071E+00
N   -1.6095748951096429E+00    2.8018338888826886E+00    8.3718300592448820E+00
Ga   -1.6073688491220119E+00    2.8034088798285093E+00    1.0367291783400768E+01
N   -1.6061115240272361E+00    4.6742707511115666E+00    1.0975074170858925E+01
Ga   -1.6041430183704988E+00    4.6766713538946796E+00    1.2972983582004776E+01
N   -1.6136588291904888E+00    2.8002802355536351E+00    1.3564820045820026E+01
Ga   -1.6171847876134038E+00    2.8009804692052560E+00    1.5562665805635355E+01
N   -1.5941428559668334E+00    4.6749932731274688E+00    1.6140355483961716E+01
Ga   -1.6064199469569524E+00    4.6844765687547163E+00    1.8175587099351880E+01
N   -1.6097742864967788E+00    2.8099515008794471E+00    1.8593350371819461E+01
Ga   -3.2349915811961196E+00    5.6075323961309840E+00    2.4925178233869075E-01
N   -3.2287941714150850E+00    7.4772488237280905E+00    5.3095388866613602E-01
Ga   -3.2554766308694587E+00    7.4928300866931661E+00    2.5604140446291890E+00
N   -3.2327115426898572E+00    5.6070985757444616E+00    3.1511762018153862E+00
Ga   -3.2304295490354287E+00    5.6082152456144261E+00    5.1616481806012997E+00
N   -3.2252889386470458E+00    7.4776046611253060E+00    5.7699823539612245E+00
Ga   -3.2260031229420316E+00    7.4771739154017967E+00    7.7685381382757335E+00
N   -3.2299605813275578E+00    5.6057715870792046E+00    8.3713427880130009E+00
Ga   -3.2287548549420753E+00    5.6063020445071530E+00    1.0367041348223685E+01
N   -3.2270033265580986E+00    7.4788243959453053E+00    1.0965769046799698E+01
Ga   -3.2280127085020252E+00    7.4778097260903209E+00    1.2958300393494138E+01
N   -3.2273185865847744E+00    5.6124814705225443E+00    1.3573643820292897E+01
Ga   -3.2213920862640983E+00    5.6138763682962391E+00    1.5577636799221832E+01
N   -3.2244780508791111E+00    7.4816354955856097E+00    1.6217333575829809E+01
Ga   -3.2154561858060786E+00    7.4942462577564717E+00    1.8320125196485812E+01
N   -3.2226634984854332E+00    5.6150086275795168E+00    1.8626511557520285E+01
Ga    3.2503503248073375E+00   -5.4075089881588318E-03    2.4898199413432798E-01
N    3.2502239864590914E+00    1.8658392196148412E+00    5.3054500449658926E-01
Ga    3.2789231552716354E+00    1.8810672857219872E+00    2.5620443400616955E+00
N    3.2518671643698438E+00   -4.3801735025770921E-03    3.1514461247034489E+00
Ga    3.2539594951678934E+00   -3.5077206560949676E-03    5.1622444031589643E+00
N    3.2540096973649906E+00    1.8667935413180685E+00    5.7694942418622013E+00
Ga    3.2553528016838280E+00    1.8670108087630450E+00    7.7681402240304385E+00
N    3.2553716227871776E+00   -4.0193830132269522E-03    8.3710557612594165E+00
Ga    3.2557777430092303E+00   -3.6608869852300641E-03    1.0366454544271182E+01
N    3.2571911641708686E+00    1.8671640111462278E+00    1.0973571250685501E+01
Ga    3.2521531369011032E+00    1.8684564188700363E+00    1.2970143598386779E+01
N    3.2491851978825652E+00   -7.6052999112518485E-03    1.3567314371255408E+01
Ga    3.2549946330731268E+00   -3.3240813696444552E-03    1.5569674697136682E+01
N    3.2678650813432686E+00    1.8700186692052418E+00    1.6128085129678372E+01
Ga    3.2814716956993335E+00    1.8774722923944005E+00    1.8165790884306606E+01
N    3.2719870817267704E+00    1.3235095787613451E-02    1.8627421350040304E+01
Ga    1.6293063729549371E+00    2.8014833676251496E+00    2.4919324785776539E-01
N    1.6366767567388179E+00    4.6715990146766222E+00    5.2955746157046890E-01
Ga    1.6101500753459419E+00    4.6871080263345979E+00    2.5598131404450104E+00
N    1.6321809538210534E+00    2.8012480106507782E+00    3.1506282950385862E+00
Ga    1.6344303623404608E+00    2.8021196880249799E+00    5.1610985560790574E+00
N    1.6399885378376771E+00    4.6721382708999046E+00    5.7693700217607411E+00
Ga    1.6396401087797490E+00    4.6717970588617890E+00    7.7677833151156648E+00
N    1.6348013914196247E+00    2.8017497671480522E+00    8.3738070417626300E+00
Ga    1.6356468775605200E+00    2.8032830167507057E+00    1.0370248009234631E+01
N    1.6414444801151229E+00    4.6752347389331330E+00    1.0976265825657888E+01
Ga    1.6468277771416344E+00    4.6778663359768275E+00    1.2975755116582642E+01
N    1.6346182588769436E+00    2.8092753184762311E+00    1.3584730247647153E+01
Ga    1.6420444207572999E+00    2.8254277715961362E+00    1.5596956886056644E+01
N    1.6441705052874234E+00    4.6751317546941191E+00    1.6211342758158981E+01
Ga    1.6470571689524869E+00    4.6792373191666075E+00    1.8767989711650870E+01
N    1.6441522409979605E+00    2.7864504962818821E+00    1.8604576271891350E+01
Ga    1.0242380606240088E-02    5.6070342724074500E+00   -6.2209022294482996E-01
N    1.3886120048268018E-02    7.4811715871648232E+00    5.3010659139268457E-01
Ga    1.4919908414296341E-02    7.4495098684797822E+00    2.5602426138742200E+00
N    1.2580549229803209E-02    5.6065179895084682E+00    3.1923135733582848E+00
Ga    1.4714762529452001E-02    5.6076716730736029E+00    5.1825063262191371E+00
N    1.7643201005619329E-02    7.4819023927878154E+00    5.7695129958272133E+00
Ga    1.8626396097522927E-02    7.4791918884494111E+00    7.7681161052020942E+00
N    1.5855445236326884E-02    5.6060349982622038E+00    8.3701573214242906E+00
Ga    1.7366104696880810E-02    5.6063035527337446E+00    1.0368141166335624E+01
N    1.7164806286441684E-02    7.4772601709754589E+00    1.0973519097428134E+01
Ga    1.6394645179183959E-02    7.4715608677656213E+00    1.2970446956520869E+01
N    2.2785561269187304E-02    5.6008400817428914E+00    1.3586518694800219E+01
Ga    3.9119581503070149E-02    5.6007753499931878E+00    1.5600377585629772E+01
N    2.6528062564526500E-02    7.4884023697635014E+00    1.6124395624654614E+01
Ga    3.2312242617987035E-02    7.5056424354820495E+00    1.8157174848754085E+01
N    7.9864676972225704E-04    5.6395115116932333E+00    1.8624793169319723E+01
Ga    6.4954626103326056E+00   -4.6131016353450315E-03    2.4938102716680971E-01
N    6.5009151758700670E+00    1.8667547673770672E+00    5.3076039677423825E-01
Ga    6.4758092037711581E+00    1.8814016426229183E+00    2.5626955766981214E+00
N    6.4975567943212873E+00   -4.3453101908154318E-03    3.1512814250093721E+00
Ga    6.4996124239320272E+00   -3.1981959201126944E-03    5.1620330929474747E+00
N    6.5054725758185015E+00    1.8666525349281136E+00    5.7709122555088550E+00
Ga    6.5044663063749564E+00    1.8662719168724360E+00    7.7705397042346904E+00
N    6.5005521529001067E+00   -5.5499664584839790E-03    8.3729310892434690E+00
Ga    6.5016719409219137E+00   -6.8387028780113393E-03    1.0369578152181489E+01
N    6.5037819381817084E+00    1.8685875520983337E+00    1.0959996348734530E+01
Ga    6.5040879344020874E+00    1.8683326404210721E+00    1.2950236361034230E+01
N    6.5033355394433938E+00   -4.6591832150932990E-03    1.3545914044473234E+01
Ga    6.5034337591935145E+00    1.7065941205231939E-03    1.5535821279361143E+01
N    6.4915731137443435E+00    1.8600991156384694E+00    1.6138554937953479E+01
Ga    6.4987301997815488E+00    1.8689397377443682E+00    1.8203618853432548E+01
N    6.5072588267334766E+00   -1.3066829825551863E-03    1.8657177590105569E+01
Ga    4.8758886989745429E+00    2.8018226427437254E+00   -6.0213413392397774E-01
N    4.8793525484066356E+00    4.6745846721743964E+00    5.3146910913033973E-01
Ga    4.8805921264445162E+00    4.6446792214029147E+00    2.5631761636279444E+00
N    4.8776907921193198E+00    2.8009091804822397E+00    3.1933693220118760E+00
Ga    4.8801191970167919E+00    2.8018101222264558E+00    5.1842231287233735E+00
N    4.8831226000849455E+00    4.6770425114810736E+00    5.7684222128169127E+00
Ga    4.8832616935100361E+00    4.6747692977760043E+00    7.7666687798577332E+00
N    4.8794989870807228E+00    2.8021632318576950E+00    8.3691480021799389E+00
Ga    4.8789184513734636E+00    2.8040995908101332E+00    1.0366941938204208E+01
N    4.8842841261992858E+00    4.6756942859923258E+00    1.0974296742651537E+01
Ga    4.8829918587283672E+00    4.6814012319776444E+00    1.2972107376186687E+01
N    4.8815767592733774E+00    2.8030482175323890E+00    1.3550956496812942E+01
Ga    4.8859229386457939E+00    2.8002853468880380E+00    1.5542321948221101E+01
N    4.9008281816097252E+00    4.6664973868736590E+00    1.6149680693544290E+01
Ga    4.9025933074177992E+00    4.6760894795848662E+00    1.8195887335497737E+01
N    4.8833406556413896E+00    2.8161022916486971E+00    1.8639871399041787E+01
Ga    3.2564907410036876E+00    5.6066886432750431E+00    2.4933228295345020E-01
N    3.2555822298574437E+00    7.4764475537518473E+00    5.3103071377930122E-01
Ga    3.2859346707043686E+00    7.4926728058304466E+00    2.5602968486129476E+00
N    3.2579359462887005E+00    5.6068662707502641E+00    3.1510376624914156E+00
Ga    3.2602396985465774E+00    5.6078221664491510E+00    5.1614487357697767E+00
N    3.2606666941300104E+00    7.4776641364454211E+00    5.7690266439794415E+00
Ga    3.2619486962179711E+00    7.4771261002081832E+00    7.7671693072425487E+00
N    3.2612079606829072E+00    5.6066003874741810E+00    8.3710628557732427E+00
Ga    3.2629331352780997E+00    5.6076854374815834E+00    1.0366453914493777E+01
N    3.2674639285568809E+00    7.4772949663463706E+00    1.0973173294777386E+01
Ga    3.2719074411519307E+00    7.4726385787560154E+00    1.2970859862405320E+01
N    3.2656634643866398E+00    5.6087075297989415E+00    1.3602793177590126E+01
Ga    3.2563860723160065E+00    5.6050806768262946E+00    1.5627163571347044E+01
N    3.2653541589733148E+00    7.4978193874026475E+00    1.6145732736980779E+01
Ga    3.2673760532217111E+00    7.5077886460274916E+00    1.8190111991386793E+01
N    3.2795357781329102E+00    5.6269738591705911E+00    1.8607467791211349E+01
O    1.4231646376888067E+00    4.7641955670569702E+00    2.1014187272344223E+01
H    8.5706390391435650E-01    5.5604712922144008E+00    2.1022119289602330E+01
C    6.5319831787451443E-01    3.6711421864092331E+00    2.1596307839710747E+01
H   -3.2051109150468665E-01    3.5588720479610312E+00    2.1096536764603943E+01
H    1.2434955321660985E+00    2.7627302277801031E+00    2.1438583397374956E+01
H    5.1542382516000407E-01    3.8492551768283998E+00    2.2670272407929801E+01
     &END COORD
     &KIND C
       BASIS_SET DZVP-MOLOPT-SR-GTH-q4
       POTENTIAL GTH-PBE-q4
       &POTENTIAL
 2 2
  0.3384712400000000E+00 2 -0.8803673979999999E+01  0.1339210850000000E+01
 2
  0.3025757500000000E+00 1  0.9622486650000001E+01
  0.2915069400000000E+00 0
         # Potential name:  GTH-PBE-Q4  for symbol:  C
         # Potential read from the potential filename: GTH_POTENTIALS
       &END POTENTIAL
     &END KIND
     &KIND O
       BASIS_SET DZVP-MOLOPT-SR-GTH-q6
       POTENTIAL GTH-PBE-q6
       &POTENTIAL
 2 4
  0.2445543000000000E+00 2 -0.1666721480000000E+02  0.2487311320000000E+01
 2
  0.2209559200000000E+00 1  0.1833745811000000E+02
  0.2113324700000000E+00 0
         # Potential name:  GTH-PBE-Q6  for symbol:  O
         # Potential read from the potential filename: GTH_POTENTIALS
       &END POTENTIAL
     &END KIND
     &KIND H
       BASIS_SET DZVP-MOLOPT-SR-GTH-q1
       POTENTIAL GTH-PBE-q1
       &POTENTIAL
 1
  0.2000000000000000E+00 2 -0.4178900440000000E+01  0.7244633100000000E+00
 0
         # Potential name:  GTH-PBE-Q1  for symbol:  H
         # Potential read from the potential filename: GTH_POTENTIALS
       &END POTENTIAL
     &END KIND
     &KIND N
       BASIS_SET DZVP-MOLOPT-SR-GTH-q5
       POTENTIAL GTH-PBE-q5
       &POTENTIAL
 2 3
  0.2837905100000000E+00 2 -0.1241522559000000E+02  0.1868095920000000E+01
 2
  0.2554050000000000E+00 1  0.1363026257000000E+02
  0.2454945300000000E+00 0
         # Potential name:  GTH-PBE-Q5  for symbol:  N
         # Potential read from the potential filename: GTH_POTENTIALS
       &END POTENTIAL
     &END KIND
     &KIND Ga
       BASIS_SET DZVP-MOLOPT-SR-GTH-q13
       POTENTIAL GTH-PBE-q13
       &POTENTIAL
 2 1 10
  0.4900000000000000E+00 0
 3
  0.4167772300000000E+00 3  0.1047568975000000E+02 -0.4921768140000000E+01  0.8707055900000000E+00
  0.7770178090000000E+01 -0.2248152160000000E+01
  0.1784415450000000E+01
  0.5696265200000000E+00 2  0.1777985340000000E+01  0.1958597600000000E+00
 -0.2317443900000000E+00
  0.2381265000000000E+00 1 -0.1624868022000000E+02
         # Potential name:  GTH-PBE-Q13  for symbol:  GA
         # Potential read from the potential filename: GTH_POTENTIALS
       &END POTENTIAL
     &END KIND
     &TOPOLOGY
       NUMBER_OF_ATOMS  150
       MULTIPLE_UNIT_CELL  1 1 1
     &END TOPOLOGY
   &END SUBSYS
 &END FORCE_EVAL
