 # Version information for this restart file 
 # current date 2019-05-23 15:46:57.747
 # current working dir /lustre03/project/6004141/rzk/GaN-carbene/01-Methanol/02-OH-ads
 # Program compiled at                              Sun Apr  7 00:48:11 EDT 2019
 # Program compiled on                          beluga2.int.ets1.calculquebec.ca
 # Program compiled for                        Beluga-Linux-x86-64-intel-openmpi
 # Source code revision number                                         svn:18619
 &GLOBAL
   PRINT_LEVEL  MEDIUM
   PROJECT_NAME TEST
   RUN_TYPE  GEO_OPT
 &END GLOBAL
 &MOTION
   &GEO_OPT
     MAX_ITER  500
     STEP_START_VAL  31
   &END GEO_OPT
 &END MOTION
 &FORCE_EVAL
   METHOD  QS
   STRESS_TENSOR  ANALYTICAL
   &DFT
     BASIS_SET_FILE_NAME BASIS_MOLOPT
     POTENTIAL_FILE_NAME GTH_POTENTIALS
     &SCF
       MAX_SCF  100
       EPS_SCF     5.0000000000000004E-06
       &OT  T
         PRECONDITIONER  FULL_ALL
       &END OT
       &OUTER_SCF  T
         OPTIMIZER  NONE
         EPS_SCF     5.0000000000000004E-06
         MAX_SCF  4
       &END OUTER_SCF
       &PRINT
         &RESTART  OFF
           BACKUP_COPIES  1
           &EACH
             JUST_ENERGY  0
             QS_SCF  0
             MD  20
           &END EACH
         &END RESTART
       &END PRINT
     &END SCF
     &QS
       EPS_DEFAULT     1.0000000000000000E-14
       ALMO_SCF  F
       METHOD  GPW
     &END QS
     &MGRID
       NGRIDS  5
       CUTOFF     1.2000000000000000E+03
     &END MGRID
     &XC
       DENSITY_CUTOFF     1.0000000000000000E-10
       GRADIENT_CUTOFF     1.0000000000000000E-10
       TAU_CUTOFF     1.0000000000000000E-10
       &XC_FUNCTIONAL  NO_SHORTCUT
         &PBE  T
         &END PBE
       &END XC_FUNCTIONAL
       &VDW_POTENTIAL
         POTENTIAL_TYPE  PAIR_POTENTIAL
         &PAIR_POTENTIAL
           R_CUTOFF     1.0000000000000005E+01
           TYPE  DFTD3
           PARAMETER_FILE_NAME dftd3.dat
           REFERENCE_FUNCTIONAL PBE
           EPS_CN     9.9999999999999995E-07
           CALCULATE_C9_TERM  T
           REFERENCE_C9_TERM  T
           LONG_RANGE_CORRECTION  F
           VERBOSE_OUTPUT  F
         &END PAIR_POTENTIAL
       &END VDW_POTENTIAL
     &END XC
   &END DFT
   &SUBSYS
     &CELL
       A     9.7367653356401487E+00    0.0000000000000000E+00    0.0000000000000000E+00
       B    -4.8591341382960209E+00    8.4162672083210595E+00    0.0000000000000000E+00
       C     0.0000000000000000E+00    0.0000000000000000E+00    3.0744000000000000E+01
       MULTIPLE_UNIT_CELL  1 1 1
       &CELL_REF
         A     9.5580000000000052E+00    0.0000000000000000E+00    0.0000000000000000E+00
         B    -4.7790000000000026E+00    8.2774708093716640E+00    0.0000000000000000E+00
         C     0.0000000000000000E+00    0.0000000000000000E+00    3.0744000000000000E+01
         MULTIPLE_UNIT_CELL  1 1 1
       &END CELL_REF
     &END CELL
     &COORD
Ga    4.3175028949498755E-03   -4.4722888780714147E-03   -6.2763029299571338E-01
N    7.4209890689232996E-03    1.8699534852977315E+00    5.3118651292874197E-01
Ga    8.9458139299032156E-03    1.8381257581870283E+00    2.5606007540732301E+00
N    6.4559131405117322E-03   -4.3484942811362233E-03    3.1939430761570216E+00
Ga    9.1992725890750332E-03   -3.2443731466799651E-03    5.1839389671325238E+00
N    1.2018802490404198E-02    1.8715974226755685E+00    5.7692403716490679E+00
Ga    1.2494248261348819E-02    1.8697239219495867E+00    7.7673987942983445E+00
N    8.8580158812158419E-03   -3.5521663007579817E-03    8.3681996040461133E+00
Ga    9.6474375313499658E-03   -2.5491438111626594E-03    1.0365221168154894E+01
N    1.3360407023172999E-02    1.8678914125161514E+00    1.0975479637340253E+01
Ga    1.6073627904698146E-02    1.8683151494756858E+00    1.2973511802770552E+01
N    1.5835078187704105E-02   -4.9325799563074701E-03    1.3572643933813438E+01
Ga    1.8117987528517412E-02    2.8029867095542978E-04    1.5575582326743586E+01
N    1.7696281941094058E-02    1.8813630374736166E+00    1.6132407159078696E+01
Ga    9.0367234358591404E-03    1.8740192759719658E+00    1.8164302360962544E+01
N    1.2710723161563100E-02    1.3464281135003385E-02    1.8625828651718273E+01
Ga   -1.6145244685313147E+00    2.8010491362733889E+00    2.4879052252084316E-01
N   -1.6164101924022429E+00    4.6710478616870761E+00    5.2986950477150097E-01
Ga   -1.5859630461955763E+00    4.6872011953462085E+00    2.5598036647169087E+00
N   -1.6130741381419409E+00    2.8013637312782778E+00    3.1515302655977506E+00
Ga   -1.6108818636648898E+00    2.8022860156895155E+00    5.1622415536071031E+00
N   -1.6103788879617904E+00    4.6724374307299072E+00    5.7690470518898893E+00
Ga   -1.6082943234620737E+00    4.6720587980329906E+00    7.7672002385401111E+00
N   -1.6093333550097149E+00    2.8019301886564647E+00    8.3718825321349808E+00
Ga   -1.6073630269197507E+00    2.8034026800341154E+00    1.0367246290213304E+01
N   -1.6061990742226959E+00    4.6741883817773182E+00    1.0975114235369976E+01
Ga   -1.6043637783580880E+00    4.6765791714681635E+00    1.2972943025986435E+01
N   -1.6139241636219002E+00    2.8003069410105241E+00    1.3564926935423012E+01
Ga   -1.6171551539576599E+00    2.8011548228476317E+00    1.5562822733352313E+01
N   -1.5942536767287769E+00    4.6750334946929470E+00    1.6140447994522130E+01
Ga   -1.6062537486767532E+00    4.6844297805091362E+00    1.8175381978251021E+01
N   -1.6093996751105084E+00    2.8100488333015146E+00    1.8593030913395150E+01
Ga   -3.2352876141143687E+00    5.6074156492981277E+00    2.4895344945940168E-01
N   -3.2290241724426743E+00    7.4772003626408674E+00    5.3127279822249884E-01
Ga   -3.2554157999909998E+00    7.4927988681420361E+00    2.5607655227742301E+00
N   -3.2325828704361834E+00    5.6070572049324596E+00    3.1513815343077662E+00
Ga   -3.2301304616330127E+00    5.6082860521615636E+00    5.1618211475712821E+00
N   -3.2250437471746882E+00    7.4777014095508942E+00    5.7700299365339767E+00
Ga   -3.2258523131898897E+00    7.4771928388775057E+00    7.7685118116477696E+00
N   -3.2297638213178463E+00    5.6057820837922279E+00    8.3714688388848213E+00
Ga   -3.2288122435472992E+00    5.6062253505466941E+00    1.0367089317840263E+01
N   -3.2270241086071576E+00    7.4787499803215596E+00    1.0965849338522368E+01
Ga   -3.2281444890769690E+00    7.4776306901686587E+00    1.2958381436830159E+01
N   -3.2275188029460642E+00    5.6123808433521658E+00    1.3573771930055170E+01
Ga   -3.2212553445253556E+00    5.6138552962860615E+00    1.5577709749619606E+01
N   -3.2246461074566022E+00    7.4816858081108748E+00    1.6217750527275456E+01
Ga   -3.2158735941969039E+00    7.4944605399537272E+00    1.8320385738146499E+01
N   -3.2230270074833283E+00    5.6149049889782230E+00    1.8625592217688187E+01
Ga    3.2501345564481507E+00   -5.4449607406271304E-03    2.4867636334066887E-01
N    3.2500164532456748E+00    1.8657815462017029E+00    5.3078692514458337E-01
Ga    3.2787811948798171E+00    1.8809743134675645E+00    2.5621491215763075E+00
N    3.2520034538833582E+00   -4.3984883734545796E-03    3.1516832382129709E+00
Ga    3.2542392450730033E+00   -3.4205163123274826E-03    5.1624695491845900E+00
N    3.2542661211953297E+00    1.8668897382644862E+00    5.7696044069823174E+00
Ga    3.2555437220328893E+00    1.8671043668230187E+00    7.7682034538580274E+00
N    3.2555810180997669E+00   -4.0138135073531280E-03    8.3710678823825848E+00
Ga    3.2557813935396300E+00   -3.8091212323603202E-03    1.0366312704142580E+01
N    3.2571876051184288E+00    1.8670222878050782E+00    1.0973519706177633E+01
Ga    3.2520806891025718E+00    1.8683411235510319E+00    1.2970001636096486E+01
N    3.2489494831113168E+00   -7.5653671813402891E-03    1.3567690728008577E+01
Ga    3.2550071730880590E+00   -3.4476822171124687E-03    1.5570402594101493E+01
N    3.2677687837231395E+00    1.8702393934036767E+00    1.6128478300770553E+01
Ga    3.2814413715305997E+00    1.8777250359701041E+00    1.8166615796085036E+01
N    3.2720636496172868E+00    1.2928551479314125E-02    1.8626573422761204E+01
Ga    1.6290826837067263E+00    2.8014376852612206E+00    2.4895969795512299E-01
N    1.6363515924467205E+00    4.6715894313922801E+00    5.2968277283447707E-01
Ga    1.6100892936805216E+00    4.6871162918229352E+00    2.5599112119824214E+00
N    1.6322305875746850E+00    2.8013062794366275E+00    3.1508865250664324E+00
Ga    1.6346728063705795E+00    2.8022603132619133E+00    5.1613463462833522E+00
N    1.6401847398182650E+00    4.6722542965824383E+00    5.7694364195220853E+00
Ga    1.6397948666164015E+00    4.6718749165850033E+00    7.7678489782234079E+00
N    1.6349382253879994E+00    2.8018018248893815E+00    8.3738633195846486E+00
Ga    1.6356331642343946E+00    2.8032359758160483E+00    1.0370215588731364E+01
N    1.6414714259782854E+00    4.6751735128998710E+00    1.0976345916127183E+01
Ga    1.6467120389210785E+00    4.6778977364560292E+00    1.2975816176521731E+01
N    1.6345773751154300E+00    2.8092095984800314E+00    1.3584578384751142E+01
Ga    1.6419021117964443E+00    2.8253633861973495E+00    1.5596826650253810E+01
N    1.6437219577365689E+00    4.6752138106334238E+00    1.6210526195637314E+01
Ga    1.6472359797032254E+00    4.6791848820309108E+00    1.8769013755263703E+01
N    1.6440000293395671E+00    2.7863589047369439E+00    1.8605050123695751E+01
Ga    9.9622868615342076E-03    5.6069503018372266E+00   -6.2237612764807482E-01
N    1.3638757368288824E-02    7.4810136810783554E+00    5.3013279753963505E-01
Ga    1.4907867716037493E-02    7.4494693943809960E+00    2.5602851712013601E+00
N    1.2599113861548262E-02    5.6065561670530197E+00    3.1923785304354109E+00
Ga    1.4958261917487989E-02    5.6077137181033470E+00    5.1825069913369308E+00
N    1.7913014526678150E-02    7.4819157103511706E+00    5.7695367784428520E+00
Ga    1.8871180701886727E-02    7.4791431377209081E+00    7.7680489370676566E+00
N    1.6014437170078336E-02    5.6060553859434448E+00    8.3703141851803693E+00
Ga    1.7334908627743967E-02    5.6062473183587738E+00    1.0368274281058637E+01
N    1.7122154392911908E-02    7.4772857561437966E+00    1.0973676820956079E+01
Ga    1.6209296528827914E-02    7.4715241263174841E+00    1.2970640973926839E+01
N    2.2513432606508375E-02    5.6007150130706931E+00    1.3586115352111159E+01
Ga    3.8746759239877623E-02    5.6007278387733521E+00    1.5599716079820132E+01
N    2.6814299899673159E-02    7.4882038829006303E+00    1.6123825067709607E+01
Ga    3.2587412803342555E-02    7.5053069010780815E+00    1.8156323368188126E+01
N    8.8317532648962270E-04    5.6393145520739969E+00    1.8625340047809274E+01
Ga    6.4951585535333214E+00   -4.6473693805860472E-03    2.4907025765001853E-01
N    6.5005701855319904E+00    1.8667188647498392E+00    5.3098162795422055E-01
Ga    6.4759405943377137E+00    1.8813142125586422E+00    2.5628430765050991E+00
N    6.4974920235857025E+00   -4.3910859939877908E-03    3.1515025313231506E+00
Ga    6.4998404753389556E+00   -3.1062040340391001E-03    5.1622478454819518E+00
N    6.5057552940218413E+00    1.8667550093284933E+00    5.7710089844298436E+00
Ga    6.5046926408659678E+00    1.8663593719669929E+00    7.7705681936466720E+00
N    6.5007378781567207E+00   -5.5270596167216598E-03    8.3730060096307000E+00
Ga    6.5016751938003283E+00   -6.9456414452457550E-03    1.0369533461307121E+01
N    6.5037562915141010E+00    1.8684949348698032E+00    1.0959953054989089E+01
Ga    6.5040040558755363E+00    1.8682452369363975E+00    1.2950186036449333E+01
N    6.5033180910416286E+00   -4.7585626181244093E-03    1.3545794388405636E+01
Ga    6.5035307944466538E+00    1.8602006758198764E-03    1.5535779488139129E+01
N    6.4917648789710372E+00    1.8600026348319678E+00    1.6139328677017161E+01
Ga    6.4988653498964926E+00    1.8695100747580244E+00    1.8204915102474466E+01
N    6.5072635917114434E+00   -1.1761914490736873E-03    1.8657065540423829E+01
Ga    4.8755334396950554E+00    2.8017374629949048E+00   -6.0277214727476114E-01
N    4.8791037843602938E+00    4.6744140850053491E+00    5.3178599801182280E-01
Ga    4.8805728236456662E+00    4.6448313260440415E+00    2.5633814329877045E+00
N    4.8776740277467585E+00    2.8008958203874212E+00    3.1933803678636838E+00
Ga    4.8803831624006628E+00    2.8019381834345429E+00    5.1843708424264303E+00
N    4.8833697355805450E+00    4.6772016940018615E+00    5.7684621143280923E+00
Ga    4.8834232520162173E+00    4.6748849358461104E+00    7.7666401128852502E+00
N    4.8796862056353172E+00    2.8022560145221784E+00    8.3693084179366739E+00
Ga    4.8789326467219274E+00    2.8041502242732923E+00    1.0366984763392523E+01
N    4.8842065007710422E+00    4.6756683285007155E+00    1.0974331384586593E+01
Ga    4.8827415163479726E+00    4.6814967543112358E+00    1.2972080557868596E+01
N    4.8814164516638989E+00    2.8030641877727605E+00    1.3551078413666993E+01
Ga    4.8862121168353827E+00    2.7998760029332566E+00    1.5542598191201275E+01
N    4.9007093821363688E+00    4.6664621866735336E+00    1.6149155892853685E+01
Ga    4.9022920997167905E+00    4.6756490105347615E+00    1.8195093254095369E+01
N    4.8833893247747033E+00    2.8160151335011987E+00    1.8640159112031636E+01
Ga    3.2562582175850778E+00    5.6065382860100712E+00    2.4909274389923980E-01
N    3.2552872420126331E+00    7.4763398204321980E+00    5.3142741683051231E-01
Ga    3.2858993799778431E+00    7.4926491438068377E+00    2.5606708720224698E+00
N    3.2578630413423588E+00    5.6068319245119120E+00    3.1513112147066233E+00
Ga    3.2604239268247701E+00    5.6078774338032193E+00    5.1616588608693226E+00
N    3.2609048434981531E+00    7.4777352520795066E+00    5.7690242860292038E+00
Ga    3.2621485460070274E+00    7.4771375669611544E+00    7.7670893487708748E+00
N    3.2613502468692639E+00    5.6066596115702794E+00    8.3712208207697323E+00
Ga    3.2629185136282035E+00    5.6076582843876661E+00    1.0366568650323343E+01
N    3.2673925109822175E+00    7.4772523345811477E+00    1.0973136870908569E+01
Ga    3.2716990202721377E+00    7.4724802085399622E+00    1.2970734554109621E+01
N    3.2654600225630865E+00    5.6087199568543005E+00    1.3602577500517466E+01
Ga    3.2562133111889646E+00    5.6051007953238008E+00    1.5626971569858879E+01
N    3.2654279760503706E+00    7.4978673097294619E+00    1.6145274442761476E+01
Ga    3.2672676240026708E+00    7.5076896105862669E+00    1.8189689153079470E+01
N    3.2796570467585910E+00    5.6267431115023285E+00    1.8607558574113611E+01
O    1.4228681430790788E+00    4.7642112338223850E+00    2.1014241782871284E+01
H    8.5743066118279654E-01    5.5604560765808726E+00    2.1021660601517560E+01
C    6.5285456202200387E-01    3.6714947919400474E+00    2.1596873980293129E+01
H   -3.2102253271961012E-01    3.5597449714172886E+00    2.1097618744670047E+01
H    1.2430414954464724E+00    2.7628958273652775E+00    2.1438689395318772E+01
H    5.1629846303276117E-01    3.8498290980813921E+00    2.2670962384192329E+01
     &END COORD
     &KIND C
       BASIS_SET DZVP-MOLOPT-SR-GTH-q4
       POTENTIAL GTH-PBE-q4
       &POTENTIAL
 2 2
  0.3384712400000000E+00 2 -0.8803673979999999E+01  0.1339210850000000E+01
 2
  0.3025757500000000E+00 1  0.9622486650000001E+01
  0.2915069400000000E+00 0
         # Potential name:  GTH-PBE-Q4  for symbol:  C
         # Potential read from the potential filename: GTH_POTENTIALS
       &END POTENTIAL
     &END KIND
     &KIND O
       BASIS_SET DZVP-MOLOPT-SR-GTH-q6
       POTENTIAL GTH-PBE-q6
       &POTENTIAL
 2 4
  0.2445543000000000E+00 2 -0.1666721480000000E+02  0.2487311320000000E+01
 2
  0.2209559200000000E+00 1  0.1833745811000000E+02
  0.2113324700000000E+00 0
         # Potential name:  GTH-PBE-Q6  for symbol:  O
         # Potential read from the potential filename: GTH_POTENTIALS
       &END POTENTIAL
     &END KIND
     &KIND H
       BASIS_SET DZVP-MOLOPT-SR-GTH-q1
       POTENTIAL GTH-PBE-q1
       &POTENTIAL
 1
  0.2000000000000000E+00 2 -0.4178900440000000E+01  0.7244633100000000E+00
 0
         # Potential name:  GTH-PBE-Q1  for symbol:  H
         # Potential read from the potential filename: GTH_POTENTIALS
       &END POTENTIAL
     &END KIND
     &KIND N
       BASIS_SET DZVP-MOLOPT-SR-GTH-q5
       POTENTIAL GTH-PBE-q5
       &POTENTIAL
 2 3
  0.2837905100000000E+00 2 -0.1241522559000000E+02  0.1868095920000000E+01
 2
  0.2554050000000000E+00 1  0.1363026257000000E+02
  0.2454945300000000E+00 0
         # Potential name:  GTH-PBE-Q5  for symbol:  N
         # Potential read from the potential filename: GTH_POTENTIALS
       &END POTENTIAL
     &END KIND
     &KIND Ga
       BASIS_SET DZVP-MOLOPT-SR-GTH-q13
       POTENTIAL GTH-PBE-q13
       &POTENTIAL
 2 1 10
  0.4900000000000000E+00 0
 3
  0.4167772300000000E+00 3  0.1047568975000000E+02 -0.4921768140000000E+01  0.8707055900000000E+00
  0.7770178090000000E+01 -0.2248152160000000E+01
  0.1784415450000000E+01
  0.5696265200000000E+00 2  0.1777985340000000E+01  0.1958597600000000E+00
 -0.2317443900000000E+00
  0.2381265000000000E+00 1 -0.1624868022000000E+02
         # Potential name:  GTH-PBE-Q13  for symbol:  GA
         # Potential read from the potential filename: GTH_POTENTIALS
       &END POTENTIAL
     &END KIND
     &TOPOLOGY
       NUMBER_OF_ATOMS  150
       MULTIPLE_UNIT_CELL  1 1 1
     &END TOPOLOGY
   &END SUBSYS
 &END FORCE_EVAL
