%mem=4GB
%chk=carbene.chk
# opt ub3lyp/6-31g(d,p) guess=(core,mix,always)

Title Card Required

0 1
 C                 -3.35606082   -0.40909090    0.00000000
 H                 -2.99940640   -1.41790091    0.00000000
 H                 -4.42606082   -0.40907772    0.00000000

