%mem=4GB
%chk=GaN-443-addat-both.chk
# pbepbe/3-21g/auto

Title Card Required

0 2
 Ga                 1.59969174    0.95025291    1.89812275
 N                 -0.00004327    1.87384803    2.59300000
 Ga                 0.00000000    0.00000000    3.21241584
 N                  0.00000000    0.00000000    5.18600000
 Ga                -0.00004327    1.87384803    5.80541584
 N                 -0.00004327    1.87384803    7.77900000
 Ga                 0.00000000    0.00000000    8.39841584
 N                  0.00000000    0.00000000   10.37200000
 Ga                -0.00004327    1.87384803   10.99141584
 N                 -0.00004327    1.87384803   12.96500000
 Ga                 0.00000000    0.00000000   13.58441584
 N                  0.00000000    0.00000000   15.55800000
 Ga                -0.00004327    1.87384803   16.17741584
 N                  1.59969173    0.95025291   16.87229309
 Ga                -0.02313620    3.76105376    1.89811978
 N                 -1.62286491    4.68465756    2.59300000
 Ga                -1.62280000    2.81077205    3.21241584
 N                 -1.62280000    2.81077205    5.18600000
 Ga                -1.62286491    4.68465756    5.80541584
 N                 -1.62286491    4.68465756    7.77900000
 Ga                -1.62280000    2.81077205    8.39841584
 N                 -1.62280000    2.81077205   10.37200000
 Ga                -1.62286491    4.68465756   10.99141584
 N                 -1.62286491    4.68465756   12.96500000
 Ga                -1.62280000    2.81077205   13.58441584
 N                 -1.62280000    2.81077205   15.55800000
 Ga                -1.62286491    4.68465756   16.17741584
 N                 -0.02313620    3.76105376   16.87229606
 Ga                -1.64590826    6.57179701    1.89812275
 N                 -3.24564327    7.49539213    2.59300000
 Ga                -3.24560000    5.62154410    3.21241584
 N                 -3.24560000    5.62154410    5.18600000
 Ga                -3.24564327    7.49539213    5.80541584
 N                 -3.24564327    7.49539213    7.77900000
 Ga                -3.24560000    5.62154410    8.39841584
 N                 -3.24560000    5.62154410   10.37200000
 Ga                -3.24564327    7.49539213   10.99141584
 N                 -3.24564327    7.49539213   12.96500000
 Ga                -3.24560000    5.62154410   13.58441584
 N                 -3.24560000    5.62154410   15.55800000
 Ga                -3.24564327    7.49539213   16.17741584
 N                 -1.64590827    6.57179701   16.87229309
 Ga                -3.26873620    9.38259786    1.89811978
 N                 -4.86846491   10.30620166    2.59300000
 Ga                -4.86840000    8.43231615    3.21241584
 N                 -4.86840000    8.43231615    5.18600000
 Ga                -4.86846491   10.30620166    5.80541584
 N                 -4.86846491   10.30620166    7.77900000
 Ga                -4.86840000    8.43231615    8.39841584
 N                 -4.86840000    8.43231615   10.37200000
 Ga                -4.86846491   10.30620166   10.99141584
 N                 -4.86846491   10.30620166   12.96500000
 Ga                -4.86840000    8.43231615   13.58441584
 N                 -4.86840000    8.43231615   15.55800000
 Ga                -4.86846491   10.30620166   16.17741584
 N                 -3.26873620    9.38259786   16.87229606
 Ga                 4.84533064    0.95024311    1.89812572
 N                  3.24560000    1.87384803    2.59300000
 Ga                 3.24560000    0.00000000    3.21241584
 N                  3.24560000    0.00000000    5.18600000
 Ga                 3.24560000    1.87384803    5.80541584
 N                  3.24560000    1.87384803    7.77900000
 Ga                 3.24560000    0.00000000    8.39841584
 N                  3.24560000    0.00000000   10.37200000
 Ga                 3.24560000    1.87384803   10.99141584
 N                  3.24560000    1.87384803   12.96500000
 Ga                 3.24560000    0.00000000   13.58441584
 N                  3.24560000    0.00000000   15.55800000
 Ga                 3.24560000    1.87384803   16.17741584
 N                  4.84533064    0.95024312   16.87229012
 Ga                 3.22250270    3.76104397    1.89812275
 N                  1.62277836    4.68465756    2.59300000
 Ga                 1.62280000    2.81077205    3.21241584
 N                  1.62280000    2.81077205    5.18600000
 Ga                 1.62277836    4.68465756    5.80541584
 N                  1.62277836    4.68465756    7.77900000
 Ga                 1.62280000    2.81077205    8.39841584
 N                  1.62280000    2.81077205   10.37200000
 Ga                 1.62277836    4.68465756   10.99141584
 N                  1.62277836    4.68465756   12.96500000
 Ga                 1.62280000    2.81077205   13.58441584
 N                  1.62280000    2.81077205   15.55800000
 Ga                 1.62277836    4.68465756   16.17741584
 N                  3.22250271    3.76104397   16.87229309
 Ga                 1.59973064    6.57178721    1.89812572
 N                  0.00000000    7.49539213    2.59300000
 Ga                 0.00000000    5.62154410    3.21241584
 N                  0.00000000    5.62154410    5.18600000
 Ga                 0.00000000    7.49539213    5.80541584
 N                  0.00000000    7.49539213    7.77900000
 Ga                 0.00000000    5.62154410    8.39841584
 N                  0.00000000    5.62154410   10.37200000
 Ga                 0.00000000    7.49539213   10.99141584
 N                  0.00000000    7.49539213   12.96500000
 Ga                 0.00000000    5.62154410   13.58441584
 N                  0.00000000    5.62154410   15.55800000
 Ga                 0.00000000    7.49539213   16.17741584
 N                  1.59973064    6.57178722   16.87229012
 Ga                -0.02309730    9.38258807    1.89812275
 N                 -1.62282164   10.30620166    2.59300000
 Ga                -1.62280000    8.43231615    3.21241584
 N                 -1.62280000    8.43231615    5.18600000
 Ga                -1.62282164   10.30620166    5.80541584
 N                 -1.62282164   10.30620166    7.77900000
 Ga                -1.62280000    8.43231615    8.39841584
 N                 -1.62280000    8.43231615   10.37200000
 Ga                -1.62282164   10.30620166   10.99141584
 N                 -1.62282164   10.30620166   12.96500000
 Ga                -1.62280000    8.43231615   13.58441584
 N                 -1.62280000    8.43231615   15.55800000
 Ga                -1.62282164   10.30620166   16.17741584
 N                 -0.02309729    9.38258807   16.87229309
 Ga                 8.09089174    0.95025291    1.89812275
 N                  6.49115673    1.87384803    2.59300000
 Ga                 6.49120000    0.00000000    3.21241584
 N                  6.49120000    0.00000000    5.18600000
 Ga                 6.49115673    1.87384803    5.80541584
 N                  6.49115673    1.87384803    7.77900000
 Ga                 6.49120000    0.00000000    8.39841584
 N                  6.49120000    0.00000000   10.37200000
 Ga                 6.49115673    1.87384803   10.99141584
 N                  6.49115673    1.87384803   12.96500000
 Ga                 6.49120000    0.00000000   13.58441584
 N                  6.49120000    0.00000000   15.55800000
 Ga                 6.49115673    1.87384803   16.17741584
 N                  8.09089173    0.95025291   16.87229309
 Ga                 6.46806380    3.76105376    1.89811978
 N                  4.86833509    4.68465756    2.59300000
 Ga                 4.86840000    2.81077205    3.21241584
 N                  4.86840000    2.81077205    5.18600000
 Ga                 4.86833509    4.68465756    5.80541584
 N                  4.86833509    4.68465756    7.77900000
 Ga                 4.86840000    2.81077205    8.39841584
 N                  4.86840000    2.81077205   10.37200000
 Ga                 4.86833509    4.68465756   10.99141584
 N                  4.86833509    4.68465756   12.96500000
 Ga                 4.86840000    2.81077205   13.58441584
 N                  4.86840000    2.81077205   15.55800000
 Ga                 4.86833509    4.68465756   16.17741584
 N                  6.46806380    3.76105376   16.87229606
 Ga                 4.84529174    6.57179701    1.89812275
 N                  3.24555673    7.49539213    2.59300000
 Ga                 3.24560000    5.62154410    3.21241584
 N                  3.24560000    5.62154410    5.18600000
 Ga                 3.24555673    7.49539213    5.80541584
 N                  3.24555673    7.49539213    7.77900000
 Ga                 3.24560000    5.62154410    8.39841584
 N                  3.24560000    5.62154410   10.37200000
 Ga                 3.24555673    7.49539213   10.99141584
 N                  3.24555673    7.49539213   12.96500000
 Ga                 3.24560000    5.62154410   13.58441584
 N                  3.24560000    5.62154410   15.55800000
 Ga                 3.24555673    7.49539213   16.17741584
 N                  4.84529173    6.57179701   16.87229309
 Ga                 3.22246380    9.38259786    1.89811978
 N                  1.62273509   10.30620166    2.59300000
 Ga                 1.62280000    8.43231615    3.21241584
 N                  1.62280000    8.43231615    5.18600000
 Ga                 1.62273509   10.30620166    5.80541584
 N                  1.62273509   10.30620166    7.77900000
 Ga                 1.62280000    8.43231615    8.39841584
 N                  1.62280000    8.43231615   10.37200000
 Ga                 1.62273509   10.30620166   10.99141584
 N                  1.62273509   10.30620166   12.96500000
 Ga                 1.62280000    8.43231615   13.58441584
 N                  1.62280000    8.43231615   15.55800000
 Ga                 1.62273509   10.30620166   16.17741584
 N                  3.22246380    9.38259786   16.87229606
 Ga                11.35961083    0.93691776    1.97358003
 N                  9.73680000    1.87384803    2.59300000
 Ga                 9.73680000    0.00000000    3.21241584
 N                  9.73680000    0.00000000    5.18600000
 Ga                 9.73680000    1.87384803    5.80541584
 N                  9.73680000    1.87384803    7.77900000
 Ga                 9.73680000    0.00000000    8.39841584
 N                  9.73680000    0.00000000   10.37200000
 Ga                 9.73680000    1.87384803   10.99141584
 N                  9.73680000    1.87384803   12.96500000
 Ga                 9.73680000    0.00000000   13.58441584
 N                  9.73680000    0.00000000   15.55800000
 Ga                 9.73680000    1.87384803   16.17741584
 N                 11.33653328    0.95024159   16.87228202
 Ga                 9.73679681    3.74774787    1.97356886
 N                  8.11397836    4.68465756    2.59300000
 Ga                 8.11400000    2.81077205    3.21241584
 N                  8.11400000    2.81077205    5.18600000
 Ga                 8.11397836    4.68465756    5.80541584
 N                  8.11397836    4.68465756    7.77900000
 Ga                 8.11400000    2.81077205    8.39841584
 N                  8.11400000    2.81077205   10.37200000
 Ga                 8.11397836    4.68465756   10.99141584
 N                  8.11397836    4.68465756   12.96500000
 Ga                 8.11400000    2.81077205   13.58441584
 N                  8.11400000    2.81077205   15.55800000
 Ga                 8.11397836    4.68465756   16.17741584
 N                  9.71371872    3.76107166   16.87229303
 Ga                 8.11401083    6.55846186    1.97358003
 N                  6.49120000    7.49539213    2.59300000
 Ga                 6.49120000    5.62154410    3.21241584
 N                  6.49120000    5.62154410    5.18600000
 Ga                 6.49120000    7.49539213    5.80541584
 N                  6.49120000    7.49539213    7.77900000
 Ga                 6.49120000    5.62154410    8.39841584
 N                  6.49120000    5.62154410   10.37200000
 Ga                 6.49120000    7.49539213   10.99141584
 N                  6.49120000    7.49539213   12.96500000
 Ga                 6.49120000    5.62154410   13.58441584
 N                  6.49120000    5.62154410   15.55800000
 Ga                 6.49120000    7.49539213   16.17741584
 N                  8.09093328    6.57178569   16.87228202
 Ga                 6.48007066    9.34920813    1.97522515
 N                  4.86837836   10.30620166    2.59300000
 Ga                 4.86840000    8.43231615    3.21241584
 N                  4.86840000    8.43231615    5.18600000
 Ga                 4.86837836   10.30620166    5.80541584
 N                  4.86837836   10.30620166    7.77900000
 Ga                 4.86840000    8.43231615    8.39841584
 N                  4.86840000    8.43231615   10.37200000
 Ga                 4.86837836   10.30620166   10.99141584
 N                  4.86837836   10.30620166   12.96500000
 Ga                 4.86840000    8.43231615   13.58441584
 N                  4.86840000    8.43231615   15.55800000
 Ga                 4.86837836   10.30620166   16.17741584
 N                  6.44848152    9.36796519   16.89715243
 ?s                 1.56459625    0.97053402    0.89894460
 ?s                -0.03509950    2.81850708    2.23198000
 ?s                -0.05823604    3.78131866    0.89894145
 ?s                -1.65786992    5.62924484    2.23196751
 ?s                -1.68100375    6.59207812    0.89894460
 ?s                -3.28069950    8.44005118    2.23198000
 ?s                 2.40997598    1.43190134    2.23197038
 ?s                 4.81022328    0.97051236    0.89894775
 ?s                 3.21052505    2.81849301    2.23197038
 ?s                 0.78715152    4.24268761    2.23198000
 ?s                 3.18739100    3.78129700    0.89894460
 ?s                 1.58775463    5.62923077    2.23195789
 ?s                -0.83562402    7.05344544    2.23197038
 ?s                 1.56462328    6.59205646    0.89894775
 ?s                -0.03507495    8.44003711    2.23197038
 ?s                 5.65562046    1.43189288    2.23195790
 ?s                 8.05579625    0.97053402    0.89894460
 ?s                 6.45610050    2.81850708    2.23198000
 ?s                 4.03279600    4.24267915    2.23196751
 ?s                 6.43296396    3.78131866    0.89894145
 ?s                 4.83333008    5.62924484    2.23196751
 ?s                 2.41002046    7.05343698    2.23195790
 ?s                 4.81019625    6.59207812    0.89894460
 ?s                 3.21050050    8.44005118    2.23198000
 ?s                 8.90117598    1.43190134    2.23197038
 ?s                11.35961083    0.93691775    0.97358003
 ?s                 9.71278012    2.81214719    2.32581107
 ?s                 7.27835152    4.24268761    2.23198000
 ?s                 9.73679681    3.74774787    0.97356886
 ?s                 8.08998672    5.62286137    2.32582225
 ?s                 5.65557598    7.05344544    2.23197038
 ?s                 8.11401083    6.55846185    0.97358003
 ?s                 6.45003032    8.41757937    2.33739284

