%mem=4GB
%chk=GaN-443-addat.chk
# pbepbe/3-21g/auto

Title Card Required

0 1
 N                 -0.00004327    1.87384803    2.59300000
 Ga                 0.00000000    0.00000000    3.21241584
 N                  0.00000000    0.00000000    5.18600000
 Ga                -0.00004327    1.87384803    5.80541584
 N                 -0.00004327    1.87384803    7.77900000
 Ga                 0.00000000    0.00000000    8.39841584
 N                  0.00000000    0.00000000   10.37200000
 Ga                -0.00004327    1.87384803   10.99141584
 N                 -0.00004327    1.87384803   12.96500000
 Ga                 0.00000000    0.00000000   13.58441584
 N                  0.00000000    0.00000000   15.55800000
 Ga                -0.00004327    1.87384803   16.17741584
 N                  1.59969173    0.95025291   16.87229309
 N                 -1.62286491    4.68465756    2.59300000
 Ga                -1.62280000    2.81077205    3.21241584
 N                 -1.62280000    2.81077205    5.18600000
 Ga                -1.62286491    4.68465756    5.80541584
 N                 -1.62286491    4.68465756    7.77900000
 Ga                -1.62280000    2.81077205    8.39841584
 N                 -1.62280000    2.81077205   10.37200000
 Ga                -1.62286491    4.68465756   10.99141584
 N                 -1.62286491    4.68465756   12.96500000
 Ga                -1.62280000    2.81077205   13.58441584
 N                 -1.62280000    2.81077205   15.55800000
 Ga                -1.62286491    4.68465756   16.17741584
 N                 -0.02313620    3.76105376   16.87229606
 N                 -3.24564327    7.49539213    2.59300000
 Ga                -3.24560000    5.62154410    3.21241584
 N                 -3.24560000    5.62154410    5.18600000
 Ga                -3.24564327    7.49539213    5.80541584
 N                 -3.24564327    7.49539213    7.77900000
 Ga                -3.24560000    5.62154410    8.39841584
 N                 -3.24560000    5.62154410   10.37200000
 Ga                -3.24564327    7.49539213   10.99141584
 N                 -3.24564327    7.49539213   12.96500000
 Ga                -3.24560000    5.62154410   13.58441584
 N                 -3.24560000    5.62154410   15.55800000
 Ga                -3.24564327    7.49539213   16.17741584
 N                 -1.64590827    6.57179701   16.87229309
 N                 -4.86846491   10.30620166    2.59300000
 Ga                -4.86840000    8.43231615    3.21241584
 N                 -4.86840000    8.43231615    5.18600000
 Ga                -4.86846491   10.30620166    5.80541584
 N                 -4.86846491   10.30620166    7.77900000
 Ga                -4.86840000    8.43231615    8.39841584
 N                 -4.86840000    8.43231615   10.37200000
 Ga                -4.86846491   10.30620166   10.99141584
 N                 -4.86846491   10.30620166   12.96500000
 Ga                -4.86840000    8.43231615   13.58441584
 N                 -4.86840000    8.43231615   15.55800000
 Ga                -4.86846491   10.30620166   16.17741584
 N                 -3.26873620    9.38259786   16.87229606
 N                  3.24560000    1.87384803    2.59300000
 Ga                 3.24560000    0.00000000    3.21241584
 N                  3.24560000    0.00000000    5.18600000
 Ga                 3.24560000    1.87384803    5.80541584
 N                  3.24560000    1.87384803    7.77900000
 Ga                 3.24560000    0.00000000    8.39841584
 N                  3.24560000    0.00000000   10.37200000
 Ga                 3.24560000    1.87384803   10.99141584
 N                  3.24560000    1.87384803   12.96500000
 Ga                 3.24560000    0.00000000   13.58441584
 N                  3.24560000    0.00000000   15.55800000
 Ga                 3.24560000    1.87384803   16.17741584
 N                  4.84533064    0.95024312   16.87229012
 N                  1.62277836    4.68465756    2.59300000
 Ga                 1.62280000    2.81077205    3.21241584
 N                  1.62280000    2.81077205    5.18600000
 Ga                 1.62277836    4.68465756    5.80541584
 N                  1.62277836    4.68465756    7.77900000
 Ga                 1.62280000    2.81077205    8.39841584
 N                  1.62280000    2.81077205   10.37200000
 Ga                 1.62277836    4.68465756   10.99141584
 N                  1.62277836    4.68465756   12.96500000
 Ga                 1.62280000    2.81077205   13.58441584
 N                  1.62280000    2.81077205   15.55800000
 Ga                 1.62277836    4.68465756   16.17741584
 N                  3.22250271    3.76104397   16.87229309
 N                  0.00000000    7.49539213    2.59300000
 Ga                 0.00000000    5.62154410    3.21241584
 N                  0.00000000    5.62154410    5.18600000
 Ga                 0.00000000    7.49539213    5.80541584
 N                  0.00000000    7.49539213    7.77900000
 Ga                 0.00000000    5.62154410    8.39841584
 N                  0.00000000    5.62154410   10.37200000
 Ga                 0.00000000    7.49539213   10.99141584
 N                  0.00000000    7.49539213   12.96500000
 Ga                 0.00000000    5.62154410   13.58441584
 N                  0.00000000    5.62154410   15.55800000
 Ga                 0.00000000    7.49539213   16.17741584
 N                  1.59973064    6.57178722   16.87229012
 N                 -1.62282164   10.30620166    2.59300000
 Ga                -1.62280000    8.43231615    3.21241584
 N                 -1.62280000    8.43231615    5.18600000
 Ga                -1.62282164   10.30620166    5.80541584
 N                 -1.62282164   10.30620166    7.77900000
 Ga                -1.62280000    8.43231615    8.39841584
 N                 -1.62280000    8.43231615   10.37200000
 Ga                -1.62282164   10.30620166   10.99141584
 N                 -1.62282164   10.30620166   12.96500000
 Ga                -1.62280000    8.43231615   13.58441584
 N                 -1.62280000    8.43231615   15.55800000
 Ga                -1.62282164   10.30620166   16.17741584
 N                 -0.02309729    9.38258807   16.87229309
 N                  6.49115673    1.87384803    2.59300000
 Ga                 6.49120000    0.00000000    3.21241584
 N                  6.49120000    0.00000000    5.18600000
 Ga                 6.49115673    1.87384803    5.80541584
 N                  6.49115673    1.87384803    7.77900000
 Ga                 6.49120000    0.00000000    8.39841584
 N                  6.49120000    0.00000000   10.37200000
 Ga                 6.49115673    1.87384803   10.99141584
 N                  6.49115673    1.87384803   12.96500000
 Ga                 6.49120000    0.00000000   13.58441584
 N                  6.49120000    0.00000000   15.55800000
 Ga                 6.49115673    1.87384803   16.17741584
 N                  8.09089173    0.95025291   16.87229309
 N                  4.86833509    4.68465756    2.59300000
 Ga                 4.86840000    2.81077205    3.21241584
 N                  4.86840000    2.81077205    5.18600000
 Ga                 4.86833509    4.68465756    5.80541584
 N                  4.86833509    4.68465756    7.77900000
 Ga                 4.86840000    2.81077205    8.39841584
 N                  4.86840000    2.81077205   10.37200000
 Ga                 4.86833509    4.68465756   10.99141584
 N                  4.86833509    4.68465756   12.96500000
 Ga                 4.86840000    2.81077205   13.58441584
 N                  4.86840000    2.81077205   15.55800000
 Ga                 4.86833509    4.68465756   16.17741584
 N                  6.46806380    3.76105376   16.87229606
 N                  3.24555673    7.49539213    2.59300000
 Ga                 3.24560000    5.62154410    3.21241584
 N                  3.24560000    5.62154410    5.18600000
 Ga                 3.24555673    7.49539213    5.80541584
 N                  3.24555673    7.49539213    7.77900000
 Ga                 3.24560000    5.62154410    8.39841584
 N                  3.24560000    5.62154410   10.37200000
 Ga                 3.24555673    7.49539213   10.99141584
 N                  3.24555673    7.49539213   12.96500000
 Ga                 3.24560000    5.62154410   13.58441584
 N                  3.24560000    5.62154410   15.55800000
 Ga                 3.24555673    7.49539213   16.17741584
 N                  4.84529173    6.57179701   16.87229309
 N                  1.62273509   10.30620166    2.59300000
 Ga                 1.62280000    8.43231615    3.21241584
 N                  1.62280000    8.43231615    5.18600000
 Ga                 1.62273509   10.30620166    5.80541584
 N                  1.62273509   10.30620166    7.77900000
 Ga                 1.62280000    8.43231615    8.39841584
 N                  1.62280000    8.43231615   10.37200000
 Ga                 1.62273509   10.30620166   10.99141584
 N                  1.62273509   10.30620166   12.96500000
 Ga                 1.62280000    8.43231615   13.58441584
 N                  1.62280000    8.43231615   15.55800000
 Ga                 1.62273509   10.30620166   16.17741584
 N                  3.22246380    9.38259786   16.87229606
 N                  9.73680000    1.87384803    2.59300000
 Ga                 9.73680000    0.00000000    3.21241584
 N                  9.73680000    0.00000000    5.18600000
 Ga                 9.73680000    1.87384803    5.80541584
 N                  9.73680000    1.87384803    7.77900000
 Ga                 9.73680000    0.00000000    8.39841584
 N                  9.73680000    0.00000000   10.37200000
 Ga                 9.73680000    1.87384803   10.99141584
 N                  9.73680000    1.87384803   12.96500000
 Ga                 9.73680000    0.00000000   13.58441584
 N                  9.73680000    0.00000000   15.55800000
 Ga                 9.73680000    1.87384803   16.17741584
 N                 11.33653328    0.95024159   16.87228202
 N                  8.11397836    4.68465756    2.59300000
 Ga                 8.11400000    2.81077205    3.21241584
 N                  8.11400000    2.81077205    5.18600000
 Ga                 8.11397836    4.68465756    5.80541584
 N                  8.11397836    4.68465756    7.77900000
 Ga                 8.11400000    2.81077205    8.39841584
 N                  8.11400000    2.81077205   10.37200000
 Ga                 8.11397836    4.68465756   10.99141584
 N                  8.11397836    4.68465756   12.96500000
 Ga                 8.11400000    2.81077205   13.58441584
 N                  8.11400000    2.81077205   15.55800000
 Ga                 8.11397836    4.68465756   16.17741584
 N                  9.71371872    3.76107166   16.87229303
 N                  6.49120000    7.49539213    2.59300000
 Ga                 6.49120000    5.62154410    3.21241584
 N                  6.49120000    5.62154410    5.18600000
 Ga                 6.49120000    7.49539213    5.80541584
 N                  6.49120000    7.49539213    7.77900000
 Ga                 6.49120000    5.62154410    8.39841584
 N                  6.49120000    5.62154410   10.37200000
 Ga                 6.49120000    7.49539213   10.99141584
 N                  6.49120000    7.49539213   12.96500000
 Ga                 6.49120000    5.62154410   13.58441584
 N                  6.49120000    5.62154410   15.55800000
 Ga                 6.49120000    7.49539213   16.17741584
 N                  8.09093328    6.57178569   16.87228202
 N                  4.86837836   10.30620166    2.59300000
 Ga                 4.86840000    8.43231615    3.21241584
 N                  4.86840000    8.43231615    5.18600000
 Ga                 4.86837836   10.30620166    5.80541584
 N                  4.86837836   10.30620166    7.77900000
 Ga                 4.86840000    8.43231615    8.39841584
 N                  4.86840000    8.43231615   10.37200000
 Ga                 4.86837836   10.30620166   10.99141584
 N                  4.86837836   10.30620166   12.96500000
 Ga                 4.86840000    8.43231615   13.58441584
 N                  4.86840000    8.43231615   15.55800000
 Ga                 4.86837836   10.30620166   16.17741584
 N                  6.44848152    9.36796519   16.89715243
 H                  9.73680000    1.87384803    1.59300000
 H                  8.11397836    4.68465756    1.59300000
 H                  6.49120000    7.49539213    1.59300000
 H                  6.49115673    1.87384803    1.59300000
 H                  4.86833509    4.68465756    1.59300000
 H                  3.24555673    7.49539213    1.59300000
 H                  3.24560000    1.87384803    1.59300000
 H                  1.62277836    4.68465756    1.59300000
 H                  0.00000000    7.49539213    1.59300000
 H                 -0.00004327    1.87384803    1.59300000
 H                 -1.62286491    4.68465756    1.59300000
 H                 -3.24564327    7.49539213    1.59300000
 H                 -4.86847194   10.50913618    1.61380769
 H                 -1.62282398   10.50913618    1.61380769
 H                  1.62272806   10.50913618    1.61380769
 H                  4.86837602   10.50913618    1.61380769

