#p

 i =       90, E =     -8504.7658655707

0 1
  N         0.0753190519        1.9912743691        2.5009995483
 Ga         0.0522562822        0.0072217459        2.8242656767
  N         0.0833372117       -0.0173887183        5.0124683030
 Ga         0.0774730306        1.8008778054        5.7998137762
  N         0.0774042114        1.8223609550        7.7996784667
 Ga         0.0729856920       -0.0251514470        8.4395023227
  N         0.0761929999       -0.0246666759       10.4170531996
 Ga         0.0780976378        1.8134140953       11.0710249600
  N         0.0776837657        1.7952180372       13.0659072098
 Ga         0.0770825915       -0.0246741623       13.8670681361
  N         0.0762988081       -0.0230936882       16.0709530713
 Ga         0.0764454452        2.0206113709       16.4810001502
 Ga         0.0659469012        3.7201487992        1.3953699488
  N        -1.4025219860        4.5575519776        2.5394643308
 Ga        -1.5947708607        2.7371010586        3.3033937518
  N        -1.5403575359        2.7573386475        5.2572689095
 Ga        -1.5602490778        4.6276404436        5.8415531927
  N        -1.5361439048        4.6194086778        7.8268084345
 Ga        -1.5223889272        2.7595098706        8.4464712889
  N        -1.5192186850        2.7654541792       10.4392102694
 Ga        -1.5481946649        4.6249106794       11.0740847628
  N        -1.5633755797        4.6357105200       13.0687699587
 Ga        -1.5201047620        2.7659879992       13.6212397275
  N        -1.5462378953        2.7499933326       15.5842567462
 Ga        -1.3750962270        4.5268979200       16.4800823665
  N         0.0763633518        3.6973984635       17.6135209425
  N        -3.1241868700        7.5278708572        2.5630523507
 Ga        -3.1127845543        5.5196267841        2.9258359584
  N        -3.1101569098        5.5628575319        5.0819659468
 Ga        -3.1450863627        7.3714930336        5.8378582444
  N        -3.1389218748        7.3969831237        7.8230876061
 Ga        -3.1473356566        5.5422444056        8.4472044659
  N        -3.1409069548        5.5450118252       10.4231754140
 Ga        -3.1446976796        7.3846318336       11.0718082333
  N        -3.1409195518        7.3661607203       13.0665821825
 Ga        -3.1408563912        5.5460630010       13.8670779037
  N        -3.1402419877        5.5474177369       16.0711340043
 Ga        -3.1402185147        7.5914058854       16.4811358505
 Ga        -3.1332959667        9.2397907529        1.5384960171
  N        -4.6449581636       10.1284153787        2.5153597167
 Ga        -4.8628587799        8.2698980072        3.2930487577
  N        -4.7446651398        8.3297511158        5.2533874064
 Ga        -4.7803213887       10.2032663036        5.8016528294
  N        -4.7579970045       10.1941190327        7.7986104497
 Ga        -4.7495923854        8.3343921847        8.4313631514
  N        -4.7400746559        8.3378459068       10.4288575027
 Ga        -4.7643673350       10.1959872512       11.0690393449
  N        -4.7791852957       10.2059228945       13.0649851596
 Ga        -4.7377023355        8.3369154807       13.6209620056
  N        -4.7629980770        8.3212877058       15.5839560977
 Ga        -4.5916680433       10.0979677126       16.4803313725
  N        -3.1406683891        9.2688627782       17.6146593382
  N         3.2866364482        1.8451749644        2.5971699838
 Ga         3.2677836409        0.0841200489        3.2918885638
  N         3.2936193663       -0.0249067814        5.2549664117
 Ga         3.2982866046        1.8426540403        5.8631180990
  N         3.2982123120        1.8336471878        7.8411280572
 Ga         3.2875420603       -0.0314515205        8.4452763121
  N         3.2910682928       -0.0347112436       10.4377642381
 Ga         3.2949980859        1.8348405263       11.0284437853
  N         3.2938722711        1.8330438310       13.0009014606
 Ga         3.2922167146       -0.0368972572       13.6220334391
  N         3.2918246632       -0.0052899128       15.5860505921
 Ga         3.2933201837        1.8328469647       15.8629129019
  N         1.5554299466        4.5638490840        2.5511441994
 Ga         1.7679992688        2.7323156089        3.2876276528
  N         1.6881309316        2.7617975013        5.2590203688
 Ga         1.7111756799        4.6220925146        5.8342260847
  N         1.6956163802        4.6224643327        7.8181533854
 Ga         1.6781682124        2.7610294829        8.4401253769
  N         1.6754080136        2.7655325549       10.4340213832
 Ga         1.7053347658        4.6248090400       11.0715730297
  N         1.7188773068        4.6355130814       13.0667334904
 Ga         1.6743950590        2.7665193024       13.6221368663
  N         1.6998404721        2.7500531124       15.5848487997
 Ga         1.5280504756        4.5269051543       16.4805550697
  N         0.0834892697        7.3961513389        2.7339864406
 Ga         0.0639142199        5.5555871078        3.3697697160
  N         0.0787591677        5.5599412543        5.3019949456
 Ga         0.0859563529        7.4048380948        5.9340779428
  N         0.0786871567        7.4051291120        7.8897978554
 Ga         0.0792094257        5.5313175486        8.4630707310
  N         0.0787258900        5.5334044235       10.4501304027
 Ga         0.0790996463        7.4036837096       11.0387734068
  N         0.0776276153        7.4031616823       13.0090578499
 Ga         0.0778325677        5.5313414855       13.6230659503
  N         0.0768976569        5.5645650507       15.5870039114
 Ga         0.0769881925        7.4031830683       15.8612373166
  N        -1.6407191397       10.1067813846        2.5569402134
 Ga        -1.4928262853        8.3050835988        3.3759653048
  N        -1.5187448278        8.3237158969        5.2976890996
 Ga        -1.5096111720       10.2049728686        5.8440225687
  N        -1.5276420175       10.1905144905        7.8279301588
 Ga        -1.5451082296        8.3380102194        8.4675358243
  N        -1.5423270702        8.3376783034       10.4529637762
 Ga        -1.5164919076       10.2005790911       11.0750610094
  N        -1.4995191501       10.2076931698       13.0692255982
 Ga        -1.5441030640        8.3378988860       13.6226416354
  N        -1.5169652821        8.3208219531       15.5856573089
 Ga        -1.6887492225       10.0980119032       16.4802952815
  N         6.5564347991        1.8161862621        2.5402940771
 Ga         6.5465672788       -0.0529776419        2.9285977735
  N         6.5038672674       -0.0579654155        5.0945532319
 Ga         6.5212850058        1.7983024480        5.7962043691
  N         6.5070599219        1.8214311123        7.7968554587
 Ga         6.5121207003       -0.0218073205        8.4494681946
  N         6.5105086619       -0.0238646625       10.4243781414
 Ga         6.5103745142        1.8184612032       11.0659332209
  N         6.5092208429        1.7966549265       13.0622771643
 Ga         6.5095722403       -0.0223913897       13.8678642250
  N         6.5090145878       -0.0223513596       16.0713471256
 Ga         6.5088857749        2.0223361250       16.4818513120
  N         4.8740887981        4.8521026826        2.3151521410
 Ga         4.9355124855        2.4176909876        3.2343762955
  N         4.9085533231        2.7551747938        5.1874686055
 Ga         4.9012905361        4.6278018410        5.7496225015
  N         4.8959624847        4.6196490136        7.7626672185
 Ga         4.9134750348        2.7701309809        8.4300134116
  N         4.9120260112        2.7692788017       10.4271273422
 Ga         4.8896101249        4.6265894964       11.0676187499
  N         4.8707252614        4.6355811740       13.0632808375
 Ga         4.9133367983        2.7670079301       13.6208379352
  N         4.8859933371        2.7504360441       15.5831505316
 Ga         5.0584367051        4.5267715442       16.4806962512
  N         6.5086199630        3.6985059165       17.6148761608
  N         3.2661864686        7.5454242017        2.5450539910
  N         3.2793730920        5.5514016829        5.0526604134
 Ga         3.3028705821        7.3862884798        5.8123071746
  N         3.2936395425        7.3930899843        7.8028212016
 Ga         3.3054708063        5.5428678132        8.4385687975
  N         3.2975982702        5.5452801378       10.4155929932
 Ga         3.3002551746        7.3849424957       11.0680174388
  N         3.2953097494        7.3657006084       13.0635359331
 Ga         3.2951940302        5.5462618039       13.8669881695
  N         3.2934094595        5.5476993812       16.0710348793
 Ga         3.2933244924        7.5924385932       16.4822513969
 Ga         3.3027777536        9.2541996579        1.2652332990
  N         1.7842706615       10.1253056926        2.5190609808
 Ga         1.6750556790        8.3565734763        3.3248103447
  N         1.6729652270        8.3263215468        5.2712769079
 Ga         1.6688503372       10.2068771537        5.8244755349
  N         1.6842902467       10.1914336567        7.8160463663
 Ga         1.7035327106        8.3390395675        8.4593371826
  N         1.6990662508        8.3377923520       10.4468858981
 Ga         1.6726043172       10.1996897423       11.0740736105
  N         1.6539320578       10.2070527593       13.0684046494
 Ga         1.6989895219        8.3375221469       13.6224171192
  N         1.6706476015        8.3207326814       15.5848852018
 Ga         1.8423984201       10.0975571745       16.4809601214
  N         3.2934342373        9.2690887473       17.6154883900
  N         9.6937647096        1.8766302582        2.5867461638
 Ga         9.7134175653        0.0556079116        3.2440279120
  N         9.7210065102       -0.0094053282        5.2194003700
 Ga         9.7137691340        1.8354443942        5.8707025649
  N         9.7248008296        1.8314758356        7.8499729393
 Ga         9.7326707764       -0.0334112625        8.4422228502
  N         9.7282284416       -0.0361444487       10.4364139881
 Ga         9.7238730081        1.8340233673       11.0269790411
  N         9.7244689523        1.8328151585       13.0003545259
 Ga         9.7264985325       -0.0369418880       13.6215731576
  N         9.7258159855       -0.0052611895       15.5855282533
 Ga         9.7247020066        1.8328770069       15.8624665676
  N         8.1544655851        4.5633992916        2.5122838199
 Ga         8.0607946554        2.7865415023        3.2562378975
  N         8.1213017968        2.7562448622        5.2442617848
 Ga         8.1351909624        4.6355360638        5.7625330295
  N         8.1234407983        4.6264313987        7.7798215348
 Ga         8.1064113796        2.7718454007        8.4262142715
  N         8.1068018605        2.7686445134       10.4264981650
 Ga         8.1287295626        4.6258643237       11.0664830993
  N         8.1475732996        4.6358293581       13.0631072196
 Ga         8.1052562477        2.7674084841       13.6204323257
  N         8.1318598289        2.7505950140       15.5831024536
 Ga         7.9588164911        4.5266091654       16.4808500727
  N         6.5036183576        7.4091719134        2.5862747058
 Ga         6.6600589278        5.6026388255        3.0911273797
  N         6.5089411686        5.5325886928        5.1349958404
 Ga         6.4987741521        7.3736849351        5.8203242184
  N         6.5078316729        7.3943756491        7.8154930983
 Ga         6.5089463454        5.5333546001        8.4209557452
  N         6.5080389966        5.5342483783       10.4218746028
 Ga         6.5078823787        7.4021108334       11.0226823495
  N         6.5086132080        7.4023434742       12.9966870475
 Ga         6.5093911033        5.5333861139       13.6207540384
  N         6.5089399288        5.5653141155       15.5843588094
 Ga         6.5089439922        7.4028116096       15.8634086613
  N         4.7951763489       10.1465738305        2.5078131813
 Ga         4.9764060673        8.2884940137        3.2419802819
  N         4.8999783382        8.3333171583        5.2291998039
 Ga         4.9262339187       10.2070779428        5.7710548667
  N         4.9095698603       10.1955403361        7.7811322056
 Ga         4.9003885716        8.3376517814        8.4205684424
  N         4.8934259563        8.3386736941       10.4214510507
 Ga         4.9176877860       10.1950042611       11.0686389950
  N         4.9333825049       10.2054305513       13.0645859258
 Ga         4.8910434250        8.3368846323       13.6214124267
  N         4.9163687159        8.3209918091       15.5838660608
 Ga         4.7434755169       10.0973234998       16.4811862020
  O        -0.0058287873        4.0917518736       -0.4088865452
  H        -0.1456139097        5.9080905024       -0.3674478033
  C         1.0650446302        3.6018513057       -1.2336277898
  H         2.0447789371        4.0000359177       -0.9198673808
  H         1.1185943186        2.5023315513       -1.2215940511
  H         0.8720381707        3.9282690636       -2.2657667982
 Ga         3.1372198806        5.6409992173        2.9963278260
  O        -0.1698018338        6.8882446175       -0.1975178171
  H         0.0475880579        7.3423122203        1.6973398986
  H         0.5580494640        7.2476410662       -0.7279717258
 Ga         9.2007562502        2.4666509621        0.6736332623
  C         4.9254013841        4.3439081088        1.1316335932
  H         5.8875859978        4.0474904060        0.6900949527
  H         4.0150535985        4.1612345668        0.5431600292

