 # Version information for this restart file 
 # current date 2019-07-21 23:56:56.277
 # current working dir /lustre04/scratch/rzk/rzk/GaN-carbene/443-adatoms-both-2x2/11-CH3O-HO-H2C-H-H/02-UseIntermediate-0904
 # Program compiled at                              Sun Apr  7 00:48:11 EDT 2019
 # Program compiled on                          beluga2.int.ets1.calculquebec.ca
 # Program compiled for                        Beluga-Linux-x86-64-intel-openmpi
 # Source code revision number                                         svn:18619
 &GLOBAL
   PRINT_LEVEL  MEDIUM
   PROJECT_NAME TEST
   RUN_TYPE  GEO_OPT
 &END GLOBAL
 &MOTION
   &GEO_OPT
     MAX_ITER  500
     STEP_START_VAL  9
   &END GEO_OPT
 &END MOTION
 &FORCE_EVAL
   METHOD  QS
   STRESS_TENSOR  ANALYTICAL
   &DFT
     BASIS_SET_FILE_NAME BASIS_MOLOPT
     POTENTIAL_FILE_NAME GTH_POTENTIALS
     UKS  T
     SURFACE_DIPOLE_CORRECTION  T
     SURF_DIP_DIR  Z
     &SCF
       MAX_SCF  80
       EPS_SCF     5.0000000000000004E-06
       &OT  T
         PRECONDITIONER  FULL_ALL
       &END OT
       &OUTER_SCF  T
         OPTIMIZER  NONE
         EPS_SCF     5.0000000000000004E-06
         MAX_SCF  4
       &END OUTER_SCF
       &PRINT
         &RESTART  OFF
           BACKUP_COPIES  1
           &EACH
             JUST_ENERGY  0
             QS_SCF  0
             MD  20
           &END EACH
         &END RESTART
       &END PRINT
     &END SCF
     &QS
       EPS_DEFAULT     1.0000000000000000E-14
       METHOD  GPW
     &END QS
     &MGRID
       NGRIDS  5
       CUTOFF     1.2000000000000000E+03
     &END MGRID
     &XC
       DENSITY_CUTOFF     1.0000000000000000E-10
       GRADIENT_CUTOFF     1.0000000000000000E-10
       TAU_CUTOFF     1.0000000000000000E-10
       &XC_FUNCTIONAL  NO_SHORTCUT
         &PBE  T
         &END PBE
       &END XC_FUNCTIONAL
       &VDW_POTENTIAL
         POTENTIAL_TYPE  PAIR_POTENTIAL
         &PAIR_POTENTIAL
           R_CUTOFF     1.0000000000000004E+01
           TYPE  DFTD3
           PARAMETER_FILE_NAME dftd3.dat
           REFERENCE_FUNCTIONAL PBE
           EPS_CN     9.9999999999999995E-07
           CALCULATE_C9_TERM  T
           REFERENCE_C9_TERM  T
           LONG_RANGE_CORRECTION  F
           VERBOSE_OUTPUT  F
         &END PAIR_POTENTIAL
       &END VDW_POTENTIAL
     &END XC
   &END DFT
   &SUBSYS
     &CELL
       A     1.2864472766435110E+01    0.0000000000000000E+00    0.0000000000000000E+00
       B    -6.4322363581020028E+00    1.1140960178524473E+01    0.0000000000000000E+00
       C     0.0000000000000000E+00    0.0000000000000000E+00    3.2000000000000000E+01
       MULTIPLE_UNIT_CELL  1 1 1
       &CELL_REF
         A     1.2982353780853531E+01    0.0000000000000000E+00    0.0000000000000000E+00
         B    -6.4911768904267628E+00    1.1243048175136114E+01    0.0000000000000000E+00
         C     0.0000000000000000E+00    0.0000000000000000E+00    3.2000000000000000E+01
         MULTIPLE_UNIT_CELL  1 1 1
       &END CELL_REF
     &END CELL
     &COORD
N    5.1667722011482731E-02    1.9782121145799727E+00    2.4917566800569650E+00
Ga    3.8738113402266447E-02   -8.5247132761363011E-03    2.8059030282497663E+00
N    8.3458084694661303E-02   -3.3189944899141885E-02    4.9995101059139069E+00
Ga    6.9242530693843132E-02    1.7904407069295325E+00    5.7811826734362741E+00
N    7.6679682453487205E-02    1.8145605136550473E+00    7.7896809392267876E+00
Ga    7.4302828988785000E-02   -3.1147194741567699E-02    8.4295564376376539E+00
N    7.8790344096172513E-02   -3.0331877153405341E-02    1.0411013941356586E+01
Ga    8.1972832024095721E-02    1.8054440796906945E+00    1.1073243694432922E+01
N    8.1639177749432107E-02    1.7872052275834192E+00    1.3067994754782282E+01
Ga    8.1156150474933741E-02   -3.1216448879257432E-02    1.3867735017234699E+01
N    8.0390162807006740E-02   -3.0472829398703088E-02    1.6069044297669464E+01
Ga    8.0484501255406946E-02    2.0242748040081269E+00    1.6494992493849892E+01
Ga    2.7343973694313396E-02    3.6935305159677498E+00    1.3908252858569392E+00
N   -1.4124223233752653E+00    4.5504797114486406E+00    2.5426414375820081E+00
Ga   -1.6506721812669218E+00    2.7093924050934057E+00    3.2690700369221917E+00
N   -1.5462403551076600E+00    2.7451567422587360E+00    5.2434056675538958E+00
Ga   -1.5653770677518102E+00    4.6111593069551660E+00    5.8439004265250567E+00
N   -1.5396244112287367E+00    4.6100238192923690E+00    7.8324812623916813E+00
Ga   -1.5183415319163907E+00    2.7512576750864381E+00    8.4535851520401817E+00
N   -1.5151154380094525E+00    2.7586588726606083E+00    1.0444974204717667E+01
Ga   -1.5454846111782368E+00    4.6181641936041355E+00    1.1082061036434078E+01
N   -1.5604406687616179E+00    4.6280334281651969E+00    1.3074344780236375E+01
Ga   -1.5149241747329483E+00    2.7583631000912385E+00    1.3628113827787747E+01
N   -1.5435532329449302E+00    2.7422801757438773E+00    1.5589251574603372E+01
Ga   -1.3621900556548321E+00    4.5162786272527677E+00    1.6494267701134376E+01
N    7.9825604310812898E-02    3.6900693627915833E+00    1.7629736667094203E+01
N   -3.1177650897854812E+00    7.5194910677837195E+00    2.5660698395998431E+00
Ga   -3.1099648500794510E+00    5.5051529920162521E+00    2.9193679389678628E+00
N   -3.1153178675731086E+00    5.5558053627178525E+00    5.0765599406668471E+00
Ga   -3.1392750898617514E+00    7.3670115296102923E+00    5.8355840582236764E+00
N   -3.1343835248330398E+00    7.3893443876323781E+00    7.8229133342226120E+00
Ga   -3.1448762245066364E+00    5.5371942399216740E+00    8.4585782912958525E+00
N   -3.1398241403817648E+00    5.5391145639071597E+00    1.0431358639724069E+01
Ga   -3.1428456595213516E+00    7.3803197442729749E+00    1.1075428726390223E+01
N   -3.1383171018294065E+00    7.3594625090690231E+00    1.3068325733992049E+01
Ga   -3.1359209841189672E+00    5.5395664664842528E+00    1.3871603649497773E+01
N   -3.1350805241939725E+00    5.5428776102277686E+00    1.6074137192021286E+01
Ga   -3.1373194997623028E+00    7.5850375769952603E+00    1.6480687779581032E+01
Ga   -3.1173819415212933E+00    9.2297357183854185E+00    1.5406332100925009E+00
N   -4.6356112590939125E+00    1.0126998778527691E+01    2.5040145851950926E+00
Ga   -4.8611587846485547E+00    8.2706912517435782E+00    3.2914930081330334E+00
N   -4.7404690587419216E+00    8.3256961506262499E+00    5.2516232627235926E+00
Ga   -4.7758437723454961E+00    1.0199520373705099E+01    5.7940922165888358E+00
N   -4.7531758372594011E+00    1.0189674545193400E+01    7.7913529055073605E+00
Ga   -4.7450296405948169E+00    8.3286454914027068E+00    8.4284525697398998E+00
N   -4.7363236313472532E+00    8.3330536372876125E+00    1.0427651618264878E+01
Ga   -4.7621791616903755E+00    1.0191240114655903E+01    1.1063994697314547E+01
N   -4.7769464062700928E+00    1.0200398226252116E+01    1.3060853797612971E+01
Ga   -4.7356236061557926E+00    8.3317039284923897E+00    1.3618851396887715E+01
N   -4.7599818176059046E+00    8.3148451351935595E+00    1.5580781033663650E+01
Ga   -4.5921597835343331E+00    1.0092682936993986E+01    1.6479396043040069E+01
N   -3.1414222071651206E+00    9.2638601902811093E+00    1.7613577045430059E+01
N    3.2843273269521918E+00    1.8581733732008670E+00    2.5760418839201376E+00
Ga    3.2737999744254314E+00    9.3540003942729363E-02    3.2801831720184049E+00
N    3.2965003256644803E+00   -2.6522719186404978E-02    5.2449367173233208E+00
Ga    3.3014939832142716E+00    1.8423514800692051E+00    5.8537157864317839E+00
N    3.3029967670275280E+00    1.8314945913295524E+00    7.8333726843844991E+00
Ga    3.2916665960124356E+00   -3.3674307389303673E-02    8.4401812029025187E+00
N    3.2933224813116038E+00   -3.9352003492160489E-02    1.0434615495430240E+01
Ga    3.2967827206919695E+00    1.8299631038563637E+00    1.1027467757531710E+01
N    3.2973066909760629E+00    1.8275155547649551E+00    1.3000549787692474E+01
Ga    3.2936500357026919E+00   -4.2477517218267404E-02    1.3619946963453554E+01
N    3.2948773024603657E+00   -1.2426685608475404E-02    1.5582671324389183E+01
Ga    3.2946579331325756E+00    1.8248431917124290E+00    1.5866825214226031E+01
N    1.5381219261530772E+00    4.5445013073779190E+00    2.5576406063444566E+00
Ga    1.7483214041034283E+00    2.7179653232771233E+00    3.2803694128484402E+00
N    1.6834007981829100E+00    2.7487397018487774E+00    5.2543630472710756E+00
Ga    1.7000228660529755E+00    4.6068833078708655E+00    5.8438954115264057E+00
N    1.6946851575160249E+00    4.6130830875380449E+00    7.8228751744087397E+00
Ga    1.6770151543755634E+00    2.7493071066556491E+00    8.4380870157850030E+00
N    1.6765266499307911E+00    2.7577055640692802E+00    1.0432338815755166E+01
Ga    1.7090912748337033E+00    4.6174648894694892E+00    1.1071059495688605E+01
N    1.7234068858649076E+00    4.6279084856270760E+00    1.3066965333938738E+01
Ga    1.6776958588932618E+00    2.7600096361048565E+00    1.3626429827635455E+01
N    1.7045363515691678E+00    2.7442105405297865E+00    1.5588064887218584E+01
Ga    1.5226935322350903E+00    4.5159160985340909E+00    1.6496328753251603E+01
N    8.5133395130495434E-02    7.3803583348152735E+00    2.7491423699488915E+00
Ga    4.8500773471653692E-02    5.5366512010044486E+00    3.3826268903143064E+00
N    7.0807251642929905E-02    5.5517117254309953E+00    5.3144835056258151E+00
Ga    8.8278698628372440E-02    7.3981129725115649E+00    5.9432836473136739E+00
N    8.0029082647831276E-02    7.3985708838621598E+00    7.8990101918727502E+00
Ga    7.7177600734533738E-02    5.5234672279647041E+00    8.4689042948368662E+00
N    8.0393799038392555E-02    5.5261864524123361E+00    1.0454770776476421E+01
Ga    8.0777206937030568E-02    7.3972694356192976E+00    1.1043131602718258E+01
N    7.9912714930624809E-02    7.3963013377421740E+00    1.3012255562805194E+01
Ga    8.2654276615060931E-02    5.5225600958792862E+00    1.3627101568236313E+01
N    8.2178253071580318E-02    5.5587619787064870E+00    1.5589031826733361E+01
Ga    8.1502204202812525E-02    7.3972209915931435E+00    1.5857061418574697E+01
N   -1.6328054056534487E+00    1.0106823715649547E+01    2.5581360014041024E+00
Ga   -1.4827740191432350E+00    8.3021618168545714E+00    3.3807239563121869E+00
N   -1.5135312253622568E+00    8.3212847272019577E+00    5.3028580970599002E+00
Ga   -1.5060153919007626E+00    1.0203440373243627E+01    5.8396925556331354E+00
N   -1.5229313228055488E+00    1.0187989324974431E+01    7.8252013065647219E+00
Ga   -1.5430574736397771E+00    8.3344484543504063E+00    8.4699429729494824E+00
N   -1.5409922564010552E+00    8.3333605363979508E+00    1.0455334046642259E+01
Ga   -1.5163079638144215E+00    1.0195841163209820E+01    1.1075351178915955E+01
N   -1.4975676164917067E+00    1.0202080175493895E+01    1.3068195230249428E+01
Ga   -1.5420240571115251E+00    8.3324203893283340E+00    1.3622883817300970E+01
N   -1.5135798977978072E+00    8.3149130444897459E+00    1.5584351639775445E+01
Ga   -1.6872920603694759E+00    1.0090592027113987E+01    1.6479126091821048E+01
N    6.5936746653379981E+00    1.8450332146851349E+00    2.5304480161931706E+00
Ga    6.5559965848794555E+00   -4.5100321112650728E-02    2.9329265093993668E+00
N    6.5093593743850295E+00   -5.4970502103583299E-02    5.0902641014828394E+00
Ga    6.5061533276776959E+00    1.7926158463835316E+00    5.8071510955880958E+00
N    6.5054863124099045E+00    1.8183427450609069E+00    7.8033959724548394E+00
Ga    6.5137265915192986E+00   -2.3150765447934520E-02    8.4565490361919657E+00
N    6.5113618477035544E+00   -2.6167671978710703E-02    1.0428957484084643E+01
Ga    6.5107907754526320E+00    1.8155789068183505E+00    1.1071479802615880E+01
N    6.5109725588449612E+00    1.7913668837357100E+00    1.3067908561499184E+01
Ga    6.5117617553117606E+00   -2.9667566922284009E-02    1.3864737250861495E+01
N    6.5113194851822183E+00   -3.0382151158772998E-02    1.6069745001238168E+01
Ga    6.5120190746336579E+00    2.0102825623619940E+00    1.6478616223760980E+01
N    4.9231287447928302E+00    4.8374265794168592E+00    2.3166938384932041E+00
Ga    4.9344936459855422E+00    2.4735183647616630E+00    3.1818067469922822E+00
N    4.9093084023139246E+00    2.7545844859886293E+00    5.1545788214092276E+00
Ga    4.8959904201503130E+00    4.6245769095996847E+00    5.7431108032275953E+00
N    4.8999161268896927E+00    4.6141846207633090E+00    7.7602943259841961E+00
Ga    4.9156929362676447E+00    2.7700590826570597E+00    8.4336654733420833E+00
N    4.9145120226130734E+00    2.7657305049876721E+00    1.0429422566712219E+01
Ga    4.8903569718236941E+00    4.6217012538622440E+00    1.1070815573153483E+01
N    4.8728463465586556E+00    4.6289395023141431E+00    1.3066942935418133E+01
Ga    4.9144219330436751E+00    2.7607658446901557E+00    1.3624973731978699E+01
N    4.8889170970637776E+00    2.7448011978385507E+00    1.5589753348256213E+01
Ga    5.0540188527684746E+00    4.5263613359951114E+00    1.6479171530446848E+01
N    6.5130312658236509E+00    3.6951522558485759E+00    1.7607853806660049E+01
N    3.2678096879790930E+00    7.4946767214667203E+00    2.5640355094523191E+00
N    3.2677218540252864E+00    5.5360191253332234E+00    5.0779148518689228E+00
Ga    3.3019085282903928E+00    7.3768312140550414E+00    5.8190176769673476E+00
N    3.2959342900543800E+00    7.3851115465709558E+00    7.8078353214290352E+00
Ga    3.3093627039177393E+00    5.5326738532926454E+00    8.4340180054114011E+00
N    3.3012840760788151E+00    5.5367638512319060E+00    1.0413356575882316E+01
Ga    3.3035895949613008E+00    7.3759544229736544E+00    1.1066465926286121E+01
N    3.2986206494929675E+00    7.3563560537629380E+00    1.3061910666198383E+01
Ga    3.2964291632812448E+00    5.5387973083504987E+00    1.3869441030094533E+01
N    3.2957563689908742E+00    5.5421173157230124E+00    1.6074007656039932E+01
Ga    3.2964619760660350E+00    7.5831708022731927E+00    1.6479797956186413E+01
Ga    3.2986051502408400E+00    9.2720257551011631E+00    1.2139585036296916E+00
N    1.7668121797931255E+00    1.0107166652506843E+01    2.5246061772883075E+00
Ga    1.6879104587648637E+00    8.3387390725406796E+00    3.3294446917231713E+00
N    1.6740274377866471E+00    8.3201803847734457E+00    5.2818192367030727E+00
Ga    1.6746583044388470E+00    1.0201056946073734E+01    5.8294374177899728E+00
N    1.6845924693460550E+00    1.0188687467602128E+01    7.8240214811650901E+00
Ga    1.7048329152840576E+00    8.3333638903760470E+00    8.4652741493169295E+00
N    1.7015490438024050E+00    8.3315745965742654E+00    1.0451711234917695E+01
Ga    1.6744541894846225E+00    1.0193711158687853E+01    1.1076221602671385E+01
N    1.6559851958742677E+00    1.0201339107995350E+01    1.3068237896371411E+01
Ga    1.7037174770948507E+00    8.3306578943258920E+00    1.3619690724988370E+01
N    1.6763963317979040E+00    8.3147908884143522E+00    1.5581467425785419E+01
Ga    1.8442957260110922E+00    1.0091034733967298E+01    1.6477141646579771E+01
N    3.2995549825446044E+00    9.2634012895001376E+00    1.7610419581140398E+01
N    9.6288517609736264E+00    1.8791448809293159E+00    2.5963335215976118E+00
Ga    9.6951791078876699E+00    6.4066530003251299E-02    3.2174092821010918E+00
N    9.7231553366603105E+00   -2.0545864763644114E-02    5.2160278106311466E+00
Ga    9.7273141704371948E+00    1.8163072042680155E+00    5.8874848122564574E+00
N    9.7291878560331995E+00    1.8220423089248072E+00    7.8638207885122142E+00
Ga    9.7366169501843203E+00   -4.2273862727324876E-02    8.4502784508985229E+00
N    9.7319433040247034E+00   -4.2899001760874855E-02    1.0443089388772680E+01
Ga    9.7278849690766229E+00    1.8277119216512552E+00    1.1032598339070658E+01
N    9.7275179650322983E+00    1.8266688566986362E+00    1.3005347054686764E+01
Ga    9.7305617184790503E+00   -4.5095647439043429E-02    1.3620407652839251E+01
N    9.7289750572200209E+00   -1.4202643749003927E-02    1.5582978321234766E+01
Ga    9.7298476116193822E+00    1.8236163989370473E+00    1.5864283833938405E+01
N    8.1573647067646160E+00    4.5134289495772766E+00    2.4935675372006778E+00
Ga    8.0939354683656237E+00    2.7611944609636256E+00    3.3831657076875459E+00
N    8.1189432054915383E+00    2.7589426058065079E+00    5.3212492079859510E+00
Ga    8.1357443051322136E+00    4.6480116107085179E+00    5.7878465132468708E+00
N    8.1254421723346191E+00    4.6254803016416313E+00    7.7944815460487664E+00
Ga    8.1087944895136488E+00    2.7666358385766276E+00    8.4304403887689858E+00
N    8.1090814674004950E+00    2.7631146570920566E+00    1.0430241088101130E+01
Ga    8.1292807861310621E+00    4.6206978122550755E+00    1.1073843310115365E+01
N    8.1503026420839237E+00    4.6293515830979040E+00    1.3069987722003125E+01
Ga    8.1082385092741447E+00    2.7607322293544407E+00    1.3625369427364845E+01
N    8.1354160613438573E+00    2.7440579518785584E+00    1.5590323725612445E+01
Ga    7.9714305059380743E+00    4.5263990751665171E+00    1.6478092198464918E+01
N    6.5096746826861995E+00    7.4020088944237301E+00    2.5842950846561181E+00
Ga    6.6514696234385253E+00    5.5829805615704009E+00    3.0763696564346694E+00
N    6.5109413583236124E+00    5.5257928868375483E+00    5.1249166548654124E+00
Ga    6.5005413468227715E+00    7.3673798119958507E+00    5.8181248101695742E+00
N    6.5123116404414807E+00    7.3874628881715756E+00    7.8144923377829327E+00
Ga    6.5078757190658987E+00    5.5266831539590653E+00    8.4259478127598850E+00
N    6.5093377063157511E+00    5.5269731457579834E+00    1.0425759342784890E+01
Ga    6.5110841214528925E+00    7.3966758066995704E+00    1.1021224677241046E+01
N    6.5119467689550365E+00    7.3949669498213968E+00    1.2995398779891394E+01
Ga    6.5115701924099074E+00    5.5275821257957531E+00    1.3623283848704832E+01
N    6.5120979540748518E+00    5.5589907083602315E+00    1.5588732332126334E+01
Ga    6.5115826027466639E+00    7.3989058219241182E+00    1.5863496542086144E+01
N    4.7811277398199072E+00    1.0131554936878484E+01    2.5005245204820281E+00
Ga    4.9624306570184187E+00    8.2664323440541221E+00    3.2319033691892090E+00
N    4.8997808629563027E+00    8.3197570177771745E+00    5.2280643809126586E+00
Ga    4.9238027969360001E+00    1.0194507579054747E+01    5.7609334574526487E+00
N    4.9112048042234191E+00    1.0187156551195933E+01    7.7778322452147908E+00
Ga    4.9045270007852588E+00    8.3317083341247340E+00    8.4209562960473416E+00
N    4.8960683253176311E+00    8.3324808516028845E+00    1.0422408331063176E+01
Ga    4.9230233422416125E+00    1.0188053267187593E+01    1.1068262857831796E+01
N    4.9385654596175215E+00    1.0199063319281750E+01    1.3063348209693748E+01
Ga    4.8937975416874337E+00    8.3293613265366666E+00    1.3618368733948692E+01
N    4.9176483105132540E+00    8.3136314525363222E+00    1.5580567518694828E+01
Ga    4.7517263896766897E+00    1.0092271367811813E+01    1.6477240755382603E+01
O    2.2887093196736659E-02    4.0969448322982940E+00   -4.0429698561953298E-01
H   -1.3311739545653625E-01    5.8961556993205306E+00   -3.6535636825571322E-01
C    1.1204605444211708E+00    3.6360338322138359E+00   -1.2092535887853824E+00
H    2.0980114363574689E+00    3.9481115692229185E+00   -8.0322934650174282E-01
H    1.1243426369904774E+00    2.5390137686081746E+00   -1.3037029874636581E+00
H    1.0072254532511278E+00    4.0709517344086938E+00   -2.2122015400721962E+00
Ga    3.1023218239253185E+00    5.6099855352251966E+00    3.0362442947236188E+00
O   -1.7562199647250354E-01    6.8785602253305154E+00   -2.0536708561370826E-01
H    5.2772119080556290E-02    7.3263610545466680E+00    1.7140061656186403E+00
H    5.6405191493469664E-01    7.2383731570458618E+00   -7.2067991031410616E-01
Ga    8.3322766393643484E+00    2.7915590672342625E+00    7.5634910401992461E-01
C    4.9278906686531636E+00    4.6130157767116993E+00    1.0453420608996280E+00
H    5.8622456766854558E+00    4.6861296764159928E+00    4.3465279517193584E-01
H    3.9923788657000232E+00    4.3279039029484778E+00    5.2665443320888461E-01
     &END COORD
     &KIND C
       BASIS_SET DZVP-MOLOPT-SR-GTH-q4
       POTENTIAL GTH-PBE-q4
       &POTENTIAL
 2 2
  0.3384712400000000E+00 2 -0.8803673979999999E+01  0.1339210850000000E+01
 2
  0.3025757500000000E+00 1  0.9622486650000001E+01
  0.2915069400000000E+00 0
         # Potential name:  GTH-PBE-Q4  for symbol:  C
         # Potential read from the potential filename: GTH_POTENTIALS
       &END POTENTIAL
     &END KIND
     &KIND O
       BASIS_SET DZVP-MOLOPT-SR-GTH-q6
       POTENTIAL GTH-PBE-q6
       &POTENTIAL
 2 4
  0.2445543000000000E+00 2 -0.1666721480000000E+02  0.2487311320000000E+01
 2
  0.2209559200000000E+00 1  0.1833745811000000E+02
  0.2113324700000000E+00 0
         # Potential name:  GTH-PBE-Q6  for symbol:  O
         # Potential read from the potential filename: GTH_POTENTIALS
       &END POTENTIAL
     &END KIND
     &KIND H
       BASIS_SET DZVP-MOLOPT-SR-GTH-q1
       POTENTIAL GTH-PBE-q1
       &POTENTIAL
 1
  0.2000000000000000E+00 2 -0.4178900440000000E+01  0.7244633100000000E+00
 0
         # Potential name:  GTH-PBE-Q1  for symbol:  H
         # Potential read from the potential filename: GTH_POTENTIALS
       &END POTENTIAL
     &END KIND
     &KIND N
       BASIS_SET DZVP-MOLOPT-SR-GTH
       POTENTIAL GTH-PBE-q5
       &POTENTIAL
 2 3
  0.2837905100000000E+00 2 -0.1241522559000000E+02  0.1868095920000000E+01
 2
  0.2554050000000000E+00 1  0.1363026257000000E+02
  0.2454945300000000E+00 0
         # Potential name:  GTH-PBE-Q5  for symbol:  N
         # Potential read from the potential filename: GTH_POTENTIALS
       &END POTENTIAL
     &END KIND
     &KIND Ga
       BASIS_SET DZVP-MOLOPT-SR-GTH
       POTENTIAL GTH-PBE-q13
       &POTENTIAL
 2 1 10
  0.4900000000000000E+00 0
 3
  0.4167772300000000E+00 3  0.1047568975000000E+02 -0.4921768140000000E+01  0.8707055900000000E+00
  0.7770178090000000E+01 -0.2248152160000000E+01
  0.1784415450000000E+01
  0.5696265200000000E+00 2  0.1777985340000000E+01  0.1958597600000000E+00
 -0.2317443900000000E+00
  0.2381265000000000E+00 1 -0.1624868022000000E+02
         # Potential name:  GTH-PBE-Q13  for symbol:  GA
         # Potential read from the potential filename: GTH_POTENTIALS
       &END POTENTIAL
     &END KIND
     &TOPOLOGY
       NUMBER_OF_ATOMS  212
       MULTIPLE_UNIT_CELL  1 1 1
     &END TOPOLOGY
   &END SUBSYS
 &END FORCE_EVAL
