 # Version information for this restart file 
 # current date 2019-07-21 23:52:46.557
 # current working dir /lustre04/scratch/rzk/rzk/GaN-carbene/443-adatoms-both-2x2/11-CH3O-HO-H2C-H-H/02-UseIntermediate-0904
 # Program compiled at                              Sun Apr  7 00:48:11 EDT 2019
 # Program compiled on                          beluga2.int.ets1.calculquebec.ca
 # Program compiled for                        Beluga-Linux-x86-64-intel-openmpi
 # Source code revision number                                         svn:18619
 &GLOBAL
   PRINT_LEVEL  MEDIUM
   PROJECT_NAME TEST
   RUN_TYPE  GEO_OPT
 &END GLOBAL
 &MOTION
   &GEO_OPT
     MAX_ITER  500
     STEP_START_VAL  8
   &END GEO_OPT
 &END MOTION
 &FORCE_EVAL
   METHOD  QS
   STRESS_TENSOR  ANALYTICAL
   &DFT
     BASIS_SET_FILE_NAME BASIS_MOLOPT
     POTENTIAL_FILE_NAME GTH_POTENTIALS
     UKS  T
     SURFACE_DIPOLE_CORRECTION  T
     SURF_DIP_DIR  Z
     &SCF
       MAX_SCF  80
       EPS_SCF     5.0000000000000004E-06
       &OT  T
         PRECONDITIONER  FULL_ALL
       &END OT
       &OUTER_SCF  T
         OPTIMIZER  NONE
         EPS_SCF     5.0000000000000004E-06
         MAX_SCF  4
       &END OUTER_SCF
       &PRINT
         &RESTART  OFF
           BACKUP_COPIES  1
           &EACH
             JUST_ENERGY  0
             QS_SCF  0
             MD  20
           &END EACH
         &END RESTART
       &END PRINT
     &END SCF
     &QS
       EPS_DEFAULT     1.0000000000000000E-14
       METHOD  GPW
     &END QS
     &MGRID
       NGRIDS  5
       CUTOFF     1.2000000000000000E+03
     &END MGRID
     &XC
       DENSITY_CUTOFF     1.0000000000000000E-10
       GRADIENT_CUTOFF     1.0000000000000000E-10
       TAU_CUTOFF     1.0000000000000000E-10
       &XC_FUNCTIONAL  NO_SHORTCUT
         &PBE  T
         &END PBE
       &END XC_FUNCTIONAL
       &VDW_POTENTIAL
         POTENTIAL_TYPE  PAIR_POTENTIAL
         &PAIR_POTENTIAL
           R_CUTOFF     1.0000000000000004E+01
           TYPE  DFTD3
           PARAMETER_FILE_NAME dftd3.dat
           REFERENCE_FUNCTIONAL PBE
           EPS_CN     9.9999999999999995E-07
           CALCULATE_C9_TERM  T
           REFERENCE_C9_TERM  T
           LONG_RANGE_CORRECTION  F
           VERBOSE_OUTPUT  F
         &END PAIR_POTENTIAL
       &END VDW_POTENTIAL
     &END XC
   &END DFT
   &SUBSYS
     &CELL
       A     1.2864472766435110E+01    0.0000000000000000E+00    0.0000000000000000E+00
       B    -6.4322363581020028E+00    1.1140960178524473E+01    0.0000000000000000E+00
       C     0.0000000000000000E+00    0.0000000000000000E+00    3.2000000000000000E+01
       MULTIPLE_UNIT_CELL  1 1 1
       &CELL_REF
         A     1.2982353780853531E+01    0.0000000000000000E+00    0.0000000000000000E+00
         B    -6.4911768904267628E+00    1.1243048175136114E+01    0.0000000000000000E+00
         C     0.0000000000000000E+00    0.0000000000000000E+00    3.2000000000000000E+01
         MULTIPLE_UNIT_CELL  1 1 1
       &END CELL_REF
     &END CELL
     &COORD
N    5.5295475822838752E-02    1.9772959002564079E+00    2.4901778968571833E+00
Ga    4.1570488988847507E-02   -9.5778927643934333E-03    2.8075435403769347E+00
N    8.3494189780600928E-02   -3.1429493921678750E-02    5.0000816641777721E+00
Ga    7.1908485689447452E-02    1.7911648944001699E+00    5.7800927918289435E+00
N    7.7724703972414474E-02    1.8149357621970292E+00    7.7885194679758163E+00
Ga    7.4578468258451602E-02   -3.0986727603205883E-02    8.4288887016587566E+00
N    7.8802996723039823E-02   -3.0589414881244718E-02    1.0410046721856375E+01
Ga    8.2114963819412037E-02    1.8049213196874876E+00    1.1072259132052951E+01
N    8.1492184170542936E-02    1.7872981490056186E+00    1.3066123389134445E+01
Ga    8.1081522330094566E-02   -3.0185316693500178E-02    1.3868225165249477E+01
N    8.0696908722911243E-02   -3.0833863688925482E-02    1.6068994789241788E+01
Ga    8.0124336461297851E-02    2.0264442698425493E+00    1.6496816611828798E+01
Ga    2.4732190499498125E-02    3.6885655851259682E+00    1.3856377562593249E+00
N   -1.4142221949824501E+00    4.5485198741657182E+00    2.5375185001148415E+00
Ga   -1.6497223714359410E+00    2.7061153408562837E+00    3.2664936506685645E+00
N   -1.5444935141356311E+00    2.7454329066537815E+00    5.2427590622678606E+00
Ga   -1.5654026610885692E+00    4.6106708355024972E+00    5.8417585864554180E+00
N   -1.5385463189408057E+00    4.6104872924134783E+00    7.8308476513307550E+00
Ga   -1.5167740010687036E+00    2.7518568511753916E+00    8.4524650942713411E+00
N   -1.5145700935212918E+00    2.7588504450078219E+00    1.0443504672969638E+01
Ga   -1.5447224446313301E+00    4.6184685850335621E+00    1.1080866384248873E+01
N   -1.5603717224509817E+00    4.6282649677517282E+00    1.3072576006516980E+01
Ga   -1.5150018449775999E+00    2.7587263605103063E+00    1.3626957283285812E+01
N   -1.5441115326235215E+00    2.7426887735450531E+00    1.5587009410585997E+01
Ga   -1.3590158110121291E+00    4.5143485896451896E+00    1.6495654366722846E+01
N    7.8758694966808235E-02    3.6889406484332321E+00    1.7633538405690594E+01
N   -3.1191267731982695E+00    7.5205251351278530E+00    2.5603739783170316E+00
Ga   -3.1089593545731402E+00    5.5047115618393008E+00    2.9149446534528280E+00
N   -3.1133948577267065E+00    5.5547593820870267E+00    5.0743613933421106E+00
Ga   -3.1382866850968556E+00    7.3660328105893313E+00    5.8319924990176855E+00
N   -3.1349843989187791E+00    7.3898740419802200E+00    7.8202890562400240E+00
Ga   -3.1428160681217339E+00    5.5384318280961766E+00    8.4583461669558897E+00
N   -3.1387990498373686E+00    5.5401477435452726E+00    1.0431141535676323E+01
Ga   -3.1428450371235135E+00    7.3811182530391060E+00    1.1075274770436268E+01
N   -3.1384784832489534E+00    7.3604465111519888E+00    1.3068431550191272E+01
Ga   -3.1345707594063081E+00    5.5399451946380953E+00    1.3869997706318561E+01
N   -3.1341442796625953E+00    5.5429761667481525E+00    1.6073376225417210E+01
Ga   -3.1372425714810817E+00    7.5862389200980056E+00    1.6480219489141042E+01
Ga   -3.1208474183179349E+00    9.2342423587726241E+00    1.5348014405724155E+00
N   -4.6343736730657810E+00    1.0125284494463550E+01    2.5047967503972397E+00
Ga   -4.8598727095779672E+00    8.2698136766922161E+00    3.2887410313724250E+00
N   -4.7403168384154108E+00    8.3253743891824836E+00    5.2500372637100110E+00
Ga   -4.7761157101685576E+00    1.0201101301733038E+01    5.7914372682150201E+00
N   -4.7537171500445616E+00    1.0189778142107938E+01    7.7895884052833235E+00
Ga   -4.7439168256950683E+00    8.3304510520123163E+00    8.4289716449561087E+00
N   -4.7363717432687791E+00    8.3336819173422452E+00    1.0428169841894048E+01
Ga   -4.7624700484866400E+00    1.0191715387300073E+01    1.1064244601526651E+01
N   -4.7765624139371958E+00    1.0200454110685254E+01    1.3061304971777584E+01
Ga   -4.7353435330005418E+00    8.3321276676138805E+00    1.3620042727616624E+01
N   -4.7601709632225759E+00    8.3136600333541963E+00    1.5581465809090984E+01
Ga   -4.5906194410478411E+00    1.0091852879823456E+01    1.6480036982599440E+01
N   -3.1412597406876093E+00    9.2628055372936569E+00    1.7615568869301445E+01
N    3.2877281196644828E+00    1.8544855388574766E+00    2.5736419227549643E+00
Ga    3.2767298154534190E+00    9.3162946419465667E-02    3.2788552575545866E+00
N    3.2982816534363981E+00   -2.5277192759418764E-02    5.2433111557066523E+00
Ga    3.3033393612592468E+00    1.8431026521980878E+00    5.8547558061974723E+00
N    3.3020594243612300E+00    1.8307434083569787E+00    7.8353917010085503E+00
Ga    3.2910382145528456E+00   -3.4947982196573059E-02    8.4377531410789537E+00
N    3.2928509310483705E+00   -3.9881872338632253E-02    1.0433095986566151E+01
Ga    3.2957437769501436E+00    1.8285644070415459E+00    1.1027800172483085E+01
N    3.2969659207334132E+00    1.8268386565698136E+00    1.3000522370261381E+01
Ga    3.2939163913593505E+00   -4.3071112320683481E-02    1.3620660259895464E+01
N    3.2960288567786376E+00   -1.1934657913414658E-02    1.5583109740871697E+01
Ga    3.2939903118402984E+00    1.8251804704214158E+00    1.5864387750830515E+01
N    1.5374961923595016E+00    4.5435572024797288E+00    2.5558623746802644E+00
Ga    1.7514011858074972E+00    2.7166461132569037E+00    3.2760153634238267E+00
N    1.6871569243912161E+00    2.7490328866339455E+00    5.2518201702163712E+00
Ga    1.6996957646287891E+00    4.6060792118276490E+00    5.8435315687783467E+00
N    1.6938672546203253E+00    4.6127490917746909E+00    7.8212042246505034E+00
Ga    1.6771890343930917E+00    2.7492918173124066E+00    8.4377514705354759E+00
N    1.6767112445503096E+00    2.7572703458781800E+00    1.0431941601043510E+01
Ga    1.7089604182710789E+00    4.6174864959279454E+00    1.1069663965988356E+01
N    1.7228670537053521E+00    4.6278384300206810E+00    1.3064950476425038E+01
Ga    1.6767620304260558E+00    2.7603406188252397E+00    1.3626569572565765E+01
N    1.7050154391439092E+00    2.7444704013146657E+00    1.5586803801445614E+01
Ga    1.5185568041804263E+00    4.5140105738320750E+00    1.6498379038157854E+01
N    8.4672026200365652E-02    7.3807047520924529E+00    2.7394022820687329E+00
Ga    4.5131306596084539E-02    5.5357605666703806E+00    3.3763894425837040E+00
N    7.0537808080064393E-02    5.5509001512439005E+00    5.3105661086721696E+00
Ga    8.7908467794885134E-02    7.3981263617676705E+00    5.9376304011410568E+00
N    7.9755556482508219E-02    7.3984606828148491E+00    7.8947009212973818E+00
Ga    7.7380324448328153E-02    5.5239986615780108E+00    8.4670378759610472E+00
N    8.0636226653606091E-02    5.5267258648928408E+00    1.0452680197499962E+01
Ga    8.0611949931771731E-02    7.3977746879781749E+00    1.1041224398650655E+01
N    7.9737341294978420E-02    7.3968933517582762E+00    1.3010645282848833E+01
Ga    8.2290756081507974E-02    5.5230146371789823E+00    1.3626266741855362E+01
N    8.1850572599672738E-02    5.5590121653373101E+00    1.5586956944410680E+01
Ga    8.1089235418217678E-02    7.3959837877273928E+00    1.5856395283042689E+01
N   -1.6321418097457994E+00    1.0109026942250191E+01    2.5540882515336545E+00
Ga   -1.4841240724883376E+00    8.3027611191897179E+00    3.3710652287831602E+00
N   -1.5138081239434096E+00    8.3214755299578034E+00    5.2947288717687968E+00
Ga   -1.5046837810120626E+00    1.0203061685610216E+01    5.8355429112762192E+00
N   -1.5233850408025420E+00    1.0187101941801981E+01    7.8218374019689518E+00
Ga   -1.5435384249118183E+00    8.3342744397246200E+00    8.4669017847751000E+00
N   -1.5413977579708349E+00    8.3333937104783562E+00    1.0452825951367458E+01
Ga   -1.5170741230764468E+00    1.0195451445343393E+01    1.1074297159404512E+01
N   -1.4980978861449188E+00    1.0202055015583301E+01    1.3067416032454966E+01
Ga   -1.5415702539280201E+00    8.3325659680415267E+00    1.3622504697507164E+01
N   -1.5131800180716135E+00    8.3149097727263790E+00    1.5583973066753114E+01
Ga   -1.6891922075674906E+00    1.0089408130221235E+01    1.6479581376538803E+01
N    6.5902803059421693E+00    1.8491380718688779E+00    2.5330026889728412E+00
Ga    6.5569979763674064E+00   -4.1774084084627933E-02    2.9304579815773852E+00
N    6.5100579305465951E+00   -5.3563042703904495E-02    5.0853115291909452E+00
Ga    6.5054382590721174E+00    1.7938946008141126E+00    5.8063958393439163E+00
N    6.5056588662574315E+00    1.8179239123238007E+00    7.8037665233579734E+00
Ga    6.5129901936257948E+00   -2.5187813812729710E-02    8.4555567292599108E+00
N    6.5111345558276499E+00   -2.7842931976159349E-02    1.0428573091869811E+01
Ga    6.5104330497026890E+00    1.8142516552448236E+00    1.1070682179164166E+01
N    6.5107431787138657E+00    1.7909265517172357E+00    1.3067541746126565E+01
Ga    6.5115945684436376E+00   -3.0644700462872373E-02    1.3862861063307129E+01
N    6.5113802945446544E+00   -3.1592819984477556E-02    1.6070283460292817E+01
Ga    6.5121836545282914E+00    2.0060961588295778E+00    1.6472683376591494E+01
N    4.9347511655116572E+00    4.7924392006948100E+00    2.3470535744771466E+00
Ga    4.9272181460821756E+00    2.4957330142881822E+00    3.1790446879572887E+00
N    4.9090876214294239E+00    2.7530739654477028E+00    5.1572029584205099E+00
Ga    4.9004617090483125E+00    4.6213173582038722E+00    5.7453391524917627E+00
N    4.9008778586386548E+00    4.6141376761585216E+00    7.7616616811743810E+00
Ga    4.9138807472290784E+00    2.7691106802570769E+00    8.4355425437531224E+00
N    4.9131758403469981E+00    2.7654893284394482E+00    1.0430997841672076E+01
Ga    4.8890088909100839E+00    4.6223438429054831E+00    1.1071639016645651E+01
N    4.8726307816907344E+00    4.6290113262461281E+00    1.3067926520289577E+01
Ga    4.9142900935274136E+00    2.7602155056087896E+00    1.3623477791417956E+01
N    4.8896132152399518E+00    2.7443800969479843E+00    1.5589370980136318E+01
Ga    5.0513537247488731E+00    4.5279177120115008E+00    1.6472811062334578E+01
N    6.5136511678392059E+00    3.6946305029614721E+00    1.7600895661387721E+01
N    3.2704456911719153E+00    7.4896348655549190E+00    2.5694169505308722E+00
N    3.2688681846875345E+00    5.5375033166695786E+00    5.0782848311826303E+00
Ga    3.3016896345549172E+00    7.3796870253424434E+00    5.8198462558144266E+00
N    3.2956011963755083E+00    7.3878017339673052E+00    7.8073316043083958E+00
Ga    3.3088420617578640E+00    5.5341175760358023E+00    8.4321518288345843E+00
N    3.3007688986927550E+00    5.5379048088749165E+00    1.0411651410216525E+01
Ga    3.3032427066833465E+00    7.3767587578052209E+00    1.1066219846570524E+01
N    3.2984608202399501E+00    7.3575150926516235E+00    1.3062009409649923E+01
Ga    3.2945097993135497E+00    5.5393678286354016E+00    1.3868500405520361E+01
N    3.2948076955617087E+00    5.5421782662760606E+00    1.6073106384720123E+01
Ga    3.2961425844838943E+00    7.5843728337511545E+00    1.6479470387330849E+01
Ga    3.3052628379276219E+00    9.2725902193320096E+00    1.2211017802208759E+00
N    1.7693438000654633E+00    1.0109820159071059E+01    2.5236706544421388E+00
Ga    1.6866406558376370E+00    8.3415480490288498E+00    3.3248376554413723E+00
N    1.6734426831194633E+00    8.3233246013081583E+00    5.2792067696177689E+00
Ga    1.6736560513682794E+00    1.0204038099770633E+01    5.8280647309138294E+00
N    1.6840003399480741E+00    1.0188434016090019E+01    7.8226249334183313E+00
Ga    1.7038910804174661E+00    8.3338134118599285E+00    8.4633068801433229E+00
N    1.7013613539189110E+00    8.3316058193794014E+00    1.0450000550786969E+01
Ga    1.6745997244574258E+00    1.0193087177447518E+01    1.1075450073315448E+01
N    1.6559813998944382E+00    1.0201310912766395E+01    1.3067849189543667E+01
Ga    1.7028451934819118E+00    8.3309554281547591E+00    1.3619825895133470E+01
N    1.6753247917207050E+00    8.3146730924644832E+00    1.5581715498982907E+01
Ga    1.8458622201182788E+00    1.0090342996581077E+01    1.6476998221966419E+01
N    3.2998116264374153E+00    9.2636400013843563E+00    1.7612262001452798E+01
N    9.6322634427144322E+00    1.8753624151581127E+00    2.5967335699753900E+00
Ga    9.6992510720283338E+00    6.5451203972015856E-02    3.2209386357528822E+00
N    9.7244786537913512E+00   -2.0440585743712950E-02    5.2188457048531030E+00
Ga    9.7301255471285266E+00    1.8159357414989414E+00    5.8899758642399851E+00
N    9.7303343714459221E+00    1.8217513339656972E+00    7.8658757493492031E+00
Ga    9.7368501238460698E+00   -4.3689574269418822E-02    8.4484850227297503E+00
N    9.7320048662606382E+00   -4.3996592501243312E-02    1.0441687623747439E+01
Ga    9.7284358990380149E+00    1.8267923740240488E+00    1.1030896462438669E+01
N    9.7274510367666718E+00    1.8263894032140198E+00    1.3003814742647647E+01
Ga    9.7300825345725830E+00   -4.4833001021562451E-02    1.3620037272916516E+01
N    9.7280078155300345E+00   -1.3353817892428356E-02    1.5582800878319192E+01
Ga    9.7306149485011417E+00    1.8243327916687178E+00    1.5861432638257661E+01
N    8.1566272416610541E+00    4.5191889803336771E+00    2.5010416258097137E+00
Ga    8.1021078346171507E+00    2.7617861573504494E+00    3.3837228501743906E+00
N    8.1228187842988486E+00    2.7572074556007662E+00    5.3236941044773456E+00
Ga    8.1382705743717842E+00    4.6469812370516248E+00    5.7922344829854300E+00
N    8.1261249802480879E+00    4.6245411181961780E+00    7.7976142633350349E+00
Ga    8.1097937385003398E+00    2.7649792021846959E+00    8.4333975925000022E+00
N    8.1089984410852374E+00    2.7625919844862414E+00    1.0432667920784244E+01
Ga    8.1299899745175708E+00    4.6210750402824212E+00    1.1073362403602962E+01
N    8.1503031841423130E+00    4.6295533952881218E+00    1.3070316099147671E+01
Ga    8.1085926714340086E+00    2.7602954180932393E+00    1.3622540103916249E+01
N    8.1347032851317387E+00    2.7441823929519527E+00    1.5589098959316061E+01
Ga    7.9749460849286242E+00    4.5282880160741090E+00    1.6471802127199989E+01
N    6.5101559198607735E+00    7.3967513812961023E+00    2.5855743225054066E+00
Ga    6.6515748640029777E+00    5.5859851169536920E+00    3.0934337970265835E+00
N    6.5147697843613317E+00    5.5293900897836377E+00    5.1344048043407025E+00
Ga    6.5024946987654388E+00    7.3693080383296126E+00    5.8261686917920121E+00
N    6.5123971825619327E+00    7.3896288718923699E+00    7.8209829153541861E+00
Ga    6.5077376935577664E+00    5.5285989880087643E+00    8.4297849373949418E+00
N    6.5087658257727457E+00    5.5284084698035043E+00    1.0428714886549614E+01
Ga    6.5110647199818210E+00    7.3985008206160785E+00    1.1022760461816830E+01
N    6.5119519152704326E+00    7.3959148486503681E+00    1.2996684464788565E+01
Ga    6.5117724527025160E+00    5.5281563710279507E+00    1.3621992041084052E+01
N    6.5125489166474164E+00    5.5584522538087304E+00    1.5588288662152195E+01
Ga    6.5119063338648280E+00    7.3983301986196164E+00    1.5862960903105206E+01
N    4.7847039330714995E+00    1.0127741404480696E+01    2.5073836294157545E+00
Ga    4.9641693327835119E+00    8.2635555635230951E+00    3.2360146269452703E+00
N    4.9026315522160306E+00    8.3185702906831800E+00    5.2311641840264897E+00
Ga    4.9261980832751178E+00    1.0195166141611626E+01    5.7614547760134567E+00
N    4.9118370457383236E+00    1.0187008069325383E+01    7.7780096037790294E+00
Ga    4.9037944260895490E+00    8.3330807725293514E+00    8.4228304625095127E+00
N    4.8960739809921670E+00    8.3332308017193757E+00    1.0424009519699553E+01
Ga    4.9233324193044812E+00    1.0188669373889887E+01    1.1068521676268569E+01
N    4.9382510642974182E+00    1.0199389925882047E+01    1.3063834594831787E+01
Ga    4.8935446967460914E+00    8.3300883762571996E+00    1.3619727733304323E+01
N    4.9182351839591272E+00    8.3125396446836817E+00    1.5581556294815089E+01
Ga    4.7511471501631322E+00    1.0092398858624811E+01    1.6477093827829307E+01
O    2.1590626341160178E-02    4.0943206351445403E+00   -4.0950152269422541E-01
H   -1.4325610322766166E-01    5.8907146043603031E+00   -3.6495176399711432E-01
C    1.1220318124752557E+00    3.6351596576808376E+00   -1.2121214398877802E+00
H    2.0982821119132833E+00    3.9462530258761568E+00   -8.0143837018233199E-01
H    1.1252797592962707E+00    2.5380779083904428E+00   -1.3109768248877831E+00
H    1.0108630314967948E+00    4.0752152336158431E+00   -2.2139587837594634E+00
Ga    3.0874432398621239E+00    5.6113936572194669E+00    3.0461404010539415E+00
O   -1.8187350864226187E-01    6.8736436605438769E+00   -2.0565137406864695E-01
H    5.0575384221252261E-02    7.3257886563850256E+00    1.7031153602010751E+00
H    5.6501825271700290E-01    7.2321896503365481E+00   -7.1171096485225960E-01
Ga    8.2659193396901891E+00    2.7912139932588902E+00    7.6645531299863878E-01
C    4.9346065760285605E+00    4.6032272276971797E+00    1.0665981521160057E+00
H    5.8368576037776831E+00    4.7767062197334500E+00    4.4169301401865324E-01
H    4.0087831765379995E+00    4.2723521327644010E+00    5.5466858874383251E-01
     &END COORD
     &KIND C
       BASIS_SET DZVP-MOLOPT-SR-GTH-q4
       POTENTIAL GTH-PBE-q4
       &POTENTIAL
 2 2
  0.3384712400000000E+00 2 -0.8803673979999999E+01  0.1339210850000000E+01
 2
  0.3025757500000000E+00 1  0.9622486650000001E+01
  0.2915069400000000E+00 0
         # Potential name:  GTH-PBE-Q4  for symbol:  C
         # Potential read from the potential filename: GTH_POTENTIALS
       &END POTENTIAL
     &END KIND
     &KIND O
       BASIS_SET DZVP-MOLOPT-SR-GTH-q6
       POTENTIAL GTH-PBE-q6
       &POTENTIAL
 2 4
  0.2445543000000000E+00 2 -0.1666721480000000E+02  0.2487311320000000E+01
 2
  0.2209559200000000E+00 1  0.1833745811000000E+02
  0.2113324700000000E+00 0
         # Potential name:  GTH-PBE-Q6  for symbol:  O
         # Potential read from the potential filename: GTH_POTENTIALS
       &END POTENTIAL
     &END KIND
     &KIND H
       BASIS_SET DZVP-MOLOPT-SR-GTH-q1
       POTENTIAL GTH-PBE-q1
       &POTENTIAL
 1
  0.2000000000000000E+00 2 -0.4178900440000000E+01  0.7244633100000000E+00
 0
         # Potential name:  GTH-PBE-Q1  for symbol:  H
         # Potential read from the potential filename: GTH_POTENTIALS
       &END POTENTIAL
     &END KIND
     &KIND N
       BASIS_SET DZVP-MOLOPT-SR-GTH
       POTENTIAL GTH-PBE-q5
       &POTENTIAL
 2 3
  0.2837905100000000E+00 2 -0.1241522559000000E+02  0.1868095920000000E+01
 2
  0.2554050000000000E+00 1  0.1363026257000000E+02
  0.2454945300000000E+00 0
         # Potential name:  GTH-PBE-Q5  for symbol:  N
         # Potential read from the potential filename: GTH_POTENTIALS
       &END POTENTIAL
     &END KIND
     &KIND Ga
       BASIS_SET DZVP-MOLOPT-SR-GTH
       POTENTIAL GTH-PBE-q13
       &POTENTIAL
 2 1 10
  0.4900000000000000E+00 0
 3
  0.4167772300000000E+00 3  0.1047568975000000E+02 -0.4921768140000000E+01  0.8707055900000000E+00
  0.7770178090000000E+01 -0.2248152160000000E+01
  0.1784415450000000E+01
  0.5696265200000000E+00 2  0.1777985340000000E+01  0.1958597600000000E+00
 -0.2317443900000000E+00
  0.2381265000000000E+00 1 -0.1624868022000000E+02
         # Potential name:  GTH-PBE-Q13  for symbol:  GA
         # Potential read from the potential filename: GTH_POTENTIALS
       &END POTENTIAL
     &END KIND
     &TOPOLOGY
       NUMBER_OF_ATOMS  212
       MULTIPLE_UNIT_CELL  1 1 1
     &END TOPOLOGY
   &END SUBSYS
 &END FORCE_EVAL
