 # Version information for this restart file 
 # current date 2019-07-22 00:00:56.475
 # current working dir /lustre04/scratch/rzk/rzk/GaN-carbene/443-adatoms-both-2x2/11-CH3O-HO-H2C-H-H/02-UseIntermediate-0904
 # Program compiled at                              Sun Apr  7 00:48:11 EDT 2019
 # Program compiled on                          beluga2.int.ets1.calculquebec.ca
 # Program compiled for                        Beluga-Linux-x86-64-intel-openmpi
 # Source code revision number                                         svn:18619
 &GLOBAL
   PRINT_LEVEL  MEDIUM
   PROJECT_NAME TEST
   RUN_TYPE  GEO_OPT
 &END GLOBAL
 &MOTION
   &GEO_OPT
     MAX_ITER  500
     STEP_START_VAL  10
   &END GEO_OPT
 &END MOTION
 &FORCE_EVAL
   METHOD  QS
   STRESS_TENSOR  ANALYTICAL
   &DFT
     BASIS_SET_FILE_NAME BASIS_MOLOPT
     POTENTIAL_FILE_NAME GTH_POTENTIALS
     UKS  T
     SURFACE_DIPOLE_CORRECTION  T
     SURF_DIP_DIR  Z
     &SCF
       MAX_SCF  80
       EPS_SCF     5.0000000000000004E-06
       &OT  T
         PRECONDITIONER  FULL_ALL
       &END OT
       &OUTER_SCF  T
         OPTIMIZER  NONE
         EPS_SCF     5.0000000000000004E-06
         MAX_SCF  4
       &END OUTER_SCF
       &PRINT
         &RESTART  OFF
           BACKUP_COPIES  1
           &EACH
             JUST_ENERGY  0
             QS_SCF  0
             MD  20
           &END EACH
         &END RESTART
       &END PRINT
     &END SCF
     &QS
       EPS_DEFAULT     1.0000000000000000E-14
       METHOD  GPW
     &END QS
     &MGRID
       NGRIDS  5
       CUTOFF     1.2000000000000000E+03
     &END MGRID
     &XC
       DENSITY_CUTOFF     1.0000000000000000E-10
       GRADIENT_CUTOFF     1.0000000000000000E-10
       TAU_CUTOFF     1.0000000000000000E-10
       &XC_FUNCTIONAL  NO_SHORTCUT
         &PBE  T
         &END PBE
       &END XC_FUNCTIONAL
       &VDW_POTENTIAL
         POTENTIAL_TYPE  PAIR_POTENTIAL
         &PAIR_POTENTIAL
           R_CUTOFF     1.0000000000000004E+01
           TYPE  DFTD3
           PARAMETER_FILE_NAME dftd3.dat
           REFERENCE_FUNCTIONAL PBE
           EPS_CN     9.9999999999999995E-07
           CALCULATE_C9_TERM  T
           REFERENCE_C9_TERM  T
           LONG_RANGE_CORRECTION  F
           VERBOSE_OUTPUT  F
         &END PAIR_POTENTIAL
       &END VDW_POTENTIAL
     &END XC
   &END DFT
   &SUBSYS
     &CELL
       A     1.2864472766435110E+01    0.0000000000000000E+00    0.0000000000000000E+00
       B    -6.4322363581020028E+00    1.1140960178524473E+01    0.0000000000000000E+00
       C     0.0000000000000000E+00    0.0000000000000000E+00    3.2000000000000000E+01
       MULTIPLE_UNIT_CELL  1 1 1
       &CELL_REF
         A     1.2982353780853531E+01    0.0000000000000000E+00    0.0000000000000000E+00
         B    -6.4911768904267628E+00    1.1243048175136114E+01    0.0000000000000000E+00
         C     0.0000000000000000E+00    0.0000000000000000E+00    3.2000000000000000E+01
         MULTIPLE_UNIT_CELL  1 1 1
       &END CELL_REF
     &END CELL
     &COORD
N    4.9097547202799761E-02    1.9807657349341312E+00    2.4983439916914469E+00
Ga    3.4624455686573699E-02   -2.2349719417350191E-03    2.8076766611267301E+00
N    8.1664253718264981E-02   -3.4975113391703491E-02    5.0012287158353477E+00
Ga    6.3706327765632134E-02    1.7899105784665348E+00    5.7874048379693068E+00
N    7.4532945857412242E-02    1.8136258268808136E+00    7.7945062728743606E+00
Ga    7.3933116030693663E-02   -3.2101987354972009E-02    8.4336276580961034E+00
N    7.8601472183918414E-02   -3.0220520026006777E-02    1.0414487732875431E+01
Ga    8.1013018234457487E-02    1.8066833427485267E+00    1.1075262408184065E+01
N    8.1484131449857181E-02    1.7882618496595599E+00    1.3072393192456893E+01
Ga    8.1283484177871332E-02   -3.3468467972457970E-02    1.3867888756244389E+01
N    7.9355406833818531E-02   -3.1345375419164198E-02    1.6071739559553123E+01
Ga    8.1351707909049789E-02    2.0127776886586091E+00    1.6486161825127208E+01
Ga    3.9911034276995105E-02    3.7075468468130675E+00    1.4025000560393426E+00
N   -1.4046887841137863E+00    4.5539904849659560E+00    2.5524886950482566E+00
Ga   -1.6466788134601704E+00    2.7189019106284200E+00    3.2760413706309368E+00
N   -1.5497149403135806E+00    2.7462980358586626E+00    5.2457661253679486E+00
Ga   -1.5652304184782444E+00    4.6133480644831684E+00    5.8437259525641574E+00
N   -1.5405960343895648E+00    4.6097725842304476E+00    7.8311122779960369E+00
Ga   -1.5219442224650870E+00    2.7505085525177968E+00    8.4538552189206815E+00
N   -1.5168413540896550E+00    2.7587440803716436E+00    1.0446754159728078E+01
Ga   -1.5471094745245526E+00    4.6174337241401870E+00    1.1083344559607667E+01
N   -1.5602640557162550E+00    4.6277427429836333E+00    1.3077750989564448E+01
Ga   -1.5158225498723623E+00    2.7578453752737815E+00    1.3630360471293328E+01
N   -1.5410990417226151E+00    2.7426526481396611E+00    1.5595239572757999E+01
Ga   -1.3744494673311454E+00    4.5233136698725751E+00    1.6486839071105997E+01
N    8.2536933634551474E-02    3.6923007771947600E+00    1.7615574640237853E+01
N   -3.1171999812966247E+00    7.5165510214187297E+00    2.5763191394450509E+00
Ga   -3.1112729247053195E+00    5.5061633596196780E+00    2.9272585966555633E+00
N   -3.1227126900017530E+00    5.5562900635228694E+00    5.0795416438582004E+00
Ga   -3.1439992438794331E+00    7.3683984472804402E+00    5.8421656135069284E+00
N   -3.1337199263404911E+00    7.3892189630905740E+00    7.8266644150322584E+00
Ga   -3.1472914272502073E+00    5.5357111265047649E+00    8.4563615626959638E+00
N   -3.1405671199670468E+00    5.5370311144391087E+00    1.0429645762537763E+01
Ga   -3.1423377818451672E+00    7.3782469731365783E+00    1.1074796608112269E+01
N   -3.1378071542396642E+00    7.3577029399880818E+00    1.3067575048480041E+01
Ga   -3.1393095355508303E+00    5.5392814683095839E+00    1.3874917501694691E+01
N   -3.1401069782763837E+00    5.5424997672188834E+00    1.6076307754640343E+01
Ga   -3.1381069853651873E+00    7.5851563699252535E+00    1.6483522835908232E+01
Ga   -3.1154811581322179E+00    9.2233151248964180E+00    1.5548569945166526E+00
N   -4.6416363508864187E+00    1.0131477164688143E+01    2.5075735940204384E+00
Ga   -4.8626828521132373E+00    8.2709176765476951E+00    3.2973379114856716E+00
N   -4.7418942061764771E+00    8.3259642450150899E+00    5.2539127967381409E+00
Ga   -4.7767097382869874E+00    1.0196438129728781E+01    5.8002569316920507E+00
N   -4.7526230936954157E+00    1.0189019900316467E+01    7.7958970646648869E+00
Ga   -4.7481226420980374E+00    8.3252315407713784E+00    8.4269700888596315E+00
N   -4.7367925924591949E+00    8.3308048443405305E+00    1.0425282051590830E+01
Ga   -4.7614110030015357E+00    1.0189874684443147E+01    1.1065056391525134E+01
N   -4.7771680455469578E+00    1.0199659520878839E+01    1.3061061074295861E+01
Ga   -4.7362847581566072E+00    8.3301989847726663E+00    1.3617577484497311E+01
N   -4.7604977678576654E+00    8.3173207438320738E+00    1.5579859286905268E+01
Ga   -4.5918885954145239E+00    1.0092522018600214E+01    1.6479278251671996E+01
N   -3.1409677735532107E+00    9.2651684159015559E+00    1.7613573379815513E+01
N    3.2805451219300230E+00    1.8617790359221162E+00    2.5852481390597344E+00
Ga    3.2693560173413139E+00    9.3422937948494253E-02    3.2850789734221828E+00
N    3.2922882507129327E+00   -3.0116726102296845E-02    5.2491225213876751E+00
Ga    3.2961226144959843E+00    1.8394378934241633E+00    5.8487089605308427E+00
N    3.3037010566501142E+00    1.8320523915143141E+00    7.8270438442916328E+00
Ga    3.2923648104654584E+00   -3.1600733336742320E-02    8.4451387750668090E+00
N    3.2946374653312160E+00   -3.8175758460429851E-02    1.0436962696546997E+01
Ga    3.2989177758670452E+00    1.8323334106231226E+00    1.1028141156945795E+01
N    3.2976797046952520E+00    1.8292736266386751E+00    1.3001348191162119E+01
Ga    3.2935707627125708E+00   -4.1138643922482621E-02    1.3619681926765390E+01
N    3.2919882459819378E+00   -1.1833907897543107E-02    1.5582609428347070E+01
Ga    3.2964559257328636E+00    1.8250833662419850E+00    1.5872213610137537E+01
N    1.5460084919082515E+00    4.5493542908403972E+00    2.5585370858239829E+00
Ga    1.7468493312893283E+00    2.7215073622818342E+00    3.2884488967194847E+00
N    1.6745657490659123E+00    2.7491488259374690E+00    5.2582556755036798E+00
Ga    1.7025762408122322E+00    4.6086533189709513E+00    5.8416679077862845E+00
N    1.6962955684559931E+00    4.6141479220786161E+00    7.8255324172969631E+00
Ga    1.6771350570585501E+00    2.7499915624957261E+00    8.4376513020005994E+00
N    1.6766523078625628E+00    2.7587545124972244E+00    1.0432568456336833E+01
Ga    1.7075638860393283E+00    4.6171880280685134E+00    1.1075083279511507E+01
N    1.7231532217252126E+00    4.6281791288108272E+00    1.3072341082286647E+01
Ga    1.6797231869838356E+00    2.7591185647246377E+00    1.3626493982758440E+01
N    1.7022652724999203E+00    2.7441997775106794E+00    1.5592066080607616E+01
Ga    1.5372846584188533E+00    4.5227985328135665E+00    1.6486513064605507E+01
N    8.6153895222564295E-02    7.3796822271134737E+00    2.7661920292122084E+00
Ga    6.2240363294483167E-02    5.5390431336267065E+00    3.3897663027103695E+00
N    7.3592195616050626E-02    5.5524320241479721E+00    5.3171009928563668E+00
Ga    8.8216611589913202E-02    7.3969671716344338E+00    5.9505705303192062E+00
N    8.0849705667464425E-02    7.3985764810257679E+00    7.9033632159186942E+00
Ga    7.7004296248273346E-02    5.5224934732517008E+00    8.4702037966624104E+00
N    7.9426373548594373E-02    5.5255048029070277E+00    1.0457196701594198E+01
Ga    8.1304379960866355E-02    7.3962318806344474E+00    1.1045914430142799E+01
N    8.0568391081737134E-02    7.3945933082101378E+00    1.3014707453000007E+01
Ga    8.2580621245536098E-02    5.5225817618207502E+00    1.3629655829471149E+01
N    8.2407759229300923E-02    5.5567782941194750E+00    1.5595563055413068E+01
Ga    8.1663276553563119E-02    7.3991595181185490E+00    1.5862366377657340E+01
N   -1.6348129827965048E+00    1.0102677871003577E+01    2.5653934246915062E+00
Ga   -1.4818608220680052E+00    8.2999687612223294E+00    3.3986005478098384E+00
N   -1.5147157070394563E+00    8.3200911435887619E+00    5.3170300518246041E+00
Ga   -1.5104495531871560E+00    1.0204244869794966E+01    5.8481106356397703E+00
N   -1.5229823879239819E+00    1.0188980400126681E+01    7.8313260089312813E+00
Ga   -1.5416691086672505E+00    8.3345269712855359E+00    8.4743820253708293E+00
N   -1.5393835029236440E+00    8.3327242745091503E+00    1.0458710313670952E+01
Ga   -1.5137846986293073E+00    1.0196428491769277E+01    1.1077416497904508E+01
N   -1.4961698655068456E+00    1.0201804922522124E+01    1.3069858989897513E+01
Ga   -1.5426326193384174E+00    8.3318647484472859E+00    1.3624386528191506E+01
N   -1.5137860276248016E+00    8.3143313023838950E+00    1.5585964027908544E+01
Ga   -1.6857495099745168E+00    1.0092313494104328E+01    1.6480098177947173E+01
N    6.5951283251312267E+00    1.8380386931345758E+00    2.5265384138782907E+00
Ga    6.5509806719233534E+00   -5.3413532214599470E-02    2.9343880558107021E+00
N    6.5052889901014650E+00   -5.6344393951832994E-02    5.0984458995164772E+00
Ga    6.5052361627032118E+00    1.7895929871499379E+00    5.8128852676035674E+00
N    6.5030895746895716E+00    1.8175126438096303E+00    7.8050977671374389E+00
Ga    6.5153501369947362E+00   -2.2303516372081261E-02    8.4563526432587359E+00
N    6.5129601028125723E+00   -2.4397722514934446E-02    1.0428001172762588E+01
Ga    6.5129131735479335E+00    1.8169500010590025E+00    1.1071303001893456E+01
N    6.5122778210493095E+00    1.7924639586974243E+00    1.3066805989648781E+01
Ga    6.5120999028469688E+00   -2.7250020945367409E-02    1.3870687081784997E+01
N    6.5114435691062260E+00   -2.6074368182698791E-02    1.6070150781719736E+01
Ga    6.5114220211528684E+00    2.0224163882642996E+00    1.6491752451946134E+01
N    4.8790981081645040E+00    4.9366257155204956E+00    2.2496316898052324E+00
Ga    4.9497312164661400E+00    2.4278656206527516E+00    3.1926932692128638E+00
N    4.9104527788028047E+00    2.7571900432499721E+00    5.1546728610551069E+00
Ga    4.8895763791088083E+00    4.6277357969593940E+00    5.7449121745140541E+00
N    4.8966211279860170E+00    4.6142084176290066E+00    7.7607335380753177E+00
Ga    4.9167222327002076E+00    2.7690310753693241E+00    8.4305676261794531E+00
N    4.9169088451253442E+00    2.7654767540473273E+00    1.0426706698427166E+01
Ga    4.8936338980129443E+00    4.6201473856254331E+00    1.1069917696198045E+01
N    4.8739979354316372E+00    4.6290213066645869E+00    1.3065289712665082E+01
Ga    4.9153045278726353E+00    2.7619118571993408E+00    1.3627035081235535E+01
N    4.8866163839073247E+00    2.7459492400781920E+00    1.5587903486984594E+01
Ga    5.0634738953311480E+00    4.5207852277352689E+00    1.6492589070894041E+01
N    6.5112855851154769E+00    3.6954908224930154E+00    1.7629141724453564E+01
N    3.2618911685673342E+00    7.5141429184823849E+00    2.5420464021148645E+00
N    3.2709398965633558E+00    5.5337262920275032E+00    5.0706809748814603E+00
Ga    3.3025563067081558E+00    7.3724411924732358E+00    5.8150053634109744E+00
N    3.2962425461835556E+00    7.3798159055170283E+00    7.8074035726900526E+00
Ga    3.3072901396733956E+00    5.5314454774671260E+00    8.4422163752057280E+00
N    3.3009200628245199E+00    5.5351514915416820E+00    1.0419685609337522E+01
Ga    3.3038699234779196E+00    7.3758425247406212E+00    1.1068448572976456E+01
N    3.2988554495956603E+00    7.3554243735181029E+00    1.3062942717989971E+01
Ga    3.3007878307208753E+00    5.5381239640807021E+00    1.3871169437532545E+01
N    3.3004947211056752E+00    5.5420645740453578E+00    1.6076628328466921E+01
Ga    3.2978849044796186E+00    7.5830234711456246E+00    1.6481495593036133E+01
Ga    3.2836010699186207E+00    9.2682777193265125E+00    1.2273219530583144E+00
N    1.7675073360299276E+00    1.0102744376250328E+01    2.5231116172215478E+00
Ga    1.6871971795539904E+00    8.3323352780684701E+00    3.3340968091086323E+00
N    1.6748891399814088E+00    8.3119928807842793E+00    5.2800580009495013E+00
Ga    1.6748799104068819E+00    1.0194416322457284E+01    5.8272717682272770E+00
N    1.6859011847922474E+00    1.0187095155120318E+01    7.8213579899774839E+00
Ga    1.7066234402300069E+00    8.3322798412694645E+00    8.4669746738393741E+00
N    1.7017209632389445E+00    8.3315238323710084E+00    1.0453056055194018E+01
Ga    1.6745421011260295E+00    1.0194939142051881E+01    1.1077957233624010E+01
N    1.6564283433707161E+00    1.0201093377775024E+01    1.3069633234370123E+01
Ga    1.7046164975679525E+00    8.3301886970013044E+00    1.3620811675335341E+01
N    1.6770864125048135E+00    8.3141738412482926E+00    1.5582403455008405E+01
Ga    1.8435088171441447E+00    1.0091381288733631E+01    1.6478996560611442E+01
N    3.2986594934901392E+00    9.2617270458604537E+00    1.7611636198355217E+01
N    9.6268634244247284E+00    1.8886002710310892E+00    2.5988265590343138E+00
Ga    9.6895375005410838E+00    6.4688389160961285E-02    3.2136723260691689E+00
N    9.7184401047307798E+00   -2.1321306836296294E-02    5.2096712679614052E+00
Ga    9.7223268788762383E+00    1.8167181766702087E+00    5.8807229572859070E+00
N    9.7267098026456402E+00    1.8223709609810721E+00    7.8575317014181190E+00
Ga    9.7352422191613783E+00   -4.0147106329481763E-02    8.4514729924900713E+00
N    9.7312064239626359E+00   -4.0868667082311627E-02    1.0443719303381506E+01
Ga    9.7258993601940507E+00    1.8296555986819201E+00    1.1034443704881596E+01
N    9.7276606091079820E+00    1.8276194995654496E+00    1.3007295254364941E+01
Ga    9.7312556442011395E+00   -4.4590050220053599E-02    1.3622153109671444E+01
N    9.7312847018961577E+00   -1.3891139925317939E-02    1.5584522363801883E+01
Ga    9.7280450331653743E+00    1.8236896495096528E+00    1.5871595447629446E+01
N    8.1524846776147175E+00    4.5035567532722585E+00    2.4825183137367239E+00
Ga    8.0765709152879470E+00    2.7579029691155252E+00    3.3829408114319182E+00
N    8.1091556561212350E+00    2.7606894235637793E+00    5.3174691066099822E+00
Ga    8.1287209674624794E+00    4.6485293298237353E+00    5.7816621293876382E+00
N    8.1234738571986664E+00    4.6285921590818351E+00    7.7896574400131833E+00
Ga    8.1064849325462145E+00    2.7690820839779713E+00    8.4217508406127592E+00
N    8.1093603527762053E+00    2.7642225248724421E+00    1.0423665877139825E+01
Ga    8.1291590051435971E+00    4.6194220122479992E+00    1.1072621334654741E+01
N    8.1503755595449352E+00    4.6287874501727462E+00    1.3067409642726515E+01
Ga    8.1077904237952865E+00    2.7618386911288284E+00    1.3630633055718818E+01
N    8.1376527325565586E+00    2.7439638344846373E+00    1.5590656662918464E+01
Ga    7.9595537246107320E+00    4.5202671446082361E+00    1.6492036667602726E+01
N    6.5108685312385708E+00    7.4101220929006120E+00    2.5826086562982189E+00
Ga    6.6532211359506759E+00    5.5782737296861713E+00    3.0495429521409458E+00
N    6.5024516236784242E+00    5.5171528903183003E+00    5.1095157267382385E+00
Ga    6.4958008091802366E+00    7.3654972083620338E+00    5.7988566950152256E+00
N    6.5110987330500647E+00    7.3837195782244569E+00    7.7979445863642711E+00
Ga    6.5083403605190799E+00    5.5254922159607123E+00    8.4189200333683196E+00
N    6.5107922527661195E+00    5.5248312356880556E+00    1.0419845679556396E+01
Ga    6.5111057868005551E+00    7.3928714485414275E+00    1.1019645269607603E+01
N    6.5118314385161487E+00    7.3929477469797193E+00    1.2993202724490876E+01
Ga    6.5116614453718196E+00    5.5266307354829651E+00    1.3625717588990607E+01
N    6.5108376911027239E+00    5.5604621893057766E+00    1.5587711940657437E+01
Ga    6.5114213773668848E+00    7.3990749749866440E+00    1.5865178580900782E+01
N    4.7760261643296538E+00    1.0140987821076742E+01    2.4859817457384401E+00
Ga    4.9637174961478463E+00    8.2745349840901437E+00    3.2215085779159365E+00
N    4.8928777438192128E+00    8.3232378886769993E+00    5.2163529784464666E+00
Ga    4.9179575616568618E+00    1.0193675537097270E+01    5.7617931974200092E+00
N    4.9098890237281614E+00    1.0187253904879272E+01    7.7774710126205884E+00
Ga    4.9053000035275209E+00    8.3285757885548453E+00    8.4162884133583322E+00
N    4.8962856158814851E+00    8.3303275118065176E+00    1.0417624275631095E+01
Ga    4.9214885595993483E+00    1.0186883547657315E+01    1.1068428152769078E+01
N    4.9381289982420968E+00    1.0198008080963975E+01    1.3063331088648125E+01
Ga    4.8951270409808396E+00    8.3279415995825268E+00    1.3616730663576771E+01
N    4.9180266742748424E+00    8.3157417821327151E+00    1.5579159390078292E+01
Ga    4.7499876793521461E+00    1.0090126270147941E+01    1.6478829199006636E+01
O    2.5335031960367474E-02    4.1043984500698878E+00   -3.9477499573082026E-01
H   -1.1325009871424276E-01    5.9087406906473383E+00   -3.6249795508046750E-01
C    1.1166550348152990E+00    3.6371135476498853E+00   -1.2030036785725717E+00
H    2.0948194976175465E+00    3.9537570089387906E+00   -8.0577700425866350E-01
H    1.1200236556390675E+00    2.5408637391197471E+00   -1.2855004290850305E+00
H    9.9994119400390957E-01    4.0597408577345941E+00   -2.2088494911311667E+00
Ga    3.1440993017430867E+00    5.6099392407151552E+00    3.0063558615359720E+00
O   -1.5906330617309217E-01    6.8897838765633432E+00   -2.0313072674113672E-01
H    5.5473477690307034E-02    7.3268752773860495E+00    1.7331528136500505E+00
H    5.6172236534042064E-01    7.2545086980694853E+00   -7.3951449507175426E-01
Ga    8.4992380812160579E+00    2.7895189689548494E+00    7.3158650843079776E-01
C    4.9120110257442464E+00    4.6100435164046099E+00    1.0016029370744610E+00
H    5.8924885528676176E+00    4.4849789048720039E+00    4.5225496251900998E-01
H    3.9630674739871457E+00    4.4564665603230935E+00    4.4490598080057253E-01
     &END COORD
     &KIND C
       BASIS_SET DZVP-MOLOPT-SR-GTH-q4
       POTENTIAL GTH-PBE-q4
       &POTENTIAL
 2 2
  0.3384712400000000E+00 2 -0.8803673979999999E+01  0.1339210850000000E+01
 2
  0.3025757500000000E+00 1  0.9622486650000001E+01
  0.2915069400000000E+00 0
         # Potential name:  GTH-PBE-Q4  for symbol:  C
         # Potential read from the potential filename: GTH_POTENTIALS
       &END POTENTIAL
     &END KIND
     &KIND O
       BASIS_SET DZVP-MOLOPT-SR-GTH-q6
       POTENTIAL GTH-PBE-q6
       &POTENTIAL
 2 4
  0.2445543000000000E+00 2 -0.1666721480000000E+02  0.2487311320000000E+01
 2
  0.2209559200000000E+00 1  0.1833745811000000E+02
  0.2113324700000000E+00 0
         # Potential name:  GTH-PBE-Q6  for symbol:  O
         # Potential read from the potential filename: GTH_POTENTIALS
       &END POTENTIAL
     &END KIND
     &KIND H
       BASIS_SET DZVP-MOLOPT-SR-GTH-q1
       POTENTIAL GTH-PBE-q1
       &POTENTIAL
 1
  0.2000000000000000E+00 2 -0.4178900440000000E+01  0.7244633100000000E+00
 0
         # Potential name:  GTH-PBE-Q1  for symbol:  H
         # Potential read from the potential filename: GTH_POTENTIALS
       &END POTENTIAL
     &END KIND
     &KIND N
       BASIS_SET DZVP-MOLOPT-SR-GTH
       POTENTIAL GTH-PBE-q5
       &POTENTIAL
 2 3
  0.2837905100000000E+00 2 -0.1241522559000000E+02  0.1868095920000000E+01
 2
  0.2554050000000000E+00 1  0.1363026257000000E+02
  0.2454945300000000E+00 0
         # Potential name:  GTH-PBE-Q5  for symbol:  N
         # Potential read from the potential filename: GTH_POTENTIALS
       &END POTENTIAL
     &END KIND
     &KIND Ga
       BASIS_SET DZVP-MOLOPT-SR-GTH
       POTENTIAL GTH-PBE-q13
       &POTENTIAL
 2 1 10
  0.4900000000000000E+00 0
 3
  0.4167772300000000E+00 3  0.1047568975000000E+02 -0.4921768140000000E+01  0.8707055900000000E+00
  0.7770178090000000E+01 -0.2248152160000000E+01
  0.1784415450000000E+01
  0.5696265200000000E+00 2  0.1777985340000000E+01  0.1958597600000000E+00
 -0.2317443900000000E+00
  0.2381265000000000E+00 1 -0.1624868022000000E+02
         # Potential name:  GTH-PBE-Q13  for symbol:  GA
         # Potential read from the potential filename: GTH_POTENTIALS
       &END POTENTIAL
     &END KIND
     &TOPOLOGY
       NUMBER_OF_ATOMS  212
       MULTIPLE_UNIT_CELL  1 1 1
     &END TOPOLOGY
   &END SUBSYS
 &END FORCE_EVAL
