 # Version information for this restart file 
 # current date 2019-07-22 04:24:48.254
 # current working dir /lustre04/scratch/rzk/rzk/GaN-carbene/443-adatoms-both-2x2/11-CH3O-HO-H2C-H-H/02-UseIntermediate-0904
 # Program compiled at                              Sun Apr  7 00:48:11 EDT 2019
 # Program compiled on                          beluga2.int.ets1.calculquebec.ca
 # Program compiled for                        Beluga-Linux-x86-64-intel-openmpi
 # Source code revision number                                         svn:18619
 &GLOBAL
   PRINT_LEVEL  MEDIUM
   PROJECT_NAME TEST
   RUN_TYPE  GEO_OPT
 &END GLOBAL
 &MOTION
   &GEO_OPT
     MAX_ITER  500
     STEP_START_VAL  87
   &END GEO_OPT
 &END MOTION
 &FORCE_EVAL
   METHOD  QS
   STRESS_TENSOR  ANALYTICAL
   &DFT
     BASIS_SET_FILE_NAME BASIS_MOLOPT
     POTENTIAL_FILE_NAME GTH_POTENTIALS
     UKS  T
     SURFACE_DIPOLE_CORRECTION  T
     SURF_DIP_DIR  Z
     &SCF
       MAX_SCF  80
       EPS_SCF     5.0000000000000004E-06
       &OT  T
         PRECONDITIONER  FULL_ALL
       &END OT
       &OUTER_SCF  T
         OPTIMIZER  NONE
         EPS_SCF     5.0000000000000004E-06
         MAX_SCF  4
       &END OUTER_SCF
       &PRINT
         &RESTART  OFF
           BACKUP_COPIES  1
           &EACH
             JUST_ENERGY  0
             QS_SCF  0
             MD  20
           &END EACH
         &END RESTART
       &END PRINT
     &END SCF
     &QS
       EPS_DEFAULT     1.0000000000000000E-14
       METHOD  GPW
     &END QS
     &MGRID
       NGRIDS  5
       CUTOFF     1.2000000000000000E+03
     &END MGRID
     &XC
       DENSITY_CUTOFF     1.0000000000000000E-10
       GRADIENT_CUTOFF     1.0000000000000000E-10
       TAU_CUTOFF     1.0000000000000000E-10
       &XC_FUNCTIONAL  NO_SHORTCUT
         &PBE  T
         &END PBE
       &END XC_FUNCTIONAL
       &VDW_POTENTIAL
         POTENTIAL_TYPE  PAIR_POTENTIAL
         &PAIR_POTENTIAL
           R_CUTOFF     1.0000000000000004E+01
           TYPE  DFTD3
           PARAMETER_FILE_NAME dftd3.dat
           REFERENCE_FUNCTIONAL PBE
           EPS_CN     9.9999999999999995E-07
           CALCULATE_C9_TERM  T
           REFERENCE_C9_TERM  T
           LONG_RANGE_CORRECTION  F
           VERBOSE_OUTPUT  F
         &END PAIR_POTENTIAL
       &END VDW_POTENTIAL
     &END XC
   &END DFT
   &SUBSYS
     &CELL
       A     1.2864472766435110E+01    0.0000000000000000E+00    0.0000000000000000E+00
       B    -6.4322363581020028E+00    1.1140960178524473E+01    0.0000000000000000E+00
       C     0.0000000000000000E+00    0.0000000000000000E+00    3.2000000000000000E+01
       MULTIPLE_UNIT_CELL  1 1 1
       &CELL_REF
         A     1.2982353780853531E+01    0.0000000000000000E+00    0.0000000000000000E+00
         B    -6.4911768904267628E+00    1.1243048175136114E+01    0.0000000000000000E+00
         C     0.0000000000000000E+00    0.0000000000000000E+00    3.2000000000000000E+01
         MULTIPLE_UNIT_CELL  1 1 1
       &END CELL_REF
     &END CELL
     &COORD
N    7.5002954973798386E-02    1.9912787741906450E+00    2.5010648000143578E+00
Ga    5.1550558632686871E-02    7.1049166562117865E-03    2.8241123326649915E+00
N    8.3264166305402343E-02   -1.7540175139515259E-02    5.0124078688723896E+00
Ga    7.7101123630867546E-02    1.8008913588244142E+00    5.7995825061742492E+00
N    7.7278027266356714E-02    1.8223654392164397E+00    7.7994667040011514E+00
Ga    7.2851250855203831E-02   -2.5187438152469814E-02    8.4393655003124923E+00
N    7.6118797029658611E-02   -2.4601844937430579E-02    1.0416964810539101E+01
Ga    7.7963109707042261E-02    1.8133738516965288E+00    1.1071195764424290E+01
N    7.7614709531876436E-02    1.7952373685458836E+00    1.3065815103922619E+01
Ga    7.6899344796828972E-02   -2.4721772182797117E-02    1.3867687084841913E+01
N    7.5938767550026431E-02   -2.3118075916644571E-02    1.6070849183485564E+01
Ga    7.6448204801547417E-02    2.0202090883828374E+00    1.6481160516492821E+01
Ga    6.5996570783101310E-02    3.7203751734169623E+00    1.3955550573234001E+00
N   -1.4023792805037485E+00    4.5572687328554427E+00    2.5400757171394193E+00
Ga   -1.5950893630792695E+00    2.7371145100042584E+00    3.3033062056652360E+00
N   -1.5406508445340434E+00    2.7573447266454796E+00    5.2568174242181014E+00
Ga   -1.5604271184520131E+00    4.6273486567572171E+00    5.8416045642229193E+00
N   -1.5363315924280587E+00    4.6194103658804071E+00    7.8266744015777485E+00
Ga   -1.5224798257432819E+00    2.7594071889119212E+00    8.4465109592218397E+00
N   -1.5192851686063706E+00    2.7654568409194122E+00    1.0439160573534300E+01
Ga   -1.5482927957483954E+00    4.6248820704148992E+00    1.1074342471206922E+01
N   -1.5633891514959541E+00    4.6355598166388718E+00    1.3068807106419046E+01
Ga   -1.5200309099851335E+00    2.7659262385143326E+00    1.3621494095739941E+01
N   -1.5460972826201307E+00    2.7504338987798129E+00    1.5584400019705662E+01
Ga   -1.3752562815851681E+00    4.5271787645087027E+00    1.6480446417033182E+01
N    7.6434950443285743E-02    3.6973222502809904E+00    1.7614629311283522E+01
N   -3.1241485310146717E+00    7.5276396010577677E+00    2.5635397538931253E+00
Ga   -3.1121416643691924E+00    5.5193411692323640E+00    2.9261533478996320E+00
N   -3.1103203786966525E+00    5.5626854308316682E+00    5.0816284623798280E+00
Ga   -3.1450989218114218E+00    7.3711689200390831E+00    5.8379475401842287E+00
N   -3.1389051489250130E+00    7.3969239116798384E+00    7.8229942367493503E+00
Ga   -3.1475161676048060E+00    5.5421903425242531E+00    8.4474102950083161E+00
N   -3.1409454132479859E+00    5.5449675407320127E+00    1.0423213704812289E+01
Ga   -3.1447434440722044E+00    7.3846498902180766E+00    1.1072077856641400E+01
N   -3.1408931656054349E+00    7.3660289063217856E+00    1.3066588068824396E+01
Ga   -3.1407056107261933E+00    5.5460543511194951E+00    1.3867496079069383E+01
N   -3.1403622562739213E+00    5.5471964475972779E+00    1.6071313179488122E+01
Ga   -3.1401882453828995E+00    7.5918140827710534E+00    1.6481218793299981E+01
Ga   -3.1328485256916605E+00    9.2395861846998599E+00    1.5388076003199072E+00
N   -4.6451960059131530E+00    1.0128562951614310E+01    2.5152309429976651E+00
Ga   -4.8626999916018994E+00    8.2700665747513114E+00    3.2927891872245860E+00
N   -4.7446311638873038E+00    8.3294832447547726E+00    5.2530228254562887E+00
Ga   -4.7804196997214508E+00    1.0203239421955143E+01    5.8016427610984227E+00
N   -4.7579176541092405E+00    1.0194175225637208E+01    7.7984243667692601E+00
Ga   -4.7495210370390195E+00    8.3345316608210780E+00    8.4316520861298478E+00
N   -4.7400522301157046E+00    8.3378898259485617E+00    1.0428903875765309E+01
Ga   -4.7644510747941808E+00    1.0195977041534720E+01    1.1069185930809702E+01
N   -4.7793185378538405E+00    1.0205990128454941E+01    1.3064849991184190E+01
Ga   -4.7378918454812302E+00    8.3368566941891586E+00    1.3621078005138997E+01
N   -4.7632993880645476E+00    8.3209511718393188E+00    1.5583589922941467E+01
Ga   -4.5917298581230934E+00    1.0097769143324459E+01    1.6480470736504174E+01
N   -3.1407799548542839E+00    9.2689158207248781E+00    1.7613650204516020E+01
N    3.2865195118210786E+00    1.8454086865752601E+00    2.5971508122972735E+00
Ga    3.2677593241366494E+00    8.3942641980750257E-02    3.2917552050186796E+00
N    3.2937961954982100E+00   -2.4824983350406508E-02    5.2547918274306697E+00
Ga    3.2983247378588794E+00    1.8428581865334899E+00    5.8631833739466330E+00
N    3.2983708090533379E+00    1.8335989467361415E+00    7.8409669633755099E+00
Ga    3.2875777508325918E+00   -3.1408522372499532E-02    8.4453918570987359E+00
N    3.2910060694754639E+00   -3.4530193107147104E-02    1.0437781588205947E+01
Ga    3.2951164112987361E+00    1.8349746236188997E+00    1.1028456803980301E+01
N    3.2939245462593618E+00    1.8333951465663241E+00    1.3000961975655754E+01
Ga    3.2921513179909914E+00   -3.6935799418542331E-02    1.3622065947875711E+01
N    3.2919886667797584E+00   -4.9194410591973173E-03    1.5585766940018621E+01
Ga    3.2933898751849267E+00    1.8329200503250935E+00    1.5863077756391508E+01
N    1.5554858188550973E+00    4.5638874077615252E+00    2.5514196774808218E+00
Ga    1.7676344275978424E+00    2.7324325565094170E+00    3.2877659023693813E+00
N    1.6880142991042495E+00    2.7617521416787749E+00    5.2588579801398696E+00
Ga    1.7111506168539217E+00    4.6222276398991715E+00    5.8341657151673765E+00
N    1.6954866689460553E+00    4.6223821706148209E+00    7.8180658012210849E+00
Ga    1.6781639548897831E+00    2.7608244203087668E+00    8.4400577425745649E+00
N    1.6753769724923013E+00    2.7655450543479723E+00    1.0433920911479802E+01
Ga    1.7054189081852764E+00    4.6249396742123059E+00    1.1071784065581239E+01
N    1.7189734216941159E+00    4.6355485398188572E+00    1.3066840725815551E+01
Ga    1.6741827350967011E+00    2.7666140587763746E+00    1.3622215150589104E+01
N    1.6997619541366105E+00    2.7504221742429333E+00    1.5584874951766755E+01
Ga    1.5282647671189358E+00    4.5272042371084273E+00    1.6481005471328007E+01
N    8.3615517295825656E-02    7.3959893226458293E+00    2.7344610960912115E+00
Ga    6.3499624686947156E-02    5.5552918610082207E+00    3.3699572185869151E+00
N    7.8361746015093714E-02    5.5597909557199294E+00    5.3020852180239686E+00
Ga    8.6139781541122548E-02    7.4047322778902336E+00    5.9342494403275126E+00
N    7.8416997227018753E-02    7.4051864409129298E+00    7.8898984709150071E+00
Ga    7.9095891695154075E-02    5.5313059282736994E+00    8.4632534712880432E+00
N    7.8655235758609790E-02    5.5333505019923015E+00    1.0450121681936672E+01
Ga    7.9208550701880417E-02    7.4037591265346894E+00    1.1039021914486801E+01
N    7.7769589120817453E-02    7.4029737351934921E+00    1.3008931699087753E+01
Ga    7.7843177921039897E-02    5.5313674421117840E+00    1.3623164681891023E+01
N    7.6931631808289033E-02    5.5641234554331334E+00    1.5586993991052893E+01
Ga    7.7041132063385864E-02    7.4031200677972935E+00    1.5861396656071506E+01
N   -1.6402677319124503E+00    1.0106970244051045E+01    2.5572641782933019E+00
Ga   -1.4927119680541767E+00    8.3050504977433253E+00    3.3759613570766538E+00
N   -1.5188418655622349E+00    8.3235805726400045E+00    5.2976843210833646E+00
Ga   -1.5094130703781692E+00    1.0204986194972214E+01    5.8442030578014652E+00
N   -1.5276250673972935E+00    1.0190728916099014E+01    7.8278086141657433E+00
Ga   -1.5452794429925973E+00    8.3383275756972317E+00    8.4678344714511908E+00
N   -1.5423190408061462E+00    8.3377205278216415E+00    1.0453066995944859E+01
Ga   -1.5164648602859350E+00    1.0200670964861207E+01    1.1075189722162005E+01
N   -1.4993922622433764E+00    1.0207756275847844E+01    1.3069170138428380E+01
Ga   -1.5438811471706932E+00    8.3377793597452641E+00    1.3622766311382589E+01
N   -1.5165938308858731E+00    8.3206318221303217E+00    1.5585258074008117E+01
Ga   -1.6887554651932499E+00    1.0097744421204684E+01    1.6480497594229888E+01
N    6.5565007995268658E+00    1.8162170616884559E+00    2.5401736012103782E+00
Ga    6.5471960993029006E+00   -5.3296763766917873E-02    2.9289653472735639E+00
N    6.5038190072721873E+00   -5.7791126179337786E-02    5.0945528706343159E+00
Ga    6.5216419033475672E+00    1.7984924137400586E+00    5.7961715975081809E+00
N    6.5071147311576159E+00    1.8215604271454655E+00    7.7965551000706732E+00
Ga    6.5120809061858802E+00   -2.1573553315840842E-02    8.4494636052934489E+00
N    6.5105561462329264E+00   -2.3663053392157726E-02    1.0424311172140833E+01
Ga    6.5104679149691620E+00    1.8186352651200997E+00    1.1066102134990661E+01
N    6.5093500998795246E+00    1.7966900443128788E+00    1.3062286898063272E+01
Ga    6.5098465288897307E+00   -2.2487725674398017E-02    1.3868372171563523E+01
N    6.5094662171241460E+00   -2.2205423718218556E-02    1.6071464512780942E+01
Ga    6.5089605763047151E+00    2.0215348255137453E+00    1.6481337493742512E+01
N    4.8742376343109024E+00    4.8517076885935646E+00    2.3152283655421448E+00
Ga    4.9354119079449230E+00    2.4181564494619421E+00    3.2343521743140715E+00
N    4.9086736101398269E+00    2.7550550943996517E+00    5.1870683570336427E+00
Ga    4.9010589622654477E+00    4.6279361529940992E+00    5.7490799459324942E+00
N    4.8962392494480671E+00    4.6194748437492503E+00    7.7622663735735609E+00
Ga    4.9136061761716148E+00    2.7700766529404413E+00    8.4299461797532196E+00
N    4.9121049251946474E+00    2.7693642682732844E+00    1.0426983260109143E+01
Ga    4.8897888493656998E+00    4.6266742152157159E+00    1.1067848413090999E+01
N    4.8706272120515939E+00    4.6356739505996272E+00    1.3063413970234723E+01
Ga    4.9135853621883703E+00    2.7671843046009248E+00    1.3620920094788678E+01
N    4.8862802222708082E+00    2.7507721768420872E+00    1.5583306600583965E+01
Ga    5.0578690877511452E+00    4.5273504605320589E+00    1.6480433034104458E+01
N    6.5085629456014846E+00    3.6984951157846755E+00    1.7614762664881116E+01
N    3.2659045527893005E+00    7.5449572288397171E+00    2.5457019112206520E+00
N    3.2792407688148288E+00    5.5512989238347190E+00    5.0524060331252985E+00
Ga    3.3029148405039335E+00    7.3862588763417953E+00    5.8120491870789293E+00
N    3.2936666659773297E+00    7.3931143438770750E+00    7.8026067139740594E+00
Ga    3.3056848392217013E+00    5.5428001780050602E+00    8.4382939749005104E+00
N    3.2977485199031298E+00    5.5452387571715871E+00    1.0415507700119591E+01
Ga    3.3003957995175699E+00    7.3850757943480554E+00    1.1068242007504217E+01
N    3.2953426592154038E+00    7.3656053655374469E+00    1.3063492951938773E+01
Ga    3.2951409592241174E+00    5.5464974862151895E+00    1.3867496239471567E+01
N    3.2935594080757498E+00    5.5477658658097164E+00    1.6071061506171315E+01
Ga    3.2932990577752936E+00    7.5934380846395468E+00    1.6482872335567112E+01
Ga    3.3028763637394678E+00    9.2540114900971702E+00    1.2648296056425936E+00
N    1.7844327861663092E+00    1.0125078329464607E+01    2.5187558999470410E+00
Ga    1.6752188121596407E+00    8.3565755614944237E+00    3.3251197007165354E+00
N    1.6728906487268433E+00    8.3263066401714436E+00    5.2713666926624807E+00
Ga    1.6692930528938072E+00    1.0206892908036020E+01    5.8243040705846587E+00
N    1.6841168783474316E+00    1.0191625126302467E+01    7.8157396772182945E+00
Ga    1.7035365709846049E+00    8.3392263961454596E+00    8.4593613260522869E+00
N    1.6990913002938164E+00    8.3378543380698371E+00    1.0446795698879063E+01
Ga    1.6727548029322037E+00    1.0199730860081416E+01    1.1074293800748851E+01
N    1.6540310807670975E+00    1.0207122426258950E+01    1.3068288664016679E+01
Ga    1.6990750353106170E+00    8.3375316216209630E+00    1.3622530285021226E+01
N    1.6702587927467316E+00    8.3204050296025063E+00    1.5584335623056186E+01
Ga    1.8436014304120536E+00    1.0096977467326129E+01    1.6481255247561503E+01
N    3.2935489227323873E+00    9.2687870273349073E+00    1.7615865562412992E+01
N    9.6936963478769247E+00    1.8762128612454001E+00    2.5862987380891229E+00
Ga    9.7132653582363577E+00    5.5192491257450932E-02    3.2439793096352783E+00
N    9.7211463685190136E+00   -9.1126843855814776E-03    5.2189817180274520E+00
Ga    9.7138446681405650E+00    1.8353541262802942E+00    5.8705675596378795E+00
N    9.7246977048537655E+00    1.8316282416134788E+00    7.8496960135650813E+00
Ga    9.7326139228758013E+00   -3.3361830842069326E-02    8.4420756580593963E+00
N    9.7282463559563865E+00   -3.6009442373050482E-02    1.0436258669210446E+01
Ga    9.7238435370570695E+00    1.8339754511800228E+00    1.1027181184482624E+01
N    9.7244962955472172E+00    1.8330218595011876E+00    1.3000409725079104E+01
Ga    9.7266185717322386E+00   -3.6983330772540880E-02    1.3621670959805110E+01
N    9.7257543048412298E+00   -4.4558513319435484E-03    1.5584790726017541E+01
Ga    9.7247093375961917E+00    1.8329781380924508E+00    1.5862217398856801E+01
N    8.1545894160789540E+00    4.5635208639306368E+00    2.5128912448751834E+00
Ga    8.0609556903791972E+00    2.7862322908756325E+00    3.2564594261285476E+00
N    8.1215429624442912E+00    2.7566495426448148E+00    5.2437782115709561E+00
Ga    8.1354294084362220E+00    4.6355304187014328E+00    5.7625394361825242E+00
N    8.1234423544303294E+00    4.6263527464116105E+00    7.7795249389446308E+00
Ga    8.1063757795344458E+00    2.7717919710869507E+00    8.4263570294753620E+00
N    8.1068915709242688E+00    2.7686828564449728E+00    1.0426473709724577E+01
Ga    8.1287140277676215E+00    4.6258627027183685E+00    1.1066788975077515E+01
N    8.1477420348358738E+00    4.6357535858500203E+00    1.3063232796505938E+01
Ga    8.1052851294978439E+00    2.7674220371755403E+00    1.3620702512273523E+01
N    8.1316778346262755E+00    2.7509947208409447E+00    1.5583385490065508E+01
Ga    7.9593641683272187E+00    4.5271388496840359E+00    1.6480489852872903E+01
N    6.5032128366971680E+00    7.4094704865316068E+00    2.5867242041222824E+00
Ga    6.6591616910800386E+00    5.6023559841463584E+00    3.0908120335256073E+00
N    6.5092149112998001E+00    5.5326725665680927E+00    5.1345640180928482E+00
Ga    6.4985914730381680E+00    7.3737157861704210E+00    5.8204871953362973E+00
N    6.5080915778167121E+00    7.3943020653675635E+00    7.8153427398685960E+00
Ga    6.5090326591492653E+00    5.5332474885248377E+00    8.4210046219158343E+00
N    6.5081650038967327E+00    5.5341562102433608E+00    1.0421764243706873E+01
Ga    6.5078352498737067E+00    7.4021164932923007E+00    1.1022677109422224E+01
N    6.5085588098277940E+00    7.4021300975082625E+00    1.2996306588234294E+01
Ga    6.5094447248715950E+00    5.5334204762925641E+00    1.3620850024971141E+01
N    6.5089591364617894E+00    5.5648850452483432E+00    1.5584461543668661E+01
Ga    6.5089414101648106E+00    7.4027531824753403E+00    1.5863690508420239E+01
N    4.7946439960831437E+00    1.0146584444500840E+01    2.5078663607811529E+00
Ga    4.9755822469193571E+00    8.2886450433766861E+00    3.2420290869516606E+00
N    4.9001492446777037E+00    8.3331436542719715E+00    5.2288151107754217E+00
Ga    4.9259014280538320E+00    1.0206922572060831E+01    5.7707504311601436E+00
N    4.9095097060301018E+00    1.0195658098652720E+01    7.7807767344232577E+00
Ga    4.9004504019029289E+00    8.3378317307378591E+00    8.4205218462817886E+00
N    4.8935024139835113E+00    8.3387418862371625E+00    1.0421279054980950E+01
Ga    4.9175961051954316E+00    1.0194934009083756E+01    1.1068862939000182E+01
N    4.9334074863962813E+00    1.0205496933034103E+01    1.3064393224845951E+01
Ga    4.8910672820647898E+00    8.3369204025560428E+00    1.3621514274652750E+01
N    4.9167442178803134E+00    8.3205546153630383E+00    1.5583389459487739E+01
Ga    4.7424483799349524E+00    1.0096821957461495E+01    1.6481482204927392E+01
O   -5.6365731968295038E-03    4.0917173389759514E+00   -4.0853888026951990E-01
H   -1.4547787688579653E-01    5.9081303739881648E+00   -3.6762920941281779E-01
C    1.0649174056861914E+00    3.6018734819841085E+00   -1.2336883239075371E+00
H    2.0447059368527087E+00    4.0001065003844554E+00   -9.2019942745692052E-01
H    1.1191378696560501E+00    2.5023575717236346E+00   -1.2216323310339732E+00
H    8.7193449121328237E-01    3.9284153384262308E+00   -2.2656457688666674E+00
Ga    3.1371789550324487E+00    5.6410544324155882E+00    2.9962430983021133E+00
O   -1.6971566654004186E-01    6.8882022308289947E+00   -1.9779347107197690E-01
H    4.7479511919129615E-02    7.3422877818917955E+00    1.6978605178214150E+00
H    5.5810120462007695E-01    7.2476186061990919E+00   -7.2814812534007345E-01
Ga    9.1990991098796382E+00    2.4664353953366391E+00    6.7435143056384750E-01
C    4.9252218543762387E+00    4.3440348294770494E+00    1.1314289987812935E+00
H    5.8873232471069770E+00    4.0472525034135129E+00    6.8962656675750078E-01
H    4.0146268064888169E+00    4.1625528411888606E+00    5.4332568871833675E-01
     &END COORD
     &KIND C
       BASIS_SET DZVP-MOLOPT-SR-GTH-q4
       POTENTIAL GTH-PBE-q4
       &POTENTIAL
 2 2
  0.3384712400000000E+00 2 -0.8803673979999999E+01  0.1339210850000000E+01
 2
  0.3025757500000000E+00 1  0.9622486650000001E+01
  0.2915069400000000E+00 0
         # Potential name:  GTH-PBE-Q4  for symbol:  C
         # Potential read from the potential filename: GTH_POTENTIALS
       &END POTENTIAL
     &END KIND
     &KIND O
       BASIS_SET DZVP-MOLOPT-SR-GTH-q6
       POTENTIAL GTH-PBE-q6
       &POTENTIAL
 2 4
  0.2445543000000000E+00 2 -0.1666721480000000E+02  0.2487311320000000E+01
 2
  0.2209559200000000E+00 1  0.1833745811000000E+02
  0.2113324700000000E+00 0
         # Potential name:  GTH-PBE-Q6  for symbol:  O
         # Potential read from the potential filename: GTH_POTENTIALS
       &END POTENTIAL
     &END KIND
     &KIND H
       BASIS_SET DZVP-MOLOPT-SR-GTH-q1
       POTENTIAL GTH-PBE-q1
       &POTENTIAL
 1
  0.2000000000000000E+00 2 -0.4178900440000000E+01  0.7244633100000000E+00
 0
         # Potential name:  GTH-PBE-Q1  for symbol:  H
         # Potential read from the potential filename: GTH_POTENTIALS
       &END POTENTIAL
     &END KIND
     &KIND N
       BASIS_SET DZVP-MOLOPT-SR-GTH
       POTENTIAL GTH-PBE-q5
       &POTENTIAL
 2 3
  0.2837905100000000E+00 2 -0.1241522559000000E+02  0.1868095920000000E+01
 2
  0.2554050000000000E+00 1  0.1363026257000000E+02
  0.2454945300000000E+00 0
         # Potential name:  GTH-PBE-Q5  for symbol:  N
         # Potential read from the potential filename: GTH_POTENTIALS
       &END POTENTIAL
     &END KIND
     &KIND Ga
       BASIS_SET DZVP-MOLOPT-SR-GTH
       POTENTIAL GTH-PBE-q13
       &POTENTIAL
 2 1 10
  0.4900000000000000E+00 0
 3
  0.4167772300000000E+00 3  0.1047568975000000E+02 -0.4921768140000000E+01  0.8707055900000000E+00
  0.7770178090000000E+01 -0.2248152160000000E+01
  0.1784415450000000E+01
  0.5696265200000000E+00 2  0.1777985340000000E+01  0.1958597600000000E+00
 -0.2317443900000000E+00
  0.2381265000000000E+00 1 -0.1624868022000000E+02
         # Potential name:  GTH-PBE-Q13  for symbol:  GA
         # Potential read from the potential filename: GTH_POTENTIALS
       &END POTENTIAL
     &END KIND
     &TOPOLOGY
       NUMBER_OF_ATOMS  212
       MULTIPLE_UNIT_CELL  1 1 1
     &END TOPOLOGY
   &END SUBSYS
 &END FORCE_EVAL
