 # Version information for this restart file 
 # current date 2019-07-22 04:30:27.616
 # current working dir /lustre04/scratch/rzk/rzk/GaN-carbene/443-adatoms-both-2x2/11-CH3O-HO-H2C-H-H/02-UseIntermediate-0904
 # Program compiled at                              Sun Apr  7 00:48:11 EDT 2019
 # Program compiled on                          beluga2.int.ets1.calculquebec.ca
 # Program compiled for                        Beluga-Linux-x86-64-intel-openmpi
 # Source code revision number                                         svn:18619
 &GLOBAL
   PRINT_LEVEL  MEDIUM
   PROJECT_NAME TEST
   RUN_TYPE  GEO_OPT
 &END GLOBAL
 &MOTION
   &GEO_OPT
     MAX_ITER  500
     STEP_START_VAL  89
   &END GEO_OPT
 &END MOTION
 &FORCE_EVAL
   METHOD  QS
   STRESS_TENSOR  ANALYTICAL
   &DFT
     BASIS_SET_FILE_NAME BASIS_MOLOPT
     POTENTIAL_FILE_NAME GTH_POTENTIALS
     UKS  T
     SURFACE_DIPOLE_CORRECTION  T
     SURF_DIP_DIR  Z
     &SCF
       MAX_SCF  80
       EPS_SCF     5.0000000000000004E-06
       &OT  T
         PRECONDITIONER  FULL_ALL
       &END OT
       &OUTER_SCF  T
         OPTIMIZER  NONE
         EPS_SCF     5.0000000000000004E-06
         MAX_SCF  4
       &END OUTER_SCF
       &PRINT
         &RESTART  OFF
           BACKUP_COPIES  1
           &EACH
             JUST_ENERGY  0
             QS_SCF  0
             MD  20
           &END EACH
         &END RESTART
       &END PRINT
     &END SCF
     &QS
       EPS_DEFAULT     1.0000000000000000E-14
       METHOD  GPW
     &END QS
     &MGRID
       NGRIDS  5
       CUTOFF     1.2000000000000000E+03
     &END MGRID
     &XC
       DENSITY_CUTOFF     1.0000000000000000E-10
       GRADIENT_CUTOFF     1.0000000000000000E-10
       TAU_CUTOFF     1.0000000000000000E-10
       &XC_FUNCTIONAL  NO_SHORTCUT
         &PBE  T
         &END PBE
       &END XC_FUNCTIONAL
       &VDW_POTENTIAL
         POTENTIAL_TYPE  PAIR_POTENTIAL
         &PAIR_POTENTIAL
           R_CUTOFF     1.0000000000000004E+01
           TYPE  DFTD3
           PARAMETER_FILE_NAME dftd3.dat
           REFERENCE_FUNCTIONAL PBE
           EPS_CN     9.9999999999999995E-07
           CALCULATE_C9_TERM  T
           REFERENCE_C9_TERM  T
           LONG_RANGE_CORRECTION  F
           VERBOSE_OUTPUT  F
         &END PAIR_POTENTIAL
       &END VDW_POTENTIAL
     &END XC
   &END DFT
   &SUBSYS
     &CELL
       A     1.2864472766435110E+01    0.0000000000000000E+00    0.0000000000000000E+00
       B    -6.4322363581020028E+00    1.1140960178524473E+01    0.0000000000000000E+00
       C     0.0000000000000000E+00    0.0000000000000000E+00    3.2000000000000000E+01
       MULTIPLE_UNIT_CELL  1 1 1
       &CELL_REF
         A     1.2982353780853531E+01    0.0000000000000000E+00    0.0000000000000000E+00
         B    -6.4911768904267628E+00    1.1243048175136114E+01    0.0000000000000000E+00
         C     0.0000000000000000E+00    0.0000000000000000E+00    3.2000000000000000E+01
         MULTIPLE_UNIT_CELL  1 1 1
       &END CELL_REF
     &END CELL
     &COORD
N    7.5319051857237654E-02    1.9912743690843138E+00    2.5009995482547880E+00
Ga    5.2256282248484123E-02    7.2217458981606863E-03    2.8242656766794267E+00
N    8.3337211707686779E-02   -1.7388718251346996E-02    5.0124683030397197E+00
Ga    7.7473030558212461E-02    1.8008778053900023E+00    5.7998137761986435E+00
N    7.7404211360488515E-02    1.8223609549751207E+00    7.7996784666861387E+00
Ga    7.2985692013535997E-02   -2.5151446980253182E-02    8.4395023226799690E+00
N    7.6192999905226239E-02   -2.4666675906375449E-02    1.0417053199638431E+01
Ga    7.8097637792822791E-02    1.8134140952710192E+00    1.1071024960022264E+01
N    7.7683765659977144E-02    1.7952180371851796E+00    1.3065907209811341E+01
Ga    7.7082591505853656E-02   -2.4674162288386710E-02    1.3867068136079292E+01
N    7.6298808116991579E-02   -2.3093688154775631E-02    1.6070953071277049E+01
Ga    7.6445445158672090E-02    2.0206113709103928E+00    1.6481000150220879E+01
Ga    6.5946901230951330E-02    3.7201487992185993E+00    1.3953699488364446E+00
N   -1.4025219859942326E+00    4.5575519776112587E+00    2.5394643308303237E+00
Ga   -1.5947708607044062E+00    2.7371010585632276E+00    3.3033937518111967E+00
N   -1.5403575359290638E+00    2.7573386475397355E+00    5.2572689095102936E+00
Ga   -1.5602490778002420E+00    4.6276404436259080E+00    5.8415531927382096E+00
N   -1.5361439047925547E+00    4.6194086777649748E+00    7.8268084345014328E+00
Ga   -1.5223889271803333E+00    2.7595098705603949E+00    8.4464712889396729E+00
N   -1.5192186849878906E+00    2.7654541791591316E+00    1.0439210269380695E+01
Ga   -1.5481946649374874E+00    4.6249106793686350E+00    1.1074084762757021E+01
N   -1.5633755796539437E+00    4.6357105199922701E+00    1.3068769958672467E+01
Ga   -1.5201047619641856E+00    2.7659879992130931E+00    1.3621239727539052E+01
N   -1.5462378953336735E+00    2.7499933325655879E+00    1.5584256746154100E+01
Ga   -1.3750962270162064E+00    4.5268979199666735E+00    1.6480082366475148E+01
N    7.6363351796431556E-02    3.6973984634637569E+00    1.7613520942468803E+01
N   -3.1241868699664472E+00    7.5278708571748965E+00    2.5630523507478160E+00
Ga   -3.1127845542649237E+00    5.5196267841463644E+00    2.9258359583979767E+00
N   -3.1101569097567672E+00    5.5628575318911508E+00    5.0819659467693850E+00
Ga   -3.1450863627190628E+00    7.3714930335791546E+00    5.8378582444442095E+00
N   -3.1389218748334207E+00    7.3969831237034827E+00    7.8230876061232451E+00
Ga   -3.1473356566089241E+00    5.5422444055969962E+00    8.4472044659102945E+00
N   -3.1409069547512805E+00    5.5450118251578013E+00    1.0423175413976074E+01
Ga   -3.1446976796154509E+00    7.3846318336446073E+00    1.1071808233277691E+01
N   -3.1409195518404709E+00    7.3661607203177129E+00    1.3066582182538719E+01
Ga   -3.1408563911539269E+00    5.5460630010024268E+00    1.3867077903680558E+01
N   -3.1402419877441505E+00    5.5474177368721609E+00    1.6071134004317191E+01
Ga   -3.1402185146613633E+00    7.5914058854038000E+00    1.6481135850484964E+01
Ga   -3.1332959666512630E+00    9.2397907528733398E+00    1.5384960170667379E+00
N   -4.6449581635527677E+00    1.0128415378723828E+01    2.5153597167047734E+00
Ga   -4.8628587799382199E+00    8.2698980072151009E+00    3.2930487576671328E+00
N   -4.7446651397559858E+00    8.3297511157695325E+00    5.2533874063844292E+00
Ga   -4.7803213886805747E+00    1.0203266303557042E+01    5.8016528293530776E+00
N   -4.7579970045481232E+00    1.0194119032710514E+01    7.7986104497334114E+00
Ga   -4.7495923854036519E+00    8.3343921847158597E+00    8.4313631513700003E+00
N   -4.7400746559191305E+00    8.3378459067907436E+00    1.0428857502745103E+01
Ga   -4.7643673350263258E+00    1.0195987251174980E+01    1.1069039344865017E+01
N   -4.7791852956633862E+00    1.0205922894535398E+01    1.3064985159577983E+01
Ga   -4.7377023355366328E+00    8.3369154807059314E+00    1.3620962005605879E+01
N   -4.7629980770085769E+00    8.3212877058126811E+00    1.5583956097722867E+01
Ga   -4.5916680432790988E+00    1.0097967712597043E+01    1.6480331372516169E+01
N   -3.1406683890580180E+00    9.2688627781841291E+00    1.7614659338173382E+01
N    3.2866364482151540E+00    1.8451749643984392E+00    2.5971699837600188E+00
Ga    3.2677836408552468E+00    8.4120048903897585E-02    3.2918885637726811E+00
N    3.2936193663118383E+00   -2.4906781438820573E-02    5.2549664117212975E+00
Ga    3.2982866046052894E+00    1.8426540402772467E+00    5.8631180989712233E+00
N    3.2982123120175695E+00    1.8336471878312424E+00    7.8411280572433935E+00
Ga    3.2875420603068863E+00   -3.1451520456936152E-02    8.4452763121324033E+00
N    3.2910682928222816E+00   -3.4711243619519924E-02    1.0437764238086478E+01
Ga    3.2949980859257773E+00    1.8348405262560865E+00    1.1028443785335526E+01
N    3.2938722711431012E+00    1.8330438309893557E+00    1.3000901460614697E+01
Ga    3.2922167146210950E+00   -3.6897257184974067E-02    1.3622033439067069E+01
N    3.2918246632229820E+00   -5.2899127619477522E-03    1.5586050592067236E+01
Ga    3.2933201836867618E+00    1.8328469647333760E+00    1.5862912901888706E+01
N    1.5554299466406030E+00    4.5638490840010082E+00    2.5511441994227013E+00
Ga    1.7679992687584238E+00    2.7323156089331255E+00    3.2876276528299493E+00
N    1.6881309316431823E+00    2.7617975012628002E+00    5.2590203687983177E+00
Ga    1.7111756798962381E+00    4.6220925146417775E+00    5.8342260847057821E+00
N    1.6956163801863193E+00    4.6224643326560280E+00    7.8181533854430221E+00
Ga    1.6781682124441659E+00    2.7610294829341115E+00    8.4401253768957716E+00
N    1.6754080135780607E+00    2.7655325548926530E+00    1.0434021383193208E+01
Ga    1.7053347658170444E+00    4.6248090399918782E+00    1.1071573029711189E+01
N    1.7188773067956085E+00    4.6355130813703633E+00    1.3066733490437374E+01
Ga    1.6743950589572751E+00    2.7665193023769810E+00    1.3622136866289122E+01
N    1.6998404721311140E+00    2.7500531123838794E+00    1.5584848799741152E+01
Ga    1.5280504755930449E+00    4.5269051543241554E+00    1.6480555069666874E+01
N    8.3489269735558105E-02    7.3961513388751792E+00    2.7339864405824468E+00
Ga    6.3914219871004596E-02    5.5555871077809034E+00    3.3697697160266986E+00
N    7.8759167653372292E-02    5.5599412542866542E+00    5.3019949456232967E+00
Ga    8.5956352909901529E-02    7.4048380947775350E+00    5.9340779428455717E+00
N    7.8687156719632959E-02    7.4051291120249889E+00    7.8897978554272798E+00
Ga    7.9209425662782315E-02    5.5313175486457986E+00    8.4630707310172451E+00
N    7.8725889975926430E-02    5.5334044235184612E+00    1.0450130402676598E+01
Ga    7.9099646272804858E-02    7.4036837096122765E+00    1.1038773406780482E+01
N    7.7627615318049362E-02    7.4031616822913877E+00    1.3009057849919197E+01
Ga    7.7832567673053424E-02    5.5313414854685741E+00    1.3623065950281143E+01
N    7.6897656852873780E-02    5.5645650506945170E+00    1.5587003911390571E+01
Ga    7.6988192525557830E-02    7.4031830682567783E+00    1.5861237316604621E+01
N   -1.6407191396868666E+00    1.0106781384594225E+01    2.5569402133716594E+00
Ga   -1.4928262853163199E+00    8.3050835988143277E+00    3.3759653047516349E+00
N   -1.5187448278191535E+00    8.3237158968562746E+00    5.2976890996414694E+00
Ga   -1.5096111719621648E+00    1.0204972868628476E+01    5.8440225687014733E+00
N   -1.5276420174904450E+00    1.0190514490456277E+01    7.8279301588197301E+00
Ga   -1.5451082295740417E+00    8.3380102194034968E+00    8.4675358242608567E+00
N   -1.5423270701650134E+00    8.3376783034354691E+00    1.0452963776192695E+01
Ga   -1.5164919076413668E+00    1.0200579091094244E+01    1.1075061009357723E+01
N   -1.4995191501352549E+00    1.0207693169769492E+01    1.3069225598157294E+01
Ga   -1.5441030639700803E+00    8.3378988860108514E+00    1.3622641635357791E+01
N   -1.5169652820681352E+00    8.3208219531086485E+00    1.5585657308928194E+01
Ga   -1.6887492224707448E+00    1.0098011903159758E+01    1.6480295281532140E+01
N    6.5564347991073131E+00    1.8161862621198106E+00    2.5402940770659228E+00
Ga    6.5465672787527032E+00   -5.2977641928986394E-02    2.9285977734548849E+00
N    6.5038672673684532E+00   -5.7965415509603817E-02    5.0945532319334541E+00
Ga    6.5212850057914507E+00    1.7983024479754783E+00    5.7962043691195602E+00
N    6.5070599219468548E+00    1.8214311122940456E+00    7.7968554586857399E+00
Ga    6.5121207002518489E+00   -2.1807320533315997E-02    8.4494681945757879E+00
N    6.5105086619448587E+00   -2.3864662467026877E-02    1.0424378141350919E+01
Ga    6.5103745141846376E+00    1.8184612032136247E+00    1.1065933220937971E+01
N    6.5092208428511604E+00    1.7966549265071110E+00    1.3062277164308222E+01
Ga    6.5095722402518890E+00   -2.2391389687742055E-02    1.3867864225002451E+01
N    6.5090145877652432E+00   -2.2351359646707727E-02    1.6071347125619752E+01
Ga    6.5088857749354734E+00    2.0223361249853711E+00    1.6481851311992710E+01
N    4.8740887981007672E+00    4.8521026825510569E+00    2.3151521410450409E+00
Ga    4.9355124855472816E+00    2.4176909875509662E+00    3.2343762954848265E+00
N    4.9085533230581335E+00    2.7551747937893150E+00    5.1874686055483963E+00
Ga    4.9012905361476742E+00    4.6278018410257049E+00    5.7496225015137323E+00
N    4.8959624847403838E+00    4.6196490136490684E+00    7.7626672185092431E+00
Ga    4.9134750348455185E+00    2.7701309808974726E+00    8.4300134116468293E+00
N    4.9120260111598553E+00    2.7692788016821672E+00    1.0427127342215257E+01
Ga    4.8896101249060617E+00    4.6265894964223362E+00    1.1067618749941609E+01
N    4.8707252613650507E+00    4.6355811740220130E+00    1.3063280837472758E+01
Ga    4.9133367983100644E+00    2.7670079301096204E+00    1.3620837935226104E+01
N    4.8859933371153632E+00    2.7504360441139140E+00    1.5583150531591549E+01
Ga    5.0584367051122543E+00    4.5267715442399776E+00    1.6480696251171867E+01
N    6.5086199630180142E+00    3.6985059165115604E+00    1.7614876160759216E+01
N    3.2661864686289004E+00    7.5454242016974185E+00    2.5450539910242727E+00
N    3.2793730919788051E+00    5.5514016828664623E+00    5.0526604134401811E+00
Ga    3.3028705820990019E+00    7.3862884797760975E+00    5.8123071745760440E+00
N    3.2936395425180161E+00    7.3930899843291691E+00    7.8028212015739840E+00
Ga    3.3054708063211984E+00    5.5428678132408749E+00    8.4385687975086245E+00
N    3.2975982701855804E+00    5.5452801378325800E+00    1.0415592993204271E+01
Ga    3.3002551745991147E+00    7.3849424956804812E+00    1.1068017438818146E+01
N    3.2953097494412034E+00    7.3657006084335519E+00    1.3063535933051492E+01
Ga    3.2951940302158813E+00    5.5462618039226630E+00    1.3866988169459486E+01
N    3.2934094594756016E+00    5.5476993811784228E+00    1.6071034879252672E+01
Ga    3.2933244923914313E+00    7.5924385931904972E+00    1.6482251396893606E+01
Ga    3.3027777536030105E+00    9.2541996578507408E+00    1.2652332990365485E+00
N    1.7842706614856723E+00    1.0125305692584927E+01    2.5190609808030486E+00
Ga    1.6750556790333222E+00    8.3565734762787969E+00    3.3248103446547783E+00
N    1.6729652270460309E+00    8.3263215468057155E+00    5.2712769078972297E+00
Ga    1.6688503371660774E+00    1.0206877153652854E+01    5.8244755349361181E+00
N    1.6842902467025205E+00    1.0191433656667430E+01    7.8160463663163924E+00
Ga    1.7035327105976266E+00    8.3390395674572275E+00    8.4593371826285502E+00
N    1.6990662508016592E+00    8.3377923519987576E+00    1.0446885898082590E+01
Ga    1.6726043171637686E+00    1.0199689742313964E+01    1.1074073610450791E+01
N    1.6539320577961649E+00    1.0207052759253587E+01    1.3068404649364968E+01
Ga    1.6989895219394131E+00    8.3375221469302332E+00    1.3622417119245807E+01
N    1.6706476015429865E+00    8.3207326813557145E+00    1.5584885201766346E+01
Ga    1.8423984200768992E+00    1.0097557174487562E+01    1.6480960121442216E+01
N    3.2934342373417937E+00    9.2690887473400956E+00    1.7615488390017731E+01
N    9.6937647095915516E+00    1.8766302581570260E+00    2.5867461638235709E+00
Ga    9.7134175652640895E+00    5.5607911633420243E-02    3.2440279120309561E+00
N    9.7210065101927867E+00   -9.4053282204297050E-03    5.2194003700142577E+00
Ga    9.7137691339593850E+00    1.8354443942127792E+00    5.8707025648683695E+00
N    9.7248008295934145E+00    1.8314758356235405E+00    7.8499729392984321E+00
Ga    9.7326707763695026E+00   -3.3411262538881832E-02    8.4422228502281573E+00
N    9.7282284415995690E+00   -3.6144448663660789E-02    1.0436413988136644E+01
Ga    9.7238730080824922E+00    1.8340233673498163E+00    1.1026979041085003E+01
N    9.7244689522816401E+00    1.8328151584619268E+00    1.3000354525944289E+01
Ga    9.7264985325159312E+00   -3.6941888028168862E-02    1.3621573157561333E+01
N    9.7258159854881967E+00   -5.2611894826234719E-03    1.5585528253281396E+01
Ga    9.7247020065738390E+00    1.8328770069365792E+00    1.5862466567626102E+01
N    8.1544655851011623E+00    4.5633992915546981E+00    2.5122838199356607E+00
Ga    8.0607946553608691E+00    2.7865415023163234E+00    3.2562378975398985E+00
N    8.1213017968138708E+00    2.7562448621537916E+00    5.2442617847901385E+00
Ga    8.1351909623777736E+00    4.6355360638355041E+00    5.7625330295233059E+00
N    8.1234407982743964E+00    4.6264313987433221E+00    7.7798215348040332E+00
Ga    8.1064113796397717E+00    2.7718454007062574E+00    8.4262142715358213E+00
N    8.1068018604663550E+00    2.7686445134329407E+00    1.0426498165005317E+01
Ga    8.1287295626341027E+00    4.6258643236825421E+00    1.1066483099277416E+01
N    8.1475732996025112E+00    4.6358293580582641E+00    1.3063107219645719E+01
Ga    8.1052562477181400E+00    2.7674084841025288E+00    1.3620432325664867E+01
N    8.1318598288570207E+00    2.7505950139804791E+00    1.5583102453599436E+01
Ga    7.9588164910635388E+00    4.5266091654452909E+00    1.6480850072730622E+01
N    6.5036183575596569E+00    7.4091719133999527E+00    2.5862747058266260E+00
Ga    6.6600589278293603E+00    5.6026388255058750E+00    3.0911273796724696E+00
N    6.5089411686408702E+00    5.5325886928312729E+00    5.1349958403852423E+00
Ga    6.4987741520590783E+00    7.3736849351232276E+00    5.8203242184050596E+00
N    6.5078316728800738E+00    7.3943756491276087E+00    7.8154930983395943E+00
Ga    6.5089463454005081E+00    5.5333546000773115E+00    8.4209557452229742E+00
N    6.5080389966391099E+00    5.5342483783269367E+00    1.0421874602755825E+01
Ga    6.5078823787464168E+00    7.4021108333793357E+00    1.1022682349491790E+01
N    6.5086132079537409E+00    7.4023434741576892E+00    1.2996687047527589E+01
Ga    6.5093911032503140E+00    5.5333861138870795E+00    1.3620754038409334E+01
N    6.5089399288396157E+00    5.5653141154543979E+00    1.5584358809415212E+01
Ga    6.5089439921712042E+00    7.4028116095725860E+00    1.5863408661335853E+01
N    4.7951763488922854E+00    1.0146573830472143E+01    2.5078131812539048E+00
Ga    4.9764060673307382E+00    8.2884940137410137E+00    3.2419802818741990E+00
N    4.8999783381539448E+00    8.3333171583441494E+00    5.2291998039391716E+00
Ga    4.9262339186646251E+00    1.0207077942784865E+01    5.7710548666800969E+00
N    4.9095698603056661E+00    1.0195540336057752E+01    7.7811322056038836E+00
Ga    4.9003885715801356E+00    8.3376517814070041E+00    8.4205684423928844E+00
N    4.8934259563021634E+00    8.3386736940959150E+00    1.0421451050653646E+01
Ga    4.9176877859879546E+00    1.0195004261130334E+01    1.1068638995033668E+01
N    4.9333825049456426E+00    1.0205430551341474E+01    1.3064585925759770E+01
Ga    4.8910434250214889E+00    8.3368846323253543E+00    1.3621412426712169E+01
N    4.9163687159139595E+00    8.3209918090678254E+00    1.5583866060779583E+01
Ga    4.7434755168879610E+00    1.0097323499750848E+01    1.6481186201960512E+01
O   -5.8287873455933102E-03    4.0917518735928198E+00   -4.0888654517327516E-01
H   -1.4561390972801225E-01    5.9080905023723913E+00   -3.6744780333983124E-01
C    1.0650446302177270E+00    3.6018513057068726E+00   -1.2336277898285415E+00
H    2.0447789370922469E+00    4.0000359176770672E+00   -9.1986738079604347E-01
H    1.1185943185781912E+00    2.5023315512674427E+00   -1.2215940510780863E+00
H    8.7203817070867462E-01    3.9282690635671353E+00   -2.2657667981580660E+00
Ga    3.1372198806136566E+00    5.6409992173071926E+00    2.9963278259881290E+00
O   -1.6980183377228703E-01    6.8882446174851504E+00   -1.9751781705420721E-01
H    4.7588057889562059E-02    7.3423122203059394E+00    1.6973398985722947E+00
H    5.5804946396350918E-01    7.2476410662488924E+00   -7.2797172575118096E-01
Ga    9.2007562501945888E+00    2.4666509621288499E+00    6.7363326226471976E-01
C    4.9254013841126794E+00    4.3439081088447224E+00    1.1316335931839714E+00
H    5.8875859977680474E+00    4.0474904059807484E+00    6.9009495269123744E-01
H    4.0150535985317664E+00    4.1612345668160522E+00    5.4316002918059325E-01
     &END COORD
     &KIND C
       BASIS_SET DZVP-MOLOPT-SR-GTH-q4
       POTENTIAL GTH-PBE-q4
       &POTENTIAL
 2 2
  0.3384712400000000E+00 2 -0.8803673979999999E+01  0.1339210850000000E+01
 2
  0.3025757500000000E+00 1  0.9622486650000001E+01
  0.2915069400000000E+00 0
         # Potential name:  GTH-PBE-Q4  for symbol:  C
         # Potential read from the potential filename: GTH_POTENTIALS
       &END POTENTIAL
     &END KIND
     &KIND O
       BASIS_SET DZVP-MOLOPT-SR-GTH-q6
       POTENTIAL GTH-PBE-q6
       &POTENTIAL
 2 4
  0.2445543000000000E+00 2 -0.1666721480000000E+02  0.2487311320000000E+01
 2
  0.2209559200000000E+00 1  0.1833745811000000E+02
  0.2113324700000000E+00 0
         # Potential name:  GTH-PBE-Q6  for symbol:  O
         # Potential read from the potential filename: GTH_POTENTIALS
       &END POTENTIAL
     &END KIND
     &KIND H
       BASIS_SET DZVP-MOLOPT-SR-GTH-q1
       POTENTIAL GTH-PBE-q1
       &POTENTIAL
 1
  0.2000000000000000E+00 2 -0.4178900440000000E+01  0.7244633100000000E+00
 0
         # Potential name:  GTH-PBE-Q1  for symbol:  H
         # Potential read from the potential filename: GTH_POTENTIALS
       &END POTENTIAL
     &END KIND
     &KIND N
       BASIS_SET DZVP-MOLOPT-SR-GTH
       POTENTIAL GTH-PBE-q5
       &POTENTIAL
 2 3
  0.2837905100000000E+00 2 -0.1241522559000000E+02  0.1868095920000000E+01
 2
  0.2554050000000000E+00 1  0.1363026257000000E+02
  0.2454945300000000E+00 0
         # Potential name:  GTH-PBE-Q5  for symbol:  N
         # Potential read from the potential filename: GTH_POTENTIALS
       &END POTENTIAL
     &END KIND
     &KIND Ga
       BASIS_SET DZVP-MOLOPT-SR-GTH
       POTENTIAL GTH-PBE-q13
       &POTENTIAL
 2 1 10
  0.4900000000000000E+00 0
 3
  0.4167772300000000E+00 3  0.1047568975000000E+02 -0.4921768140000000E+01  0.8707055900000000E+00
  0.7770178090000000E+01 -0.2248152160000000E+01
  0.1784415450000000E+01
  0.5696265200000000E+00 2  0.1777985340000000E+01  0.1958597600000000E+00
 -0.2317443900000000E+00
  0.2381265000000000E+00 1 -0.1624868022000000E+02
         # Potential name:  GTH-PBE-Q13  for symbol:  GA
         # Potential read from the potential filename: GTH_POTENTIALS
       &END POTENTIAL
     &END KIND
     &TOPOLOGY
       NUMBER_OF_ATOMS  212
       MULTIPLE_UNIT_CELL  1 1 1
     &END TOPOLOGY
   &END SUBSYS
 &END FORCE_EVAL
