 # Version information for this restart file 
 # current date 2019-07-22 04:27:58.137
 # current working dir /lustre04/scratch/rzk/rzk/GaN-carbene/443-adatoms-both-2x2/11-CH3O-HO-H2C-H-H/02-UseIntermediate-0904
 # Program compiled at                              Sun Apr  7 00:48:11 EDT 2019
 # Program compiled on                          beluga2.int.ets1.calculquebec.ca
 # Program compiled for                        Beluga-Linux-x86-64-intel-openmpi
 # Source code revision number                                         svn:18619
 &GLOBAL
   PRINT_LEVEL  MEDIUM
   PROJECT_NAME TEST
   RUN_TYPE  GEO_OPT
 &END GLOBAL
 &MOTION
   &GEO_OPT
     MAX_ITER  500
     STEP_START_VAL  88
   &END GEO_OPT
 &END MOTION
 &FORCE_EVAL
   METHOD  QS
   STRESS_TENSOR  ANALYTICAL
   &DFT
     BASIS_SET_FILE_NAME BASIS_MOLOPT
     POTENTIAL_FILE_NAME GTH_POTENTIALS
     UKS  T
     SURFACE_DIPOLE_CORRECTION  T
     SURF_DIP_DIR  Z
     &SCF
       MAX_SCF  80
       EPS_SCF     5.0000000000000004E-06
       &OT  T
         PRECONDITIONER  FULL_ALL
       &END OT
       &OUTER_SCF  T
         OPTIMIZER  NONE
         EPS_SCF     5.0000000000000004E-06
         MAX_SCF  4
       &END OUTER_SCF
       &PRINT
         &RESTART  OFF
           BACKUP_COPIES  1
           &EACH
             JUST_ENERGY  0
             QS_SCF  0
             MD  20
           &END EACH
         &END RESTART
       &END PRINT
     &END SCF
     &QS
       EPS_DEFAULT     1.0000000000000000E-14
       METHOD  GPW
     &END QS
     &MGRID
       NGRIDS  5
       CUTOFF     1.2000000000000000E+03
     &END MGRID
     &XC
       DENSITY_CUTOFF     1.0000000000000000E-10
       GRADIENT_CUTOFF     1.0000000000000000E-10
       TAU_CUTOFF     1.0000000000000000E-10
       &XC_FUNCTIONAL  NO_SHORTCUT
         &PBE  T
         &END PBE
       &END XC_FUNCTIONAL
       &VDW_POTENTIAL
         POTENTIAL_TYPE  PAIR_POTENTIAL
         &PAIR_POTENTIAL
           R_CUTOFF     1.0000000000000004E+01
           TYPE  DFTD3
           PARAMETER_FILE_NAME dftd3.dat
           REFERENCE_FUNCTIONAL PBE
           EPS_CN     9.9999999999999995E-07
           CALCULATE_C9_TERM  T
           REFERENCE_C9_TERM  T
           LONG_RANGE_CORRECTION  F
           VERBOSE_OUTPUT  F
         &END PAIR_POTENTIAL
       &END VDW_POTENTIAL
     &END XC
   &END DFT
   &SUBSYS
     &CELL
       A     1.2864472766435110E+01    0.0000000000000000E+00    0.0000000000000000E+00
       B    -6.4322363581020028E+00    1.1140960178524473E+01    0.0000000000000000E+00
       C     0.0000000000000000E+00    0.0000000000000000E+00    3.2000000000000000E+01
       MULTIPLE_UNIT_CELL  1 1 1
       &CELL_REF
         A     1.2982353780853531E+01    0.0000000000000000E+00    0.0000000000000000E+00
         B    -6.4911768904267628E+00    1.1243048175136114E+01    0.0000000000000000E+00
         C     0.0000000000000000E+00    0.0000000000000000E+00    3.2000000000000000E+01
         MULTIPLE_UNIT_CELL  1 1 1
       &END CELL_REF
     &END CELL
     &COORD
N    7.5095689722677578E-02    1.9912480298833348E+00    2.5009837182356076E+00
Ga    5.1604970782497969E-02    7.1662636959047479E-03    2.8242590506250216E+00
N    8.3291046092978410E-02   -1.7479580994907908E-02    5.0123354614207472E+00
Ga    7.7204534815677725E-02    1.8008514303714471E+00    5.7996530676553295E+00
N    7.7365898414364906E-02    1.8223301367381775E+00    7.7994850422399953E+00
Ga    7.2945988757824043E-02   -2.5176527329744403E-02    8.4394463665754174E+00
N    7.6175958738559535E-02   -2.4655029341291278E-02    1.0416982945803664E+01
Ga    7.8049930098666093E-02    1.8133619005826260E+00    1.1071106377347299E+01
N    7.7662086377676798E-02    1.7952683541617007E+00    1.3065856169560917E+01
Ga    7.7020554693513460E-02   -2.4685900405725627E-02    1.3867215245667639E+01
N    7.6288851520754195E-02   -2.3195675825162458E-02    1.6070780185492811E+01
Ga    7.6447148726004693E-02    2.0202885009730669E+00    1.6481031928816126E+01
Ga    6.5860984333137168E-02    3.7201169587462877E+00    1.3954277848271823E+00
N   -1.4025039977416576E+00    4.5573837867552269E+00    2.5396428407556710E+00
Ga   -1.5950280103574568E+00    2.7370008088491042E+00    3.3032894276573237E+00
N   -1.5405973427650759E+00    2.7573375783638814E+00    5.2569730583667864E+00
Ga   -1.5603789937989136E+00    4.6274830699628335E+00    5.8415749742312242E+00
N   -1.5361961514354934E+00    4.6193758239789293E+00    7.8267023000466418E+00
Ga   -1.5223902684913548E+00    2.7594220208109812E+00    8.4464886526404843E+00
N   -1.5192432117956156E+00    2.7654354283990621E+00    1.0439176789471480E+01
Ga   -1.5482513303695113E+00    4.6248777843727016E+00    1.1074227607564470E+01
N   -1.5633893688828890E+00    4.6356386944097707E+00    1.3068799672518546E+01
Ga   -1.5200968895563258E+00    2.7659449517086121E+00    1.3621322907124519E+01
N   -1.5461243670629485E+00    2.7502934370196974E+00    1.5584349644083673E+01
Ga   -1.3753959207281377E+00    4.5272203186926641E+00    1.6480219217609772E+01
N    7.6375697728029282E-02    3.6974653283353356E+00    1.7614344467017304E+01
N   -3.1241547384871522E+00    7.5276961351202507E+00    2.5632854493500421E+00
Ga   -3.1125210774031555E+00    5.5193626659234551E+00    2.9260693385963932E+00
N   -3.1102794967627050E+00    5.5626905414319312E+00    5.0817198695970118E+00
Ga   -3.1450975218308104E+00    7.3712096738047839E+00    5.8378921393208190E+00
N   -3.1389007594807716E+00    7.3969128760675993E+00    7.8229989642725135E+00
Ga   -3.1473719921760224E+00    5.5421768838048626E+00    8.4473318591425102E+00
N   -3.1409333202230267E+00    5.5449584835658996E+00    1.0423201507285835E+01
Ga   -3.1447456469478472E+00    7.3846070468551614E+00    1.1071972379922796E+01
N   -3.1409456272413587E+00    7.3661113965151177E+00    1.3066595277740507E+01
Ga   -3.1408407313328008E+00    5.5460643834389778E+00    1.3867229610523603E+01
N   -3.1404202275136344E+00    5.5475196418964474E+00    1.6071138482799533E+01
Ga   -3.1402059690762534E+00    7.5919225130976651E+00    1.6481391987713241E+01
Ga   -3.1331710798849857E+00    9.2397548146937591E+00    1.5387511887538485E+00
N   -4.6452026512753095E+00    1.0128545227604803E+01    2.5153959757253781E+00
Ga   -4.8628470808750759E+00    8.2699177951943206E+00    3.2929525866105758E+00
N   -4.7446295624030039E+00    8.3295818348217718E+00    5.2531698207076767E+00
Ga   -4.7804443813499633E+00    1.0203235760985793E+01    5.8016286628837301E+00
N   -4.7579320526465754E+00    1.0194121274553657E+01    7.7984595652394155E+00
Ga   -4.7495455154636721E+00    8.3344144017536266E+00    8.4315206634147639E+00
N   -4.7400742999015124E+00    8.3378358744650267E+00    1.0428861446946788E+01
Ga   -4.7644197460763662E+00    1.0195962296759776E+01    1.1069131372844655E+01
N   -4.7792219786169721E+00    1.0205932730116047E+01    1.3064906871807102E+01
Ga   -4.7378722897630876E+00    8.3368705324459640E+00    1.3620981246793695E+01
N   -4.7632094706789285E+00    8.3211355627808494E+00    1.5583716769520636E+01
Ga   -4.5914615704901172E+00    1.0097743743759638E+01    1.6480622654197571E+01
N   -3.1407188562170161E+00    9.2689147354884955E+00    1.7614232136384764E+01
N    3.2865170836684778E+00    1.8453560703527085E+00    2.5969876302225581E+00
Ga    3.2678021372253081E+00    8.4187162927605641E-02    3.2916884252668304E+00
N    3.2936570267126624E+00   -2.4869797659192467E-02    5.2547504789523556E+00
Ga    3.2982391769209589E+00    1.8427723200603872E+00    5.8631122222429815E+00
N    3.2982566521191647E+00    1.8335911507270499E+00    7.8409807242978760E+00
Ga    3.2875604706547366E+00   -3.1444398712377121E-02    8.4453352088699098E+00
N    3.2910277539888009E+00   -3.4640138418101173E-02    1.0437719157509017E+01
Ga    3.2950505519643665E+00    1.8348818399696163E+00    1.1028485364507445E+01
N    3.2938941079702442E+00    1.8332507504061402E+00    1.3000885858844644E+01
Ga    3.2921640847336731E+00   -3.6838748398661546E-02    1.3622020646723083E+01
N    3.2918941250526617E+00   -5.0524410913569389E-03    1.5585873777298653E+01
Ga    3.2933650193297002E+00    1.8329113501975087E+00    1.5862990763295073E+01
N    1.5554641933869462E+00    4.5639010647324980E+00    2.5511253996038450E+00
Ga    1.7677771079709976E+00    2.7324116268864240E+00    3.2876086842125463E+00
N    1.6879993242349323E+00    2.7617440409255773E+00    5.2588565160239327E+00
Ga    1.7111244320725525E+00    4.6221535938342795E+00    5.8342171492843837E+00
N    1.6955221793158433E+00    4.6223809764897128E+00    7.8181023381826487E+00
Ga    1.6781524987016856E+00    2.7609071372805118E+00    8.4400440898344300E+00
N    1.6754063588347443E+00    2.7655114861236436E+00    1.0433908894475760E+01
Ga    1.7053756764497205E+00    4.6248475293373881E+00    1.1071667667497803E+01
N    1.7189181987057107E+00    4.6355169775365050E+00    1.3066760031013640E+01
Ga    1.6743586296358732E+00    2.7665525651713478E+00    1.3622117866413923E+01
N    1.6997558279838578E+00    2.7503158622582515E+00    1.5584868674294889E+01
Ga    1.5283342096147818E+00    4.5271964545394807E+00    1.6480734619721268E+01
N    8.3619730505084547E-02    7.3961141840438938E+00    2.7341394681804596E+00
Ga    6.3773834824897305E-02    5.5554634042157991E+00    3.3698108238530047E+00
N    7.8509790078423333E-02    5.5598378124902537E+00    5.3020273655511199E+00
Ga    8.6124512627358360E-02    7.4048004757514256E+00    5.9341223345816720E+00
N    7.8560860982576378E-02    7.4050990077564549E+00    7.8898354252274778E+00
Ga    7.9159124873479508E-02    5.5312636655462422E+00    8.4631839851933428E+00
N    7.8680372066163004E-02    5.5333528146533633E+00    1.0450114758926004E+01
Ga    7.9147918028717471E-02    7.4037173691775466E+00    1.1038892410442550E+01
N    7.7701120083461223E-02    7.4030673914403113E+00    1.3008956040851142E+01
Ga    7.7853769724077745E-02    5.5313810214757932E+00    1.3623039774367392E+01
N    7.6934480013233150E-02    5.5643265509033748E+00    1.5586980119417376E+01
Ga    7.7001466192958681E-02    7.4031745445536536E+00    1.5861389503589781E+01
N   -1.6405554506641296E+00    1.0106939869620872E+01    2.5570720858710052E+00
Ga   -1.4926531396822551E+00    8.3051640257267785E+00    3.3759592811390160E+00
N   -1.5188522027813625E+00    8.3236438586793184E+00    5.2976789770465231E+00
Ga   -1.5094594937760353E+00    1.0205020341079367E+01    5.8440790550827995E+00
N   -1.5276510665974654E+00    1.0190590470426962E+01    7.8278357682199307E+00
Ga   -1.5451738641071617E+00    8.3381166963493651E+00    8.4677083593433728E+00
N   -1.5423545721411549E+00    8.3376882331035631E+00    1.0453006108106983E+01
Ga   -1.5164937213797174E+00    1.0200621546452060E+01    1.1075186789441494E+01
N   -1.4995347055849508E+00    1.0207712416895527E+01    1.3069215338762248E+01
Ga   -1.5439930839823515E+00    8.3378387037654011E+00    1.3622645357085677E+01
N   -1.5167397553505564E+00    8.3207295341757188E+00    1.5585370013611941E+01
Ga   -1.6889710731588947E+00    1.0097759420962902E+01    1.6480594302985395E+01
N    6.5564169150420817E+00    1.8162982017432019E+00    2.5402886708032364E+00
Ga    6.5469477659835942E+00   -5.3129955575788430E-02    2.9288725760024148E+00
N    6.5038364050393485E+00   -5.7803993403562119E-02    5.0945499482645618E+00
Ga    6.5214925340329710E+00    1.7983918145219122E+00    5.7962256324456121E+00
N    6.5070695773684992E+00    1.8214959266616944E+00    7.7966950054001751E+00
Ga    6.5121142829597778E+00   -2.1718901414857321E-02    8.4494952495414015E+00
N    6.5105097595860828E+00   -2.3781420958202772E-02    1.0424345603552906E+01
Ga    6.5103825265441504E+00    1.8185111567117669E+00    1.1066106869949362E+01
N    6.5092376283514568E+00    1.7967314676219650E+00    1.3062335983406747E+01
Ga    6.5096327907570695E+00   -2.2392581009576348E-02    1.3868009229913842E+01
N    6.5090565554827258E+00   -2.2262372572023882E-02    1.6071321002063417E+01
Ga    6.5089286199352703E+00    2.0221572085902415E+00    1.6481744814682894E+01
N    4.8743429923767581E+00    4.8520211706751191E+00    2.3152451545740731E+00
Ga    4.9354024614948644E+00    2.4178176358049326E+00    3.2342829099257706E+00
N    4.9086030698897742E+00    2.7551060747575362E+00    5.1872288052219186E+00
Ga    4.9012484208106279E+00    4.6279190618267654E+00    5.7493787223807624E+00
N    4.8961128834253964E+00    4.6195315414645179E+00    7.7624649195159945E+00
Ga    4.9134928173934558E+00    2.7700570385773844E+00    8.4299872533421194E+00
N    4.9120370082468243E+00    2.7693116002462856E+00    1.0427036164927564E+01
Ga    4.8896648978793653E+00    4.6266130055915067E+00    1.1067803758373108E+01
N    4.8706744483445341E+00    4.6356038769193875E+00    1.3063377453913862E+01
Ga    4.9133961800285695E+00    2.7670930229694521E+00    1.3620875915764874E+01
N    4.8861375304640617E+00    2.7506482563096948E+00    1.5583211040530111E+01
Ga    5.0583458312626721E+00    4.5269862157362244E+00    1.6480759412380248E+01
N    6.5086207150421034E+00    3.6985638218603878E+00    1.7615291190864188E+01
N    3.2660771966211537E+00    7.5453037151893598E+00    2.5453790167472388E+00
N    3.2793188695819468E+00    5.5513135251941623E+00    5.0525297451322047E+00
Ga    3.3029056963109706E+00    7.3862865011095629E+00    5.8122681561914868E+00
N    3.2936715930619664E+00    7.3930712110001835E+00    7.8027880314245568E+00
Ga    3.3055384357084341E+00    5.5427906014741373E+00    8.4384756438793023E+00
N    3.2976608112871517E+00    5.5452308954963394E+00    1.0415557609313765E+01
Ga    3.3003256782760197E+00    7.3849979658676128E+00    1.1068159411634760E+01
N    3.2953180001176134E+00    7.3656401368877180E+00    1.3063552934742168E+01
Ga    3.2951857362757013E+00    5.5463456722304256E+00    1.3867091357734514E+01
N    3.2935933775938167E+00    5.5477327135972425E+00    1.6070923317177254E+01
Ga    3.2932897946402311E+00    7.5926771131849469E+00    1.6482457585174316E+01
Ga    3.3031561260088464E+00    9.2544308363017294E+00    1.2646896834568928E+00
N    1.7844466625528284E+00    1.0125296431666582E+01    2.5189132290250327E+00
Ga    1.6752133320432028E+00    8.3567656274668281E+00    3.3249067060222286E+00
N    1.6729879382427857E+00    8.3263418961810114E+00    5.2713362803387191E+00
Ga    1.6691093406943369E+00    1.0206911019672178E+01    5.8244284768692527E+00
N    1.6842332009257099E+00    1.0191521410412225E+01    7.8159308893209243E+00
Ga    1.7035402304159801E+00    8.3391177574806612E+00    8.4594036438368860E+00
N    1.6990716112747963E+00    8.3378136052927729E+00    1.0446853168299375E+01
Ga    1.6726591884540378E+00    1.0199704921743988E+01    1.1074259752573907E+01
N    1.6539556407311418E+00    1.0207102877422988E+01    1.3068419831409550E+01
Ga    1.6990218264491044E+00    8.3375330975090431E+00    1.3622376246154548E+01
N    1.6704994897026735E+00    8.3206130575051187E+00    1.5584638189394086E+01
Ga    1.8427644151074127E+00    1.0097478117160721E+01    1.6480908321413317E+01
N    3.2934545424751196E+00    9.2689379714351130E+00    1.7615275532608933E+01
N    9.6936652991900818E+00    1.8764076846267854E+00    2.5865034132320903E+00
Ga    9.7132949588082731E+00    5.5445260187227875E-02    3.2440813046598298E+00
N    9.7210829491703148E+00   -9.2029322570919125E-03    5.2192319145694288E+00
Ga    9.7137930536344204E+00    1.8353341518507749E+00    5.8707175186662317E+00
N    9.7247881608850637E+00    1.8315357628155804E+00    7.8498552181633912E+00
Ga    9.7326965633735849E+00   -3.3403723832869464E-02    8.4422098921155122E+00
N    9.7282502240697504E+00   -3.6097665300155499E-02    1.0436358914784124E+01
Ga    9.7238511345150211E+00    1.8339773036082552E+00    1.1027152319190996E+01
N    9.7244573659295455E+00    1.8329487150399058E+00    1.3000424531919386E+01
Ga    9.7265328927458317E+00   -3.6923848805171418E-02    1.3621547815238783E+01
N    9.7257718434220966E+00   -4.8036272959006577E-03    1.5585167800151648E+01
Ga    9.7246949844478294E+00    1.8330000468896062E+00    1.5862426871411206E+01
N    8.1544709093349983E+00    4.5633779288022271E+00    2.5124258402303870E+00
Ga    8.0609369924671341E+00    2.7863217043106134E+00    3.2565058940274141E+00
N    8.1214502088176879E+00    2.7564461392939661E+00    5.2440609259147895E+00
Ga    8.1353041226609868E+00    4.6355077313342914E+00    5.7625701412354493E+00
N    8.1234511020197537E+00    4.6263828439414425E+00    7.7796495773352392E+00
Ga    8.1064256708874112E+00    2.7717808794826455E+00    8.4263199287172270E+00
N    8.1068232515060004E+00    2.7686368346058536E+00    1.0426514009022064E+01
Ga    8.1287061995579126E+00    4.6258447130960780E+00    1.1066692054191162E+01
N    8.1475866792335996E+00    4.6357821063033002E+00    1.3063210721570995E+01
Ga    8.1052347657823258E+00    2.7674047718140802E+00    1.3620581562405391E+01
N    8.1317747214588536E+00    2.7508313189273186E+00    1.5583228958376024E+01
Ga    7.9589500838774505E+00    4.5268356373196807E+00    1.6480847323671846E+01
N    6.5034295669540159E+00    7.4092765112113854E+00    2.5864306278929732E+00
Ga    6.6597750319996409E+00    5.6025448038497236E+00    3.0909641641785259E+00
N    6.5091918497918275E+00    5.5325729759487290E+00    5.1347898022071456E+00
Ga    6.4986567040033751E+00    7.3736216261938461E+00    5.8203991224673466E+00
N    6.5080027666208720E+00    7.3942941319478317E+00    7.8153811036399681E+00
Ga    6.5089973287125957E+00    5.5333037049966007E+00    8.4210280938241571E+00
N    6.5080738248663987E+00    5.5341652475546530E+00    1.0421836367361422E+01
Ga    6.5078360240170383E+00    7.4020902651506706E+00    1.1022702025936088E+01
N    6.5085350172115612E+00    7.4022157570502545E+00    1.2996475735230367E+01
Ga    6.5093582536787356E+00    5.5334181379317435E+00    1.3620813305795039E+01
N    6.5089202831895960E+00    5.5651381211363748E+00    1.5584401166822490E+01
Ga    6.5089299843326529E+00    7.4027917299033570E+00    1.5863610743016986E+01
N    4.7947817570505755E+00    1.0146512606161213E+01    2.5079457882054479E+00
Ga    4.9759612090419258E+00    8.2885245828842837E+00    3.2419474535789736E+00
N    4.9001146768743968E+00    8.3332049771681564E+00    5.2289571452316723E+00
Ga    4.9260270320099746E+00    1.0206991011468673E+01    5.7709095691559664E+00
N    4.9095983500016809E+00    1.0195560631807025E+01    7.7809427798374280E+00
Ga    4.9004672592578222E+00    8.3376959070231162E+00    8.4206025993666866E+00
N    4.8934766234385156E+00    8.3386857886159103E+00    1.0421376155321024E+01
Ga    4.9176640681160775E+00    1.0194949768885703E+01    1.1068794469158556E+01
N    4.9333803636534919E+00    1.0205463381471889E+01    1.3064543817778350E+01
Ga    4.8910434224098349E+00    8.3368909512650973E+00    1.3621400644446581E+01
N    4.9164783372155547E+00    8.3208339462653509E+00    1.5583704178173443E+01
Ga    4.7431379418154025E+00    1.0097289081170890E+01    1.6481172749473398E+01
O   -5.7203622389071142E-03    4.0917644926897943E+00   -4.0877314078518884E-01
H   -1.4546180276004070E-01    5.9081137043285157E+00   -3.6754302941086686E-01
C    1.0650238630258573E+00    3.6018787803523327E+00   -1.2337223055274706E+00
H    2.0447656666102447E+00    4.0000437647192761E+00   -9.1998539640438681E-01
H    1.1188920236960185E+00    2.5023611146616180E+00   -1.2218118915551885E+00
H    8.7211797403576441E-01    3.9285300644118926E+00   -2.2657108612101213E+00
Ga    3.1372126273464493E+00    5.6411132542708557E+00    2.9963230655604196E+00
O   -1.6970011065011242E-01    6.8882170094273460E+00   -1.9766660031287975E-01
H    4.7734770767938500E-02    7.3425026951611709E+00    1.6974692689358108E+00
H    5.5813185680331223E-01    7.2476755789847660E+00   -7.2802166103667121E-01
Ga    9.1994200772609318E+00    2.4666723588525175E+00    6.7442827054783461E-01
C    4.9252923731301701E+00    4.3439004261299790E+00    1.1316872726321610E+00
H    5.8873828026555488E+00    4.0469779988789627E+00    6.9014986592616934E-01
H    4.0147664182357952E+00    4.1620555761898386E+00    5.4342806364099361E-01
     &END COORD
     &KIND C
       BASIS_SET DZVP-MOLOPT-SR-GTH-q4
       POTENTIAL GTH-PBE-q4
       &POTENTIAL
 2 2
  0.3384712400000000E+00 2 -0.8803673979999999E+01  0.1339210850000000E+01
 2
  0.3025757500000000E+00 1  0.9622486650000001E+01
  0.2915069400000000E+00 0
         # Potential name:  GTH-PBE-Q4  for symbol:  C
         # Potential read from the potential filename: GTH_POTENTIALS
       &END POTENTIAL
     &END KIND
     &KIND O
       BASIS_SET DZVP-MOLOPT-SR-GTH-q6
       POTENTIAL GTH-PBE-q6
       &POTENTIAL
 2 4
  0.2445543000000000E+00 2 -0.1666721480000000E+02  0.2487311320000000E+01
 2
  0.2209559200000000E+00 1  0.1833745811000000E+02
  0.2113324700000000E+00 0
         # Potential name:  GTH-PBE-Q6  for symbol:  O
         # Potential read from the potential filename: GTH_POTENTIALS
       &END POTENTIAL
     &END KIND
     &KIND H
       BASIS_SET DZVP-MOLOPT-SR-GTH-q1
       POTENTIAL GTH-PBE-q1
       &POTENTIAL
 1
  0.2000000000000000E+00 2 -0.4178900440000000E+01  0.7244633100000000E+00
 0
         # Potential name:  GTH-PBE-Q1  for symbol:  H
         # Potential read from the potential filename: GTH_POTENTIALS
       &END POTENTIAL
     &END KIND
     &KIND N
       BASIS_SET DZVP-MOLOPT-SR-GTH
       POTENTIAL GTH-PBE-q5
       &POTENTIAL
 2 3
  0.2837905100000000E+00 2 -0.1241522559000000E+02  0.1868095920000000E+01
 2
  0.2554050000000000E+00 1  0.1363026257000000E+02
  0.2454945300000000E+00 0
         # Potential name:  GTH-PBE-Q5  for symbol:  N
         # Potential read from the potential filename: GTH_POTENTIALS
       &END POTENTIAL
     &END KIND
     &KIND Ga
       BASIS_SET DZVP-MOLOPT-SR-GTH
       POTENTIAL GTH-PBE-q13
       &POTENTIAL
 2 1 10
  0.4900000000000000E+00 0
 3
  0.4167772300000000E+00 3  0.1047568975000000E+02 -0.4921768140000000E+01  0.8707055900000000E+00
  0.7770178090000000E+01 -0.2248152160000000E+01
  0.1784415450000000E+01
  0.5696265200000000E+00 2  0.1777985340000000E+01  0.1958597600000000E+00
 -0.2317443900000000E+00
  0.2381265000000000E+00 1 -0.1624868022000000E+02
         # Potential name:  GTH-PBE-Q13  for symbol:  GA
         # Potential read from the potential filename: GTH_POTENTIALS
       &END POTENTIAL
     &END KIND
     &TOPOLOGY
       NUMBER_OF_ATOMS  212
       MULTIPLE_UNIT_CELL  1 1 1
     &END TOPOLOGY
   &END SUBSYS
 &END FORCE_EVAL
