 # Version information for this restart file 
 # current date 2019-07-22 00:06:05.013
 # current working dir /lustre04/scratch/rzk/rzk/GaN-carbene/443-adatoms-both-2x2/11-CH3O-HO-H2C-H-H/02-UseIntermediate-0904
 # Program compiled at                              Sun Apr  7 00:48:11 EDT 2019
 # Program compiled on                          beluga2.int.ets1.calculquebec.ca
 # Program compiled for                        Beluga-Linux-x86-64-intel-openmpi
 # Source code revision number                                         svn:18619
 &GLOBAL
   PRINT_LEVEL  MEDIUM
   PROJECT_NAME TEST
   RUN_TYPE  GEO_OPT
 &END GLOBAL
 &MOTION
   &GEO_OPT
     MAX_ITER  500
     STEP_START_VAL  11
   &END GEO_OPT
 &END MOTION
 &FORCE_EVAL
   METHOD  QS
   STRESS_TENSOR  ANALYTICAL
   &DFT
     BASIS_SET_FILE_NAME BASIS_MOLOPT
     POTENTIAL_FILE_NAME GTH_POTENTIALS
     UKS  T
     SURFACE_DIPOLE_CORRECTION  T
     SURF_DIP_DIR  Z
     &SCF
       MAX_SCF  80
       EPS_SCF     5.0000000000000004E-06
       &OT  T
         PRECONDITIONER  FULL_ALL
       &END OT
       &OUTER_SCF  T
         OPTIMIZER  NONE
         EPS_SCF     5.0000000000000004E-06
         MAX_SCF  4
       &END OUTER_SCF
       &PRINT
         &RESTART  OFF
           BACKUP_COPIES  1
           &EACH
             JUST_ENERGY  0
             QS_SCF  0
             MD  20
           &END EACH
         &END RESTART
       &END PRINT
     &END SCF
     &QS
       EPS_DEFAULT     1.0000000000000000E-14
       METHOD  GPW
     &END QS
     &MGRID
       NGRIDS  5
       CUTOFF     1.2000000000000000E+03
     &END MGRID
     &XC
       DENSITY_CUTOFF     1.0000000000000000E-10
       GRADIENT_CUTOFF     1.0000000000000000E-10
       TAU_CUTOFF     1.0000000000000000E-10
       &XC_FUNCTIONAL  NO_SHORTCUT
         &PBE  T
         &END PBE
       &END XC_FUNCTIONAL
       &VDW_POTENTIAL
         POTENTIAL_TYPE  PAIR_POTENTIAL
         &PAIR_POTENTIAL
           R_CUTOFF     1.0000000000000004E+01
           TYPE  DFTD3
           PARAMETER_FILE_NAME dftd3.dat
           REFERENCE_FUNCTIONAL PBE
           EPS_CN     9.9999999999999995E-07
           CALCULATE_C9_TERM  T
           REFERENCE_C9_TERM  T
           LONG_RANGE_CORRECTION  F
           VERBOSE_OUTPUT  F
         &END PAIR_POTENTIAL
       &END VDW_POTENTIAL
     &END XC
   &END DFT
   &SUBSYS
     &CELL
       A     1.2864472766435110E+01    0.0000000000000000E+00    0.0000000000000000E+00
       B    -6.4322363581020028E+00    1.1140960178524473E+01    0.0000000000000000E+00
       C     0.0000000000000000E+00    0.0000000000000000E+00    3.2000000000000000E+01
       MULTIPLE_UNIT_CELL  1 1 1
       &CELL_REF
         A     1.2982353780853531E+01    0.0000000000000000E+00    0.0000000000000000E+00
         B    -6.4911768904267628E+00    1.1243048175136114E+01    0.0000000000000000E+00
         C     0.0000000000000000E+00    0.0000000000000000E+00    3.2000000000000000E+01
         MULTIPLE_UNIT_CELL  1 1 1
       &END CELL_REF
     &END CELL
     &COORD
N    5.6251294500669770E-02    1.9797442064798987E+00    2.4993590357767710E+00
Ga    3.8891963186349049E-02   -2.3856757234384430E-04    2.8143567426366496E+00
N    8.1197700704596559E-02   -3.1384286095252727E-02    5.0050104900472903E+00
Ga    6.6592535750554863E-02    1.7923412861369747E+00    5.7900670278142217E+00
N    7.5721508764824100E-02    1.8142806718476463E+00    7.7958903791545078E+00
Ga    7.4632076779639539E-02   -3.2161296309198617E-02    8.4362681074244836E+00
N    7.8562034469432884E-02   -3.0551561725417221E-02    1.0416122783015810E+01
Ga    8.0570419174247426E-02    1.8070605866879839E+00    1.1074157875165865E+01
N    8.1015546429635765E-02    1.7890791971211841E+00    1.3070677948052937E+01
Ga    8.1075433589519297E-02   -3.2292414961401242E-02    1.3869411717707129E+01
N    7.9434238443711794E-02   -2.9286406680960109E-02    1.6072461485655126E+01
Ga    8.0911850841574789E-02    2.0144634152300447E+00    1.6486492787041193E+01
Ga    4.1807744683388104E-02    3.7034180903840941E+00    1.3959836697494032E+00
N   -1.4017903717638467E+00    4.5516050478010239E+00    2.5454366895002556E+00
Ga   -1.6402947257947649E+00    2.7188298090995362E+00    3.2748723121929961E+00
N   -1.5477341926567940E+00    2.7482481358518616E+00    5.2459318381910922E+00
Ga   -1.5638114077246184E+00    4.6143322492993830E+00    5.8370103112045353E+00
N   -1.5388246478157621E+00    4.6111200418914162E+00    7.8251661009010318E+00
Ga   -1.5208492249986210E+00    2.7518647677361217E+00    8.4513861745720131E+00
N   -1.5169135675558441E+00    2.7595668867055818E+00    1.0444676866143661E+01
Ga   -1.5462469698417307E+00    4.6178643779922810E+00    1.1080274343172089E+01
N   -1.5597046604489702E+00    4.6285413529007116E+00    1.3074707281635163E+01
Ga   -1.5167874168264459E+00    2.7586198164755236E+00    1.3627108224284502E+01
N   -1.5429013027266301E+00    2.7431115814755453E+00    1.5591000223455616E+01
Ga   -1.3705104140308444E+00    4.5206878908833881E+00    1.6486957295794312E+01
N    8.2082210198660105E-02    3.6905311318696730E+00    1.7621586410457414E+01
N   -3.1199573239523533E+00    7.5171814698021313E+00    2.5681519106610740E+00
Ga   -3.1106318711909018E+00    5.5048860853486552E+00    2.9212959759752164E+00
N   -3.1234177451145722E+00    5.5542227077722623E+00    5.0771599884168781E+00
Ga   -3.1450719321918585E+00    7.3678357854613026E+00    5.8372812306046056E+00
N   -3.1346935303405483E+00    7.3900966106448047E+00    7.8223925813412372E+00
Ga   -3.1439613826606014E+00    5.5376810221622312E+00    8.4540635949484635E+00
N   -3.1383980898459787E+00    5.5380200335419278E+00    1.0427767528467912E+01
Ga   -3.1413924630313246E+00    7.3785411204021427E+00    1.1073257268190916E+01
N   -3.1372371969702559E+00    7.3587930147891569E+00    1.3066755383606161E+01
Ga   -3.1379279952564736E+00    5.5401563237369524E+00    1.3872189918072950E+01
N   -3.1373367848706524E+00    5.5419611910857238E+00    1.6074376728233268E+01
Ga   -3.1372483362929491E+00    7.5869085786609753E+00    1.6485557357107240E+01
Ga   -3.1243778321033520E+00    9.2311474771852211E+00    1.5484184539987920E+00
N   -4.6433808302215613E+00    1.0130666548478215E+01    2.5137664854720563E+00
Ga   -4.8611646666788930E+00    8.2670962704625346E+00    3.2942260756100863E+00
N   -4.7431921336086766E+00    8.3249795559252942E+00    5.2516113936880808E+00
Ga   -4.7773203150309689E+00    1.0197421693138665E+01    5.7984035127198581E+00
N   -4.7534613347685397E+00    1.0188542006366941E+01    7.7954904016609756E+00
Ga   -4.7477628050436351E+00    8.3266942129853447E+00    8.4275764479785469E+00
N   -4.7370588345002593E+00    8.3304777402482184E+00    1.0425380929821532E+01
Ga   -4.7610601899096503E+00    1.0189988109227100E+01    1.1066711058067627E+01
N   -4.7766241599916048E+00    1.0199734483044548E+01    1.3062677272531374E+01
Ga   -4.7350933576714933E+00    8.3305560906879528E+00    1.3619301613825188E+01
N   -4.7604148250617051E+00    8.3162463988696889E+00    1.5581841160243661E+01
Ga   -4.5897570064398909E+00    1.0091835079546019E+01    1.6481868557169133E+01
N   -3.1404127610125445E+00    9.2640889317390283E+00    1.7615900991463867E+01
N    3.2854006256933483E+00    1.8548845092123287E+00    2.5848673165732223E+00
Ga    3.2758359255721490E+00    9.3511045253072536E-02    3.2855118406436952E+00
N    3.2934460749021572E+00   -2.9877212141027985E-02    5.2484340308116728E+00
Ga    3.2973215066455537E+00    1.8388942961918948E+00    5.8464113617216551E+00
N    3.3027366327475192E+00    1.8312138884214664E+00    7.8266368922423251E+00
Ga    3.2915739877682850E+00   -3.2853152111760507E-02    8.4428167908672513E+00
N    3.2947763965498611E+00   -3.8477192949296427E-02    1.0435270318800580E+01
Ga    3.2979861887463970E+00    1.8308261165344601E+00    1.1029226322403568E+01
N    3.2974515659590313E+00    1.8286133250227041E+00    1.3001841239757310E+01
Ga    3.2944141033608139E+00   -4.1814760567646464E-02    1.3621394404909038E+01
N    3.2938121389020325E+00   -1.1430051911907961E-02    1.5584596796732441E+01
Ga    3.2971127820744246E+00    1.8256910709086189E+00    1.5869962079496474E+01
N    1.5504803007556847E+00    4.5500049759840016E+00    2.5529924940538260E+00
Ga    1.7533773280840472E+00    2.7192844535633882E+00    3.2830486280837428E+00
N    1.6778508532091110E+00    2.7508114611722632E+00    5.2545386612546174E+00
Ga    1.7030588405341245E+00    4.6079569713928246E+00    5.8390385179964621E+00
N    1.6963280507947092E+00    4.6146325028854118E+00    7.8234607310161079E+00
Ga    1.6783363559143949E+00    2.7506910231826516E+00    8.4367564808363547E+00
N    1.6773064888798348E+00    2.7588835127974165E+00    1.0432096383936150E+01
Ga    1.7056299476404682E+00    4.6172148239371644E+00    1.1074411336026003E+01
N    1.7213396338449687E+00    4.6286653454450555E+00    1.3070688503006908E+01
Ga    1.6789078468023257E+00    2.7595467697255005E+00    1.3625145818553410E+01
N    1.7036761659760451E+00    2.7440232782372473E+00    1.5589082873963999E+01
Ga    1.5326577033725373E+00    4.5202571218795686E+00    1.6486400603483585E+01
N    8.5699757701799481E-02    7.3800770334560779E+00    2.7514074850156662E+00
Ga    6.4403573819809823E-02    5.5400169375178692E+00    3.3777556916160343E+00
N    7.6238843635822090E-02    5.5516591762065852E+00    5.3071643748822348E+00
Ga    8.6931182095076096E-02    7.3962090727370997E+00    5.9403035490394753E+00
N    8.0555963729258009E-02    7.3981542035834762E+00    7.8941843341750939E+00
Ga    7.7422484047471082E-02    5.5232388766842613E+00    8.4653627476467435E+00
N    7.9360956494275450E-02    5.5263535672824657E+00    1.0453010043758511E+01
Ga    8.1184398476845651E-02    7.3964636176959759E+00    1.1042287529330025E+01
N    8.0695580736777531E-02    7.3953432028920778E+00    1.3011419689126624E+01
Ga    8.1547823126675259E-02    5.5244853397682609E+00    1.3628174599949476E+01
N    8.1675107194135399E-02    5.5581858658503185E+00    1.5592755682072847E+01
Ga    8.0844750612508079E-02    7.3987638382670378E+00    1.5864580985059408E+01
N   -1.6343205812304558E+00    1.0104399120044658E+01    2.5588540887076849E+00
Ga   -1.4840023347587596E+00    8.2992970459433923E+00    3.3863094640809162E+00
N   -1.5161656650495361E+00    8.3189263461023781E+00    5.3059378686893117E+00
Ga   -1.5109589039593183E+00    1.0202922741417968E+01    5.8426633541111830E+00
N   -1.5240343391922722E+00    1.0187171272492424E+01    7.8267235686247245E+00
Ga   -1.5417012187798054E+00    8.3338491169050410E+00    8.4694049511878262E+00
N   -1.5388891041368036E+00    8.3321284618085318E+00    1.0454485579661359E+01
Ga   -1.5136482138520266E+00    1.0195497678639546E+01    1.1075989848700974E+01
N   -1.4962903364751083E+00    1.0201255149522188E+01    1.3069190662388293E+01
Ga   -1.5415048355520660E+00    8.3316495154640435E+00    1.3624410391735505E+01
N   -1.5133266727470949E+00    8.3148409721880405E+00    1.5586133439793842E+01
Ga   -1.6875644817548736E+00    1.0090624342899417E+01    1.6482794310602735E+01
N    6.5903940632144913E+00    1.8479767488814101E+00    2.5302414714705583E+00
Ga    6.5489539832972721E+00   -4.8831568253073589E-02    2.9288119091842786E+00
N    6.5035509846833515E+00   -5.3701297522229366E-02    5.0926199654931477E+00
Ga    6.5026163494474618E+00    1.7896410887476022E+00    5.8165357629632686E+00
N    6.5008531317743206E+00    1.8158106715056845E+00    7.8081659319947017E+00
Ga    6.5144154482743257E+00   -2.6653409116886198E-02    8.4533864685851281E+00
N    6.5135114444055517E+00   -2.7348210156371202E-02    1.0426239328833276E+01
Ga    6.5136879160437200E+00    1.8145618000121386E+00    1.1068326743924592E+01
N    6.5126702972908639E+00    1.7915937811850300E+00    1.3064674499622818E+01
Ga    6.5119814997617773E+00   -2.8387609577174597E-02    1.3870331553258037E+01
N    6.5114526945941229E+00   -2.7735700951186170E-02    1.6071106026787863E+01
Ga    6.5117260255467784E+00    2.0149249234490330E+00    1.6485807546223565E+01
N    4.8848410042230865E+00    4.8784249530842665E+00    2.2780446805870969E+00
Ga    4.9436617938680225E+00    2.4488236724130319E+00    3.1947338085716477E+00
N    4.9124349543392203E+00    2.7581095974865191E+00    5.1641237989787729E+00
Ga    4.8960218068571111E+00    4.6229191121762643E+00    5.7569946390873845E+00
N    4.8963770225859289E+00    4.6142049725639067E+00    7.7670636304569634E+00
Ga    4.9131985531763673E+00    2.7657874756603524E+00    8.4344111813724325E+00
N    4.9154600716236461E+00    2.7645431438070873E+00    1.0429252585572112E+01
Ga    4.8927013299383102E+00    4.6202988297630050E+00    1.1070391383076315E+01
N    4.8735207380427221E+00    4.6295541510851450E+00    1.3065692636616319E+01
Ga    4.9158536853309798E+00    2.7616097610930832E+00    1.3624029058942828E+01
N    4.8893116882046863E+00    2.7463100051247253E+00    1.5586831032279289E+01
Ga    5.0585849639038445E+00    4.5227051199181920E+00    1.6485782930546403E+01
N    6.5112832188382628E+00    3.6938892060177508E+00    1.7619922242145879E+01
N    3.2651764640526157E+00    7.5188790855400685E+00    2.5370866391570490E+00
N    3.2773354708313214E+00    5.5351825403600738E+00    5.0682066102909831E+00
Ga    3.3025889090561127E+00    7.3772537031674190E+00    5.8132040738675013E+00
N    3.2955757351822559E+00    7.3816615588413654E+00    7.8053464586098507E+00
Ga    3.3044142755326043E+00    5.5340817249440768E+00    8.4452434658597060E+00
N    3.2991059634311384E+00    5.5367675061760480E+00    1.0421131972804091E+01
Ga    3.3025455361263418E+00    7.3777864516825975E+00    1.1069323452763152E+01
N    3.2979695138792842E+00    7.3577414825885965E+00    1.3063951094109159E+01
Ga    3.2986379532210530E+00    5.5392612851968099E+00    1.3869199392676572E+01
N    3.2973330768388016E+00    5.5414713245390201E+00    1.6074912775620021E+01
Ga    3.2972018962057641E+00    7.5838284405391043E+00    1.6482719348465533E+01
Ga    3.2904808839216519E+00    9.2686400381863372E+00    1.2542827599213553E+00
N    1.7764420919502490E+00    1.0105494211169608E+01    2.5185822469362744E+00
Ga    1.6814715703224152E+00    8.3341178170881687E+00    3.3252605651301836E+00
N    1.6739556347310072E+00    8.3122039133748231E+00    5.2706352961998162E+00
Ga    1.6722765185809225E+00    1.0195605105791369E+01    5.8200916841684478E+00
N    1.6850031036382511E+00    1.0185288735997446E+01    7.8145253416994693E+00
Ga    1.7051579379339381E+00    8.3323642423035889E+00    8.4622412568148970E+00
N    1.7010374833323036E+00    8.3314819531475681E+00    1.0449182337499417E+01
Ga    1.6746552208782295E+00    1.0194112713300626E+01    1.1077010968162110E+01
N    1.6567403707769961E+00    1.0200467287749605E+01    1.3069805815080517E+01
Ga    1.7025878644255330E+00    8.3304603792226573E+00    1.3622405101401785E+01
N    1.6756821623409401E+00    8.3146745343694928E+00    1.5584434047168262E+01
Ga    1.8447619800052393E+00    1.0090595612768498E+01    1.6480711756771374E+01
N    3.2988017236453024E+00    9.2613600532555296E+00    1.7612694379829417E+01
N    9.6348091097817719E+00    1.8860037185636100E+00    2.6024352507988584E+00
Ga    9.6958078921012980E+00    6.8987502219016297E-02    3.2217271685566558E+00
N    9.7179960074820215E+00   -2.1233108427551325E-02    5.2131851074378819E+00
Ga    9.7253712081427359E+00    1.8168939432116087E+00    5.8820477186027800E+00
N    9.7273212864581104E+00    1.8223739016446650E+00    7.8582860361176241E+00
Ga    9.7343464192909721E+00   -4.1819189430313146E-02    8.4479537620182157E+00
N    9.7303508872017339E+00   -4.1900633180112029E-02    1.0441055711787417E+01
Ga    9.7256192517351181E+00    1.8291751908791301E+00    1.1030764543772376E+01
N    9.7270930857171365E+00    1.8273133010912208E+00    1.3004487224733710E+01
Ga    9.7303515102709337E+00   -4.3684936554034187E-02    1.3622722319474605E+01
N    9.7295695460409117E+00   -1.2954477754036549E-02    1.5586257275989439E+01
Ga    9.7275103785687609E+00    1.8249418170564171E+00    1.5870516713214272E+01
N    8.1436931389236129E+00    4.5075241890280937E+00    2.4952358589720318E+00
Ga    8.0863452001994975E+00    2.7569157045549866E+00    3.3877537177331449E+00
N    8.1099450835247282E+00    2.7583500898790367E+00    5.3230097709794473E+00
Ga    8.1310073509620260E+00    4.6461010177251385E+00    5.7906839720661818E+00
N    8.1235306860183432E+00    4.6291802846835743E+00    7.7954373878980601E+00
Ga    8.1062898586128735E+00    2.7671154037731833E+00    8.4220443797752491E+00
N    8.1091896766591294E+00    2.7636465603533562E+00    1.0424239025494392E+01
Ga    8.1311085213255758E+00    4.6191758886332126E+00    1.1069051266457604E+01
N    8.1510990676499890E+00    4.6291031292594509E+00    1.3065118616604366E+01
Ga    8.1080364251213197E+00    2.7617914792671527E+00    1.3626667855380203E+01
N    8.1351554995255810E+00    2.7447084324640625E+00    1.5588825858954948E+01
Ga    7.9648111297114657E+00    4.5223472412967887E+00    1.6485853095114187E+01
N    6.5119156912275731E+00    7.4012115112744050E+00    2.5829461913564877E+00
Ga    6.6577388329595495E+00    5.5830730142851293E+00    3.0787888889638313E+00
N    6.5056676872256043E+00    5.5174206935673009E+00    5.1262418743404288E+00
Ga    6.4973101872817187E+00    7.3686119187520900E+00    5.8051435198224501E+00
N    6.5102575814168526E+00    7.3850590711934849E+00    7.8018168542588562E+00
Ga    6.5085621687841702E+00    5.5287984225331135E+00    8.4245445435030035E+00
N    6.5104509472453991E+00    5.5264930030630044E+00    1.0423300904939181E+01
Ga    6.5111540454722068E+00    7.3942133423073173E+00    1.1022162636755942E+01
N    6.5116510887052579E+00    7.3939341439477895E+00    1.2995745245466820E+01
Ga    6.5121856848333053E+00    5.5263297783203438E+00    1.3623423011392667E+01
N    6.5110482233802722E+00    5.5581267509386532E+00    1.5587774722840230E+01
Ga    6.5118820313133501E+00    7.3979278783477955E+00    1.5865789213315841E+01
N    4.7806620127117050E+00    1.0137900999402220E+01    2.4930411895830979E+00
Ga    4.9715072627797410E+00    8.2736797946364238E+00    3.2260581132697830E+00
N    4.8952026083952287E+00    8.3230268456837102E+00    5.2164864181047426E+00
Ga    4.9194364685718837E+00    1.0194893579052561E+01    5.7639804745302703E+00
N    4.9104187871842058E+00    1.0187030405756552E+01    7.7780493243690820E+00
Ga    4.9040959878635944E+00    8.3292072945431350E+00    8.4178745555220136E+00
N    4.8961461829256772E+00    8.3303265254619632E+00    1.0418623715611774E+01
Ga    4.9206421959882034E+00    1.0187681060335001E+01    1.1069214851932749E+01
N    4.9370652692927992E+00    1.0198425583097096E+01    1.3064763187586898E+01
Ga    4.8944691689913773E+00    8.3291980337621947E+00    1.3618931556834514E+01
N    4.9185262331859345E+00    8.3150487922682519E+00    1.5581891723234184E+01
Ga    4.7496225773589158E+00    1.0090837332307759E+01    1.6480610114967021E+01
O    2.1820326458140433E-02    4.1029797376861898E+00   -4.0243215521967735E-01
H   -1.2338801140927490E-01    5.9052532942328098E+00   -3.6076337915631179E-01
C    1.1171475818592831E+00    3.6367642608404749E+00   -1.2058244513415310E+00
H    2.0934712128302144E+00    3.9525922729072578E+00   -8.0328070087110715E-01
H    1.1191768747414379E+00    2.5405883046779407E+00   -1.2914062105266946E+00
H    1.0057422762839641E+00    4.0616788950440315E+00   -2.2120658401688673E+00
Ga    3.1378437201283820E+00    5.6143680217055962E+00    3.0147351289847091E+00
O   -1.6494436360791936E-01    6.8864044350178251E+00   -2.0034990953425086E-01
H    5.1340600693312269E-02    7.3251896618783681E+00    1.7171913178577958E+00
H    5.6210522461800605E-01    7.2472314689446149E+00   -7.2914612354491282E-01
Ga    8.4480634995038582E+00    2.7868103459904141E+00    7.3650567709469739E-01
C    4.9011304424781503E+00    4.6064154483777724E+00    1.0263193754180173E+00
H    5.8446935182158226E+00    4.5770696473081420E+00    4.8722421437330804E-01
H    3.9923496865099972E+00    4.3917554795571379E+00    4.6105990094231986E-01
     &END COORD
     &KIND C
       BASIS_SET DZVP-MOLOPT-SR-GTH-q4
       POTENTIAL GTH-PBE-q4
       &POTENTIAL
 2 2
  0.3384712400000000E+00 2 -0.8803673979999999E+01  0.1339210850000000E+01
 2
  0.3025757500000000E+00 1  0.9622486650000001E+01
  0.2915069400000000E+00 0
         # Potential name:  GTH-PBE-Q4  for symbol:  C
         # Potential read from the potential filename: GTH_POTENTIALS
       &END POTENTIAL
     &END KIND
     &KIND O
       BASIS_SET DZVP-MOLOPT-SR-GTH-q6
       POTENTIAL GTH-PBE-q6
       &POTENTIAL
 2 4
  0.2445543000000000E+00 2 -0.1666721480000000E+02  0.2487311320000000E+01
 2
  0.2209559200000000E+00 1  0.1833745811000000E+02
  0.2113324700000000E+00 0
         # Potential name:  GTH-PBE-Q6  for symbol:  O
         # Potential read from the potential filename: GTH_POTENTIALS
       &END POTENTIAL
     &END KIND
     &KIND H
       BASIS_SET DZVP-MOLOPT-SR-GTH-q1
       POTENTIAL GTH-PBE-q1
       &POTENTIAL
 1
  0.2000000000000000E+00 2 -0.4178900440000000E+01  0.7244633100000000E+00
 0
         # Potential name:  GTH-PBE-Q1  for symbol:  H
         # Potential read from the potential filename: GTH_POTENTIALS
       &END POTENTIAL
     &END KIND
     &KIND N
       BASIS_SET DZVP-MOLOPT-SR-GTH
       POTENTIAL GTH-PBE-q5
       &POTENTIAL
 2 3
  0.2837905100000000E+00 2 -0.1241522559000000E+02  0.1868095920000000E+01
 2
  0.2554050000000000E+00 1  0.1363026257000000E+02
  0.2454945300000000E+00 0
         # Potential name:  GTH-PBE-Q5  for symbol:  N
         # Potential read from the potential filename: GTH_POTENTIALS
       &END POTENTIAL
     &END KIND
     &KIND Ga
       BASIS_SET DZVP-MOLOPT-SR-GTH
       POTENTIAL GTH-PBE-q13
       &POTENTIAL
 2 1 10
  0.4900000000000000E+00 0
 3
  0.4167772300000000E+00 3  0.1047568975000000E+02 -0.4921768140000000E+01  0.8707055900000000E+00
  0.7770178090000000E+01 -0.2248152160000000E+01
  0.1784415450000000E+01
  0.5696265200000000E+00 2  0.1777985340000000E+01  0.1958597600000000E+00
 -0.2317443900000000E+00
  0.2381265000000000E+00 1 -0.1624868022000000E+02
         # Potential name:  GTH-PBE-Q13  for symbol:  GA
         # Potential read from the potential filename: GTH_POTENTIALS
       &END POTENTIAL
     &END KIND
     &TOPOLOGY
       NUMBER_OF_ATOMS  212
       MULTIPLE_UNIT_CELL  1 1 1
     &END TOPOLOGY
   &END SUBSYS
 &END FORCE_EVAL
