 # Version information for this restart file 
 # current date 2019-05-27 20:08:46.235
 # current working dir /lustre03/project/6004141/rzk/GaN-carbene/334-native/08-2Methanol-Htransfer/01-Constraint/1.56
 # Program compiled at                              Sun Apr  7 00:48:11 EDT 2019
 # Program compiled on                          beluga2.int.ets1.calculquebec.ca
 # Program compiled for                        Beluga-Linux-x86-64-intel-openmpi
 # Source code revision number                                         svn:18619
 &GLOBAL
   PRINT_LEVEL  MEDIUM
   PROJECT_NAME TEST
   RUN_TYPE  GEO_OPT
 &END GLOBAL
 &MOTION
   &GEO_OPT
     MAX_ITER  500
     STEP_START_VAL  172
   &END GEO_OPT
   &CONSTRAINT
     &COLLECTIVE
       COLVAR  1
       INTERMOLECULAR  T
       TARGET     2.9479727673016032E+00
       &RESTRAINT
         K     1.0000000000000001E-01
       &END RESTRAINT
     &END COLLECTIVE
     &COLVAR_RESTART
           2.9479727673016032E+00
     &END COLVAR_RESTART
   &END CONSTRAINT
 &END MOTION
 &FORCE_EVAL
   METHOD  QS
   STRESS_TENSOR  ANALYTICAL
   &DFT
     BASIS_SET_FILE_NAME BASIS_MOLOPT
     POTENTIAL_FILE_NAME GTH_POTENTIALS
     &SCF
       MAX_SCF  100
       EPS_SCF     5.0000000000000004E-06
       &OT  T
         PRECONDITIONER  FULL_ALL
       &END OT
       &OUTER_SCF  T
         OPTIMIZER  NONE
         EPS_SCF     5.0000000000000004E-06
         MAX_SCF  4
       &END OUTER_SCF
       &PRINT
         &RESTART  OFF
           BACKUP_COPIES  1
           &EACH
             JUST_ENERGY  0
             QS_SCF  0
             MD  20
           &END EACH
         &END RESTART
       &END PRINT
     &END SCF
     &QS
       EPS_DEFAULT     1.0000000000000000E-14
       ALMO_SCF  F
       METHOD  GPW
     &END QS
     &MGRID
       NGRIDS  5
       CUTOFF     1.2000000000000000E+03
     &END MGRID
     &XC
       DENSITY_CUTOFF     1.0000000000000000E-10
       GRADIENT_CUTOFF     1.0000000000000000E-10
       TAU_CUTOFF     1.0000000000000000E-10
       &XC_FUNCTIONAL  NO_SHORTCUT
         &PBE  T
         &END PBE
       &END XC_FUNCTIONAL
       &VDW_POTENTIAL
         POTENTIAL_TYPE  PAIR_POTENTIAL
         &PAIR_POTENTIAL
           R_CUTOFF     1.0000000000000005E+01
           TYPE  DFTD3
           PARAMETER_FILE_NAME dftd3.dat
           REFERENCE_FUNCTIONAL PBE
           EPS_CN     9.9999999999999995E-07
           CALCULATE_C9_TERM  T
           REFERENCE_C9_TERM  T
           LONG_RANGE_CORRECTION  F
           VERBOSE_OUTPUT  F
         &END PAIR_POTENTIAL
       &END VDW_POTENTIAL
     &END XC
   &END DFT
   &SUBSYS
     &CELL
       A     9.7367653356401487E+00    0.0000000000000000E+00    0.0000000000000000E+00
       B    -4.8591341382960209E+00    8.4162672083210595E+00    0.0000000000000000E+00
       C     0.0000000000000000E+00    0.0000000000000000E+00    3.0744000000000000E+01
       MULTIPLE_UNIT_CELL  1 1 1
       &CELL_REF
         A     9.5580000000000052E+00    0.0000000000000000E+00    0.0000000000000000E+00
         B    -4.7790000000000026E+00    8.2774708093716640E+00    0.0000000000000000E+00
         C     0.0000000000000000E+00    0.0000000000000000E+00    3.0744000000000000E+01
         MULTIPLE_UNIT_CELL  1 1 1
       &END CELL_REF
     &END CELL
     &COORD
Ga    4.9713130628136426E-02   -1.5800511820510516E-01   -5.4662827765910837E-01
N    5.2308553529484526E-02    1.7157214060710926E+00    6.0939393996757707E-01
Ga    5.1549307521065568E-02    1.6836681471656627E+00    2.6381102643677479E+00
N    4.8564005008023527E-02   -1.6022682655348483E-01    3.2711437391835343E+00
Ga    4.9112508464844308E-02   -1.5959518184300353E-01    5.2598611978944065E+00
N    5.2164096245545376E-02    1.7148661636083378E+00    5.8489881440096854E+00
Ga    5.2722504394195888E-02    1.7122770054409839E+00    7.8450559509323572E+00
N    4.9228737153264264E-02   -1.5925055360962598E-01    8.4530783464673469E+00
Ga    5.5519097178773000E-02   -1.5614428828754504E-01    1.0449104905121082E+01
N    4.9679457381900667E-02    1.7124669166315258E+00    1.1065080929558414E+01
Ga    4.5657161997850026E-02    1.7117659915940788E+00    1.3072046364907273E+01
N    4.9203257284645321E-02   -1.6646505151589688E-01    1.3654761428178290E+01
Ga    7.2433804731609458E-02   -1.5100668775049858E-01    1.5659095624152851E+01
N    8.9680765825147571E-02    1.6925122072516872E+00    1.6268907840202640E+01
Ga    9.8515315849756646E-02    1.6875229644965777E+00    1.8438053474525578E+01
N    8.9012727216650864E-02   -1.8140646103132216E-01    1.8921025376713349E+01
Ga   -1.5698078158187301E+00    2.6453392936147200E+00    3.2413144713490633E-01
N   -1.5721802810791361E+00    4.5149310395693147E+00    6.0850954121085232E-01
Ga   -1.5437850704754514E+00    4.5308310864919035E+00    2.6371860974359373E+00
N   -1.5710861322737728E+00    2.6456857465745722E+00    3.2318912720017443E+00
Ga   -1.5708190439891196E+00    2.6464105568633292E+00    5.2411510611275816E+00
N   -1.5708722382211986E+00    4.5168962196868918E+00    5.8514219780662993E+00
Ga   -1.5703578272322793E+00    4.5179000288885813E+00    7.8486123106705481E+00
N   -1.5701305552333185E+00    2.6447689273350323E+00    8.4485588282250461E+00
Ga   -1.5653019888544673E+00    2.6421071344905362E+00    1.0437903725997698E+01
N   -1.5694136820162325E+00    4.5123037690409689E+00    1.1047394574346658E+01
Ga   -1.5546907607828713E+00    4.4846110551456864E+00    1.3031516045158190E+01
N   -1.5670770962443883E+00    2.6460887519660647E+00    1.3701002230755702E+01
Ga   -1.5428172946009040E+00    2.6355451483334051E+00    1.5761459999301628E+01
N   -1.5620224836686016E+00    4.5290301118783907E+00    1.6318310557625608E+01
Ga   -1.5173782031254168E+00    4.4914650009708073E+00    1.8470946743868843E+01
N   -1.5292865434548277E+00    2.6308299584065327E+00    1.8743982693144829E+01
Ga   -3.1905243728924164E+00    5.4515934978581626E+00    3.2454512835268856E-01
N   -3.1833774150010616E+00    7.3214375482100786E+00    6.0812560712272778E-01
Ga   -3.2122480230321355E+00    7.3369988629867100E+00    2.6369383300573035E+00
N   -3.1906126305118758E+00    5.4512278058469743E+00    3.2309133037033781E+00
Ga   -3.1902706235827063E+00    5.4521256304748915E+00    5.2397955379777130E+00
N   -3.1853737248555438E+00    7.3215862593290746E+00    5.8518073765390533E+00
Ga   -3.1859688953205616E+00    7.3220315115117920E+00    7.8496519349114298E+00
N   -3.1929851095830237E+00    5.4504981186232913E+00    8.4582002238078253E+00
Ga   -3.1906092525933758E+00    5.4557423246189121E+00    1.0451843207924698E+01
N   -3.1863974463390585E+00    7.3223620601042461E+00    1.1061845978386661E+01
Ga   -3.1586466076184729E+00    7.3621676196054366E+00    1.3066399126907614E+01
N   -3.1889565468519900E+00    5.4416805213035886E+00    1.3642641685681713E+01
Ga   -2.9253743132297179E+00    5.5834925797527566E+00    1.5551766461672255E+01
N   -3.2680275359886872E+00    7.2487034739165699E+00    1.6313795729398766E+01
Ga   -3.2082598815534289E+00    7.2876329630397860E+00    1.8436816410674897E+01
N   -3.0746152224685090E+00    5.4573363296765045E+00    1.9103036460409630E+01
Ga    3.2951416396242545E+00   -1.5972345398659002E-01    3.2389596740342352E-01
N    3.2928855522067231E+00    1.7098695463708824E+00    6.0820438953201394E-01
Ga    3.3209656899526458E+00    1.7256608129741318E+00    2.6369079461638885E+00
N    3.2940673456013481E+00   -1.5963485630823729E-01    3.2316706139363203E+00
Ga    3.2941805626778704E+00   -1.5881833803537268E-01    5.2410809724545677E+00
N    3.2951678525212182E+00    1.7112087365596100E+00    5.8524919155645581E+00
Ga    3.2956106182387761E+00    1.7098562817494793E+00    7.8506715029148078E+00
N    3.2942020048601659E+00   -1.6041209682141300E-01    8.4574916414589936E+00
Ga    3.2985255972382705E+00   -1.6211663191947082E-01    1.0456212305855278E+01
N    3.2994467713797677E+00    1.7107957168142185E+00    1.1058742001045795E+01
Ga    3.2793932938656929E+00    1.6635143440279636E+00    1.3061649767877968E+01
N    3.2898628003618722E+00   -1.5865992700948475E-01    1.3736517735096795E+01
Ga    3.3072537393623120E+00   -1.6855839218421823E-01    1.6148541304906249E+01
N    3.3205862118388447E+00    1.8123369779246663E+00    1.6304200776288752E+01
Ga    3.3135282430623323E+00    1.7447667345898463E+00    1.8432178519448208E+01
N    3.3219223846292212E+00   -1.7835151757169493E-01    1.8301990360784618E+01
Ga    1.6742987994110305E+00    2.6458890685057956E+00    3.2424348068857939E-01
N    1.6821684487440423E+00    4.5155078426219966E+00    6.0892344470258630E-01
Ga    1.6529984202961476E+00    4.5310157377882572E+00    2.6373890071208632E+00
N    1.6748035879909695E+00    2.6456811553401258E+00    3.2317174500942469E+00
Ga    1.6753638071633361E+00    2.6462048877290596E+00    5.2407716747486637E+00
N    1.6794981640241142E+00    4.5162601351801319E+00    5.8520137786038191E+00
Ga    1.6760906375609874E+00    4.5156974780265893E+00    7.8494116645555927E+00
N    1.6737666560370079E+00    2.6444462548449916E+00    8.4558741691383048E+00
Ga    1.6750802676396712E+00    2.6382755723520739E+00    1.0450740341009784E+01
N    1.6782068438971227E+00    4.5173463981127799E+00    1.1041397202743852E+01
Ga    1.6549654590333882E+00    4.4963358063436454E+00    1.3018208588187463E+01
N    1.6802823975138346E+00    2.6450486669674889E+00    1.3642221591314486E+01
Ga    1.6813166461192162E+00    2.6061975675683220E+00    1.5637048557779298E+01
N    1.6508258961218349E+00    4.5025828820715983E+00    1.6227111754824985E+01
Ga    1.3841823178327310E+00    4.3028564403387417E+00    1.8188264880108356E+01
N    1.7194154548158320E+00    2.6425455884165929E+00    1.8901607834306105E+01
Ga    5.5909287234222525E-02    5.4509734781617611E+00   -5.4639783811820020E-01
N    5.8416286706289469E-02    7.3267599233210223E+00    6.0879914345469943E-01
Ga    5.7508907369450857E-02    7.2945579350474885E+00    2.6373744943436903E+00
N    5.4757886936447543E-02    5.4508889482799709E+00    3.2712721010416805E+00
Ga    5.4859164184337200E-02    5.4516042253771975E+00    5.2601929516681754E+00
N    5.7827941114498634E-02    7.3261884489748335E+00    5.8504249820044798E+00
Ga    5.6174965512751522E-02    7.3252358405050497E+00    7.8477990782040559E+00
N    5.3458041918819449E-02    5.4528113721321345E+00    8.4539176726763579E+00
Ga    5.2343726091658223E-02    5.4611596770512776E+00    1.0450560354369864E+01
N    5.7676317462961355E-02    7.3243591027409192E+00    1.1072159805427328E+01
Ga    2.4570879276106340E-02    7.3449809133211916E+00    1.3092698387067095E+01
N    5.0100928193573847E-02    5.4413767908094028E+00    1.3638495990415553E+01
Ga    2.9240481663902966E-02    5.4614066923408959E+00    1.5632970732494567E+01
N    1.3844646128289809E-01    7.2727829903808141E+00    1.6254745313365039E+01
Ga    1.4166813614050350E-01    7.2862209232428592E+00    1.8364400639110343E+01
N    1.2691170357271039E-01    5.4476484499189102E+00    1.8949425251770140E+01
Ga    6.5399435726810173E+00   -1.5912588567784811E-01    3.2425260189698102E-01
N    6.5473428714329502E+00    1.7106141772557799E+00    6.0832222574672290E-01
Ga    6.5186674348865399E+00    1.7259231224886455E+00    2.6370906820088158E+00
N    6.5399237490616224E+00   -1.5966401753472631E-01    3.2311946510480385E+00
Ga    6.5400584141336173E+00   -1.5884732268239693E-01    5.2403496544366011E+00
N    6.5447125508726192E+00    1.7112043717083336E+00    5.8510511015341713E+00
Ga    6.5423898230718134E+00    1.7105123623457292E+00    7.8480885487574099E+00
N    6.5379193294702924E+00   -1.5935385777475475E-01    8.4568822625794358E+00
Ga    6.5313932926836573E+00   -1.6012882603326628E-01    1.0452402969791660E+01
N    6.5475971426545252E+00    1.7161335941877127E+00    1.1052297408949144E+01
Ga    6.5783168812433850E+00    1.7137521584146789E+00    1.3039965002856421E+01
N    6.5473577998023424E+00   -1.5219654776003383E-01    1.3654579864288507E+01
Ga    6.5287729258308103E+00   -1.4099407647634316E-01    1.5664109227593331E+01
N    6.5393771421553550E+00    1.7180646464500766E+00    1.6303996135658434E+01
Ga    6.5968492211855150E+00    1.6920274550255341E+00    1.8453531762473990E+01
N    6.5504892591443129E+00   -1.8131252938639431E-01    1.8925426673486879E+01
Ga    4.9207425177762945E+00    2.6466122537259222E+00   -5.4642531473379086E-01
N    4.9237305920955103E+00    4.5215992022513261E+00    6.0890819146440600E-01
Ga    4.9227083293532443E+00    4.4891809892850141E+00    2.6375224958376524E+00
N    4.9199266596005007E+00    2.6453339470202546E+00    3.2706643563896463E+00
Ga    4.9200376346941326E+00    2.6458430474186461E+00    5.2592361531783860E+00
N    4.9232608475599031E+00    4.5205249071883209E+00    5.8496681935028283E+00
Ga    4.9233632669282041E+00    4.5181657173289063E+00    7.8453315822948841E+00
N    4.9199528657391953E+00    2.6474252473408928E+00    8.4562951046120904E+00
Ga    4.9183982700462359E+00    2.6438994844895398E+00    1.0451803538463516E+01
N    4.9192592565774955E+00    4.5203184333707176E+00    1.1066809841048380E+01
Ga    4.9207332035237554E+00    4.5182234253209153E+00    1.3045265601940047E+01
N    4.9265504745889572E+00    2.6485611771083253E+00    1.3637560871632056E+01
Ga    4.9365271191344702E+00    2.3574137456500743E+00    1.5547835989145961E+01
N    4.7765080237978301E+00    4.5828157249071015E+00    1.6485032970646838E+01
Ga    5.3485680076527595E+00    4.2787276647989536E+00    1.9625879403086895E+01
N    4.9675986985922727E+00    2.5806504857278703E+00    1.9034830872720438E+01
Ga    3.3013029992479401E+00    5.4511607463514631E+00    3.2426488515646562E-01
N    3.2993233692417894E+00    7.3208779032104019E+00    6.0807880851312779E-01
Ga    3.3274780067301259E+00    7.3366775026935755E+00    2.6369445256214243E+00
N    3.3001587693157570E+00    5.4512594861543926E+00    3.2318719934724931E+00
Ga    3.2999840151171997E+00    5.4520662529712407E+00    5.2411113393161139E+00
N    3.3008463849445615E+00    7.3224025958935748E+00    5.8517561500239834E+00
Ga    3.3008861230717499E+00    7.3241048026394555E+00    7.8490087708966536E+00
N    3.3008362883136266E+00    5.4507586055921804E+00    8.4516334093285668E+00
Ga    3.2998028268851267E+00    5.4528287900044230E+00    1.0439366004446795E+01
N    3.3042263932185341E+00    7.3235669089200917E+00    1.1043558417082794E+01
Ga    3.3087573275206776E+00    7.3544447287452686E+00    1.3021778981789513E+01
N    3.2876488867315761E+00    5.4587555497007632E+00    1.3642580095269448E+01
Ga    3.0140209876865436E+00    5.6291892136000659E+00    1.5540092178384876E+01
N    3.3046290445297104E+00    7.3496970878223529E+00    1.6272836384903226E+01
Ga    3.3284784448842966E+00    7.6883993329748979E+00    1.8288475555766649E+01
N    4.5627524181169470E+00    4.6937104298245540E+00    1.7626459654434800E+01
O    1.4236423456356633E+00    5.0433986646726812E+00    2.1261485438785893E+01
H    8.2168014399731570E-01    5.2467364622580401E+00    2.0434991759930707E+01
C    9.0954968050367080E-01    3.8612840845840841E+00    2.1913404020499271E+01
H    1.0760561134858366E+00    2.9693257713351571E+00    2.1291018599642939E+01
H    1.4298209901754819E+00    3.7545554482384964E+00    2.2873230309658361E+01
H   -1.6649883109527161E-01    3.9777247787830068E+00    2.2102256946657867E+01
O    3.9039037218929598E+00    5.2224084518632194E+00    2.0640026665283493E+01
H    2.9034155243575888E+00    4.9551368039724091E+00    2.0832664290355865E+01
C    4.2006973148382629E+00    6.3630068206653778E+00    2.1517582749847225E+01
H    4.3851113764796512E+00    5.9980788158937424E+00    2.2534626904861540E+01
H    5.0695561617745879E+00    6.8894818601905543E+00    2.1111137695795836E+01
H    3.3329045704531652E+00    7.0334632605322946E+00    2.1493401522503486E+01
     &END COORD
     &KIND C
       BASIS_SET DZVP-MOLOPT-SR-GTH-q4
       POTENTIAL GTH-PBE-q4
       &POTENTIAL
 2 2
  0.3384712400000000E+00 2 -0.8803673979999999E+01  0.1339210850000000E+01
 2
  0.3025757500000000E+00 1  0.9622486650000001E+01
  0.2915069400000000E+00 0
         # Potential name:  GTH-PBE-Q4  for symbol:  C
         # Potential read from the potential filename: GTH_POTENTIALS
       &END POTENTIAL
     &END KIND
     &KIND O
       BASIS_SET DZVP-MOLOPT-SR-GTH-q6
       POTENTIAL GTH-PBE-q6
       &POTENTIAL
 2 4
  0.2445543000000000E+00 2 -0.1666721480000000E+02  0.2487311320000000E+01
 2
  0.2209559200000000E+00 1  0.1833745811000000E+02
  0.2113324700000000E+00 0
         # Potential name:  GTH-PBE-Q6  for symbol:  O
         # Potential read from the potential filename: GTH_POTENTIALS
       &END POTENTIAL
     &END KIND
     &KIND H
       BASIS_SET DZVP-MOLOPT-SR-GTH-q1
       POTENTIAL GTH-PBE-q1
       &POTENTIAL
 1
  0.2000000000000000E+00 2 -0.4178900440000000E+01  0.7244633100000000E+00
 0
         # Potential name:  GTH-PBE-Q1  for symbol:  H
         # Potential read from the potential filename: GTH_POTENTIALS
       &END POTENTIAL
     &END KIND
     &KIND N
       BASIS_SET DZVP-MOLOPT-SR-GTH-q5
       POTENTIAL GTH-PBE-q5
       &POTENTIAL
 2 3
  0.2837905100000000E+00 2 -0.1241522559000000E+02  0.1868095920000000E+01
 2
  0.2554050000000000E+00 1  0.1363026257000000E+02
  0.2454945300000000E+00 0
         # Potential name:  GTH-PBE-Q5  for symbol:  N
         # Potential read from the potential filename: GTH_POTENTIALS
       &END POTENTIAL
     &END KIND
     &KIND Ga
       BASIS_SET DZVP-MOLOPT-SR-GTH-q13
       POTENTIAL GTH-PBE-q13
       &POTENTIAL
 2 1 10
  0.4900000000000000E+00 0
 3
  0.4167772300000000E+00 3  0.1047568975000000E+02 -0.4921768140000000E+01  0.8707055900000000E+00
  0.7770178090000000E+01 -0.2248152160000000E+01
  0.1784415450000000E+01
  0.5696265200000000E+00 2  0.1777985340000000E+01  0.1958597600000000E+00
 -0.2317443900000000E+00
  0.2381265000000000E+00 1 -0.1624868022000000E+02
         # Potential name:  GTH-PBE-Q13  for symbol:  GA
         # Potential read from the potential filename: GTH_POTENTIALS
       &END POTENTIAL
     &END KIND
     &TOPOLOGY
       COORD_FILE_NAME ../start-first.xyz
       COORD_FILE_FORMAT  XYZ
       NUMBER_OF_ATOMS  156
       MULTIPLE_UNIT_CELL  1 1 1
     &END TOPOLOGY
     &COLVAR
       &DISTANCE
         ATOMS  145 152
       &END DISTANCE
       &PRINT
       &END PRINT
     &END COLVAR
   &END SUBSYS
 &END FORCE_EVAL
