 # Version information for this restart file 
 # current date 2019-05-27 20:07:25.945
 # current working dir /lustre03/project/6004141/rzk/GaN-carbene/334-native/08-2Methanol-Htransfer/01-Constraint/1.56
 # Program compiled at                              Sun Apr  7 00:48:11 EDT 2019
 # Program compiled on                          beluga2.int.ets1.calculquebec.ca
 # Program compiled for                        Beluga-Linux-x86-64-intel-openmpi
 # Source code revision number                                         svn:18619
 &GLOBAL
   PRINT_LEVEL  MEDIUM
   PROJECT_NAME TEST
   RUN_TYPE  GEO_OPT
 &END GLOBAL
 &MOTION
   &GEO_OPT
     MAX_ITER  500
     STEP_START_VAL  170
   &END GEO_OPT
   &CONSTRAINT
     &COLLECTIVE
       COLVAR  1
       INTERMOLECULAR  T
       TARGET     2.9479727673016032E+00
       &RESTRAINT
         K     1.0000000000000001E-01
       &END RESTRAINT
     &END COLLECTIVE
     &COLVAR_RESTART
           2.9479727673016032E+00
     &END COLVAR_RESTART
   &END CONSTRAINT
 &END MOTION
 &FORCE_EVAL
   METHOD  QS
   STRESS_TENSOR  ANALYTICAL
   &DFT
     BASIS_SET_FILE_NAME BASIS_MOLOPT
     POTENTIAL_FILE_NAME GTH_POTENTIALS
     &SCF
       MAX_SCF  100
       EPS_SCF     5.0000000000000004E-06
       &OT  T
         PRECONDITIONER  FULL_ALL
       &END OT
       &OUTER_SCF  T
         OPTIMIZER  NONE
         EPS_SCF     5.0000000000000004E-06
         MAX_SCF  4
       &END OUTER_SCF
       &PRINT
         &RESTART  OFF
           BACKUP_COPIES  1
           &EACH
             JUST_ENERGY  0
             QS_SCF  0
             MD  20
           &END EACH
         &END RESTART
       &END PRINT
     &END SCF
     &QS
       EPS_DEFAULT     1.0000000000000000E-14
       ALMO_SCF  F
       METHOD  GPW
     &END QS
     &MGRID
       NGRIDS  5
       CUTOFF     1.2000000000000000E+03
     &END MGRID
     &XC
       DENSITY_CUTOFF     1.0000000000000000E-10
       GRADIENT_CUTOFF     1.0000000000000000E-10
       TAU_CUTOFF     1.0000000000000000E-10
       &XC_FUNCTIONAL  NO_SHORTCUT
         &PBE  T
         &END PBE
       &END XC_FUNCTIONAL
       &VDW_POTENTIAL
         POTENTIAL_TYPE  PAIR_POTENTIAL
         &PAIR_POTENTIAL
           R_CUTOFF     1.0000000000000005E+01
           TYPE  DFTD3
           PARAMETER_FILE_NAME dftd3.dat
           REFERENCE_FUNCTIONAL PBE
           EPS_CN     9.9999999999999995E-07
           CALCULATE_C9_TERM  T
           REFERENCE_C9_TERM  T
           LONG_RANGE_CORRECTION  F
           VERBOSE_OUTPUT  F
         &END PAIR_POTENTIAL
       &END VDW_POTENTIAL
     &END XC
   &END DFT
   &SUBSYS
     &CELL
       A     9.7367653356401487E+00    0.0000000000000000E+00    0.0000000000000000E+00
       B    -4.8591341382960209E+00    8.4162672083210595E+00    0.0000000000000000E+00
       C     0.0000000000000000E+00    0.0000000000000000E+00    3.0744000000000000E+01
       MULTIPLE_UNIT_CELL  1 1 1
       &CELL_REF
         A     9.5580000000000052E+00    0.0000000000000000E+00    0.0000000000000000E+00
         B    -4.7790000000000026E+00    8.2774708093716640E+00    0.0000000000000000E+00
         C     0.0000000000000000E+00    0.0000000000000000E+00    3.0744000000000000E+01
         MULTIPLE_UNIT_CELL  1 1 1
       &END CELL_REF
     &END CELL
     &COORD
Ga    5.0081861859193895E-02   -1.5729008304801015E-01   -5.4683110505170596E-01
N    5.2542958055811134E-02    1.7163845910471780E+00    6.0939267330567537E-01
Ga    5.1709506638661397E-02    1.6841152134877162E+00    2.6379568811426624E+00
N    4.8798053402460399E-02   -1.5980381769455049E-01    3.2710983319157689E+00
Ga    4.9239824872274664E-02   -1.5914715030347851E-01    5.2597946624736140E+00
N    5.2195051011387779E-02    1.7153461473638401E+00    5.8489505587380526E+00
Ga    5.2554040270242595E-02    1.7124950675904560E+00    7.8450380822354466E+00
N    4.9050580533445028E-02   -1.5910816542286038E-01    8.4527859888477721E+00
Ga    5.5234916926306027E-02   -1.5632539009817478E-01    1.0448806228760459E+01
N    4.9380645029340808E-02    1.7122742823578641E+00    1.1065056266005739E+01
Ga    4.5233089817813807E-02    1.7116527862492477E+00    1.3072016554861529E+01
N    4.8913412073508057E-02   -1.6668343638403404E-01    1.3654598859164267E+01
Ga    7.2278910108333372E-02   -1.5092438643438622E-01    1.5658795758037966E+01
N    8.9313086907801653E-02    1.6925032094570702E+00    1.6268413220442216E+01
Ga    9.8264960968485610E-02    1.6877995635326348E+00    1.8437786008280369E+01
N    8.8772339803988701E-02   -1.8126898788678900E-01    1.8920598224490845E+01
Ga   -1.5696395784356487E+00    2.6458987309427089E+00    3.2369014693824338E-01
N   -1.5720266466039834E+00    4.5154828948997308E+00    6.0808484997668744E-01
Ga   -1.5436444229226900E+00    4.5312679964025433E+00    2.6369306634836867E+00
N   -1.5709529385342460E+00    2.6461638650142940E+00    3.2318134032004076E+00
Ga   -1.5706948913997316E+00    2.6468681624564980E+00    5.2411101293758060E+00
N   -1.5706920727264471E+00    4.5173171734919260E+00    5.8512828226047979E+00
Ga   -1.5704593756465077E+00    4.5181437551158830E+00    7.8484254505596152E+00
N   -1.5703991396132615E+00    2.6449853644773653E+00    8.4485167643921582E+00
Ga   -1.5655869053290903E+00    2.6420650202831344E+00    1.0437856810121845E+01
N   -1.5697634145400843E+00    4.5123242873785934E+00    1.1047251024559079E+01
Ga   -1.5551012348478623E+00    4.4846993551918102E+00    1.3031203817967581E+01
N   -1.5674875805212272E+00    2.6461441000064370E+00    1.3700693872628356E+01
Ga   -1.5430524321876504E+00    2.6355484379560274E+00    1.5760770304039527E+01
N   -1.5621744915632316E+00    4.5290912636144949E+00    1.6318155086053711E+01
Ga   -1.5177913609832472E+00    4.4919351739743165E+00    1.8470548425478558E+01
N   -1.5294075466790658E+00    2.6311375430172537E+00    1.8743565424490548E+01
Ga   -3.1903210808505023E+00    5.4521796635624904E+00    3.2400905132184515E-01
N   -3.1831023988007887E+00    7.3220323186075689E+00    6.0797156489947324E-01
Ga   -3.2119461695601204E+00    7.3374186416580773E+00    2.6367427078101855E+00
N   -3.1904254238286840E+00    5.4516453802643037E+00    3.2308059982485617E+00
Ga   -3.1901626199697617E+00    5.4525687428366512E+00    5.2398053617718912E+00
N   -3.1852414950370020E+00    7.3220517526096556E+00    5.8516829281479810E+00
Ga   -3.1860870939331161E+00    7.3222934366532231E+00    7.8495041479112455E+00
N   -3.1931559768514233E+00    5.4506239325134258E+00    8.4578064492596461E+00
Ga   -3.1909355265190644E+00    5.4556071540786428E+00    1.0451445554062238E+01
N   -3.1867351503615211E+00    7.3221118085425489E+00    1.1061560985667569E+01
Ga   -3.1589937983423053E+00    7.3621106296020145E+00    1.3066036657819467E+01
N   -3.1891837824432208E+00    5.4416759914463686E+00    1.3642711360816065E+01
Ga   -2.9253106679445953E+00    5.5837503432481572E+00    1.5551557187109101E+01
N   -3.2682776475741080E+00    7.2485855576855958E+00    1.6313597947526528E+01
Ga   -3.2083837803795490E+00    7.2876811980280047E+00    1.8436784119869206E+01
N   -3.0753789870239916E+00    5.4575337902080925E+00    1.9102522774090801E+01
Ga    3.2954156700402795E+00   -1.5900561777464836E-01    3.2347256767431976E-01
N    3.2932653970598866E+00    1.7106326570607167E+00    6.0782882066599020E-01
Ga    3.3211852647127205E+00    1.7261170358605291E+00    2.6367343522673914E+00
N    3.2943209171786707E+00   -1.5917299024274850E-01    3.2315305711750595E+00
Ga    3.2943731493653829E+00   -1.5842916963995898E-01    5.2410060153914531E+00
N    3.2952392162298909E+00    1.7115838341083258E+00    5.8523147347765185E+00
Ga    3.2954153374493669E+00    1.7100255294931916E+00    7.8505777072246357E+00
N    3.2940278626780324E+00   -1.6020820231508306E-01    8.4573465144034490E+00
Ga    3.2982024054004531E+00   -1.6219585477541135E-01    1.0456148175580989E+01
N    3.2990933489138334E+00    1.7107778718012965E+00    1.1058647079490523E+01
Ga    3.2790378140404086E+00    1.6633619681105738E+00    1.3061522207923169E+01
N    3.2895322624752339E+00   -1.5878502472134498E-01    1.3736225869964278E+01
Ga    3.3072146317041469E+00   -1.6843275782152647E-01    1.6148373197239582E+01
N    3.3204158689293655E+00    1.8123746044692299E+00    1.6303693994771191E+01
Ga    3.3135725436248449E+00    1.7450097107290030E+00    1.8431730554252677E+01
N    3.3218145878700200E+00   -1.7813852080796844E-01    1.8302092360345686E+01
Ga    1.6745618803852871E+00    2.6466119152744727E+00    3.2412915871479059E-01
N    1.6823172836983056E+00    4.5161970550303012E+00    6.0851664352127899E-01
Ga    1.6530717060932336E+00    4.5315541366867906E+00    2.6370268397366341E+00
N    1.6750057781630010E+00    2.6461698039759698E+00    3.2315048417751178E+00
Ga    1.6754586781125727E+00    2.6466458170120188E+00    5.2407270604960488E+00
N    1.6796391695818915E+00    4.5166817659152132E+00    5.8519242276065855E+00
Ga    1.6759971482653335E+00    4.5159039763600930E+00    7.8493486319469312E+00
N    1.6735849338807829E+00    2.6446376226458987E+00    8.4557545589851628E+00
Ga    1.6747726888897021E+00    2.6382495384486120E+00    1.0450631050884986E+01
N    1.6778493000480119E+00    4.5172847945114967E+00    1.1041294917017964E+01
Ga    1.6545249869813534E+00    4.4963578696601250E+00    1.3017956862606141E+01
N    1.6799386053732384E+00    2.6451400039159179E+00    1.3642001232438140E+01
Ga    1.6810500737082115E+00    2.6062234788880430E+00    1.5636786370490379E+01
N    1.6503702357152124E+00    4.5026898061835450E+00    1.6226645709936928E+01
Ga    1.3838728745386435E+00    4.3033037598039590E+00    1.8187786957139625E+01
N    1.7192414032137668E+00    2.6428391322301223E+00    1.8900745680569504E+01
Ga    5.6010781420623018E-02    5.4514799481343648E+00   -5.4705514045086068E-01
N    5.8637234570694724E-02    7.3273467479521806E+00    6.0841079455800895E-01
Ga    5.7654138026509885E-02    7.2949460305005092E+00    2.6370221693394886E+00
N    5.4865330525182450E-02    5.4513211277227569E+00    3.2711593540473216E+00
Ga    5.5049416814968472E-02    5.4520742097373800E+00    5.2601542240221608E+00
N    5.7973060017597458E-02    7.3266532341550237E+00    5.8503175801261822E+00
Ga    5.6065366363234767E-02    7.3255045641625687E+00    7.8477791126301550E+00
N    5.3302650014569755E-02    5.4530067062604406E+00    8.4538017007775768E+00
Ga    5.2061617103266400E-02    5.4611479417636861E+00    1.0450392785817842E+01
N    5.7486905918323963E-02    7.3243078207594667E+00    1.1071994977159333E+01
Ga    2.4149827825158451E-02    7.3450876257226136E+00    1.3092274737484322E+01
N    4.9764186890735286E-02    5.4414964844063203E+00    1.3638124995955486E+01
Ga    2.9024103349396941E-02    5.4617460180703494E+00    1.5632563469140294E+01
N    1.3829804434472620E-01    7.2730285537541883E+00    1.6254811632952453E+01
Ga    1.4158403660462143E-01    7.2865035211962965E+00    1.8364457817586786E+01
N    1.2661600996179931E-01    5.4479875630649861E+00    1.8949748121707028E+01
Ga    6.5401459502633887E+00   -1.5852155325664549E-01    3.2385297794247458E-01
N    6.5474778200563613E+00    1.7112340076188142E+00    6.0800638312902344E-01
Ga    6.5188267348064999E+00    1.7264394385364925E+00    2.6369206229187614E+00
N    6.5400371071321892E+00   -1.5914225677541696E-01    3.2310526599483498E+00
Ga    6.5401261121248497E+00   -1.5837343778049054E-01    5.2402828869664315E+00
N    6.5447998317131697E+00    1.7116960001289703E+00    5.8509379560262289E+00
Ga    6.5421604410023813E+00    1.7108125206378046E+00    7.8479932509388881E+00
N    6.5378560048827037E+00   -1.5911301463430730E-01    8.4565924447167191E+00
Ga    6.5311833130473342E+00   -1.6028066546223829E-01    1.0452073987665134E+01
N    6.5471694313086308E+00    1.7159935668867676E+00    1.1052118501259326E+01
Ga    6.5778395629285731E+00    1.7137172395130251E+00    1.3039693562687125E+01
N    6.5469586176721268E+00   -1.5221562740521533E-01    1.3654343767123844E+01
Ga    6.5284606961148235E+00   -1.4072938248983499E-01    1.5663751434566798E+01
N    6.5391700152194776E+00    1.7184502016772216E+00    1.6303836030534615E+01
Ga    6.5969128525737295E+00    1.6921539720190453E+00    1.8453576550451835E+01
N    6.5504517218311076E+00   -1.8123213593845583E-01    1.8925144860144513E+01
Ga    4.9210129832122513E+00    2.6473076437485963E+00   -5.4667459027437504E-01
N    4.9239254059408646E+00    4.5221759609755754E+00    6.0846244364571389E-01
Ga    4.9229208050531410E+00    4.4897084054992806E+00    2.6372142094009541E+00
N    4.9201174701161392E+00    2.6458879073322130E+00    3.2705445724814988E+00
Ga    4.9200968751301035E+00    2.6463651230802001E+00    5.2591732089161338E+00
N    4.9233023869324093E+00    4.5209689375426221E+00    5.8495337172127178E+00
Ga    4.9231179571845027E+00    4.5183560744536075E+00    7.8452527377939445E+00
N    4.9197281482479287E+00    2.6475668237367120E+00    8.4560946801953705E+00
Ga    4.9180210176869084E+00    2.6438097363928574E+00    1.0451641085415504E+01
N    4.9190140444878132E+00    4.5201890882509952E+00    1.1066769977519822E+01
Ga    4.9204173956795714E+00    4.5181893584893853E+00    1.3045260428481530E+01
N    4.9262125251222875E+00    2.6485759280471153E+00    1.3637422288414205E+01
Ga    4.9362535005991459E+00    2.3577162719517419E+00    1.5547812385395307E+01
N    4.7754582268894801E+00    4.5828256300213521E+00    1.6485501328726833E+01
Ga    5.3480937826964050E+00    4.2786281707697578E+00    1.9625645080326880E+01
N    4.9675247429725786E+00    2.5808222969480958E+00    1.9034237420189775E+01
Ga    3.3014730393948910E+00    5.4517712040672297E+00    3.2391244093895749E-01
N    3.2995542101030639E+00    7.3214844121100331E+00    6.0789618231257270E-01
Ga    3.3276351590654798E+00    7.3372062774803917E+00    2.6366909395158875E+00
N    3.3003018801524533E+00    5.4517143093486036E+00    3.2315855016386990E+00
Ga    3.3000551517213870E+00    5.4525330077985990E+00    5.2409467147147550E+00
N    3.3009101344202207E+00    7.3228774254217530E+00    5.8516269412345725E+00
Ga    3.3007850969191801E+00    7.3243001439622555E+00    7.8488503177251490E+00
N    3.3007084933763542E+00    5.4509631905288023E+00    8.4516154200305067E+00
Ga    3.2995632562918207E+00    5.4526992497023077E+00    1.0439323494021377E+01
N    3.3039118528773792E+00    7.3234473729713505E+00    1.1043387562245282E+01
Ga    3.3084492032038662E+00    7.3545369475392341E+00    1.3021432202924823E+01
N    3.2871977799666929E+00    5.4588599533306095E+00    1.3642321431431670E+01
Ga    3.0135912389740449E+00    5.6294993222255387E+00    1.5539699859792533E+01
N    3.3043759659776146E+00    7.3502198477851701E+00    1.6272213373708738E+01
Ga    3.3283362795646365E+00    7.6881304024046626E+00    1.8287871202919170E+01
N    4.5614969759723438E+00    4.6940118388515657E+00    1.7626822877801558E+01
O    1.4230811390874651E+00    5.0432534220990801E+00    2.1262171245439180E+01
H    8.2105337855208649E-01    5.2462003625473592E+00    2.0435566080879699E+01
C    9.1049893431121842E-01    3.8601718066824526E+00    2.1913901743888868E+01
H    1.0783693907569842E+00    2.9681001182890299E+00    2.1291922058306238E+01
H    1.4310633899174077E+00    3.7546391117840083E+00    2.2873706315817710E+01
H   -1.6584866030189077E-01    3.9752694856367459E+00    2.2103225885799578E+01
O    3.9035594175835731E+00    5.2212957875551798E+00    2.0640683720060295E+01
H    2.9028249396440522E+00    4.9547769010035365E+00    2.0832821455707112E+01
C    4.2007588898665462E+00    6.3622321377037077E+00    2.1517930410367796E+01
H    4.3845640479202119E+00    5.9970936745452148E+00    2.2534926714727149E+01
H    5.0707210944267871E+00    6.8876726899590315E+00    2.1111834925232682E+01
H    3.3334794178454645E+00    7.0333806554855602E+00    2.1492860197578828E+01
     &END COORD
     &KIND C
       BASIS_SET DZVP-MOLOPT-SR-GTH-q4
       POTENTIAL GTH-PBE-q4
       &POTENTIAL
 2 2
  0.3384712400000000E+00 2 -0.8803673979999999E+01  0.1339210850000000E+01
 2
  0.3025757500000000E+00 1  0.9622486650000001E+01
  0.2915069400000000E+00 0
         # Potential name:  GTH-PBE-Q4  for symbol:  C
         # Potential read from the potential filename: GTH_POTENTIALS
       &END POTENTIAL
     &END KIND
     &KIND O
       BASIS_SET DZVP-MOLOPT-SR-GTH-q6
       POTENTIAL GTH-PBE-q6
       &POTENTIAL
 2 4
  0.2445543000000000E+00 2 -0.1666721480000000E+02  0.2487311320000000E+01
 2
  0.2209559200000000E+00 1  0.1833745811000000E+02
  0.2113324700000000E+00 0
         # Potential name:  GTH-PBE-Q6  for symbol:  O
         # Potential read from the potential filename: GTH_POTENTIALS
       &END POTENTIAL
     &END KIND
     &KIND H
       BASIS_SET DZVP-MOLOPT-SR-GTH-q1
       POTENTIAL GTH-PBE-q1
       &POTENTIAL
 1
  0.2000000000000000E+00 2 -0.4178900440000000E+01  0.7244633100000000E+00
 0
         # Potential name:  GTH-PBE-Q1  for symbol:  H
         # Potential read from the potential filename: GTH_POTENTIALS
       &END POTENTIAL
     &END KIND
     &KIND N
       BASIS_SET DZVP-MOLOPT-SR-GTH-q5
       POTENTIAL GTH-PBE-q5
       &POTENTIAL
 2 3
  0.2837905100000000E+00 2 -0.1241522559000000E+02  0.1868095920000000E+01
 2
  0.2554050000000000E+00 1  0.1363026257000000E+02
  0.2454945300000000E+00 0
         # Potential name:  GTH-PBE-Q5  for symbol:  N
         # Potential read from the potential filename: GTH_POTENTIALS
       &END POTENTIAL
     &END KIND
     &KIND Ga
       BASIS_SET DZVP-MOLOPT-SR-GTH-q13
       POTENTIAL GTH-PBE-q13
       &POTENTIAL
 2 1 10
  0.4900000000000000E+00 0
 3
  0.4167772300000000E+00 3  0.1047568975000000E+02 -0.4921768140000000E+01  0.8707055900000000E+00
  0.7770178090000000E+01 -0.2248152160000000E+01
  0.1784415450000000E+01
  0.5696265200000000E+00 2  0.1777985340000000E+01  0.1958597600000000E+00
 -0.2317443900000000E+00
  0.2381265000000000E+00 1 -0.1624868022000000E+02
         # Potential name:  GTH-PBE-Q13  for symbol:  GA
         # Potential read from the potential filename: GTH_POTENTIALS
       &END POTENTIAL
     &END KIND
     &TOPOLOGY
       COORD_FILE_NAME ../start-first.xyz
       COORD_FILE_FORMAT  XYZ
       NUMBER_OF_ATOMS  156
       MULTIPLE_UNIT_CELL  1 1 1
     &END TOPOLOGY
     &COLVAR
       &DISTANCE
         ATOMS  145 152
       &END DISTANCE
       &PRINT
       &END PRINT
     &END COLVAR
   &END SUBSYS
 &END FORCE_EVAL
