 # Version information for this restart file 
 # current date 2019-05-27 20:08:07.203
 # current working dir /lustre03/project/6004141/rzk/GaN-carbene/334-native/08-2Methanol-Htransfer/01-Constraint/1.56
 # Program compiled at                              Sun Apr  7 00:48:11 EDT 2019
 # Program compiled on                          beluga2.int.ets1.calculquebec.ca
 # Program compiled for                        Beluga-Linux-x86-64-intel-openmpi
 # Source code revision number                                         svn:18619
 &GLOBAL
   PRINT_LEVEL  MEDIUM
   PROJECT_NAME TEST
   RUN_TYPE  GEO_OPT
 &END GLOBAL
 &MOTION
   &GEO_OPT
     MAX_ITER  500
     STEP_START_VAL  171
   &END GEO_OPT
   &CONSTRAINT
     &COLLECTIVE
       COLVAR  1
       INTERMOLECULAR  T
       TARGET     2.9479727673016032E+00
       &RESTRAINT
         K     1.0000000000000001E-01
       &END RESTRAINT
     &END COLLECTIVE
     &COLVAR_RESTART
           2.9479727673016032E+00
     &END COLVAR_RESTART
   &END CONSTRAINT
 &END MOTION
 &FORCE_EVAL
   METHOD  QS
   STRESS_TENSOR  ANALYTICAL
   &DFT
     BASIS_SET_FILE_NAME BASIS_MOLOPT
     POTENTIAL_FILE_NAME GTH_POTENTIALS
     &SCF
       MAX_SCF  100
       EPS_SCF     5.0000000000000004E-06
       &OT  T
         PRECONDITIONER  FULL_ALL
       &END OT
       &OUTER_SCF  T
         OPTIMIZER  NONE
         EPS_SCF     5.0000000000000004E-06
         MAX_SCF  4
       &END OUTER_SCF
       &PRINT
         &RESTART  OFF
           BACKUP_COPIES  1
           &EACH
             JUST_ENERGY  0
             QS_SCF  0
             MD  20
           &END EACH
         &END RESTART
       &END PRINT
     &END SCF
     &QS
       EPS_DEFAULT     1.0000000000000000E-14
       ALMO_SCF  F
       METHOD  GPW
     &END QS
     &MGRID
       NGRIDS  5
       CUTOFF     1.2000000000000000E+03
     &END MGRID
     &XC
       DENSITY_CUTOFF     1.0000000000000000E-10
       GRADIENT_CUTOFF     1.0000000000000000E-10
       TAU_CUTOFF     1.0000000000000000E-10
       &XC_FUNCTIONAL  NO_SHORTCUT
         &PBE  T
         &END PBE
       &END XC_FUNCTIONAL
       &VDW_POTENTIAL
         POTENTIAL_TYPE  PAIR_POTENTIAL
         &PAIR_POTENTIAL
           R_CUTOFF     1.0000000000000005E+01
           TYPE  DFTD3
           PARAMETER_FILE_NAME dftd3.dat
           REFERENCE_FUNCTIONAL PBE
           EPS_CN     9.9999999999999995E-07
           CALCULATE_C9_TERM  T
           REFERENCE_C9_TERM  T
           LONG_RANGE_CORRECTION  F
           VERBOSE_OUTPUT  F
         &END PAIR_POTENTIAL
       &END VDW_POTENTIAL
     &END XC
   &END DFT
   &SUBSYS
     &CELL
       A     9.7367653356401487E+00    0.0000000000000000E+00    0.0000000000000000E+00
       B    -4.8591341382960209E+00    8.4162672083210595E+00    0.0000000000000000E+00
       C     0.0000000000000000E+00    0.0000000000000000E+00    3.0744000000000000E+01
       MULTIPLE_UNIT_CELL  1 1 1
       &CELL_REF
         A     9.5580000000000052E+00    0.0000000000000000E+00    0.0000000000000000E+00
         B    -4.7790000000000026E+00    8.2774708093716640E+00    0.0000000000000000E+00
         C     0.0000000000000000E+00    0.0000000000000000E+00    3.0744000000000000E+01
         MULTIPLE_UNIT_CELL  1 1 1
       &END CELL_REF
     &END CELL
     &COORD
Ga    4.9884997155750510E-02   -1.5769952265099732E-01   -5.4673840604989377E-01
N    5.2387897224581037E-02    1.7159767205941576E+00    6.0946456865270093E-01
Ga    5.1558320115514374E-02    1.6837058341580471E+00    2.6380184866117893E+00
N    4.8612053785315329E-02   -1.6018758947187417E-01    3.2711646297148418E+00
Ga    4.9121197115081290E-02   -1.5947340476117683E-01    5.2598570823991997E+00
N    5.2129252922421349E-02    1.7150181159940034E+00    5.8489751550320239E+00
Ga    5.2598779263417661E-02    1.7123780839444500E+00    7.8450492903859370E+00
N    4.9110113569003300E-02   -1.5920053281175220E-01    8.4529014318490585E+00
Ga    5.5405861807943997E-02   -1.5625867256638237E-01    1.0448920707607355E+01
N    4.9551266837441141E-02    1.7123547343750232E+00    1.1065021647261378E+01
Ga    4.5535652396766990E-02    1.7116858450218650E+00    1.3071940378565790E+01
N    4.9129771842594122E-02   -1.6655666427082308E-01    1.3654686521811351E+01
Ga    7.2477478244325697E-02   -1.5087994867086535E-01    1.5658969025242525E+01
N    8.9489648737052230E-02    1.6926273097601061E+00    1.6268602505832842E+01
Ga    9.8414811105709307E-02    1.6878157588984775E+00    1.8438130196555026E+01
N    8.8963645316020495E-02   -1.8128341410989143E-01    1.8920497848881990E+01
Ga   -1.5697627799267826E+00    2.6455202210827715E+00    3.2379451806211901E-01
N   -1.5721337866332863E+00    4.5151199362417511E+00    6.0811232591843145E-01
Ga   -1.5437848669805567E+00    4.5308806552512282E+00    2.6369810980141741E+00
N   -1.5710898398359940E+00    2.6457731573126857E+00    3.2318389643511956E+00
Ga   -1.5708005775329312E+00    2.6465462058789200E+00    5.2411404662383729E+00
N   -1.5708132050828687E+00    4.5170224216125181E+00    5.8513420862879260E+00
Ga   -1.5704183842611263E+00    4.5180208795395354E+00    7.8484962975066255E+00
N   -1.5702958692753477E+00    2.6448859091994237E+00    8.4485505471258211E+00
Ga   -1.5654259262051278E+00    2.6421003855775282E+00    1.0437869586778817E+01
N   -1.5695561274532603E+00    4.5123485029426638E+00    1.1047253648604867E+01
Ga   -1.5548302655205983E+00    4.4847546290303972E+00    1.3031246337832675E+01
N   -1.5672215319601932E+00    2.6461527549586630E+00    1.3700627356027592E+01
Ga   -1.5428274352377107E+00    2.6355949665791538E+00    1.5760631531191196E+01
N   -1.5619082343681843E+00    4.5290025995131735E+00    1.6318186338676846E+01
Ga   -1.5174416428782962E+00    4.4916511055202486E+00    1.8470666151554738E+01
N   -1.5292234524246071E+00    2.6310732666349899E+00    1.8744787893201412E+01
Ga   -3.1904572747062141E+00    5.4517940534320672E+00    3.2409722782484418E-01
N   -3.1832893056316518E+00    7.3216378396508164E+00    6.0804890717794968E-01
Ga   -3.2121720194537087E+00    7.3370315880216008E+00    2.6368177954865870E+00
N   -3.1905808172655497E+00    5.4512436087993290E+00    3.2308169805899882E+00
Ga   -3.1902589329990114E+00    5.4522369595613052E+00    5.2397933060204531E+00
N   -3.1853472575770496E+00    7.3217190275535682E+00    5.8517174611683771E+00
Ga   -3.1860434418217283E+00    7.3221689120290057E+00    7.8495373291871555E+00
N   -3.1930951809086272E+00    5.4505599985960762E+00    8.4579701153318396E+00
Ga   -3.1907554894917176E+00    5.4556968614301580E+00    1.0451598723602062E+01
N   -3.1865467873411126E+00    7.3222309433379307E+00    1.1061709264954413E+01
Ga   -3.1587628435075796E+00    7.3621516021823075E+00    1.3066268224148534E+01
N   -3.1889761356120165E+00    5.4416692166513938E+00    1.3642673952181161E+01
Ga   -2.9251598532894483E+00    5.5836417978887871E+00    1.5551670364961709E+01
N   -3.2680135901421514E+00    7.2486923781516763E+00    1.6313615225372718E+01
Ga   -3.2082583483062050E+00    7.2877119524539120E+00    1.8436555186819589E+01
N   -3.0750552965441496E+00    5.4574820875161763E+00    1.9102323860643128E+01
Ga    3.2952245728140546E+00   -1.5942176415155077E-01    3.2361830740469771E-01
N    3.2930532430158066E+00    1.7101936234908590E+00    6.0795162573046568E-01
Ga    3.3210005704685766E+00    1.7257214120383075E+00    2.6368054183256291E+00
N    3.2941293892485559E+00   -1.5957874690277898E-01    3.2315736161153987E+00
Ga    3.2942364717349553E+00   -1.5872899669327076E-01    5.2410339007425772E+00
N    3.2951534910165630E+00    1.7112991386887004E+00    5.8523832737411592E+00
Ga    3.2954642768046494E+00    1.7099195447826152E+00    7.8506223932404513E+00
N    3.2940965613709992E+00   -1.6031546639394856E-01    8.4574183838216914E+00
Ga    3.2983715943488425E+00   -1.6214931800628329E-01    1.0456191216707834E+01
N    3.2992747476082021E+00    1.7107986482552260E+00    1.1058687619043731E+01
Ga    3.2792538027200102E+00    1.6634410410451432E+00    1.3061576597879949E+01
N    3.2897867331878459E+00   -1.5870983766137622E-01    1.3736300607934755E+01
Ga    3.3073924623522082E+00   -1.6844044003031544E-01    1.6148486301302629E+01
N    3.3206543057888047E+00    1.8124241939346688E+00    1.6303826320532711E+01
Ga    3.3136323317576086E+00    1.7449632103006756E+00    1.8431817206676278E+01
N    3.3219958447146953E+00   -1.7819535621925264E-01    1.8301823159580284E+01
Ga    1.6743859386375723E+00    2.6461956481886459E+00    3.2417258386210018E-01
N    1.6821743250068246E+00    4.5157966172076165E+00    6.0860850927298360E-01
Ga    1.6529636925085989E+00    4.5311251637909091E+00    2.6371490950629815E+00
N    1.6748390956278962E+00    2.6457624507938680E+00    3.2315873062813556E+00
Ga    1.6753626928542293E+00    2.6463158658733064E+00    5.2407522039313834E+00
N    1.6795314361428177E+00    4.5163737276317066E+00    5.8519479477774281E+00
Ga    1.6760236374901454E+00    4.5157820526056573E+00    7.8493701380536240E+00
N    1.6736358443799790E+00    2.6445348865538514E+00    8.4558135934659262E+00
Ga    1.6749501135581375E+00    2.6382689195737195E+00    1.0450680481017494E+01
N    1.6780402678400197E+00    4.5173181950511854E+00    1.1041340427119794E+01
Ga    1.6547872449838970E+00    4.4963568268862995E+00    1.3018065329373401E+01
N    1.6801518230953487E+00    2.6451123739555520E+00    1.3642091034179234E+01
Ga    1.6812568453949566E+00    2.6062424075401069E+00    1.5636898811226251E+01
N    1.6507255964640755E+00    4.5026885929502347E+00    1.6226845485725629E+01
Ga    1.3841404449793751E+00    4.3031406053076084E+00    1.8187973605393253E+01
N    1.7194207561640071E+00    2.6427321271162505E+00    1.8901109624442654E+01
Ga    5.5923895873257953E-02    5.4512114650172574E+00   -5.4688152553069347E-01
N    5.8470481657900177E-02    7.3269835650487778E+00    6.0854385501335095E-01
Ga    5.7501945907608806E-02    7.2945733968443776E+00    2.6371282683348598E+00
N    5.4741161768687457E-02    5.4509274210264040E+00    3.2711709053952269E+00
Ga    5.4916603419739481E-02    5.4517360152212015E+00    5.2601529907245776E+00
N    5.7854262570010577E-02    7.3263280901460783E+00    5.8503319186617944E+00
Ga    5.6095350763715038E-02    7.3253748253203792E+00    7.8477534045663768E+00
N    5.3366166323709843E-02    5.4529219887508500E+00    8.4538446219813235E+00
Ga    5.2239862752089451E-02    5.4611829460252928E+00    1.0450439125879466E+01
N    5.7619678532589133E-02    7.3243531823860044E+00    1.1072044089913197E+01
Ga    2.4425209878899502E-02    7.3450655668358529E+00    1.3092419230885715E+01
N    5.0007710235159576E-02    5.4414765276078896E+00    1.3638256253160138E+01
Ga    2.9252124438498690E-02    5.4616440051725101E+00    1.5632712867708266E+01
N    1.3856542059096336E-01    7.2729444557757397E+00    1.6254762432420506E+01
Ga    1.4181239364502263E-01    7.2864482348128758E+00    1.8364406877091607E+01
N    1.2687012721097518E-01    5.4479067299328312E+00    1.8949553703354027E+01
Ga    6.5400082583028452E+00   -1.5890852145445386E-01    3.2400810366897487E-01
N    6.5473493687514228E+00    1.7108484132166779E+00    6.0808662330894125E-01
Ga    6.5186836013951073E+00    1.7260325483853585E+00    2.6369755112258457E+00
N    6.5398945655271516E+00   -1.5955905398736381E-01    3.2311045292662577E+00
Ga    6.5400337249418259E+00   -1.5869149589994266E-01    5.2403204561945964E+00
N    6.5447099825542496E+00    1.7113836234950242E+00    5.8509913313432920E+00
Ga    6.5422423782681696E+00    1.7106743317080080E+00    7.8480397515761435E+00
N    6.5378677291240939E+00   -1.5923734242904969E-01    8.4567005496599030E+00
Ga    6.5313168435645483E+00   -1.6021982739862833E-01    1.0452172314007644E+01
N    6.5473883598078730E+00    1.7160527682623088E+00    1.1052105778181399E+01
Ga    6.5781015164912882E+00    1.7137216598564970E+00    1.3039657635233908E+01
N    6.5472325258769049E+00   -1.5217279488588054E-01    1.3654397281331324E+01
Ga    6.5287529606622883E+00   -1.4078090845656657E-01    1.5663826042212287E+01
N    6.5394682030310287E+00    1.7183915707022870E+00    1.6303827524358123E+01
Ga    6.5971490417132141E+00    1.6922574708761804E+00    1.8453692529498763E+01
N    6.5506093439398052E+00   -1.8114875198555819E-01    1.8925316272451102E+01
Ga    4.9208241723720034E+00    2.6468717722906003E+00   -5.4665157999997838E-01
N    4.9237853701194636E+00    4.5217699548155377E+00    6.0852883403585478E-01
Ga    4.9227586255509435E+00    4.4892681456446972E+00    2.6372821445928505E+00
N    4.9199551122745975E+00    2.6454543156522057E+00    3.2705777033162695E+00
Ga    4.9200184180165136E+00    2.6460165700262435E+00    5.2592057585761260E+00
N    4.9232329512197817E+00    4.5206646247866678E+00    5.8495885385880388E+00
Ga    4.9231909668812035E+00    4.5182596517625724E+00    7.8452905821648917E+00
N    4.9197986715495254E+00    2.6474926646097949E+00    8.4561798823289855E+00
Ga    4.9182043943423075E+00    2.6438548396729522E+00    1.0451698049757393E+01
N    4.9191763081204591E+00    4.5202505397758443E+00    1.1066786887701374E+01
Ga    4.9206594744607086E+00    4.5182053265033382E+00    1.3045267618247266E+01
N    4.9264601743289589E+00    2.6485500717326786E+00    1.3637420990388021E+01
Ga    4.9365453250813269E+00    2.3575568499628332E+00    1.5547757283265579E+01
N    4.7763222863245227E+00    4.5833667200254737E+00    1.6485163559653021E+01
Ga    5.3483306526571806E+00    4.2788167246693067E+00    1.9625771713337194E+01
N    4.9676579106825240E+00    2.5809109194679198E+00    1.9034260224759738E+01
Ga    3.3013355243601632E+00    5.4513937504366865E+00    3.2401041626776139E-01
N    3.2994080832411496E+00    7.3210992792352219E+00    6.0802640217990800E-01
Ga    3.3274918629409544E+00    7.3367835342038115E+00    2.6368130090960347E+00
N    3.3001659020245757E+00    5.4513011310283259E+00    3.2316735412767859E+00
Ga    3.2999718377781058E+00    5.4521870504050813E+00    5.2409972051134393E+00
N    3.3008195952010295E+00    7.3225315940704530E+00    5.8516651163477196E+00
Ga    3.3007974120500405E+00    7.3241839345424369E+00    7.8488953922518876E+00
N    3.3007419812291472E+00    5.4508560446143228E+00    8.4516483018759967E+00
Ga    3.2997112656758687E+00    5.4527633038635619E+00    1.0439381455656836E+01
N    3.3040960621115127E+00    7.3235110073452709E+00    1.1043464022878791E+01
Ga    3.3086954679675737E+00    7.3545217703800647E+00    1.3021586311411664E+01
N    3.2875071692205151E+00    5.4588308600114432E+00    1.3642426702218325E+01
Ga    3.0139271621081005E+00    5.6293977627247811E+00    1.5539857343633194E+01
N    3.3045930432321562E+00    7.3500631504101115E+00    1.6272471863241549E+01
Ga    3.3284450354043686E+00    7.6883109390860414E+00    1.8287991474842006E+01
N    4.5621527189101503E+00    4.6936145239010010E+00    1.7626535102710370E+01
O    1.4234259999648957E+00    5.0430598457590907E+00    2.1261857532874266E+01
H    8.2154391707605556E-01    5.2464414099670815E+00    2.0435270063578582E+01
C    9.0958550235124669E-01    3.8606150177581138E+00    2.1913543225026313E+01
H    1.0765495174522350E+00    2.9685095812227678E+00    2.1291406440364106E+01
H    1.4297775844377194E+00    3.7543697378685810E+00    2.2873415976341981E+01
H   -1.6664690442801758E-01    3.9767318937144247E+00    2.2102525126139831E+01
O    3.9038446199950285E+00    5.2220008455839801E+00    2.0640444434709064E+01
H    2.9032883807821976E+00    4.9549731338951188E+00    2.0833066608375933E+01
C    4.2007626499805628E+00    6.3635089814911572E+00    2.1517065280086271E+01
H    4.3850383311037699E+00    5.9989379991692511E+00    2.2534274009608630E+01
H    5.0701141331362436E+00    6.8893949163503727E+00    2.1110336367948808E+01
H    3.3331119887526754E+00    7.0341335092151498E+00    2.1492101573483701E+01
     &END COORD
     &KIND C
       BASIS_SET DZVP-MOLOPT-SR-GTH-q4
       POTENTIAL GTH-PBE-q4
       &POTENTIAL
 2 2
  0.3384712400000000E+00 2 -0.8803673979999999E+01  0.1339210850000000E+01
 2
  0.3025757500000000E+00 1  0.9622486650000001E+01
  0.2915069400000000E+00 0
         # Potential name:  GTH-PBE-Q4  for symbol:  C
         # Potential read from the potential filename: GTH_POTENTIALS
       &END POTENTIAL
     &END KIND
     &KIND O
       BASIS_SET DZVP-MOLOPT-SR-GTH-q6
       POTENTIAL GTH-PBE-q6
       &POTENTIAL
 2 4
  0.2445543000000000E+00 2 -0.1666721480000000E+02  0.2487311320000000E+01
 2
  0.2209559200000000E+00 1  0.1833745811000000E+02
  0.2113324700000000E+00 0
         # Potential name:  GTH-PBE-Q6  for symbol:  O
         # Potential read from the potential filename: GTH_POTENTIALS
       &END POTENTIAL
     &END KIND
     &KIND H
       BASIS_SET DZVP-MOLOPT-SR-GTH-q1
       POTENTIAL GTH-PBE-q1
       &POTENTIAL
 1
  0.2000000000000000E+00 2 -0.4178900440000000E+01  0.7244633100000000E+00
 0
         # Potential name:  GTH-PBE-Q1  for symbol:  H
         # Potential read from the potential filename: GTH_POTENTIALS
       &END POTENTIAL
     &END KIND
     &KIND N
       BASIS_SET DZVP-MOLOPT-SR-GTH-q5
       POTENTIAL GTH-PBE-q5
       &POTENTIAL
 2 3
  0.2837905100000000E+00 2 -0.1241522559000000E+02  0.1868095920000000E+01
 2
  0.2554050000000000E+00 1  0.1363026257000000E+02
  0.2454945300000000E+00 0
         # Potential name:  GTH-PBE-Q5  for symbol:  N
         # Potential read from the potential filename: GTH_POTENTIALS
       &END POTENTIAL
     &END KIND
     &KIND Ga
       BASIS_SET DZVP-MOLOPT-SR-GTH-q13
       POTENTIAL GTH-PBE-q13
       &POTENTIAL
 2 1 10
  0.4900000000000000E+00 0
 3
  0.4167772300000000E+00 3  0.1047568975000000E+02 -0.4921768140000000E+01  0.8707055900000000E+00
  0.7770178090000000E+01 -0.2248152160000000E+01
  0.1784415450000000E+01
  0.5696265200000000E+00 2  0.1777985340000000E+01  0.1958597600000000E+00
 -0.2317443900000000E+00
  0.2381265000000000E+00 1 -0.1624868022000000E+02
         # Potential name:  GTH-PBE-Q13  for symbol:  GA
         # Potential read from the potential filename: GTH_POTENTIALS
       &END POTENTIAL
     &END KIND
     &TOPOLOGY
       COORD_FILE_NAME ../start-first.xyz
       COORD_FILE_FORMAT  XYZ
       NUMBER_OF_ATOMS  156
       MULTIPLE_UNIT_CELL  1 1 1
     &END TOPOLOGY
     &COLVAR
       &DISTANCE
         ATOMS  145 152
       &END DISTANCE
       &PRINT
       &END PRINT
     &END COLVAR
   &END SUBSYS
 &END FORCE_EVAL
