 # Version information for this restart file 
 # current date 2019-05-26 14:47:28.978
 # current working dir /lustre03/project/6004141/rzk/GaN-carbene/01-Methanol/443-capped/04-both-conf2
 # Program compiled at                              Sun Apr  7 00:48:11 EDT 2019
 # Program compiled on                          beluga2.int.ets1.calculquebec.ca
 # Program compiled for                        Beluga-Linux-x86-64-intel-openmpi
 # Source code revision number                                         svn:18619
 &GLOBAL
   PRINT_LEVEL  MEDIUM
   PROJECT_NAME TEST
   RUN_TYPE  GEO_OPT
 &END GLOBAL
 &MOTION
   &GEO_OPT
     MAX_ITER  500
     STEP_START_VAL  78
   &END GEO_OPT
 &END MOTION
 &FORCE_EVAL
   METHOD  QS
   STRESS_TENSOR  ANALYTICAL
   &DFT
     BASIS_SET_FILE_NAME BASIS_MOLOPT
     POTENTIAL_FILE_NAME GTH_POTENTIALS
     SURFACE_DIPOLE_CORRECTION  T
     SURF_DIP_DIR  Z
     &SCF
       MAX_SCF  100
       EPS_SCF     5.0000000000000004E-06
       &OT  T
         PRECONDITIONER  FULL_ALL
       &END OT
       &OUTER_SCF  T
         OPTIMIZER  NONE
         EPS_SCF     5.0000000000000004E-06
         MAX_SCF  4
       &END OUTER_SCF
       &PRINT
         &RESTART  OFF
           BACKUP_COPIES  1
           &EACH
             JUST_ENERGY  0
             QS_SCF  0
             MD  20
           &END EACH
         &END RESTART
       &END PRINT
     &END SCF
     &QS
       EPS_DEFAULT     1.0000000000000000E-14
       METHOD  GPW
     &END QS
     &MGRID
       NGRIDS  5
       CUTOFF     1.2000000000000000E+03
     &END MGRID
     &XC
       DENSITY_CUTOFF     1.0000000000000000E-10
       GRADIENT_CUTOFF     1.0000000000000000E-10
       TAU_CUTOFF     1.0000000000000000E-10
       &XC_FUNCTIONAL  NO_SHORTCUT
         &PBE  T
         &END PBE
       &END XC_FUNCTIONAL
       &VDW_POTENTIAL
         POTENTIAL_TYPE  PAIR_POTENTIAL
         &PAIR_POTENTIAL
           R_CUTOFF     1.0000000000000005E+01
           TYPE  DFTD3
           PARAMETER_FILE_NAME dftd3.dat
           REFERENCE_FUNCTIONAL PBE
           EPS_CN     9.9999999999999995E-07
           CALCULATE_C9_TERM  T
           REFERENCE_C9_TERM  T
           LONG_RANGE_CORRECTION  F
           VERBOSE_OUTPUT  F
         &END PAIR_POTENTIAL
       &END VDW_POTENTIAL
     &END XC
   &END DFT
   &SUBSYS
     &CELL
       A     1.2845720507224698E+01    0.0000000000000000E+00    0.0000000000000000E+00
       B    -6.4473440219514533E+00    1.1167127419895399E+01    0.0000000000000000E+00
       C     0.0000000000000000E+00    0.0000000000000000E+00    2.9000000000000000E+01
       MULTIPLE_UNIT_CELL  1 1 1
       &CELL_REF
         A     1.2982353780853531E+01    0.0000000000000000E+00    0.0000000000000000E+00
         B    -6.4911768904267628E+00    1.1243048175136114E+01    0.0000000000000000E+00
         C     0.0000000000000000E+00    0.0000000000000000E+00    2.9000000000000000E+01
         MULTIPLE_UNIT_CELL  1 1 1
       &END CELL_REF
     &END CELL
     &COORD
Ga    4.1161664404704909E-02   -2.4894574033476391E-02   -1.9924607378743037E-01
N    3.4633849527095729E-02    1.8347705900576838E+00    5.8459044588966602E-01
Ga    3.4950403474192412E-02    1.8379336819538883E+00    2.5204132796151693E+00
N    4.1245376187624055E-02   -2.0703414746721528E-02    3.2098187810238330E+00
Ga    3.8044530202062964E-02   -2.1788071303001148E-02    5.1716170134542541E+00
N    2.8176542173474324E-02    1.8369258765088621E+00    5.8298656780645945E+00
Ga    2.7130042205207969E-02    1.8382940343451848E+00    7.8000070942711091E+00
N    3.9339808845348462E-02   -1.5939126700538781E-02    8.4611088493139004E+00
Ga    4.2475521858291940E-02   -1.5166169797179165E-02    1.0453216385687147E+01
N    3.4648787030435273E-02    1.8448946633871437E+00    1.1055361538288526E+01
Ga   -1.3856899215370505E-02    1.8304996430778633E+00    1.3126365551195310E+01
N    2.0930457378986429E-02   -2.1666729723160048E-02    1.3513396099748595E+01
Ga   -1.5709832030226984E+00    2.7672511190892619E+00   -2.0094257857785294E-01
N   -1.5761486855566054E+00    4.6264631987106739E+00    5.8462596724560278E-01
Ga   -1.5754663964423954E+00    4.6302527180544235E+00    2.5213369754688872E+00
N   -1.5727023503676090E+00    2.7709931995826738E+00    3.2091197672870244E+00
Ga   -1.5771975731861401E+00    2.7719291794698582E+00    5.1714169098622138E+00
N   -1.5798806246349435E+00    4.6279180346809943E+00    5.8321213836115868E+00
Ga   -1.5803942269161029E+00    4.6351480501778326E+00    7.8035868469410365E+00
N   -1.5723895692608565E+00    2.7776945067602474E+00    8.4609742143075071E+00
Ga   -1.5679999180693700E+00    2.7803726026136619E+00    1.0454368436266098E+01
N   -1.5694149415485930E+00    4.6377617484353788E+00    1.1063899421050001E+01
Ga   -1.6310504701441464E+00    4.6006507533993029E+00    1.3149122940431530E+01
N   -1.5977012400320951E+00    2.7644130496935508E+00    1.3576111537477379E+01
Ga   -3.1824860532896717E+00    5.5592256998187546E+00   -1.9989388644559203E-01
N   -3.1878806300600186E+00    7.4173075461291429E+00    5.8753351949809773E-01
Ga   -3.1867443684038732E+00    7.4203919213286733E+00    2.5242161317862695E+00
N   -3.1821706574294160E+00    5.5619720699580562E+00    3.2132032660594092E+00
Ga   -3.1851483640410985E+00    5.5623450494977851E+00    5.1770459801233324E+00
N   -3.1896355651087229E+00    7.4202377181628298E+00    5.8409968621263140E+00
Ga   -3.1856133379804668E+00    7.4248096884342809E+00    7.8144549470337550E+00
N   -3.1797742567344001E+00    5.5662451898398695E+00    8.4634910654287356E+00
Ga   -3.1802437904195093E+00    5.5679026975338894E+00    1.0454104729393276E+01
N   -3.1953786715222519E+00    7.4199350022292441E+00    1.1058384427101315E+01
Ga   -3.2181785372546963E+00    7.4038409975949735E+00    1.3139594889610869E+01
N   -3.2082468048345834E+00    5.5603792516766584E+00    1.3569540895713988E+01
Ga   -4.7941170457024986E+00    8.3504379913814581E+00   -1.9830555088803423E-01
N   -4.8004984734696459E+00    1.0209016895810173E+01    5.8707362471513769E-01
Ga   -4.7992526190457889E+00    1.0211522181199379E+01    2.5230030136313122E+00
N   -4.7931168765012115E+00    8.3533887218811671E+00    3.2150301301389552E+00
Ga   -4.7960444087495215E+00    8.3527581769433255E+00    5.1795823634526963E+00
N   -4.8032246418736984E+00    1.0214345041313651E+01    5.8374777442508270E+00
Ga   -4.8001439401636290E+00    1.0218623116350935E+01    7.8107289078172499E+00
N   -4.7942996962481796E+00    8.3600901069734324E+00    8.4544217484803710E+00
Ga   -4.7915579542128981E+00    8.3546408581239859E+00    1.0441732018569269E+01
N   -4.8107390990872823E+00    1.0209175800958118E+01    1.1049766120644129E+01
Ga   -4.8301238354186760E+00    1.0196730275110417E+01    1.3121155709754106E+01
N   -4.8192027070804064E+00    8.3456927554243823E+00    1.3512396758580659E+01
Ga    3.2525512957951754E+00   -2.4908785487964241E-02   -1.9743387329103484E-01
N    3.2463120958486069E+00    1.8343226820918228E+00    5.8611847392721528E-01
Ga    3.2466917502097963E+00    1.8365203880975991E+00    2.5229431450702693E+00
N    3.2535121904636881E+00   -2.2956695773786902E-02    3.2113526623738173E+00
Ga    3.2524667918395997E+00   -2.4005340806128515E-02    5.1750809989063908E+00
N    3.2453617465677298E+00    1.8350114389975347E+00    5.8306712904944646E+00
Ga    3.2482606116780199E+00    1.8330845186506843E+00    7.8017299234003072E+00
N    3.2517598498196527E+00   -1.6162243088009582E-02    8.4661711665082695E+00
Ga    3.2507139744812505E+00   -1.5772700213621066E-02    1.0460494195689446E+01
N    3.2212470060730434E+00    1.8426394211684016E+00    1.1061262067300836E+01
Ga    3.2188635266446712E+00    1.8244168214176506E+00    1.3135696424118722E+01
N    3.2282576950179598E+00   -2.6676326400181249E-02    1.3513257586335071E+01
Ga    1.6408948780922272E+00    2.7673334571272075E+00   -2.0027937110147032E-01
N    1.6358559992535830E+00    4.6259485002520622E+00    5.8585919766666261E-01
Ga    1.6364016179713183E+00    4.6287389470738969E+00    2.5226046143678666E+00
N    1.6397420470094459E+00    2.7695016504232894E+00    3.2101704670303719E+00
Ga    1.6384665582458735E+00    2.7702807074984173E+00    5.1741180268986371E+00
N    1.6330256806627186E+00    4.6277643870511271E+00    5.8300187755800943E+00
Ga    1.6345952254149327E+00    4.6317672527356528E+00    7.8041983026788415E+00
N    1.6370288440895353E+00    2.7637281077272142E+00    8.4279064855307730E+00
Ga    1.6363364331556427E+00    2.7663315322534738E+00    1.0404492348255472E+01
N    1.6460643259431338E+00    4.6264992177607356E+00    1.0955508228956663E+01
Ga    1.6494645156309087E+00    4.6109181238313264E+00    1.2925109959669975E+01
N    1.6073233352964287E+00    2.7899563265498939E+00    1.3534190418688487E+01
Ga    3.0278147112050565E-02    5.5594018855227159E+00   -2.0098624980420129E-01
N    2.4127959258261829E-02    7.4172758615619276E+00    5.8627618414080418E-01
Ga    2.5050103237311799E-02    7.4201378681148213E+00    2.5234031023800716E+00
N    2.9846059145556807E-02    5.5614152761272848E+00    3.2107920359454654E+00
Ga    2.7383010236516913E-02    5.5619898151402607E+00    5.1752390225410929E+00
N    2.0439235255662703E-02    7.4205020661562680E+00    5.8351720947898196E+00
Ga    1.9168699737314696E-02    7.4282526642079789E+00    7.8082318717795856E+00
N    2.3933389560716382E-02    5.5677342958627829E+00    8.4371715552248343E+00
Ga    3.2797872195453583E-02    5.5622086645789128E+00    1.0416218774432865E+01
N    2.0517733465342986E-02    7.4107315058131888E+00    1.1051010575034274E+01
Ga    3.0260198666674826E-03    7.4241603637307207E+00    1.3127117095321760E+01
N    3.3737682022463397E-02    5.5393275955201764E+00    1.3415059401931812E+01
Ga   -1.5825736598266340E+00    8.3509430846751673E+00   -1.9839747349871151E-01
N   -1.5883645508061259E+00    1.0209168489741929E+01    5.8756237136993938E-01
Ga   -1.5870684348635786E+00    1.0211364320431850E+01    2.5242937013560831E+00
N   -1.5818425823725142E+00    8.3530326134524309E+00    3.2137666383596666E+00
Ga   -1.5838084483964154E+00    8.3535660890989281E+00    5.1783827812712975E+00
N   -1.5913298029016294E+00    1.0211312000392404E+01    5.8419538525726873E+00
Ga   -1.5892660884916030E+00    1.0215916891462642E+01    7.8174105674149210E+00
N   -1.5824481080813906E+00    8.3603638122246480E+00    8.4676745159246991E+00
Ga   -1.5871869081151113E+00    8.3553852801665336E+00    1.0461387709507441E+01
N   -1.5968015076954516E+00    1.0209421652960616E+01    1.1060706301787279E+01
Ga   -1.6198005696503786E+00    1.0198509309862018E+01    1.3135634257890837E+01
N   -1.6014051260716209E+00    8.3436824614370853E+00    1.3502804134708201E+01
Ga    6.4640175813378802E+00   -2.4456213823635525E-02   -1.9827160677293604E-01
N    6.4579800195727266E+00    1.8338020940032527E+00    5.8743001606537026E-01
Ga    6.4579673262239101E+00    1.8361612559525360E+00    2.5248394307074378E+00
N    6.4635295028186972E+00   -2.2084659096845670E-02    3.2164110122915561E+00
Ga    6.4613899521837368E+00   -2.3105086291262653E-02    5.1821849032529546E+00
N    6.4559357951427403E+00    1.8375632283901460E+00    5.8399716728452438E+00
Ga    6.4532638577233437E+00    1.8378465613828885E+00    7.8146562914281539E+00
N    6.4635423512721575E+00   -1.6921387364172463E-02    8.4665693615635433E+00
Ga    6.4591419736294391E+00   -1.7187589986582111E-02    1.0456435468065154E+01
N    6.4472937426058889E+00    1.8449279529469020E+00    1.1049130334178527E+01
Ga    6.4123220566255865E+00    1.8370200958827085E+00    1.3121506037508851E+01
N    6.4465493451366278E+00   -1.8563128926779977E-02    1.3477778930940845E+01
Ga    4.8522598401420121E+00    2.7670707190273394E+00   -1.9837494023475538E-01
N    4.8474630264638243E+00    4.6258993702381828E+00    5.8688064331909118E-01
Ga    4.8477610207783153E+00    4.6283967264892398E+00    2.5236800303835185E+00
N    4.8517089496024264E+00    2.7697231341854116E+00    3.2108507619259576E+00
Ga    4.8513956093344301E+00    2.7686093459454808E+00    5.1745582587777230E+00
N    4.8484516745172375E+00    4.6262452976544797E+00    5.8327336203502824E+00
Ga    4.8491989308636576E+00    4.6260061168975914E+00    7.8052566655264002E+00
N    4.8479994818625496E+00    2.7707027952292242E+00    8.4657492623608839E+00
Ga    4.8372366393032626E+00    2.7792473388661776E+00    1.0461296524513367E+01
N    4.8300642244171605E+00    4.6298545179660424E+00    1.1083512651414363E+01
Ga    4.7553590239081789E+00    4.6284138233535694E+00    1.3186002334775115E+01
N    4.8187715531515414E+00    2.7668463692440008E+00    1.3537347762808389E+01
Ga    3.2414791456522010E+00    5.5595205483401688E+00   -1.9825755307597293E-01
N    3.2356088887554044E+00    7.4176430985548789E+00    5.8860288747526890E-01
Ga    3.2362230493338147E+00    7.4203996271169661E+00    2.5253151458171343E+00
N    3.2419563022400641E+00    5.5606506508416986E+00    3.2115685590747232E+00
Ga    3.2404813999508062E+00    5.5602807497855036E+00    5.1763393731037182E+00
N    3.2325490723190216E+00    7.4211932025502447E+00    5.8284218613310745E+00
Ga    3.2310176777829840E+00    7.4248819025410562E+00    7.7984176507802596E+00
N    3.2481591840050226E+00    5.5676197465653585E+00    8.4290426130283365E+00
Ga    3.2512946570472647E+00    5.5641322011708230E+00    1.0405240913403501E+01
N    3.2366636486979603E+00    7.4044818449671741E+00    1.1050954593487818E+01
Ga    3.2034211368370036E+00    7.3700478092504387E+00    1.3114512010441132E+01
N    3.1601402697389687E+00    5.5480468271908832E+00    1.3693534902216442E+01
Ga    1.6301074006094702E+00    8.3513897899399936E+00   -1.9756596501347615E-01
N    1.6224513563781147E+00    1.0210088901711568E+01    5.8735624589421043E-01
Ga    1.6224630880954987E+00    1.0212715268545162E+01    2.5246280690541507E+00
N    1.6288546055604993E+00    8.3541643816957549E+00    3.2121135802871001E+00
Ga    1.6255865925734789E+00    8.3543434833044419E+00    5.1764004748173189E+00
N    1.6219180219395006E+00    1.0212278074348550E+01    5.8413232123503978E+00
Ga    1.6189735591527288E+00    1.0214826169752550E+01    7.8155506628745686E+00
N    1.6271836583383361E+00    8.3545558183267197E+00    8.4597696189261171E+00
Ga    1.6333256977522346E+00    8.3458902999795281E+00    1.0450203364285903E+01
N    1.6213850062187074E+00    1.0206212492069406E+01    1.1044580468654738E+01
Ga    1.6030379875062957E+00    1.0209346833015205E+01    1.3104495723193354E+01
N    1.6170830287861420E+00    8.3536270059907238E+00    1.3471447414328241E+01
Ga    9.6754773893268311E+00   -2.4416847141267947E-02   -1.9936467815880141E-01
N    9.6681468784396802E+00    1.8345500379979163E+00    5.8548257519793179E-01
Ga    9.6677431696960650E+00    1.8377009650935874E+00    2.5220571434898433E+00
N    9.6741816139432135E+00   -2.0143105701427105E-02    3.2133604491770047E+00
Ga    9.6707041570191805E+00   -2.0588132547418890E-02    5.1774099740064257E+00
N    9.6674604582349044E+00    1.8386824002125659E+00    5.8388100204272408E+00
Ga    9.6670683616255637E+00    1.8409676982385406E+00    7.8127269371814956E+00
N    9.6760977535991017E+00   -1.5816932761365088E-02    8.4621694628008317E+00
Ga    9.6738724469409370E+00   -1.7167020946211385E-02    1.0452455875818794E+01
N    9.6693569822276562E+00    1.8445014554752159E+00    1.1043436141121227E+01
Ga    9.6473363739713758E+00    1.8394277896390159E+00    1.3120513566441296E+01
N    9.6627258801544915E+00   -1.8637635937161338E-02    1.3473703316055062E+01
Ga    8.0628311942849784E+00    2.7670191045466708E+00   -1.9982098876237980E-01
N    8.0581291828373978E+00    4.6254755081697931E+00    5.8658273183262866E-01
Ga    8.0588965261136369E+00    4.6284729607434523E+00    2.5235465759204283E+00
N    8.0623282365717781E+00    2.7707246990193735E+00    3.2152552580222418E+00
Ga    8.0598629855117547E+00    2.7708426728795006E+00    5.1801392513232267E+00
N    8.0570543158291041E+00    4.6300950607173803E+00    5.8432627456754540E+00
Ga    8.0578941120214882E+00    4.6333637275352197E+00    7.8185095708899439E+00
N    8.0608951214450908E+00    2.7706383077833552E+00    8.4586481227482260E+00
Ga    8.0570248909277389E+00    2.7746331362412024E+00    1.0449720505942926E+01
N    8.0699027944508188E+00    4.6280305802093276E+00    1.1043830897501955E+01
Ga    8.0330208319713510E+00    4.6295462589358083E+00    1.3117906057980919E+01
N    8.0363651433461065E+00    2.7724496996492185E+00    1.3487011888870963E+01
Ga    6.4524344151177297E+00    5.5591250208946601E+00   -1.9890985429799782E-01
N    6.4470323705939530E+00    7.4172517098880864E+00    5.8788337040921812E-01
Ga    6.4479437021482280E+00    7.4203840686470430E+00    2.5240470084427660E+00
N    6.4531776543784973E+00    5.5617080585777474E+00    3.2134804522150477E+00
Ga    6.4516762575561861E+00    5.5599531494761774E+00    5.1773037428534137E+00
N    6.4436408681241382E+00    7.4187290502067169E+00    5.8413630458087527E+00
Ga    6.4433088704187655E+00    7.4193323782644311E+00    7.8159519981974457E+00
N    6.4499207375657877E+00    5.5583904980393264E+00    8.4697015660392747E+00
Ga    6.4421529569230520E+00    5.5492026758083828E+00    1.0467808712494277E+01
N    6.4442606821907464E+00    7.4224088119130327E+00    1.1024853323706509E+01
Ga    6.4189312234960259E+00    7.4151889098238506E+00    1.3084392606368262E+01
N    6.4105216112024896E+00    5.5584112220208066E+00    1.3439329746860334E+01
Ga    4.8407881430995330E+00    8.3509549931530280E+00   -1.9742439487071392E-01
N    4.8333285589957091E+00    1.0209919869330740E+01    5.8698246832627499E-01
Ga    4.8337800782270328E+00    1.0213186441179204E+01    2.5228320649698901E+00
N    4.8419071163967473E+00    8.3542508431754676E+00    3.2121808333501587E+00
Ga    4.8380510612692111E+00    8.3535736893048806E+00    5.1753632134152117E+00
N    4.8324379180288020E+00    1.0213946552908379E+01    5.8353358474575368E+00
Ga    4.8310360597574018E+00    1.0217115522286125E+01    7.8067865372215737E+00
N    4.8347364005267863E+00    8.3610535131514840E+00    8.4519964747166227E+00
Ga    4.8309080117346230E+00    8.3489776024587297E+00    1.0439674404417705E+01
N    4.8348783619701727E+00    1.0205717624595284E+01    1.1045998784656380E+01
Ga    4.8128308207556438E+00    1.0192862202819523E+01    1.3121378573633036E+01
N    4.8139597247924266E+00    8.3356717937328888E+00    1.3483850874796515E+01
H    4.8405880927948139E+00    8.3534229134045237E+00   -1.7503285543423683E+00
H    1.6332299201533977E+00    8.3506027934267966E+00   -1.7505824852348504E+00
H   -1.5831215868690618E+00    8.3520535523669093E+00   -1.7512680191682586E+00
H   -4.7942774401759927E+00    8.3533916899313070E+00   -1.7510497582871958E+00
H    6.4535011715925314E+00    5.5650546526548519E+00   -1.7518359488116206E+00
H    3.2420540522212429E+00    5.5647542656511133E+00   -1.7511781395485984E+00
H    3.1272434565090691E-02    5.5601772564408947E+00   -1.7541956507022762E+00
H   -3.1822694430760015E+00    5.5621844571791206E+00   -1.7530535178180531E+00
H    8.0663920292543398E+00    2.7694398084596341E+00   -1.7529387551401343E+00
H    4.8545984841889043E+00    2.7712103906530530E+00   -1.7514621485799602E+00
H    1.6411963656859125E+00    2.7697495828522647E+00   -1.7530693884391673E+00
H   -1.5682036077698935E+00    2.7664999373201389E+00   -1.7538636505033911E+00
H    4.1043620925516881E-02   -2.6587900241536466E-02   -1.7520888842065374E+00
H    3.2509973885295951E+00   -2.3629198342737676E-02   -1.7501699696615383E+00
H    6.4658771202068070E+00   -2.3237991656410332E-02   -1.7511363481299020E+00
H    9.6814031483884495E+00   -2.5503190083180666E-02   -1.7523139377353629E+00
O    1.4166334810650834E+00    5.5366277042243723E+00    1.5679490845450445E+01
H    2.2763643962882676E+00    5.5815908561314185E+00    1.5077395784766534E+01
C    1.2812104135359392E+00    4.2409013152576760E+00    1.6202518115452559E+01
H    2.5883699174859148E-01    4.1232514642476543E+00    1.6587798769633935E+01
H    1.4786423570142884E+00    3.4471750707694975E+00    1.5403315286114353E+01
H    2.0301867805804408E+00    4.0508060904965753E+00    1.6996433874869066E+01
     &END COORD
     &KIND C
       BASIS_SET DZVP-MOLOPT-SR-GTH-q4
       POTENTIAL GTH-PBE-q4
       &POTENTIAL
 2 2
  0.3384712400000000E+00 2 -0.8803673979999999E+01  0.1339210850000000E+01
 2
  0.3025757500000000E+00 1  0.9622486650000001E+01
  0.2915069400000000E+00 0
         # Potential name:  GTH-PBE-Q4  for symbol:  C
         # Potential read from the potential filename: GTH_POTENTIALS
       &END POTENTIAL
     &END KIND
     &KIND O
       BASIS_SET DZVP-MOLOPT-SR-GTH-q6
       POTENTIAL GTH-PBE-q6
       &POTENTIAL
 2 4
  0.2445543000000000E+00 2 -0.1666721480000000E+02  0.2487311320000000E+01
 2
  0.2209559200000000E+00 1  0.1833745811000000E+02
  0.2113324700000000E+00 0
         # Potential name:  GTH-PBE-Q6  for symbol:  O
         # Potential read from the potential filename: GTH_POTENTIALS
       &END POTENTIAL
     &END KIND
     &KIND H
       BASIS_SET DZVP-MOLOPT-SR-GTH-q1
       POTENTIAL GTH-PBE-q1
       &POTENTIAL
 1
  0.2000000000000000E+00 2 -0.4178900440000000E+01  0.7244633100000000E+00
 0
         # Potential name:  GTH-PBE-Q1  for symbol:  H
         # Potential read from the potential filename: GTH_POTENTIALS
       &END POTENTIAL
     &END KIND
     &KIND N
       BASIS_SET DZVP-MOLOPT-SR-GTH-q5
       POTENTIAL GTH-PBE-q5
       &POTENTIAL
 2 3
  0.2837905100000000E+00 2 -0.1241522559000000E+02  0.1868095920000000E+01
 2
  0.2554050000000000E+00 1  0.1363026257000000E+02
  0.2454945300000000E+00 0
         # Potential name:  GTH-PBE-Q5  for symbol:  N
         # Potential read from the potential filename: GTH_POTENTIALS
       &END POTENTIAL
     &END KIND
     &KIND Ga
       BASIS_SET DZVP-MOLOPT-SR-GTH-q13
       POTENTIAL GTH-PBE-q13
       &POTENTIAL
 2 1 10
  0.4900000000000000E+00 0
 3
  0.4167772300000000E+00 3  0.1047568975000000E+02 -0.4921768140000000E+01  0.8707055900000000E+00
  0.7770178090000000E+01 -0.2248152160000000E+01
  0.1784415450000000E+01
  0.5696265200000000E+00 2  0.1777985340000000E+01  0.1958597600000000E+00
 -0.2317443900000000E+00
  0.2381265000000000E+00 1 -0.1624868022000000E+02
         # Potential name:  GTH-PBE-Q13  for symbol:  GA
         # Potential read from the potential filename: GTH_POTENTIALS
       &END POTENTIAL
     &END KIND
     &TOPOLOGY
       NUMBER_OF_ATOMS  214
       MULTIPLE_UNIT_CELL  1 1 1
     &END TOPOLOGY
   &END SUBSYS
 &END FORCE_EVAL
