 # Version information for this restart file 
 # current date 2019-05-26 00:59:46.025
 # current working dir /lustre03/project/6004141/rzk/GaN-carbene/00-Surface/00-Preoptimization/443-capped/CELL_OPT
 # Program compiled at                              Sun Apr  7 00:48:11 EDT 2019
 # Program compiled on                          beluga2.int.ets1.calculquebec.ca
 # Program compiled for                        Beluga-Linux-x86-64-intel-openmpi
 # Source code revision number                                         svn:18619
 &GLOBAL
   PRINT_LEVEL  MEDIUM
   PROJECT_NAME TEST
   RUN_TYPE  GEO_OPT
 &END GLOBAL
 &MOTION
   &GEO_OPT
     MAX_ITER  500
   &END GEO_OPT
 &END MOTION
 &FORCE_EVAL
   METHOD  QS
   STRESS_TENSOR  ANALYTICAL
   &DFT
     BASIS_SET_FILE_NAME BASIS_MOLOPT
     POTENTIAL_FILE_NAME GTH_POTENTIALS
     SURFACE_DIPOLE_CORRECTION  T
     SURF_DIP_DIR  Z
     &SCF
       MAX_SCF  100
       EPS_SCF     5.0000000000000004E-06
       &OT  T
         PRECONDITIONER  FULL_ALL
       &END OT
       &OUTER_SCF  T
         OPTIMIZER  NONE
         EPS_SCF     5.0000000000000004E-06
         MAX_SCF  4
       &END OUTER_SCF
       &PRINT
         &RESTART  OFF
           BACKUP_COPIES  1
           &EACH
             JUST_ENERGY  0
             QS_SCF  0
             MD  20
           &END EACH
         &END RESTART
       &END PRINT
     &END SCF
     &QS
       EPS_DEFAULT     1.0000000000000000E-14
       METHOD  GPW
     &END QS
     &MGRID
       NGRIDS  5
       CUTOFF     1.2000000000000000E+03
     &END MGRID
     &XC
       DENSITY_CUTOFF     1.0000000000000000E-10
       GRADIENT_CUTOFF     1.0000000000000000E-10
       TAU_CUTOFF     1.0000000000000000E-10
       &XC_FUNCTIONAL  NO_SHORTCUT
         &PBE  T
         &END PBE
       &END XC_FUNCTIONAL
       &VDW_POTENTIAL
         POTENTIAL_TYPE  PAIR_POTENTIAL
         &PAIR_POTENTIAL
           R_CUTOFF     1.0000000000000004E+01
           TYPE  DFTD3
           PARAMETER_FILE_NAME dftd3.dat
           REFERENCE_FUNCTIONAL PBE
           EPS_CN     9.9999999999999995E-07
           CALCULATE_C9_TERM  T
           REFERENCE_C9_TERM  T
           LONG_RANGE_CORRECTION  F
           VERBOSE_OUTPUT  F
         &END PAIR_POTENTIAL
       &END VDW_POTENTIAL
     &END XC
   &END DFT
   &SUBSYS
     &CELL
       A     1.2845720507224698E+01    0.0000000000000000E+00    0.0000000000000000E+00
       B    -6.4473440219514533E+00    1.1167127419895399E+01    0.0000000000000000E+00
       C     0.0000000000000000E+00    0.0000000000000000E+00    2.9000000000000000E+01
       MULTIPLE_UNIT_CELL  1 1 1
       &CELL_REF
         A     1.2982353780853531E+01    0.0000000000000000E+00    0.0000000000000000E+00
         B    -6.4911768904267628E+00    1.1243048175136114E+01    0.0000000000000000E+00
         C     0.0000000000000000E+00    0.0000000000000000E+00    2.9000000000000000E+01
         MULTIPLE_UNIT_CELL  1 1 1
       &END CELL_REF
     &END CELL
     &TOPOLOGY
       MULTIPLE_UNIT_CELL  1 1 1
     &END TOPOLOGY
     &COORD
Ga    1.6937568167603614E-03   -9.8141460754615998E-04   -1.7352774572494251E-01
N   -4.3076755116384091E-03    1.8580413177490207E+00    6.1228575815502972E-01
Ga    4.6251882055738005E-04    1.8606136508956357E+00    2.5468147501077096E+00
N    5.7300086131127472E-03    2.0096430197152401E-03    3.2355172342694267E+00
Ga    6.5759148601225604E-03    5.8143019968106223E-04    5.1962206312189148E+00
N    1.7813583920077481E-03    1.8590187471323900E+00    5.8577941523294772E+00
Ga    4.4631969938982059E-03    1.8603111238096808E+00    7.8268213169072816E+00
N    1.3745314025212977E-02    2.6038987619824128E-03    8.4794787093138613E+00
Ga    9.9368956075543292E-03    6.6898582941178047E-03    1.0467621508231314E+01
N   -6.6194656199310160E-03    1.8653366779797707E+00    1.1059322297933418E+01
Ga   -3.3238431099866884E-02    1.8523432105005453E+00    1.3128622239305999E+01
N   -1.2929171531675875E-02   -1.6856626354981947E-03    1.3471503689156259E+01
Ga   -1.6104621864302486E+00    2.7907451569945310E+00   -1.7357790560807956E-01
N   -1.6162459105166913E+00    4.6498405647425329E+00    6.1228492824682856E-01
Ga   -1.6116079734844790E+00    4.6525552262512768E+00    2.5470381504213035E+00
N   -1.6057375634548798E+00    2.7936773446829992E+00    3.2351784567329700E+00
Ga   -1.6045088041056375E+00    2.7919437914747598E+00    5.1957856865952801E+00
N   -1.6109168825869848E+00    4.6511707950875234E+00    5.8551472651307161E+00
Ga   -1.6081844979797315E+00    4.6522957206667996E+00    7.8234162839802668E+00
N   -1.6011582454320756E+00    2.7945419230393740E+00    8.4744512990417906E+00
Ga   -1.6094890987139236E+00    2.7998537987461827E+00    1.0459519319238833E+01
N   -1.6122238809388278E+00    4.6544244868428537E+00    1.1058799043192348E+01
Ga   -1.6282553811242002E+00    4.6357625322527269E+00    1.3135669312401653E+01
N   -1.6233261540485073E+00    2.7926036376650925E+00    1.3539123381262481E+01
Ga   -3.2222366436566388E+00    5.5826228736966259E+00   -1.7395780298698341E-01
N   -3.2279169372374650E+00    7.4416176805183571E+00    6.1222287092430927E-01
Ga   -3.2232596669663747E+00    7.4443248891800149E+00    2.5468913458749816E+00
N   -3.2179814037579750E+00    5.5857164037919587E+00    3.2352346861146968E+00
Ga   -3.2172866264667737E+00    5.5846912564114186E+00    5.1959124324121584E+00
N   -3.2219325372382888E+00    7.4429847730377894E+00    5.8582738255603344E+00
Ga   -3.2192245990298272E+00    7.4448376089371147E+00    7.8275444562517134E+00
N   -3.2119517644632896E+00    5.5853527525756235E+00    8.4759718273926552E+00
Ga   -3.2178763375576436E+00    5.5886348776916837E+00    1.0463396067609899E+01
N   -3.2309295714755719E+00    7.4491401407246114E+00    1.1053554388393557E+01
Ga   -3.2561866990072339E+00    7.4389167764461144E+00    1.3117863650014129E+01
N   -3.2353329974607457E+00    5.5837260054241362E+00    1.3464000284082934E+01
Ga   -4.8339232757317543E+00    8.3745171194474111E+00   -1.7345004643131989E-01
N   -4.8397208901788673E+00    1.0233395617305476E+01    6.1294206288833619E-01
Ga   -4.8350461771806188E+00    1.0236026548826187E+01    2.5476966756092012E+00
N   -4.8295093192044023E+00    8.3771615335508596E+00    3.2355456250665391E+00
Ga   -4.8282800520234108E+00    8.3757615749262868E+00    5.1962380583135932E+00
N   -4.8343991652012388E+00    1.0234776451422656E+01    5.8561221039495504E+00
Ga   -4.8312435182463860E+00    1.0236385814491879E+01    7.8240887995022783E+00
N   -4.8254256559242679E+00    8.3789381523731610E+00    8.4755299053359376E+00
Ga   -4.8342739109364432E+00    8.3856695601144384E+00    1.0460372939093158E+01
N   -4.8342883412000575E+00    1.0237170781439966E+01    1.1068872571301739E+01
Ga   -4.8528253953544613E+00    1.0215587357645266E+01    1.3151495751374870E+01
N   -4.8457191982654084E+00    8.3729970294840470E+00    1.3552210503332278E+01
Ga    3.2130235869423087E+00   -9.7320749391633570E-04   -1.7303668280799570E-01
N    3.2071621330969036E+00    1.8578913832377519E+00    6.1319506482769437E-01
Ga    3.2118850461758059E+00    1.8604023578183488E+00    2.5479908349102156E+00
N    3.2175403850112358E+00    1.5811277938428457E-03    3.2362831499894864E+00
Ga    3.2190593451379526E+00   -1.0564437925219854E-04    5.1970996642707084E+00
N    3.2125775611828686E+00    1.8592693507292037E+00    5.8559042463445010E+00
Ga    3.2153905104924743E+00    1.8600703012257898E+00    7.8241306823122958E+00
N    3.2222087851798014E+00    2.7938854488273658E-03    8.4753669323390834E+00
Ga    3.2146004961071233E+00    7.5944354941684450E-03    1.0460253981084229E+01
N    3.2120670041224044E+00    1.8624407414712651E+00    1.1057121436314244E+01
Ga    3.1945259279799343E+00    1.8431133611342760E+00    1.3131748098658557E+01
N    3.2007164203587624E+00    6.3582027924263544E-05    1.3535152397164705E+01
Ga    1.6013074935248830E+00    2.7905843142376887E+00   -1.7351510544481732E-01
N    1.5953593561501536E+00    4.6497755037886996E+00    6.1199546465460086E-01
Ga    1.5999894504824734E+00    4.6524173405414748E+00    2.5466176038124222E+00
N    1.6053331776516966E+00    2.7937529016682752E+00    3.2352052769510693E+00
Ga    1.6062691777936147E+00    2.7923516963944706E+00    5.1957719728544642E+00
N    1.6011927839512738E+00    4.6508220860265421E+00    5.8572022738320495E+00
Ga    1.6032538497150766E+00    4.6518196518163988E+00    7.8261844567482903E+00
N    1.6120257521507244E+00    2.7935380318573482E+00    8.4773332055550661E+00
Ga    1.6060883373439960E+00    2.7975947986676659E+00    1.0465017933879322E+01
N    1.5926537911121683E+00    4.6572023881489697E+00    1.1053101224445854E+01
Ga    1.5685431659856734E+00    4.6433176873389312E+00    1.3118457346287798E+01
N    1.5882830250843794E+00    2.7898291515540792E+00    1.3466932121758596E+01
Ga   -1.0773881552388185E-02    5.5826041470324128E+00   -1.7371300663695793E-01
N   -1.6542610679864629E-02    7.4416364393549053E+00    6.1235286386400867E-01
Ga   -1.1868280687786968E-02    7.4442244039741885E+00    2.5471308037011107E+00
N   -6.2735566068806243E-03    5.5853849907159878E+00    3.2351310160508655E+00
Ga   -5.0578131377990191E-03    5.5838948457891506E+00    5.1958810606112209E+00
N   -1.1023787388367840E-02    7.4429133817723052E+00    5.8557361839268509E+00
Ga   -8.3453944060378586E-03    7.4444940627182419E+00    7.8239993799478436E+00
N   -2.2066126746764160E-03    5.5867520675024407E+00    8.4738285258790444E+00
Ga   -1.1186722504744761E-02    5.5932718099062440E+00    1.0458249896327350E+01
N   -1.1859475983881597E-02    7.4449377655789641E+00    1.1067897977009636E+01
Ga   -2.8528220073822181E-02    7.4239241186760419E+00    1.3150892271884718E+01
N   -2.2177781934897819E-02    5.5787830461968690E+00    1.3543325211630250E+01
Ga   -1.6225786433275975E+00    8.3745095345756919E+00   -1.7359943176125239E-01
N   -1.6283835361282570E+00    1.0233323886327856E+01    6.1285727664084422E-01
Ga   -1.6236569276685662E+00    1.0235880249272725E+01    2.5475107564219774E+00
N   -1.6182595147101617E+00    8.3772232577210932E+00    3.2354861139469251E+00
Ga   -1.6172677210975044E+00    8.3761130634241638E+00    5.1962367078341849E+00
N   -1.6219475385945317E+00    1.0234134068246050E+01    5.8590837644789682E+00
Ga   -1.6186885830417832E+00    1.0235613122496796E+01    7.8285837902666318E+00
N   -1.6113534334105934E+00    8.3767709867540212E+00    8.4795473065301223E+00
Ga   -1.6154213321806250E+00    8.3803441142250907E+00    1.0467889908203354E+01
N   -1.6297778773820886E+00    1.0240461806310719E+01    1.1057136115904846E+01
Ga   -1.6549494672443550E+00    1.0229425723081970E+01    1.3123580042223409E+01
N   -1.6356256814318109E+00    8.3747993143324440E+00    1.3468114257692294E+01
Ga    6.4243744387172450E+00   -1.0862358696790543E-03   -1.7293994952859790E-01
N    6.4185744846185457E+00    1.8579703338775793E+00    6.1269951483237817E-01
Ga    6.4231656662933059E+00    1.8604883051881234E+00    2.5473048688212381E+00
N    6.4285967500042265E+00    1.9068392922450695E-03    3.2358657633391039E+00
Ga    6.4297368604070710E+00    4.8182766203511373E-04    5.1966508230524351E+00
N    6.4251588771908583E+00    1.8588757504902973E+00    5.8583612308494457E+00
Ga    6.4284596290894616E+00    1.8598795322606452E+00    7.8275975203965062E+00
N    6.4361953076255860E+00    1.6759345967766225E-03    8.4796040512472501E+00
Ga    6.4322056924916318E+00    3.6771347061319974E-03    1.0467357684552891E+01
N    6.4175832788620548E+00    1.8649396535637275E+00    1.1054559785088809E+01
Ga    6.3922885477536253E+00    1.8511369048663273E+00    1.3118947250432557E+01
N    6.4120038153958623E+00   -8.9107114183030098E-04    1.3473174309631654E+01
Ga    4.8124633566366084E+00    2.7906420696064962E+00   -1.7312591416229056E-01
N    4.8066748847649334E+00    4.6498019369048826E+00    6.1239916138915507E-01
Ga    4.8111781701487946E+00    4.6523384980065288E+00    2.5470633934044744E+00
N    4.8170986983146724E+00    2.7935984840388204E+00    3.2359408488734380E+00
Ga    4.8185834028413153E+00    2.7917533463393065E+00    5.1967953074061048E+00
N    4.8122204528068666E+00    4.6514886357765279E+00    5.8546368650705460E+00
Ga    4.8152854029366425E+00    4.6527261290819366E+00    7.8225611868000096E+00
N    4.8220908966522602E+00    2.7950334791720297E+00    8.4723661740498937E+00
Ga    4.8139454630609464E+00    2.8014460725151284E+00    1.0456389696245498E+01
N    4.8113100006718561E+00    4.6543602085524931E+00    1.1060807017356659E+01
Ga    4.7955057061515891E+00    4.6353115277732400E+00    1.3138925493029159E+01
N    4.8006477220839496E+00    2.7897234038171024E+00    1.3530618438986783E+01
Ga    3.2007604358215547E+00    5.5825666831838143E+00   -1.7398052244524947E-01
N    3.1949387630167454E+00    7.4416465021140050E+00    6.1202445893105917E-01
Ga    3.1996328547095878E+00    7.4443306906972344E+00    2.5466908080866921E+00
N    3.2048361489835759E+00    5.5856902125664751E+00    3.2349337650865726E+00
Ga    3.2055240799148557E+00    5.5845436207938750E+00    5.1955807852764826E+00
N    3.2010486072398545E+00    7.4428351984273364E+00    5.8580507344623571E+00
Ga    3.2033327319939304E+00    7.4442279007752061E+00    7.8273691700726014E+00
N    3.2114711243249947E+00    5.5847187511387499E+00    8.4756735816049336E+00
Ga    3.2068523222485532E+00    5.5881711595319485E+00    1.0462724178827607E+01
N    3.1933700861234220E+00    7.4478451238322023E+00    1.1052853904730085E+01
Ga    3.1668686232107977E+00    7.4365292163882328E+00    1.3117056282629520E+01
N    3.1876039775767731E+00    5.5827601793606583E+00    1.3465447853832552E+01
Ga    1.5887920047339941E+00    8.3745779147051973E+00   -1.7345838363838900E-01
N    1.5830875473754427E+00    1.0233350498363851E+01    6.1314817315205672E-01
Ga    1.5877902125931613E+00    1.0235925818000215E+01    2.5479959393483385E+00
N    1.5933774553007167E+00    8.3769473754057380E+00    3.2354890177692326E+00
Ga    1.5946703651571641E+00    8.3755522875927451E+00    5.1962024528138588E+00
N    1.5887056635178631E+00    1.0234434214182750E+01    5.8561271441018414E+00
Ga    1.5912927932092629E+00    1.0235557459091730E+01    7.8242354903160942E+00
N    1.5976300454645889E+00    8.3783036146376109E+00    8.4764016746371524E+00
Ga    1.5889840813466354E+00    8.3837079137601584E+00    1.0461427178395942E+01
N    1.5895566025891239E+00    1.0236209663442708E+01    1.1068210714675395E+01
Ga    1.5714402515902486E+00    1.0216595061847498E+01    1.3150495948821742E+01
N    1.5772897237819121E+00    8.3719416810144480E+00    1.3543718801349494E+01
Ga    9.6355807104043159E+00   -8.8500074513975918E-04   -1.7310613993688961E-01
N    9.6299888314668323E+00    1.8579989273153621E+00    6.1285041381113736E-01
Ga    9.6347214895754547E+00    1.8603992463367507E+00    2.5475109345142779E+00
N    9.6405314660078751E+00    1.6723451004624448E-03    3.2361998317415868E+00
Ga    9.6418559377028519E+00   -8.9335092335458111E-05    5.1971950349497087E+00
N    9.6356621387991250E+00    1.8594492431610266E+00    5.8555247104481793E+00
Ga    9.6385968942471418E+00    1.8605715954714579E+00    7.8237050283098313E+00
N    9.6448895952845195E+00    2.8957258427542219E-03    8.4744253886597445E+00
Ga    9.6359024123009505E+00    7.2678105091132997E-03    1.0458608592605373E+01
N    9.6356203789334760E+00    1.8608780766883473E+00    1.1062642141662229E+01
Ga    9.6186177174298688E+00    1.8428064677500995E+00    1.3141422753625793E+01
N    9.6246457886950285E+00   -3.0038439313463818E-04    1.3543406985388554E+01
Ga    8.0239372639626207E+00    2.7907361592758253E+00   -1.7332249931245217E-01
N    8.0181710783324061E+00    4.6498834066490016E+00    6.1212665033294411E-01
Ga    8.0228963047275261E+00    4.6525606260042025E+00    2.5466117099895360E+00
N    8.0282369444663981E+00    2.7938095276999846E+00    3.2350227177331350E+00
Ga    8.0290741248529560E+00    2.7922680673902422E+00    5.1955904939410953E+00
N    8.0238493023170481E+00    4.6510063506658010E+00    5.8568525625858472E+00
Ga    8.0264782986978016E+00    4.6520294208706945E+00    7.8258716665812083E+00
N    8.0358805235318833E+00    2.7942000937741081E+00    8.4779492174968425E+00
Ga    8.0319257580728145E+00    2.7984365005977292E+00    1.0465796700387624E+01
N    8.0155728070789696E+00    4.6576440446299250E+00    1.1055791819558419E+01
Ga    7.9891718475842461E+00    4.6457202937695401E+00    1.3122931623978177E+01
N    8.0106597059761615E+00    2.7910215251042696E+00    1.3466354024739532E+01
Ga    6.4120865613082252E+00    5.5825712225594382E+00   -1.7373653213457760E-01
N    6.4063043794254222E+00    7.4416809599687941E+00    6.1225867159837288E-01
Ga    6.4108785743671177E+00    7.4445306273808640E+00    2.5469916267610913E+00
N    6.4165044772114079E+00    5.5855518662431134E+00    3.2345715893298963E+00
Ga    6.4176592543641915E+00    5.5840017775852777E+00    5.1949538592726450E+00
N    6.4118094303502620E+00    7.4429832805296838E+00    5.8551904871079747E+00
Ga    6.4147971161823785E+00    7.4442155567334600E+00    7.8232245630159030E+00
N    6.4209026697319729E+00    5.5870168955944495E+00    8.4744127918763237E+00
Ga    6.4140814001678388E+00    5.5942863298313261E+00    1.0459379698124845E+01
N    6.4128336051061074E+00    7.4446197986156237E+00    1.1067712635693299E+01
Ga    6.3951598594895245E+00    7.4249344246632178E+00    1.3150492624909084E+01
N    6.3990139370519570E+00    5.5805298679971980E+00    1.3547882948571177E+01
Ga    4.8003092825782510E+00    8.3743802347517136E+00   -1.7400253563335980E-01
N    4.7945170928813710E+00    1.0233395425640234E+01    6.1226350497852799E-01
Ga    4.7992035674222215E+00    1.0236010987684686E+01    2.5469706962645988E+00
N    4.8044803791587443E+00    8.3774799006027312E+00    3.2354633629229106E+00
Ga    4.8053621523217753E+00    8.3762752666231517E+00    5.1962412936772040E+00
N    4.8011426247727709E+00    1.0234322290067785E+01    5.8594397492757553E+00
Ga    4.8040298081086625E+00    1.0235566624957579E+01    7.8289792523853921E+00
N    4.8117909480681131E+00    8.3763542186087712E+00    8.4784078776374159E+00
Ga    4.8079356880061317E+00    8.3790214399052800E+00    1.0466238226252999E+01
N    4.7932830375282274E+00    1.0240260693041270E+01    1.1051683126265784E+01
Ga    4.7665318914858847E+00    1.0230218553485020E+01    1.3114517498408176E+01
N    4.7868337113234576E+00    8.3758842186139582E+00    1.3462553634895171E+01
H    4.8006003479307120E+00    8.3775843103293397E+00   -1.7258734425538114E+00
H    1.5887011569498397E+00    8.3786925633743916E+00   -1.7253548426286036E+00
H   -1.6227113319278059E+00    8.3783602389837597E+00   -1.7254745352177991E+00
H   -4.8343106001665026E+00    8.3786493672820299E+00   -1.7253161389165248E+00
H    6.4120670664730754E+00    5.5858781261230392E+00   -1.7256058994340877E+00
H    3.2011884891814852E+00    5.5859779789399768E+00   -1.7258350270120659E+00
H   -1.0900839408984486E-02    5.5864551733890861E+00   -1.7255702932320196E+00
H   -3.2227994597286704E+00    5.5861867529591516E+00   -1.7258279799502241E+00
H    8.0243448039598615E+00    2.7946357569047557E+00   -1.7251450655341460E+00
H    4.8120469056926289E+00    2.7945371321241761E+00   -1.7249350610101981E+00
H    1.6013496980863604E+00    2.7938018344007300E+00   -1.7253661987217781E+00
H   -1.6108007972708918E+00    2.7938104898959693E+00   -1.7254455695054471E+00
H    2.5295820037285507E-03    2.5661171179359203E-03   -1.7253713276066027E+00
H    3.2127991201325599E+00    2.6231054309643789E-03   -1.7248977195105428E+00
H    6.4243153352851561E+00    2.1406021959704479E-03   -1.7247766999309637E+00
H    9.6347774147197640E+00    3.3521293936603024E-03   -1.7249480668072856E+00
 O                  1.24486565    4.74910429   15.85310000
 H                  2.16238017    4.54704144   15.55684798
 C                  0.69520309    3.54860117   16.46030000
 H                 -0.19043126    3.19279594   15.91140000
 H                  1.47570979    2.78205602   16.41060000
 H                  0.43325877    3.75260667   17.50690000
     &END COORD

     &KIND C
       BASIS_SET DZVP-MOLOPT-SR-GTH-q4
       POTENTIAL GTH-PBE-q4
     &END KIND

     &KIND O
       BASIS_SET DZVP-MOLOPT-SR-GTH-q6
       POTENTIAL GTH-PBE-q6
     &END KIND

     &KIND H
       BASIS_SET DZVP-MOLOPT-SR-GTH-q1
       POTENTIAL GTH-PBE-q1
     &END KIND

     &KIND N
       BASIS_SET DZVP-MOLOPT-SR-GTH-q5
       POTENTIAL GTH-PBE-q5
     &END KIND

     &KIND Ga
       BASIS_SET DZVP-MOLOPT-SR-GTH-q13
       POTENTIAL GTH-PBE-q13
     &END KIND

   &END SUBSYS
 &END FORCE_EVAL
