 # Version information for this restart file 
 # current date 2019-05-27 03:00:44.026
 # current working dir /lustre03/project/6004141/rzk/GaN-carbene/01-Methanol/443-capped/04-both-conf2
 # Program compiled at                              Sun Apr  7 00:48:11 EDT 2019
 # Program compiled on                          beluga2.int.ets1.calculquebec.ca
 # Program compiled for                        Beluga-Linux-x86-64-intel-openmpi
 # Source code revision number                                         svn:18619
 &GLOBAL
   PRINT_LEVEL  MEDIUM
   PROJECT_NAME TEST
   RUN_TYPE  GEO_OPT
 &END GLOBAL
 &MOTION
   &GEO_OPT
     MAX_ITER  500
     STEP_START_VAL  150
   &END GEO_OPT
 &END MOTION
 &FORCE_EVAL
   METHOD  QS
   STRESS_TENSOR  ANALYTICAL
   &DFT
     BASIS_SET_FILE_NAME BASIS_MOLOPT
     POTENTIAL_FILE_NAME GTH_POTENTIALS
     SURFACE_DIPOLE_CORRECTION  T
     SURF_DIP_DIR  Z
     &SCF
       MAX_SCF  100
       EPS_SCF     5.0000000000000004E-06
       &OT  T
         PRECONDITIONER  FULL_ALL
       &END OT
       &OUTER_SCF  T
         OPTIMIZER  NONE
         EPS_SCF     5.0000000000000004E-06
         MAX_SCF  4
       &END OUTER_SCF
       &PRINT
         &RESTART  OFF
           BACKUP_COPIES  1
           &EACH
             JUST_ENERGY  0
             QS_SCF  0
             MD  20
           &END EACH
         &END RESTART
       &END PRINT
     &END SCF
     &QS
       EPS_DEFAULT     1.0000000000000000E-14
       METHOD  GPW
     &END QS
     &MGRID
       NGRIDS  5
       CUTOFF     1.2000000000000000E+03
     &END MGRID
     &XC
       DENSITY_CUTOFF     1.0000000000000000E-10
       GRADIENT_CUTOFF     1.0000000000000000E-10
       TAU_CUTOFF     1.0000000000000000E-10
       &XC_FUNCTIONAL  NO_SHORTCUT
         &PBE  T
         &END PBE
       &END XC_FUNCTIONAL
       &VDW_POTENTIAL
         POTENTIAL_TYPE  PAIR_POTENTIAL
         &PAIR_POTENTIAL
           R_CUTOFF     1.0000000000000007E+01
           TYPE  DFTD3
           PARAMETER_FILE_NAME dftd3.dat
           REFERENCE_FUNCTIONAL PBE
           EPS_CN     9.9999999999999995E-07
           CALCULATE_C9_TERM  T
           REFERENCE_C9_TERM  T
           LONG_RANGE_CORRECTION  F
           VERBOSE_OUTPUT  F
         &END PAIR_POTENTIAL
       &END VDW_POTENTIAL
     &END XC
   &END DFT
   &SUBSYS
     &CELL
       A     1.2845720507224698E+01    0.0000000000000000E+00    0.0000000000000000E+00
       B    -6.4473440219514533E+00    1.1167127419895399E+01    0.0000000000000000E+00
       C     0.0000000000000000E+00    0.0000000000000000E+00    2.9000000000000000E+01
       MULTIPLE_UNIT_CELL  1 1 1
       &CELL_REF
         A     1.2982353780853531E+01    0.0000000000000000E+00    0.0000000000000000E+00
         B    -6.4911768904267628E+00    1.1243048175136114E+01    0.0000000000000000E+00
         C     0.0000000000000000E+00    0.0000000000000000E+00    2.9000000000000000E+01
         MULTIPLE_UNIT_CELL  1 1 1
       &END CELL_REF
     &END CELL
     &COORD
Ga    1.3392283734011707E-02   -4.9972860895434422E-02   -1.7900818463073442E-01
N    8.0623036649336687E-03    1.8103280637626873E+00    6.0494676004093595E-01
Ga    1.9417799468172013E-03    1.8195699927285311E+00    2.5398079179403461E+00
N    7.8140407837366515E-03   -3.8566631601844419E-02    3.2268169875383474E+00
Ga   -1.1588966923436297E-03   -2.9492731380051745E-02    5.1878250638754908E+00
N   -6.7075858911118807E-03    1.8290324761866252E+00    5.8456699075792748E+00
Ga   -1.4820084434561322E-02    1.8404884267720700E+00    7.8153714795369709E+00
N   -8.9768590959715244E-03   -1.3090716173082426E-02    8.4732036189682400E+00
Ga   -8.2737930028725769E-03    1.0600152376452591E-02    1.0463747079271382E+01
N   -4.4845972668456002E-03    1.8629984775839457E+00    1.1078326092866650E+01
Ga   -5.6790974653666504E-02    1.8476486056139181E+00    1.3110464626282543E+01
N   -2.1617659929186975E-02    1.3996918792381813E-02    1.3559168090206571E+01
Ga   -1.5988913533181037E+00    2.7426905760671669E+00   -1.7838232557773384E-01
N   -1.6040654616649546E+00    4.6023586632679638E+00    6.0676948850652146E-01
Ga   -1.6105992164088441E+00    4.6111831726564390E+00    2.5418448543675023E+00
N   -1.6046653606870027E+00    2.7529192463164676E+00    3.2276261639460553E+00
Ga   -1.6134540659488235E+00    2.7616568414392959E+00    5.1894463326034250E+00
N   -1.6185937820437850E+00    4.6202958163835266E+00    5.8526222802627501E+00
Ga   -1.6260678530185360E+00    4.6323454532022259E+00    7.8241171437323755E+00
N   -1.6203326495304611E+00    2.7719352735167355E+00    8.4639093209079981E+00
Ga   -1.6089190201139303E+00    2.7852966059080293E+00    1.0450001742284019E+01
N   -1.6324816975388401E+00    4.6381701329088552E+00    1.1067632491054036E+01
Ga   -1.6400661854420624E+00    4.6571122500732320E+00    1.3152633404123989E+01
N   -1.6392256100334957E+00    2.7970278091867224E+00    1.3525773013704304E+01
Ga   -3.2106139933355218E+00    5.5343148589955105E+00   -1.7749986934434367E-01
N   -3.2155255343002018E+00    7.3932975347586707E+00    6.0898391387016226E-01
Ga   -3.2220801138921118E+00    7.4021107996043787E+00    2.5442612732555805E+00
N   -3.2172558062677608E+00    5.5440300506461178E+00    3.2319727250603711E+00
Ga   -3.2247284003371002E+00    5.5519074884131374E+00    5.1945885814314181E+00
N   -3.2327709211507667E+00    7.4109911151533305E+00    5.8575828626345805E+00
Ga   -3.2410854234168265E+00    7.4226436468947741E+00    7.8299984871385675E+00
N   -3.2322804344062188E+00    5.5631912622009114E+00    8.4766029216252345E+00
Ga   -3.2360411113357768E+00    5.5742467408606871E+00    1.0469198227969036E+01
N   -3.2524824193656157E+00    7.4358594910635443E+00    1.1060059036793323E+01
Ga   -3.2563711344638633E+00    7.4405672121714082E+00    1.3141388412267727E+01
N   -3.2438401256473242E+00    5.5891071885000558E+00    1.3524024551130530E+01
Ga   -4.8219432703404479E+00    8.3247319957325505E+00   -1.7650030832802827E-01
N   -4.8274137434422624E+00    1.0184893450605616E+01    6.0609158207913139E-01
Ga   -4.8341436528468602E+00    1.0193460813052658E+01    2.5405569303028703E+00
N   -4.8283110896818613E+00    8.3368931041553527E+00    3.2318227811038205E+00
Ga   -4.8367731905582865E+00    8.3432389798348723E+00    5.1939902697226517E+00
N   -4.8435588825286775E+00    1.0203881656922428E+01    5.8536769696150524E+00
Ga   -4.8556158211969622E+00    1.0214458715795990E+01    7.8246156612683331E+00
N   -4.8483053689361677E+00    8.3608488973753925E+00    8.4790918475542103E+00
Ga   -4.8545333753310596E+00    8.3718727279236447E+00    1.0473289707134867E+01
N   -4.8651494076762285E+00    1.0220710076717085E+01    1.1092849285711944E+01
Ga   -4.8719072076830843E+00    1.0233667723254070E+01    1.3200555564129509E+01
N   -4.8547718363024934E+00    8.3736038667144719E+00    1.3542580132996308E+01
Ga    3.2243912226808549E+00   -5.0410917017423430E-02   -1.8046884268498609E-01
N    3.2194242520211578E+00    1.8096751886580451E+00    6.0343482651715785E-01
Ga    3.2125290781062126E+00    1.8186108015839668E+00    2.5379960408508193E+00
N    3.2173840542399263E+00   -3.8912805039382881E-02    3.2279351094605104E+00
Ga    3.2084976248089601E+00   -3.1833030541845400E-02    5.1886842357592045E+00
N    3.2024990640911342E+00    1.8257761690823497E+00    5.8505358565136696E+00
Ga    3.1921302717351270E+00    1.8383558388414358E+00    7.8207067058392443E+00
N    3.1942757999018085E+00   -1.8739904147786975E-02    8.4833047544921154E+00
Ga    3.1804476183856840E+00    3.5375050575005011E-03    1.0477258387631965E+01
N    3.1760801846158540E+00    1.8637968954155590E+00    1.1078019698265415E+01
Ga    3.2174241676867128E+00    1.8622635062170774E+00    1.3104184486296280E+01
N    3.1861441801902952E+00    2.1154463847072404E-02    1.3529172825138922E+01
Ga    1.6125522015848259E+00    2.7427624179893288E+00   -1.7979717640962081E-01
N    1.6076579653690781E+00    4.6021563448687299E+00    6.0654607845751318E-01
Ga    1.6018747470801384E+00    4.6116894781918552E+00    2.5417186155101135E+00
N    1.6076128729437602E+00    2.7528031490214162E+00    3.2270528767797200E+00
Ga    1.5979216353424091E+00    2.7621598956041171E+00    5.1885187621499513E+00
N    1.5912096319628317E+00    4.6211060002681972E+00    5.8460906609454888E+00
Ga    1.5815623643443664E+00    4.6357006031233503E+00    7.8138169042268029E+00
N    1.5877594852434678E+00    2.7788605442996395E+00    8.4619645865789170E+00
Ga    1.5851564579085082E+00    2.7950586299860278E+00    1.0433175512267621E+01
N    1.5960809424172147E+00    4.6340391814917812E+00    1.1083471161177703E+01
Ga    1.5599134847507177E+00    4.6689999070770609E+00    1.3070514994982419E+01
N    1.5777220793044751E+00    2.8048293645660483E+00    1.3669195999670615E+01
Ga    8.9795062129278101E-04    5.5345530348162777E+00   -1.7738192572434197E-01
N   -4.5178641506246663E-03    7.3943665012032600E+00    6.0692028283252353E-01
Ga   -1.1345940466731583E-02    7.4030380085497622E+00    2.5416010359183683E+00
N   -5.5673916395874955E-03    5.5451716610123816E+00    3.2284374135908527E+00
Ga   -1.3931172893927545E-02    5.5537390788768910E+00    5.1896699758866554E+00
N   -2.1496018775328914E-02    7.4107875431474399E+00    5.8535558022441032E+00
Ga   -2.9988487243867514E-02    7.4218145846804866E+00    7.8257665318248701E+00
N   -2.0845958784548022E-02    5.5639772694704588E+00    8.4814227765864505E+00
Ga   -1.5745001886615113E-02    5.5664966149085684E+00    1.0470110972438119E+01
N   -4.0348357035951944E-02    7.4246195819809913E+00    1.1070261762882563E+01
Ga   -4.6543842021427063E-02    7.4383983991427911E+00    1.3152315467845483E+01
N   -2.5255809490679373E-02    5.5859874748128764E+00    1.3520490735982110E+01
Ga   -1.6114105236889886E+00    8.3252461767957318E+00   -1.7807613990962154E-01
N   -1.6166045852522755E+00    1.0185104073856705E+01    6.0582182810893237E-01
Ga   -1.6235789476315270E+00    1.0193165379744965E+01    2.5404550229262535E+00
N   -1.6176325324558671E+00    8.3363821264104665E+00    3.2320366928496336E+00
Ga   -1.6265445951843167E+00    8.3430621472755266E+00    5.1945861214787001E+00
N   -1.6368181757093503E+00    1.0203812233949931E+01    5.8529813172400891E+00
Ga   -1.6467197952950650E+00    1.0212445562259559E+01    7.8248057493679415E+00
N   -1.6350236508347833E+00    8.3580588058509200E+00    8.4739688746044841E+00
Ga   -1.6402118588892491E+00    8.3633146925704622E+00    1.0464794338245026E+01
N   -1.6544909074175311E+00    1.0230744379872306E+01    1.1047361781162950E+01
Ga   -1.6674183144525503E+00    1.0249298784257585E+01    1.3117115733959873E+01
N   -1.6447714618750437E+00    8.3905176040678953E+00    1.3493030195639177E+01
Ga    6.4354257322198869E+00   -4.9586238381591811E-02   -1.7990600483255581E-01
N    6.4305868422601540E+00    1.8103583790829607E+00    6.0481838567548585E-01
Ga    6.4232393107705610E+00    1.8186185060575981E+00    2.5397149686929881E+00
N    6.4276072637903541E+00   -3.9485034201371928E-02    3.2276055938913446E+00
Ga    6.4182168524970278E+00   -3.2149140354216024E-02    5.1889528859615250E+00
N    6.4126722245592527E+00    1.8285000611849871E+00    5.8444128428906117E+00
Ga    6.4020045249164372E+00    1.8411643008029246E+00    7.8140533919878221E+00
N    6.4062366408713505E+00   -1.5436982287332824E-02    8.4597163477496764E+00
Ga    6.3977545889611926E+00    2.8604554388644127E-03    1.0446250350217149E+01
N    6.3801659141292477E+00    1.8580962279964441E+00    1.1052758569267791E+01
Ga    6.3579215353835314E+00    1.8714678157151281E+00    1.3142215255795673E+01
N    6.4008184836734623E+00    6.8282542142090530E-03    1.3500984393827427E+01
Ga    4.8240526137603652E+00    2.7427653110686294E+00   -1.8060010402875382E-01
N    4.8193096879256299E+00    4.6020954313794613E+00    6.0605695248279545E-01
Ga    4.8128599624192745E+00    4.6113087969284532E+00    2.5416268956503005E+00
N    4.8164576592795676E+00    2.7521091088659175E+00    3.2266236039815981E+00
Ga    4.8080151692391997E+00    2.7605622371470293E+00    5.1877097365455533E+00
N    4.8034860928296883E+00    4.6191040214668257E+00    5.8477902598853744E+00
Ga    4.7945520090447857E+00    4.6334115637185924E+00    7.8163216572137175E+00
N    4.7947694257659501E+00    2.7730531096568187E+00    8.4643857923991312E+00
Ga    4.7743479967911009E+00    2.7904101574518867E+00    1.0448638110859925E+01
N    4.7714386535198434E+00    4.6443623350805803E+00    1.1062220699517450E+01
Ga    4.8092350431186706E+00    4.6294520792533973E+00    1.3079849143161047E+01
N    4.7809552299567608E+00    2.8135230999861562E+00    1.3625253609854537E+01
Ga    3.2122459448733567E+00    5.5346198250001288E+00   -1.7735137310793284E-01
N    3.2073984143320549E+00    7.3946626734490488E+00    6.0686929356188379E-01
Ga    3.2014141100895244E+00    7.4034926349350130E+00    2.5423207000849337E+00
N    3.2069440529762998E+00    5.5455882861505534E+00    3.2285831262972247E+00
Ga    3.1977587033521497E+00    5.5548989520848728E+00    5.1905126885660531E+00
N    3.1912884099629650E+00    7.4147401015923649E+00    5.8470549741550926E+00
Ga    3.1807078198796352E+00    7.4292092450537721E+00    7.8166168094419461E+00
N    3.1860945884399077E+00    5.5697300921356332E+00    8.4567577058976404E+00
Ga    3.1807043449372459E+00    5.5720165301194760E+00    1.0424465671254950E+01
N    3.1730061811900030E+00    7.4186388081644559E+00    1.1062390485905981E+01
Ga    3.1762468734682638E+00    7.4765416762003962E+00    1.3086419339908881E+01
N    3.1905583169324503E+00    5.6003656958488106E+00    1.3641360119772841E+01
Ga    1.6002638947612224E+00    8.3261883830927541E+00   -1.7843975413133001E-01
N    1.5949998777491603E+00    1.0186229222561321E+01    6.0600564430789317E-01
Ga    1.5881464535302448E+00    1.0194640317382200E+01    2.5409297454445445E+00
N    1.5935649006956374E+00    8.3364683295579436E+00    3.2283376836110156E+00
Ga    1.5839671618906934E+00    8.3444245045650405E+00    5.1897563430188685E+00
N    1.5759117926368711E+00    1.0203631310131081E+01    5.8448061952186920E+00
Ga    1.5660526730845330E+00    1.0212320420546778E+01    7.8157577371682416E+00
N    1.5729863310974117E+00    8.3585521937386886E+00    8.4706395047793315E+00
Ga    1.5709817032262987E+00    8.3602602922112901E+00    1.0459258716869769E+01
N    1.5596504108815219E+00    1.0232341528573215E+01    1.1022423251992649E+01
Ga    1.5487421878825789E+00    1.0236141103142254E+01    1.3080983368108027E+01
N    1.5674205248216815E+00    8.3869004238919693E+00    1.3484994357532205E+01
Ga    9.6469824061080285E+00   -4.9328200620227199E-02   -1.7882891029263615E-01
N    9.6419499214125697E+00    1.8107442720861893E+00    6.0580072610070257E-01
Ga    9.6354173296378978E+00    1.8191250869239941E+00    2.5411413377018266E+00
N    9.6405674786886326E+00   -3.8963669134394849E-02    3.2279609561640035E+00
Ga    9.6315969013365095E+00   -3.0725639517518215E-02    5.1904709621797132E+00
N    9.6255098423291017E+00    1.8303262899135284E+00    5.8455743810057319E+00
Ga    9.6178662420736938E+00    1.8425421177624544E+00    7.8164682231042528E+00
N    9.6198999430187975E+00   -1.9410057851830479E-02    8.4467788924196583E+00
Ga    9.6177903747659013E+00   -6.0930792780435200E-03    1.0428005276066937E+01
N    9.6150161414211652E+00    1.8561593154840643E+00    1.1015826482428874E+01
Ga    9.6094923983055534E+00    1.8689322064065408E+00    1.3070225248147661E+01
N    9.6134974673188740E+00    5.9626737489388614E-03    1.3439924827314330E+01
Ga    8.0353104390256931E+00    2.7429929387649912E+00   -1.7936190993924453E-01
N    8.0303770716121683E+00    4.6021967838155469E+00    6.0692542353718770E-01
Ga    8.0238879859522285E+00    4.6111239657952181E+00    2.5419467742285207E+00
N    8.0279942356440248E+00    2.7527185240933485E+00    3.2274111338948557E+00
Ga    8.0200972889294331E+00    2.7605472765730092E+00    5.1889277506623994E+00
N    8.0145774225024020E+00    4.6189793633005927E+00    5.8541047729282090E+00
Ga    8.0066406004530144E+00    4.6332088341251421E+00    7.8260938149807213E+00
N    8.0057805633242864E+00    2.7698128402707232E+00    8.4649860972451041E+00
Ga    7.9950745251172251E+00    2.7844806242398903E+00    1.0455819687174388E+01
N    7.9939248828112097E+00    4.6469746823759230E+00    1.1059659017616747E+01
Ga    7.9920072088111063E+00    4.6565535556886317E+00    1.3135633255537700E+01
N    7.9969730589601582E+00    2.7898716212874390E+00    1.3457967336927885E+01
Ga    6.4238740750635248E+00    5.5345362958880369E+00   -1.7773959244207574E-01
N    6.4189127489754423E+00    7.3935658717165698E+00    6.0856863007132111E-01
Ga    6.4126655986090917E+00    7.4026956570175821E+00    2.5439153862119386E+00
N    6.4179967505149769E+00    5.5445650972553260E+00    3.2304042044613661E+00
Ga    6.4096149816481525E+00    5.5524333058233806E+00    5.1924586525782175E+00
N    6.4039471328889359E+00    7.4117409843670874E+00    5.8542453836394888E+00
Ga    6.3936777514916319E+00    7.4247953511491582E+00    7.8253192272440097E+00
N    6.3957262750769281E+00    5.5649426821942303E+00    8.4728062887568516E+00
Ga    6.3813267929809347E+00    5.5728570766540289E+00    1.0460561991017627E+01
N    6.3804534388162404E+00    7.4299675409687236E+00    1.1061428651828168E+01
Ga    6.3883185043703428E+00    7.4402419416635412E+00    1.3139935984711371E+01
N    6.3884149555180469E+00    5.5867904360746623E+00    1.3521174717395253E+01
Ga    4.8124830574386399E+00    8.3255462298652336E+00   -1.7716253556804498E-01
N    4.8067668362765712E+00    1.0186072491677917E+01    6.0601758797707117E-01
Ga    4.8001889042754868E+00    1.0194700331957922E+01    2.5413939044880371E+00
N    4.8065461150775155E+00    8.3372268486300580E+00    3.2295856542010699E+00
Ga    4.7981495088488613E+00    8.3462162177918557E+00    5.1918042287703399E+00
N    4.7934062365984671E+00    1.0206429417657375E+01    5.8466441769044151E+00
Ga    4.7867955153066495E+00    1.0216839364756355E+01    7.8176914734004592E+00
N    4.7857792065921396E+00    8.3612373810360641E+00    8.4653538683692844E+00
Ga    4.7740253247530680E+00    8.3644624252424098E+00    1.0452120995165872E+01
N    4.7797538884026309E+00    1.0231388117614092E+01    1.1029901012873346E+01
Ga    4.7872410854797778E+00    1.0245944275121859E+01    1.3091688319727345E+01
N    4.7871966185254786E+00    8.3906789569323053E+00    1.3481054690265498E+01
H    4.8224821846089405E+00    8.3234972478748528E+00   -1.7291568622037246E+00
H    1.6071534137035239E+00    8.3263532242497593E+00   -1.7304508164479346E+00
H   -1.6033312754824764E+00    8.3234874148640881E+00   -1.7300637700479058E+00
H   -4.8131314701322996E+00    8.3224120711747229E+00   -1.7284316109406568E+00
H    6.4329252982017335E+00    5.5352507666239248E+00   -1.7298252889733692E+00
H    3.2197667849014291E+00    5.5339189269175852E+00   -1.7294942458288858E+00
H    9.3483889914062271E-03    5.5356202490638120E+00   -1.7294247026446079E+00
H   -3.2031749273910028E+00    5.5350296534645071E+00   -1.7294562471601302E+00
H    8.0437960341898549E+00    2.7448573197672679E+00   -1.7313592622204548E+00
H    4.8341432592283171E+00    2.7438885273931364E+00   -1.7326770827087137E+00
H    1.6208874554756658E+00    2.7446973504350449E+00   -1.7317462157205363E+00
H   -1.5912734954910321E+00    2.7441843852999095E+00   -1.7303167792803180E+00
H    2.4072602159307319E-02   -5.0608577256639503E-02   -1.7309508487394425E+00
H    3.2333743539002069E+00   -5.3216122456475487E-02   -1.7323209909627153E+00
H    6.4438635397185182E+00   -4.9184631213741239E-02   -1.7318807573622144E+00
H    9.6543342905350578E+00   -4.8562317554695394E-02   -1.7308700864882671E+00
O    2.7949265690740179E+00    4.4182454312007611E+00    1.6419521263581487E+01
H    3.1798735770443587E+00    5.5446993263335038E+00    1.4669626039800576E+01
C    3.6495869092381423E+00    3.6690999145028607E+00    1.6867453145340452E+01
H    3.6552269734977680E+00    3.3875947991752349E+00    1.7940940583263863E+01
H    1.5878958130085472E+00    2.8290268886249494E+00    1.4694303785115091E+01
H    4.4558277247649336E+00    3.2389371641373037E+00    1.6227629389082090E+01
     &END COORD
     &KIND C
       BASIS_SET DZVP-MOLOPT-SR-GTH-q4
       POTENTIAL GTH-PBE-q4
       &POTENTIAL
2 2
0.3384712400000000E+00 2 -0.8803673979999999E+01  0.1339210850000000E+01
2
0.3025757500000000E+00 1  0.9622486650000001E+01
0.2915069400000000E+00 0
       &END POTENTIAL
     &END KIND
     &KIND O
       BASIS_SET DZVP-MOLOPT-SR-GTH-q6
       POTENTIAL GTH-PBE-q6
       &POTENTIAL
2 4
0.2445543000000000E+00 2 -0.1666721480000000E+02  0.2487311320000000E+01
2
0.2209559200000000E+00 1  0.1833745811000000E+02
0.2113324700000000E+00 0
       &END POTENTIAL
     &END KIND
     &KIND H
       BASIS_SET DZVP-MOLOPT-SR-GTH-q1
       POTENTIAL GTH-PBE-q1
       &POTENTIAL
1
0.2000000000000000E+00 2 -0.4178900440000000E+01  0.7244633100000000E+00
0
       &END POTENTIAL
     &END KIND
     &KIND N
       BASIS_SET DZVP-MOLOPT-SR-GTH-q5
       POTENTIAL GTH-PBE-q5
       &POTENTIAL
2 3
0.2837905100000000E+00 2 -0.1241522559000000E+02  0.1868095920000000E+01
2
0.2554050000000000E+00 1  0.1363026257000000E+02
0.2454945300000000E+00 0
       &END POTENTIAL
     &END KIND
     &KIND Ga
       BASIS_SET DZVP-MOLOPT-SR-GTH-q13
       POTENTIAL GTH-PBE-q13
       &POTENTIAL
2 1 10
0.4900000000000000E+00 0
3
0.4167772300000000E+00 3  0.1047568975000000E+02 -0.4921768140000000E+01  0.8707055900000000E+00
0.7770178090000000E+01 -0.2248152160000000E+01
0.1784415450000000E+01
0.5696265200000000E+00 2  0.1777985340000000E+01  0.1958597600000000E+00
-0.2317443900000000E+00
0.2381265000000000E+00 1 -0.1624868022000000E+02
       &END POTENTIAL
     &END KIND
     &TOPOLOGY
       NUMBER_OF_ATOMS  214
       MULTIPLE_UNIT_CELL  1 1 1
     &END TOPOLOGY
   &END SUBSYS
 &END FORCE_EVAL
