 # Version information for this restart file 
 # current date 2019-05-27 03:04:31.912
 # current working dir /lustre03/project/6004141/rzk/GaN-carbene/01-Methanol/443-capped/04-both-conf2
 # Program compiled at                              Sun Apr  7 00:48:11 EDT 2019
 # Program compiled on                          beluga2.int.ets1.calculquebec.ca
 # Program compiled for                        Beluga-Linux-x86-64-intel-openmpi
 # Source code revision number                                         svn:18619
 &GLOBAL
   PRINT_LEVEL  MEDIUM
   PROJECT_NAME TEST
   RUN_TYPE  GEO_OPT
 &END GLOBAL
 &MOTION
   &GEO_OPT
     MAX_ITER  500
     STEP_START_VAL  151
   &END GEO_OPT
 &END MOTION
 &FORCE_EVAL
   METHOD  QS
   STRESS_TENSOR  ANALYTICAL
   &DFT
     BASIS_SET_FILE_NAME BASIS_MOLOPT
     POTENTIAL_FILE_NAME GTH_POTENTIALS
     SURFACE_DIPOLE_CORRECTION  T
     SURF_DIP_DIR  Z
     &SCF
       MAX_SCF  100
       EPS_SCF     5.0000000000000004E-06
       &OT  T
         PRECONDITIONER  FULL_ALL
       &END OT
       &OUTER_SCF  T
         OPTIMIZER  NONE
         EPS_SCF     5.0000000000000004E-06
         MAX_SCF  4
       &END OUTER_SCF
       &PRINT
         &RESTART  OFF
           BACKUP_COPIES  1
           &EACH
             JUST_ENERGY  0
             QS_SCF  0
             MD  20
           &END EACH
         &END RESTART
       &END PRINT
     &END SCF
     &QS
       EPS_DEFAULT     1.0000000000000000E-14
       METHOD  GPW
     &END QS
     &MGRID
       NGRIDS  5
       CUTOFF     1.2000000000000000E+03
     &END MGRID
     &XC
       DENSITY_CUTOFF     1.0000000000000000E-10
       GRADIENT_CUTOFF     1.0000000000000000E-10
       TAU_CUTOFF     1.0000000000000000E-10
       &XC_FUNCTIONAL  NO_SHORTCUT
         &PBE  T
         &END PBE
       &END XC_FUNCTIONAL
       &VDW_POTENTIAL
         POTENTIAL_TYPE  PAIR_POTENTIAL
         &PAIR_POTENTIAL
           R_CUTOFF     1.0000000000000007E+01
           TYPE  DFTD3
           PARAMETER_FILE_NAME dftd3.dat
           REFERENCE_FUNCTIONAL PBE
           EPS_CN     9.9999999999999995E-07
           CALCULATE_C9_TERM  T
           REFERENCE_C9_TERM  T
           LONG_RANGE_CORRECTION  F
           VERBOSE_OUTPUT  F
         &END PAIR_POTENTIAL
       &END VDW_POTENTIAL
     &END XC
   &END DFT
   &SUBSYS
     &CELL
       A     1.2845720507224698E+01    0.0000000000000000E+00    0.0000000000000000E+00
       B    -6.4473440219514533E+00    1.1167127419895399E+01    0.0000000000000000E+00
       C     0.0000000000000000E+00    0.0000000000000000E+00    2.9000000000000000E+01
       MULTIPLE_UNIT_CELL  1 1 1
       &CELL_REF
         A     1.2982353780853531E+01    0.0000000000000000E+00    0.0000000000000000E+00
         B    -6.4911768904267628E+00    1.1243048175136114E+01    0.0000000000000000E+00
         C     0.0000000000000000E+00    0.0000000000000000E+00    2.9000000000000000E+01
         MULTIPLE_UNIT_CELL  1 1 1
       &END CELL_REF
     &END CELL
     &COORD
Ga    9.3114329731359274E-03   -4.7715146374676387E-02   -1.7800025130756938E-01
N    4.6391034471652470E-03    1.8140721731086094E+00    6.0512993398315473E-01
Ga    9.3773959959088176E-04    1.8193514002183888E+00    2.5403424872662344E+00
N    6.9116406738240696E-03   -3.8768112277355882E-02    3.2276372828478666E+00
Ga    3.4090018588427541E-04   -3.3761129363844740E-02    5.1892118270386831E+00
N   -5.4142394902635897E-03    1.8244201726670546E+00    5.8480344996746396E+00
Ga   -1.4692548228725304E-02    1.8339764986035931E+00    7.8184786370033015E+00
N   -1.0756487109988231E-02   -1.9661123851027088E-02    8.4758234803662589E+00
Ga   -9.1800080162496162E-03    3.8531896935679252E-03    1.0465670542702521E+01
N   -1.0331928918616005E-02    1.8546189318775315E+00    1.1085213360930315E+01
Ga   -6.4591339331706341E-02    1.8421148327182617E+00    1.3117284971151884E+01
N   -2.8913168620442114E-02    7.2994348035269364E-03    1.3562286339022622E+01
Ga   -1.6030579890841630E+00    2.7447656846767794E+00   -1.7747243550428154E-01
N   -1.6077361220360029E+00    4.6052461936125599E+00    6.0810235555291647E-01
Ga   -1.6119360298560523E+00    4.6102528336334494E+00    2.5436930441166576E+00
N   -1.6063381000728505E+00    2.7514750205109828E+00    3.2284030693157240E+00
Ga   -1.6122869214372517E+00    2.7570732596167318E+00    5.1910005628856117E+00
N   -1.6180773463560691E+00    4.6153256352203940E+00    5.8536438141825666E+00
Ga   -1.6240475210346188E+00    4.6282240436123550E+00    7.8253011161819046E+00
N   -1.6214724198723294E+00    2.7671379968993652E+00    8.4664340411787986E+00
Ga   -1.6106459419839685E+00    2.7823548678866041E+00    1.0453164737581933E+01
N   -1.6328335497269948E+00    4.6365451359476273E+00    1.1072061467481285E+01
Ga   -1.6415588258545684E+00    4.6553471524086065E+00    1.3159386288867257E+01
N   -1.6437714042757401E+00    2.7960654442687889E+00    1.3533689755575338E+01
Ga   -3.2150442368749954E+00    5.5365808880459992E+00   -1.7446460042301021E-01
N   -3.2191998317165669E+00    7.3968388402262146E+00    6.1090379525891347E-01
Ga   -3.2233990962434440E+00    7.4018690180784468E+00    2.5459769454189218E+00
N   -3.2184742220743066E+00    5.5435253991929114E+00    3.2338113626748255E+00
Ga   -3.2225944768497006E+00    5.5490576722599787E+00    5.1966474054893865E+00
N   -3.2305555411740863E+00    7.4079095305713816E+00    5.8608660053365877E+00
Ga   -3.2421307781523465E+00    7.4208650859610188E+00    7.8343856680266279E+00
N   -3.2304402865599595E+00    5.5604370814148707E+00    8.4757094204939207E+00
Ga   -3.2339821058534080E+00    5.5703252220791528E+00    1.0464381607353365E+01
N   -3.2530699702435828E+00    7.4337473084343850E+00    1.1052935891859233E+01
Ga   -3.2597167141830434E+00    7.4441945684626685E+00    1.3124620531085206E+01
N   -3.2487758435874792E+00    5.5917965960324842E+00    1.3509594802667266E+01
Ga   -4.8260193982011650E+00    8.3269586260654282E+00   -1.7480141414490447E-01
N   -4.8307885100902563E+00    1.0188374177272063E+01    6.0663984616049371E-01
Ga   -4.8353468757289519E+00    1.0193025530144817E+01    2.5408994906967046E+00
N   -4.8299171800679570E+00    8.3361578433694792E+00    3.2336135972013840E+00
Ga   -4.8355075776415166E+00    8.3399304989452183E+00    5.1955581555383068E+00
N   -4.8415210624301039E+00    1.0199521058975250E+01    5.8569031879685660E+00
Ga   -4.8558012295875548E+00    1.0208734063623723E+01    7.8291979633880384E+00
N   -4.8513618264335436E+00    8.3554555381006335E+00    8.4789442431187272E+00
Ga   -4.8598159436404824E+00    8.3695578224065130E+00    1.0473707733547215E+01
N   -4.8633736679389568E+00    1.0218421603040392E+01    1.1090765267774859E+01
Ga   -4.8777787763227369E+00    1.0235871544191680E+01    1.3201826870491587E+01
N   -4.8620982019171448E+00    8.3734536260858992E+00    1.3521865749849162E+01
Ga    3.2201843643343002E+00   -4.8831078511641764E-02   -1.8006428143668601E-01
N    3.2153288598943166E+00    1.8116428716677271E+00    6.0449592494135107E-01
Ga    3.2113193335166748E+00    1.8170308851809409E+00    2.5390075124970619E+00
N    3.2170819977571736E+00   -4.0176865680501175E-02    3.2298686690598237E+00
Ga    3.2095695345277102E+00   -3.6189622887039107E-02    5.1916102018172356E+00
N    3.2039298151020894E+00    1.8206696694496982E+00    5.8542151912667668E+00
Ga    3.1912333846652143E+00    1.8343398705216156E+00    7.8255157767343002E+00
N    3.1959880907485725E+00   -2.1962403414200995E-02    8.4866531663719300E+00
Ga    3.1827455088052261E+00    2.3746226697491080E-03    1.0483245844528344E+01
N    3.1744178779635885E+00    1.8592973580365435E+00    1.1081374045213126E+01
Ga    3.2114243172647225E+00    1.8574676244882222E+00    1.3108731582058244E+01
N    3.1788738029408576E+00    1.7980816219823000E-02    1.3546625375367398E+01
Ga    1.6090594901078306E+00    2.7452249957404384E+00   -1.7888168498615503E-01
N    1.6042745121530293E+00    4.6052741445359153E+00    6.0812652447875293E-01
Ga    1.6005180878611862E+00    4.6111083249944231E+00    2.5432538196973478E+00
N    1.6072535011810793E+00    2.7522588124226592E+00    3.2290746756459447E+00
Ga    1.5991904070278122E+00    2.7580872537481071E+00    5.1914639696130376E+00
N    1.5922044195843639E+00    4.6156385621939489E+00    5.8508899460791177E+00
Ga    1.5814247160636423E+00    4.6293819040506747E+00    7.8203274196743582E+00
N    1.5878308043802987E+00    2.7716107046448508E+00    8.4690686482050559E+00
Ga    1.5819144893877297E+00    2.7880872099946084E+00    1.0442742779738577E+01
N    1.5930302092419988E+00    4.6279084322749453E+00    1.1088200439992178E+01
Ga    1.5553566883759999E+00    4.6664259542694984E+00    1.3077189314431807E+01
N    1.5714866140304617E+00    2.7998976893896552E+00    1.3669629869150924E+01
Ga   -2.7404156441305735E-03    5.5366275554543085E+00   -1.7546170258518221E-01
N   -8.3278210969991422E-03    7.3971106846549510E+00    6.0942662893283028E-01
Ga   -1.2748752692616857E-02    7.4017845162858871E+00    2.5446843003829613E+00
N   -6.5212085043229182E-03    5.5441114162980627E+00    3.2310762566655526E+00
Ga   -1.3313799421222341E-02    5.5483720402247263E+00    5.1934694129973966E+00
N   -2.1645643524065138E-02    7.4058927776195338E+00    5.8572146860825809E+00
Ga   -2.8114498869345049E-02    7.4165121011418504E+00    7.8306801800875405E+00
N   -1.9921108232615836E-02    5.5588101617340984E+00    8.4848635713245955E+00
Ga   -1.6683528752285105E-02    5.5627399111271973E+00    1.0475698744468900E+01
N   -4.3396771929238118E-02    7.4211713752512454E+00    1.1080020556324948E+01
Ga   -4.8978636834577309E-02    7.4330371572292542E+00    1.3168723043381439E+01
N   -2.8021295824180628E-02    5.5808417515664770E+00    1.3536644207132351E+01
Ga   -1.6155723518529572E+00    8.3266271026822452E+00   -1.7601258550235591E-01
N   -1.6204540521169040E+00    1.0187598883607880E+01    6.0716526603705456E-01
Ga   -1.6243757590939176E+00    1.0191797910224894E+01    2.5421900028243263E+00
N   -1.6183275323451085E+00    8.3361411340628830E+00    3.2347788985849779E+00
Ga   -1.6252848509383113E+00    8.3394779696791588E+00    5.1982608957510266E+00
N   -1.6346532533825053E+00    1.0200596499313578E+01    5.8572660255629021E+00
Ga   -1.6452414616772026E+00    1.0212422194968040E+01    7.8298065037575810E+00
N   -1.6330198866409291E+00    8.3580591605902228E+00    8.4808727360906051E+00
Ga   -1.6369497970472713E+00    8.3662297971631183E+00    1.0472035239348958E+01
N   -1.6570401579315388E+00    1.0232015572374536E+01    1.1060637154194016E+01
Ga   -1.6739863656520735E+00    1.0246572392740770E+01    1.3138012454483784E+01
N   -1.6492331564043288E+00    8.3865857759821161E+00    1.3504144537963729E+01
Ga    6.4308320168108750E+00   -4.8848972300907199E-02   -1.7892358632912986E-01
N    6.4259528136248329E+00    1.8112617325448717E+00    6.0517106750788130E-01
Ga    6.4214834883364382E+00    1.8161106249726289E+00    2.5403418012871830E+00
N    6.4266042824766023E+00   -4.0890364013448949E-02    3.2304045644084627E+00
Ga    6.4204850055996756E+00   -3.6285725938231581E-02    5.1930817093007908E+00
N    6.4142744148246189E+00    1.8250258054433266E+00    5.8476044031629018E+00
Ga    6.4037284824318110E+00    1.8370332666628209E+00    7.8168745004131948E+00
N    6.4084324361392930E+00   -1.8342130867418073E-02    8.4655808912010055E+00
Ga    6.3994571394291686E+00   -4.6105119137133267E-03    1.0453998133326150E+01
N    6.3736360575284197E+00    1.8502966329523785E+00    1.1057167827435956E+01
Ga    6.3526712157576934E+00    1.8652746867251986E+00    1.3145929335374380E+01
N    6.3997137046859560E+00    1.4577314664970637E-03    1.3508948710998414E+01
Ga    4.8197065447062570E+00    2.7438941176764637E+00   -1.7878741995899247E-01
N    4.8146313067293915E+00    4.6037568253467880E+00    6.0715633204187647E-01
Ga    4.8108376162076922E+00    4.6095114126260013E+00    2.5422827705387903E+00
N    4.8154323476512557E+00    2.7499868618922303E+00    3.2280301975003951E+00
Ga    4.8090224819536456E+00    2.7553082961476116E+00    5.1889870608599358E+00
N    4.8053759591076730E+00    4.6142544064037310E+00    5.8481052242178890E+00
Ga    4.7943859387298247E+00    4.6288980291055877E+00    7.8158626445231763E+00
N    4.7965554102696375E+00    2.7697115393767979E+00    8.4668004454006880E+00
Ga    4.7698602144630149E+00    2.7891374202958081E+00    1.0450546218518614E+01
N    4.7713833822082279E+00    4.6362633740598129E+00    1.1069205803391441E+01
Ga    4.8003163930104478E+00    4.6183204467658872E+00    1.3091809476498243E+01
N    4.7782211421161653E+00    2.8049721024958285E+00    1.3641122876708325E+01
Ga    3.2088697775381707E+00    5.5365252582515012E+00   -1.7595983305216306E-01
N    3.2029900625257870E+00    7.3974798201198695E+00    6.0865749188417784E-01
Ga    3.1991160407209152E+00    7.4026714531729505E+00    2.5443949205717136E+00
N    3.2055993221970414E+00    5.5445595750534222E+00    3.2306070979270252E+00
Ga    3.1973819827318781E+00    5.5503110535221776E+00    5.1928738787781619E+00
N    3.1912242422807502E+00    7.4094152705500758E+00    5.8489593250395489E+00
Ga    3.1800029670743379E+00    7.4222647271196411E+00    7.8197818620373276E+00
N    3.1876862138872522E+00    5.5623721326846294E+00    8.4593034551309252E+00
Ga    3.1802598433309970E+00    5.5638775528613449E+00    1.0428692583952685E+01
N    3.1699552038598862E+00    7.4083260743396826E+00    1.1065930896088393E+01
Ga    3.1735712170675225E+00    7.4733811954372005E+00    1.3087942955575155E+01
N    3.1851322203176178E+00    5.5964910436457505E+00    1.3648872256254950E+01
Ga    1.5960710340776578E+00    8.3275555168054076E+00   -1.7625549170855054E-01
N    1.5899433468946036E+00    1.0188150180322166E+01    6.0721773327678530E-01
Ga    1.5858268491617471E+00    1.0192480535159554E+01    2.5427959640458777E+00
N    1.5918342825393847E+00    8.3354600064826698E+00    3.2312267480560122E+00
Ga    1.5839727487026252E+00    8.3402519553937218E+00    5.1944403286206846E+00
N    1.5766002679904236E+00    1.0199306273949086E+01    5.8496171229112397E+00
Ga    1.5682477801638124E+00    1.0207308639837777E+01    7.8235859005788466E+00
N    1.5734281766262230E+00    8.3528765350775931E+00    8.4735720207013205E+00
Ga    1.5711305630630037E+00    8.3562374832321620E+00    1.0465717133691582E+01
N    1.5602531049275703E+00    1.0227716318946790E+01    1.1021590118631231E+01
Ga    1.5437586435422959E+00    1.0231347024837268E+01    1.3077870874612810E+01
N    1.5654222589496158E+00    8.3830760652184200E+00    1.3483633717317902E+01
Ga    9.6421357184626935E+00   -4.8020963847694102E-02   -1.7752955607730553E-01
N    9.6374233345675950E+00    1.8128952815785389E+00    6.0538485222534644E-01
Ga    9.6329358426897844E+00    1.8175265509156042E+00    2.5410925928619243E+00
N    9.6379708416217689E+00   -4.0432758494343822E-02    3.2295838089152880E+00
Ga    9.6320057482934054E+00   -3.4773458496100397E-02    5.1931552645790617E+00
N    9.6257893222239446E+00    1.8261772449789804E+00    5.8463347870689883E+00
Ga    9.6181952180627484E+00    1.8371803060561702E+00    7.8176502780141801E+00
N    9.6218514184848161E+00   -2.3404618349355914E-02    8.4506015703286277E+00
Ga    9.6177417227487627E+00   -1.6054463845922944E-02    1.0432326829703420E+01
N    9.6185807061717696E+00    1.8475493826979954E+00    1.1019964674393140E+01
Ga    9.6041256597481794E+00    1.8662130153096606E+00    1.3077770595876473E+01
N    9.6058673937643118E+00    4.5131539071310896E-03    1.3450112568494220E+01
Ga    8.0305508378726760E+00    2.7443236031135432E+00   -1.7843290485710914E-01
N    8.0263319781503117E+00    4.6040074805557394E+00    6.0759824735808410E-01
Ga    8.0226714092036921E+00    4.6093564584044344E+00    2.5420426527634139E+00
N    8.0259306842018105E+00    2.7510896587062383E+00    3.2278266160230595E+00
Ga    8.0214907802902840E+00    2.7568363519264882E+00    5.1892196187588269E+00
N    8.0165754382259191E+00    4.6155935041605121E+00    5.8552242372925800E+00
Ga    8.0072142517669924E+00    4.6276796549697972E+00    7.8278041915827048E+00
N    8.0073346316842127E+00    2.7650523074067008E+00    8.4698096427048100E+00
Ga    7.9955724872085367E+00    2.7783553671067698E+00    1.0462875982060622E+01
N    7.9955557451597716E+00    4.6437956461310241E+00    1.1046963224324278E+01
Ga    7.9872497766903576E+00    4.6614923959775716E+00    1.3117006529825431E+01
N    7.9911298964080624E+00    2.7949309807123037E+00    1.3432574844154743E+01
Ga    6.4199380571905822E+00    5.5361806605765080E+00   -1.7434604189431774E-01
N    6.4147374841867792E+00    7.3970731016565487E+00    6.0919869148077033E-01
Ga    6.4108575383479902E+00    7.4024676126145978E+00    2.5439742039432698E+00
N    6.4166561648471623E+00    5.5430750947299812E+00    3.2300914060393255E+00
Ga    6.4112709264033105E+00    5.5488865490339592E+00    5.1912317520837457E+00
N    6.4046527645268228E+00    7.4070058410415385E+00    5.8535156173873037E+00
Ga    6.3921399331356943E+00    7.4193592553164338E+00    7.8248564707415120E+00
N    6.3962689564288358E+00    5.5616306470773686E+00    8.4716179711053563E+00
Ga    6.3766494175754200E+00    5.5680950383796173E+00    1.0459272888564048E+01
N    6.3786831440946745E+00    7.4219581262196099E+00    1.1062471279837963E+01
Ga    6.3782587651790452E+00    7.4324852293866899E+00    1.3138601984834461E+01
N    6.3826962349453238E+00    5.5807259212262093E+00    1.3530542665141304E+01
Ga    4.8084644520536015E+00    8.3275887900212382E+00   -1.7427032735579986E-01
N    4.8025515438444888E+00    1.0189500031287352E+01    6.0634042262273424E-01
Ga    4.7981169913444264E+00    1.0194352109370396E+01    2.5423225824102245E+00
N    4.8045325664330658E+00    8.3363383542777001E+00    3.2300514555765072E+00
Ga    4.7978960406597952E+00    8.3414586199694600E+00    5.1926709883519333E+00
N    4.7942450250321258E+00    1.0201415554513190E+01    5.8478789014472605E+00
Ga    4.7860808249165681E+00    1.0209681967411049E+01    7.8194330368922227E+00
N    4.7833742915651198E+00    8.3543599782410709E+00    8.4692328419899514E+00
Ga    4.7700901824556370E+00    8.3591129456650517E+00    1.0456197147792794E+01
N    4.7781753801845044E+00    1.0224840346100311E+01    1.1040279062508830E+01
Ga    4.7795484696324246E+00    1.0238173898889276E+01    1.3103342556124867E+01
N    4.7819451388985978E+00    8.3841331942611514E+00    1.3490994169304473E+01
H    4.8155525672140245E+00    8.3281921305443909E+00   -1.7256480192422232E+00
H    1.6010266151534236E+00    8.3313786576805846E+00   -1.7277616058665086E+00
H   -1.6096406359780155E+00    8.3297854298731249E+00   -1.7277818129339995E+00
H   -4.8179365949065112E+00    8.3309627874456442E+00   -1.7264572426258658E+00
H    6.4242359343584043E+00    5.5434869497430279E+00   -1.7257138116070792E+00
H    3.2108719667789494E+00    5.5415594559229495E+00   -1.7276375927366410E+00
H    5.1654839935405391E-03    5.5433637327864771E+00   -1.7272813380343917E+00
H   -3.2097774984430334E+00    5.5454182714055129E+00   -1.7260195095008755E+00
H    8.0363398337805414E+00    2.7536502007989179E+00   -1.7299900806194017E+00
H    4.8225824264910306E+00    2.7524872038799209E+00   -1.7303387670731425E+00
H    1.6156419837909695E+00    2.7536628652750355E+00   -1.7304001812331815E+00
H   -1.5954576553133177E+00    2.7516150302165086E+00   -1.7291288905756448E+00
H    2.0562381465608712E-02   -4.5244936624056209E-02   -1.7295632227846240E+00
H    3.2262328216703007E+00   -4.4829607529611695E-02   -1.7317683842384803E+00
H    6.4352886935945905E+00   -4.4589812085962716E-02   -1.7304104495525767E+00
H    9.6478265532832044E+00   -4.3548565821942643E-02   -1.7290915817504477E+00
O    2.8830374118806374E+00    4.3003204674938429E+00    1.6400145994446529E+01
H    3.1785996531287011E+00    5.5463777780989680E+00    1.4677394279908237E+01
C    3.8170854355373200E+00    3.6168759538098612E+00    1.6819646930672857E+01
H    3.8696479379418562E+00    3.3153222784988841E+00    1.7890680974090202E+01
H    1.5861790643060165E+00    2.8184916313386368E+00    1.4694649062898236E+01
H    4.6382029916003287E+00    3.2645400373899736E+00    1.6150448649001934E+01
     &END COORD
     &KIND C
       BASIS_SET DZVP-MOLOPT-SR-GTH-q4
       POTENTIAL GTH-PBE-q4
       &POTENTIAL
2 2
0.3384712400000000E+00 2 -0.8803673979999999E+01  0.1339210850000000E+01
2
0.3025757500000000E+00 1  0.9622486650000001E+01
0.2915069400000000E+00 0
       &END POTENTIAL
     &END KIND
     &KIND O
       BASIS_SET DZVP-MOLOPT-SR-GTH-q6
       POTENTIAL GTH-PBE-q6
       &POTENTIAL
2 4
0.2445543000000000E+00 2 -0.1666721480000000E+02  0.2487311320000000E+01
2
0.2209559200000000E+00 1  0.1833745811000000E+02
0.2113324700000000E+00 0
       &END POTENTIAL
     &END KIND
     &KIND H
       BASIS_SET DZVP-MOLOPT-SR-GTH-q1
       POTENTIAL GTH-PBE-q1
       &POTENTIAL
1
0.2000000000000000E+00 2 -0.4178900440000000E+01  0.7244633100000000E+00
0
       &END POTENTIAL
     &END KIND
     &KIND N
       BASIS_SET DZVP-MOLOPT-SR-GTH-q5
       POTENTIAL GTH-PBE-q5
       &POTENTIAL
2 3
0.2837905100000000E+00 2 -0.1241522559000000E+02  0.1868095920000000E+01
2
0.2554050000000000E+00 1  0.1363026257000000E+02
0.2454945300000000E+00 0
       &END POTENTIAL
     &END KIND
     &KIND Ga
       BASIS_SET DZVP-MOLOPT-SR-GTH-q13
       POTENTIAL GTH-PBE-q13
       &POTENTIAL
2 1 10
0.4900000000000000E+00 0
3
0.4167772300000000E+00 3  0.1047568975000000E+02 -0.4921768140000000E+01  0.8707055900000000E+00
0.7770178090000000E+01 -0.2248152160000000E+01
0.1784415450000000E+01
0.5696265200000000E+00 2  0.1777985340000000E+01  0.1958597600000000E+00
-0.2317443900000000E+00
0.2381265000000000E+00 1 -0.1624868022000000E+02
       &END POTENTIAL
     &END KIND
     &TOPOLOGY
       NUMBER_OF_ATOMS  214
       MULTIPLE_UNIT_CELL  1 1 1
     &END TOPOLOGY
   &END SUBSYS
 &END FORCE_EVAL
