 # Version information for this restart file 
 # current date 2019-05-27 02:56:28.556
 # current working dir /lustre03/project/6004141/rzk/GaN-carbene/01-Methanol/443-capped/04-both-conf2
 # Program compiled at                              Sun Apr  7 00:48:11 EDT 2019
 # Program compiled on                          beluga2.int.ets1.calculquebec.ca
 # Program compiled for                        Beluga-Linux-x86-64-intel-openmpi
 # Source code revision number                                         svn:18619
 &GLOBAL
   PRINT_LEVEL  MEDIUM
   PROJECT_NAME TEST
   RUN_TYPE  GEO_OPT
 &END GLOBAL
 &MOTION
   &GEO_OPT
     MAX_ITER  500
     STEP_START_VAL  149
   &END GEO_OPT
 &END MOTION
 &FORCE_EVAL
   METHOD  QS
   STRESS_TENSOR  ANALYTICAL
   &DFT
     BASIS_SET_FILE_NAME BASIS_MOLOPT
     POTENTIAL_FILE_NAME GTH_POTENTIALS
     SURFACE_DIPOLE_CORRECTION  T
     SURF_DIP_DIR  Z
     &SCF
       MAX_SCF  100
       EPS_SCF     5.0000000000000004E-06
       &OT  T
         PRECONDITIONER  FULL_ALL
       &END OT
       &OUTER_SCF  T
         OPTIMIZER  NONE
         EPS_SCF     5.0000000000000004E-06
         MAX_SCF  4
       &END OUTER_SCF
       &PRINT
         &RESTART  OFF
           BACKUP_COPIES  1
           &EACH
             JUST_ENERGY  0
             QS_SCF  0
             MD  20
           &END EACH
         &END RESTART
       &END PRINT
     &END SCF
     &QS
       EPS_DEFAULT     1.0000000000000000E-14
       METHOD  GPW
     &END QS
     &MGRID
       NGRIDS  5
       CUTOFF     1.2000000000000000E+03
     &END MGRID
     &XC
       DENSITY_CUTOFF     1.0000000000000000E-10
       GRADIENT_CUTOFF     1.0000000000000000E-10
       TAU_CUTOFF     1.0000000000000000E-10
       &XC_FUNCTIONAL  NO_SHORTCUT
         &PBE  T
         &END PBE
       &END XC_FUNCTIONAL
       &VDW_POTENTIAL
         POTENTIAL_TYPE  PAIR_POTENTIAL
         &PAIR_POTENTIAL
           R_CUTOFF     1.0000000000000007E+01
           TYPE  DFTD3
           PARAMETER_FILE_NAME dftd3.dat
           REFERENCE_FUNCTIONAL PBE
           EPS_CN     9.9999999999999995E-07
           CALCULATE_C9_TERM  T
           REFERENCE_C9_TERM  T
           LONG_RANGE_CORRECTION  F
           VERBOSE_OUTPUT  F
         &END PAIR_POTENTIAL
       &END VDW_POTENTIAL
     &END XC
   &END DFT
   &SUBSYS
     &CELL
       A     1.2845720507224698E+01    0.0000000000000000E+00    0.0000000000000000E+00
       B    -6.4473440219514533E+00    1.1167127419895399E+01    0.0000000000000000E+00
       C     0.0000000000000000E+00    0.0000000000000000E+00    2.9000000000000000E+01
       MULTIPLE_UNIT_CELL  1 1 1
       &CELL_REF
         A     1.2982353780853531E+01    0.0000000000000000E+00    0.0000000000000000E+00
         B    -6.4911768904267628E+00    1.1243048175136114E+01    0.0000000000000000E+00
         C     0.0000000000000000E+00    0.0000000000000000E+00    2.9000000000000000E+01
         MULTIPLE_UNIT_CELL  1 1 1
       &END CELL_REF
     &END CELL
     &COORD
Ga    1.4171470633406413E-02   -5.0213505364229936E-02   -1.7922967173883600E-01
N    8.6565461984596821E-03    1.8096697216995001E+00    6.0501322705852700E-01
Ga    2.2000205911533771E-03    1.8195733539683898E+00    2.5397794528952256E+00
N    7.9865582642932691E-03   -3.8493599139201341E-02    3.2267652250496135E+00
Ga   -1.6246242627937359E-03   -2.8825763935488614E-02    5.1875458256287468E+00
N   -7.0018561355732869E-03    1.8297566019187343E+00    5.8453546890671157E+00
Ga   -1.4829237124635620E-02    1.8415495140773339E+00    7.8148913225460506E+00
N   -8.6181664625864327E-03   -1.1971890336426023E-02    8.4734247709704924E+00
Ga   -8.3201579820786058E-03    1.1268882385323638E-02    1.0464245725594083E+01
N   -3.4970228724056523E-03    1.8642739352619269E+00    1.1077401730528225E+01
Ga   -5.5029995950363599E-02    1.8484634048013890E+00    1.3109963910985428E+01
N   -2.0138255642073551E-02    1.5103758298161976E-02    1.3559152015308099E+01
Ga   -1.5981003843918291E+00    2.7424507027143474E+00   -1.7858605121165183E-01
N   -1.6034619216274011E+00    4.6018674444881711E+00    6.0661452770848223E-01
Ga   -1.6102812003883502E+00    4.6113801397129413E+00    2.5415947473871849E+00
N   -1.6042031806278436E+00    2.7531698189090261E+00    3.2274277961159776E+00
Ga   -1.6136412868663650E+00    2.7624455342448986E+00    5.1889662051703844E+00
N   -1.6187139853921615E+00    4.6211980082670374E+00    5.8523777969909290E+00
Ga   -1.6262726488572570E+00    4.6331724080697176E+00    7.8238229288792676E+00
N   -1.6200574744091412E+00    2.7727553373722458E+00    8.4638112129491514E+00
Ga   -1.6088559201939026E+00    2.7858554704900524E+00    1.0449961858100004E+01
N   -1.6321393309349925E+00    4.6386509088305816E+00    1.1067025374043666E+01
Ga   -1.6399516025813665E+00    4.6571526122707230E+00    1.3151609889032358E+01
N   -1.6382807110695430E+00    2.7973420396442212E+00    1.3525002477678452E+01
Ga   -3.2097682868237891E+00    5.5340610330982543E+00   -1.7816504594153698E-01
N   -3.2149307120535564E+00    7.3926721985801640E+00    6.0874778514926076E-01
Ga   -3.2218653818523553E+00    7.4021444934998879E+00    2.5440606936914931E+00
N   -3.2169953243335625E+00    5.5441147995600337E+00    3.2315833641862457E+00
Ga   -3.2252425756596863E+00    5.5524111088878927E+00    5.1940752795278593E+00
N   -3.2333450964232644E+00    7.4116014633827287E+00    5.8569212661529324E+00
Ga   -3.2409343221523033E+00    7.4231078057342792E+00    7.8290429045766192E+00
N   -3.2326603374538281E+00    5.5638231418215263E+00    8.4765390990033609E+00
Ga   -3.2361671318430791E+00    5.5750820754404975E+00    1.0470002212823394E+01
N   -3.2524814959731536E+00    7.4362066584765012E+00    1.1061077695544865E+01
Ga   -3.2559546347404864E+00    7.4401557474736597E+00    1.3143925605011622E+01
N   -3.2430617388476675E+00    5.5887561105173980E+00    1.3525814904682445E+01
Ga   -4.8211675692035909E+00    8.3245289160523228E+00   -1.7686964800593610E-01
N   -4.8268715120845824E+00    1.0184306433969844E+01    6.0613978204277941E-01
Ga   -4.8339248315710321E+00    1.0193575749863488E+01    2.5406617417217601E+00
N   -4.8279764195436012E+00    8.3370840132673454E+00    3.2315352275740277E+00
Ga   -4.8371932537448732E+00    8.3438855153471447E+00    5.1936846790998317E+00
N   -4.8441431489486604E+00    1.0204743931541907E+01    5.8531356148776537E+00
Ga   -4.8555567537776723E+00    1.0215503507143005E+01    7.8237266489648816E+00
N   -4.8479671586177400E+00    8.3617711675142985E+00    8.4794275253952271E+00
Ga   -4.8535719693925241E+00    8.3722575047063508E+00    1.0473351859552542E+01
N   -4.8649712474377571E+00    1.0221215510084432E+01    1.1093617074021774E+01
Ga   -4.8704489544285012E+00    1.0233026509812506E+01    1.3201049490095066E+01
N   -4.8534070902977309E+00    8.3735562509529320E+00    1.3547926268745661E+01
Ga    3.2251266139322436E+00   -5.0513757501837370E-02   -1.8051559801079886E-01
N    3.2200728693762080E+00    1.8094104840558138E+00    6.0332747503429240E-01
Ga    3.2127631062354194E+00    1.8189574805071862E+00    2.5378793124661656E+00
N    3.2173621711407314E+00   -3.8620967030546793E-02    3.2276395603573129E+00
Ga    3.2080973638839385E+00   -3.0966329599028279E-02    5.1881128277844253E+00
N    3.2021412875683590E+00    1.8268580746387768E+00    5.8499504865125278E+00
Ga    3.1924621661489150E+00    1.8390270807338227E+00    7.8198798546331769E+00
N    3.1939934805142323E+00   -1.8193005868386906E-02    8.4828225728668869E+00
Ga    3.1803739935076512E+00    3.4753762580551893E-03    1.0476187052008097E+01
N    3.1763855075320842E+00    1.8642553855086759E+00    1.1077218148290957E+01
Ga    3.2189292323234082E+00    1.8628386688910765E+00    1.3102737447282284E+01
N    3.1877735680604000E+00    2.1669728592882184E-02    1.3526949665445906E+01
Ga    1.6131570316652648E+00    2.7424285665413555E+00   -1.7999845759440514E-01
N    1.6081784686544927E+00    4.6015720049413824E+00    6.0633422671763659E-01
Ga    1.6021760437351587E+00    4.6117442830608510E+00    2.5415187304755507E+00
N    1.6076223944200332E+00    2.7528275242415545E+00    3.2267081363580519E+00
Ga    1.5975480062258516E+00    2.7628140965665953E+00    5.1878722234913166E+00
N    1.5910780454286719E+00    4.6219824588658449E+00    5.8452238987590981E+00
Ga    1.5818950456741816E+00    4.6367861610061949E+00    7.8125708187390126E+00
N    1.5877620881259318E+00    2.7801024797439200E+00    8.4610044369655224E+00
Ga    1.5859644667541222E+00    2.7962787007909995E+00    1.0431830065903107E+01
N    1.5967835779965127E+00    4.6352779772643808E+00    1.1082416734837313E+01
Ga    1.5603776388396888E+00    4.6692268045118528E+00    1.3068925218111506E+01
N    1.5795230234307938E+00    2.8056833377461734E+00    1.3669268160029349E+01
Ga    1.5477991372374030E-03    5.5342799746534830E+00   -1.7772337535179919E-01
N   -3.8972712053836453E-03    7.3938738095847389E+00    6.0653779626256954E-01
Ga   -1.1071455439091091E-02    7.4032671694613832E+00    2.5411056838398789E+00
N   -5.3449204717111488E-03    5.5453300627762365E+00    3.2279039496293396E+00
Ga   -1.3990263073929103E-02    5.5546961696093469E+00    5.1888214691220957E+00
N   -2.1512400763841651E-02    7.4117172246943328E+00    5.8527302823402954E+00
Ga   -3.0234992941629620E-02    7.4229243691948499E+00    7.8245174421756909E+00
N   -2.0684845706672422E-02    5.5651562163717694E+00    8.4808882546477253E+00
Ga   -1.5484437167387607E-02    5.5670371178250919E+00    1.0468879019886653E+01
N   -3.9849514772216203E-02    7.4250794358452161E+00    1.1068056340247338E+01
Ga   -4.6020673629775515E-02    7.4395955761106967E+00    1.3148511841228967E+01
N   -2.4871480866266261E-02    5.5871326332144600E+00    1.3517940731969533E+01
Ga   -1.6106692276402998E+00    8.3251382386877744E+00   -1.7845000455676943E-01
N   -1.6159847224722272E+00    1.0184701607671943E+01    6.0563089465116249E-01
Ga   -1.6234886757522726E+00    1.0193478791204335E+01    2.5401857921124908E+00
N   -1.6175739005665508E+00    8.3364200291983970E+00    3.2314841231727924E+00
Ga   -1.6269089171684334E+00    8.3436756727469632E+00    5.1937715575386720E+00
N   -1.6373406980375791E+00    1.0204392043707799E+01    5.8521469770664005E+00
Ga   -1.6470216791750625E+00    1.0212375201240075E+01    7.8238106482927074E+00
N   -1.6352559289141089E+00    8.3579123501637476E+00    8.4729201089221711E+00
Ga   -1.6412777900843130E+00    8.3627189275965073E+00    1.0463688479774566E+01
N   -1.6536409662496092E+00    1.0230267817068276E+01    1.1044803524333124E+01
Ga   -1.6661155147270930E+00    1.0249468528340101E+01    1.3113241828269460E+01
N   -1.6441532389701630E+00    8.3909799781859569E+00    1.3490527772423308E+01
Ga    6.4362531512626955E+00   -4.9574142679579838E-02   -1.8012159726877885E-01
N    6.4314057167620167E+00    1.8103155085147946E+00    6.0471212723871681E-01
Ga    6.4236548680032231E+00    1.8192083985592966E+00    2.5395432095263986E+00
N    6.4278045027064632E+00   -3.9152706342664739E-02    3.2270081305777629E+00
Ga    6.4177640145820662E+00   -3.1388135544659496E-02    5.1880398047732195E+00
N    6.4124056846433968E+00    1.8291302137236540E+00    5.8438697879364394E+00
Ga    6.4016738868002383E+00    1.8418399433700359E+00    7.8135578670612311E+00
N    6.4059240252261178E+00   -1.5041419320601641E-02    8.4585969833122636E+00
Ga    6.3974705278795847E+00    4.0372698681875136E-03    1.0444682848422257E+01
N    6.3811410847574388E+00    1.8594080218466553E+00    1.1052202722598645E+01
Ga    6.3590224069606691E+00    1.8723869304211105E+00    1.3141532574982485E+01
N    6.4011444777203907E+00    7.5460157761842069E-03    1.3498688571272325E+01
Ga    4.8247924470988686E+00    2.7427002849607085E+00   -1.8099368170257632E-01
N    4.8201440059158100E+00    4.6018724065158354E+00    6.0590738283445744E-01
Ga    4.8133526564557210E+00    4.6116819743243020E+00    2.5415808743930826E+00
N    4.8166680317867012E+00    2.7525038575598502E+00    3.2263820832465284E+00
Ga    4.8077889192813297E+00    2.7615468560553560E+00    5.1874208247085800E+00
N    4.8031508774257672E+00    4.6199347812398948E+00    5.8478282099625236E+00
Ga    4.7947816661931757E+00    4.6342903922070358E+00    7.8164562375556974E+00
N    4.7945926113382891E+00    2.7737763120701646E+00    8.4642442500283614E+00
Ga    4.7749852462589182E+00    2.7906602373715468E+00    1.0448550174930725E+01
N    4.7712524921166022E+00    4.6459006216799841E+00    1.1061631700825981E+01
Ga    4.8105135998338460E+00    4.6313643273176686E+00    1.3078577993357886E+01
N    4.7816114423065725E+00    2.8150013764737225E+00    1.3622274438155893E+01
Ga    3.2127972670476388E+00    5.5343939275192096E+00   -1.7760097048490159E-01
N    3.2081725179031895E+00    7.3941824351015262E+00    6.0657446001917759E-01
Ga    3.2019526760759049E+00    7.4036147537189798E+00    2.5419640667015315E+00
N    3.2071964612054988E+00    5.5457168706427051E+00    3.2282011065996787E+00
Ga    3.1978857927819133E+00    5.5557191388604279E+00    5.1900003721014363E+00
N    3.1913403171441215E+00    7.4157043166366607E+00    5.8467982971079868E+00
Ga    3.1810835616828652E+00    7.4304492662689734E+00    7.8160696008136066E+00
N    3.1860109619922867E+00    5.5711411728259108E+00    8.4567029785281065E+00
Ga    3.1807939951893083E+00    5.5735999230328632E+00    1.0424024141481789E+01
N    3.1736847610760206E+00    7.4206742387413627E+00    1.1062639887894907E+01
Ga    3.1764134173419887E+00    7.4768807514760276E+00    1.3086937549049951E+01
N    3.1909205503168208E+00    5.6009648103971950E+00    1.3640453517058377E+01
Ga    1.6010163662074650E+00    8.3260801306439394E+00   -1.7887087354539719E-01
N    1.5959272320887727E+00    1.0185962036145389E+01    6.0580347099661913E-01
Ga    1.5887037461267035E+00    1.0195100310708145E+01    2.5405936678259029E+00
N    1.5939320701358086E+00    8.3366537097632030E+00    3.2277705249699991E+00
Ga    1.5840021753701559E+00    8.3451731346981628E+00    5.1887660865333673E+00
N    1.5758031447722762E+00    1.0204464990980480E+01    5.8438398951766404E+00
Ga    1.5657780328176643E+00    1.0213204241860142E+01    7.8141564702937449E+00
N    1.5730115283716508E+00    8.3594847278491571E+00    8.4705118542403248E+00
Ga    1.5709184192281245E+00    8.3611092210221720E+00    1.0458391590155241E+01
N    1.5594814709943652E+00    1.0233375313051040E+01    1.1022318624447236E+01
Ga    1.5500268376980051E+00    1.0237134945571560E+01    1.3080893434089084E+01
N    1.5675572085259799E+00    8.3878110141077915E+00    1.3485086569605683E+01
Ga    9.6479297810074378E+00   -4.9386747984991909E-02   -1.7914201315351708E-01
N    9.6427870001653950E+00    1.8104319180537245E+00    6.0594990012084915E-01
Ga    9.6360627582265845E+00    1.8194706546578423E+00    2.5411952741334147E+00
N    9.6411914193405543E+00   -3.8637381312535850E-02    3.2277375521749492E+00
Ga    9.6316740172786783E+00   -3.0027506114220479E-02    5.1900098306537190E+00
N    9.6255726775329489E+00    1.8311304112377489E+00    5.8455571397878456E+00
Ga    9.6177785396850286E+00    1.8432135613104463E+00    7.8163487515219101E+00
N    9.6195795404339020E+00   -1.8890210119851161E-02    8.4462400241883646E+00
Ga    9.6180029071038096E+00   -4.5451635555211712E-03    1.0427302743970714E+01
N    9.6145008267975882E+00    1.8572476521750998E+00    1.1015575707263169E+01
Ga    9.6109856544144225E+00    1.8694011457818411E+00    1.3069294665370114E+01
N    9.6149430879931206E+00    6.1650200825349652E-03    1.3438068464351325E+01
Ga    8.0362307247778766E+00    2.7429125535124430E+00   -1.7961360606405266E-01
N    8.0311079382884909E+00    4.6019625579097756E+00    6.0683679501735477E-01
Ga    8.0242061241991482E+00    4.6115172252293979E+00    2.5419501321283011E+00
N    8.0284981380011295E+00    2.7530470889698062E+00    3.2272773201609843E+00
Ga    8.0199185009038967E+00    2.7612030374118235E+00    5.1887376822819835E+00
N    8.0141845088164470E+00    4.6194856429241504E+00    5.8539730118559792E+00
Ga    8.0063961425902050E+00    4.6341354018455769E+00    7.8259044241709983E+00
N    8.0054525683052180E+00    2.7703951125341644E+00    8.4643465064836363E+00
Ga    7.9952221806563504E+00    2.7850376823532876E+00    1.0454767768611658E+01
N    7.9938169929676288E+00    4.6474916049135384E+00    1.1061763928110690E+01
Ga    7.9930164179598000E+00    4.6555391684877359E+00    1.3138476692949599E+01
N    7.9981508640996450E+00    2.7888564377017540E+00    1.3462363965276056E+01
Ga    6.4245928348736365E+00    5.5343996211998565E+00   -1.7851595867635639E-01
N    6.4196698489241282E+00    7.3929755831859154E+00    6.0852833680939378E-01
Ga    6.4131161280270161E+00    7.4027300831336413E+00    2.5440179959643445E+00
N    6.4183556911933772E+00    5.5448493394766869E+00    3.2305407766082470E+00
Ga    6.4092762188062782E+00    5.5531401612109121E+00    5.1927433022514879E+00
N    6.4037699801271728E+00    7.4126653168350369E+00    5.8544904873942665E+00
Ga    6.3938184743164515E+00    7.4257331040912362E+00    7.8254372893665325E+00
N    6.3956468699700011E+00    5.5655446641933555E+00    8.4733245871416809E+00
Ga    6.3818997561268009E+00    5.5736568861204265E+00    1.0461051688123780E+01
N    6.3808031482549721E+00    7.4315518720510436E+00    1.1061189356555255E+01
Ga    6.3907113247592369E+00    7.4418226778996068E+00    1.3139514667416456E+01
N    6.3892877715355700E+00    5.5878966547440223E+00    1.3517769567596151E+01
Ga    4.8132325740232211E+00    8.3253556317036921E+00   -1.7783997113961933E-01
N    4.8075393808677509E+00    1.0185498435963304E+01    6.0604967045839730E-01
Ga    4.8007086181745873E+00    1.0194797512187288E+01    2.5412940197413718E+00
N    4.8069997173793757E+00    8.3374236953725269E+00    3.2295234778383115E+00
Ga    4.7982598238260570E+00    8.3471178500017835E+00    5.1916132898308778E+00
N    4.7933013874639876E+00    1.0207285865306257E+01    5.8468073906168057E+00
Ga    4.7868618346237382E+00    1.0217928750784052E+01    7.8177805391710491E+00
N    4.7862127347446295E+00    8.3622541839424045E+00    8.4651713690530030E+00
Ga    4.7746873384717432E+00    8.3656038712119347E+00    1.0451768548485093E+01
N    4.7801167307506303E+00    1.0232462943237465E+01    1.1028645065682031E+01
Ga    4.7887843302576591E+00    1.0247338125125282E+01    1.3089891584518055E+01
N    4.7882274786446501E+00    8.3916108939488705E+00    1.3478127104738268E+01
H    4.8236574533691501E+00    8.3227897461555553E+00   -1.7302091121074823E+00
H    1.6081914642775719E+00    8.3255234045528574E+00   -1.7312267439061590E+00
H   -1.6022220925420434E+00    8.3224283028766859E+00   -1.7307013326884195E+00
H   -4.8122442031322965E+00    8.3209749394466552E+00   -1.7290821688219746E+00
H    6.4344593442310156E+00    5.5338581547257331E+00   -1.7310009241000912E+00
H    3.2213072291024281E+00    5.5326742503979736E+00   -1.7300947442312551E+00
H    1.0041026158843360E-02    5.5343419252880874E+00   -1.7300220845123939E+00
H   -3.2020222827467077E+00    5.5332989483588939E+00   -1.7304090578706195E+00
H    8.0450786851537170E+00    2.7433982642382317E+00   -1.7319333520329054E+00
H    4.8361576364072727E+00    2.7424288668981993E+00   -1.7334270562556817E+00
H    1.6217953066946236E+00    2.7432091211229581E+00   -1.7322478406576645E+00
H   -1.5905525484788747E+00    2.7429865203997958E+00   -1.7308004858856068E+00
H    2.4649005573294008E-02   -5.1401658901144551E-02   -1.7314659263543806E+00
H    3.2346925400665354E+00   -5.4598336036508419E-02   -1.7326260511476430E+00
H    6.4453768952440393E+00   -4.9962229630076967E-02   -1.7324477345992662E+00
H    9.6554205444206183E+00   -4.9383914819593457E-02   -1.7315130888908008E+00
O    2.7781770112325046E+00    4.4393195893523520E+00    1.6422738741640291E+01
H    3.1776773790774633E+00    5.5443472728907617E+00    1.4668243986334637E+01
C    3.6190580426635020E+00    3.6781115347351649E+00    1.6874739959096349E+01
H    3.6153218822170139E+00    3.3999224649679429E+00    1.7947217057598952E+01
H    1.5879191747398074E+00    2.8304880102903480E+00    1.4693607749521076E+01
H    4.4229010844200536E+00    3.2347503365302219E+00    1.6239444467951017E+01
     &END COORD
     &KIND C
       BASIS_SET DZVP-MOLOPT-SR-GTH-q4
       POTENTIAL GTH-PBE-q4
       &POTENTIAL
2 2
0.3384712400000000E+00 2 -0.8803673979999999E+01  0.1339210850000000E+01
2
0.3025757500000000E+00 1  0.9622486650000001E+01
0.2915069400000000E+00 0
       &END POTENTIAL
     &END KIND
     &KIND O
       BASIS_SET DZVP-MOLOPT-SR-GTH-q6
       POTENTIAL GTH-PBE-q6
       &POTENTIAL
2 4
0.2445543000000000E+00 2 -0.1666721480000000E+02  0.2487311320000000E+01
2
0.2209559200000000E+00 1  0.1833745811000000E+02
0.2113324700000000E+00 0
       &END POTENTIAL
     &END KIND
     &KIND H
       BASIS_SET DZVP-MOLOPT-SR-GTH-q1
       POTENTIAL GTH-PBE-q1
       &POTENTIAL
1
0.2000000000000000E+00 2 -0.4178900440000000E+01  0.7244633100000000E+00
0
       &END POTENTIAL
     &END KIND
     &KIND N
       BASIS_SET DZVP-MOLOPT-SR-GTH-q5
       POTENTIAL GTH-PBE-q5
       &POTENTIAL
2 3
0.2837905100000000E+00 2 -0.1241522559000000E+02  0.1868095920000000E+01
2
0.2554050000000000E+00 1  0.1363026257000000E+02
0.2454945300000000E+00 0
       &END POTENTIAL
     &END KIND
     &KIND Ga
       BASIS_SET DZVP-MOLOPT-SR-GTH-q13
       POTENTIAL GTH-PBE-q13
       &POTENTIAL
2 1 10
0.4900000000000000E+00 0
3
0.4167772300000000E+00 3  0.1047568975000000E+02 -0.4921768140000000E+01  0.8707055900000000E+00
0.7770178090000000E+01 -0.2248152160000000E+01
0.1784415450000000E+01
0.5696265200000000E+00 2  0.1777985340000000E+01  0.1958597600000000E+00
-0.2317443900000000E+00
0.2381265000000000E+00 1 -0.1624868022000000E+02
       &END POTENTIAL
     &END KIND
     &TOPOLOGY
       NUMBER_OF_ATOMS  214
       MULTIPLE_UNIT_CELL  1 1 1
     &END TOPOLOGY
   &END SUBSYS
 &END FORCE_EVAL
