 # Version information for this restart file 
 # current date 2019-05-27 02:52:23.346
 # current working dir /lustre03/project/6004141/rzk/GaN-carbene/01-Methanol/443-capped/04-both-conf2
 # Program compiled at                              Sun Apr  7 00:48:11 EDT 2019
 # Program compiled on                          beluga2.int.ets1.calculquebec.ca
 # Program compiled for                        Beluga-Linux-x86-64-intel-openmpi
 # Source code revision number                                         svn:18619
 &GLOBAL
   PRINT_LEVEL  MEDIUM
   PROJECT_NAME TEST
   RUN_TYPE  GEO_OPT
 &END GLOBAL
 &MOTION
   &GEO_OPT
     MAX_ITER  500
     STEP_START_VAL  148
   &END GEO_OPT
 &END MOTION
 &FORCE_EVAL
   METHOD  QS
   STRESS_TENSOR  ANALYTICAL
   &DFT
     BASIS_SET_FILE_NAME BASIS_MOLOPT
     POTENTIAL_FILE_NAME GTH_POTENTIALS
     SURFACE_DIPOLE_CORRECTION  T
     SURF_DIP_DIR  Z
     &SCF
       MAX_SCF  100
       EPS_SCF     5.0000000000000004E-06
       &OT  T
         PRECONDITIONER  FULL_ALL
       &END OT
       &OUTER_SCF  T
         OPTIMIZER  NONE
         EPS_SCF     5.0000000000000004E-06
         MAX_SCF  4
       &END OUTER_SCF
       &PRINT
         &RESTART  OFF
           BACKUP_COPIES  1
           &EACH
             JUST_ENERGY  0
             QS_SCF  0
             MD  20
           &END EACH
         &END RESTART
       &END PRINT
     &END SCF
     &QS
       EPS_DEFAULT     1.0000000000000000E-14
       METHOD  GPW
     &END QS
     &MGRID
       NGRIDS  5
       CUTOFF     1.2000000000000000E+03
     &END MGRID
     &XC
       DENSITY_CUTOFF     1.0000000000000000E-10
       GRADIENT_CUTOFF     1.0000000000000000E-10
       TAU_CUTOFF     1.0000000000000000E-10
       &XC_FUNCTIONAL  NO_SHORTCUT
         &PBE  T
         &END PBE
       &END XC_FUNCTIONAL
       &VDW_POTENTIAL
         POTENTIAL_TYPE  PAIR_POTENTIAL
         &PAIR_POTENTIAL
           R_CUTOFF     1.0000000000000007E+01
           TYPE  DFTD3
           PARAMETER_FILE_NAME dftd3.dat
           REFERENCE_FUNCTIONAL PBE
           EPS_CN     9.9999999999999995E-07
           CALCULATE_C9_TERM  T
           REFERENCE_C9_TERM  T
           LONG_RANGE_CORRECTION  F
           VERBOSE_OUTPUT  F
         &END PAIR_POTENTIAL
       &END VDW_POTENTIAL
     &END XC
   &END DFT
   &SUBSYS
     &CELL
       A     1.2845720507224698E+01    0.0000000000000000E+00    0.0000000000000000E+00
       B    -6.4473440219514533E+00    1.1167127419895399E+01    0.0000000000000000E+00
       C     0.0000000000000000E+00    0.0000000000000000E+00    2.9000000000000000E+01
       MULTIPLE_UNIT_CELL  1 1 1
       &CELL_REF
         A     1.2982353780853531E+01    0.0000000000000000E+00    0.0000000000000000E+00
         B    -6.4911768904267628E+00    1.1243048175136114E+01    0.0000000000000000E+00
         C     0.0000000000000000E+00    0.0000000000000000E+00    2.9000000000000000E+01
         MULTIPLE_UNIT_CELL  1 1 1
       &END CELL_REF
     &END CELL
     &COORD
Ga    1.7233173541086163E-02   -5.4733914495884939E-02   -1.7612471026039914E-01
N    1.1325415136857872E-02    1.8046586229116794E+00    6.0820050895283784E-01
Ga    4.0237215155500715E-03    1.8159359036816158E+00    2.5425819665383229E+00
N    9.7930766988866946E-03   -4.1850057929490821E-02    3.2297556813134243E+00
Ga   -1.6160587789427550E-03   -3.0117508782322906E-02    5.1901094822414775E+00
N   -6.9930568072107888E-03    1.8285221949926793E+00    5.8479819132372413E+00
Ga   -1.6480260841104221E-02    1.8424798457654863E+00    7.8175881138439065E+00
N   -1.0432029925784967E-02   -1.1056109733106263E-02    8.4758716567666763E+00
Ga   -1.1564534720115784E-02    1.3190420632985506E-02    1.0467085196973366E+01
N   -6.5968440032650550E-03    1.8662811851835057E+00    1.1081518347798573E+01
Ga   -5.8146604198012937E-02    1.8517568959075039E+00    1.3116245270671314E+01
N   -2.5941828672841772E-02    1.7382466079033026E-02    1.3559820728330742E+01
Ga   -1.5952309478493933E+00    2.7381928143933778E+00   -1.7562786472350905E-01
N   -1.6007065306644122E+00    4.5971608800910504E+00    6.0971591409932246E-01
Ga   -1.6082589938119991E+00    4.6079321521939729E+00    2.5443826831150096E+00
N   -1.6021115569532500E+00    2.7497903616298185E+00    3.2300077601921617E+00
Ga   -1.6131017595369361E+00    2.7610432903208846E+00    5.1909671675184663E+00
N   -1.6184877927306778E+00    4.6197587289794937E+00    5.8545599789654297E+00
Ga   -1.6276553423922431E+00    4.6326544512283307E+00    7.8257131375562654E+00
N   -1.6218631361538045E+00    2.7725595176610724E+00    8.4668061969579753E+00
Ga   -1.6120021139618994E+00    2.7874533338139438E+00    1.0453623310822213E+01
N   -1.6370673105982800E+00    4.6405920406114189E+00    1.1070821372382488E+01
Ga   -1.6472972637434942E+00    4.6593100767781133E+00    1.3155546958945900E+01
N   -1.6450215447497898E+00    2.7987743864160253E+00    1.3523913730354284E+01
Ga   -3.2068015580574301E+00    5.5297314741529648E+00   -1.7556779011386475E-01
N   -3.2120746929041548E+00    7.3876285340237366E+00    6.1188783602787933E-01
Ga   -3.2199512383238793E+00    7.3983937926234189E+00    2.5469822533977049E+00
N   -3.2151322949866610E+00    5.5405195991412617E+00    3.2340291374531200E+00
Ga   -3.2251581371482887E+00    5.5504433152610586E+00    5.1961948594399683E+00
N   -3.2333583731640578E+00    7.4098870824080025E+00    5.8583796234054022E+00
Ga   -3.2420894873245407E+00    7.4224211259369310E+00    7.8299167082910799E+00
N   -3.2353269481394742E+00    5.5630732185213860E+00    8.4768625553973926E+00
Ga   -3.2412797439444274E+00    5.5751937943333179E+00    1.0470927577185456E+01
N   -3.2576780622761410E+00    7.4350307438255063E+00    1.1064622587996501E+01
Ga   -3.2623606626934021E+00    7.4380045361690197E+00    1.3149750530513785E+01
N   -3.2497029802585011E+00    5.5883737578507997E+00    1.3537779801748174E+01
Ga   -4.8181340354944791E+00    8.3200968216235225E+00   -1.7363856770713326E-01
N   -4.8241864385383666E+00    1.0179302167286330E+01    6.0967731597525021E-01
Ga   -4.8321042772746567E+00    1.0189912375042864E+01    2.5439286374752426E+00
N   -4.8258128165562280E+00    8.3336903314135728E+00    3.2345875955196557E+00
Ga   -4.8367933271832984E+00    8.3424381419696871E+00    5.1965456678894713E+00
N   -4.8444996899650610E+00    1.0203732452315966E+01    5.8552834669182330E+00
Ga   -4.8576324206540118E+00    1.0216102131691914E+01    7.8255906877176145E+00
N   -4.8491146757657626E+00    8.3617759304437911E+00    8.4812317155414796E+00
Ga   -4.8562060048817575E+00    8.3734380391724503E+00    1.0474577143705940E+01
N   -4.8688153746238108E+00    1.0221699058668504E+01    1.1097859924169102E+01
Ga   -4.8750814086835597E+00    1.0234155093482958E+01    1.3205217794375047E+01
N   -4.8588987182505443E+00    8.3742590535404524E+00    1.3553307845761200E+01
Ga    3.2278390241880519E+00   -5.4867932837362646E-02   -1.7728209857830324E-01
N    3.2226916981849838E+00    1.8048266479558164E+00    6.0627835089469029E-01
Ga    3.2143110119779070E+00    1.8156960221751315E+00    2.5405679272599504E+00
N    3.2187742764777130E+00   -4.1841842473676241E-02    3.2303400955155652E+00
Ga    3.2079831438107513E+00   -3.2208110735570408E-02    5.1903435474435371E+00
N    3.2018772888581797E+00    1.8259773076212582E+00    5.8521139932293131E+00
Ga    3.1905275142489349E+00    1.8397361960844347E+00    7.8218113497741308E+00
N    3.1915029796760574E+00   -1.7805156409601116E-02    8.4843258101023995E+00
Ga    3.1747622144741672E+00    4.1130399420445836E-03    1.0476860887297789E+01
N    3.1722660869322064E+00    1.8644891904010277E+00    1.1081730365281649E+01
Ga    3.2137039079798946E+00    1.8655587275824890E+00    1.3108351098146217E+01
N    3.1821420157945361E+00    2.4875889586927828E-02    1.3534423141690747E+01
Ga    1.6157373561922759E+00    2.7380496856910490E+00   -1.7690689925497699E-01
N    1.6106960409782662E+00    4.5967229267526983E+00    6.0959615893190755E-01
Ga    1.6039396823861296E+00    4.6082182307544928E+00    2.5445741135097215E+00
N    1.6089951850156958E+00    2.7492471679421691E+00    3.2294850550539951E+00
Ga    1.5973795830548676E+00    2.7613983277911154E+00    5.1902565176828714E+00
N    1.5910447985145186E+00    4.6207338820334192E+00    5.8475437696248704E+00
Ga    1.5805085165615531E+00    4.6372194813365226E+00    7.8147887450292037E+00
N    1.5857555409097237E+00    2.7809082554353122E+00    8.4642615181945065E+00
Ga    1.5831493948444506E+00    2.7984493497218801E+00    1.0435199961755778E+01
N    1.5934183150811800E+00    4.6378410609954193E+00    1.1085036974502586E+01
Ga    1.5547568796261975E+00    4.6715975311222637E+00    1.3070913155712606E+01
N    1.5746439509764876E+00    2.8100945638199804E+00    1.3675617855584315E+01
Ga    4.2894414582935218E-03    5.5299370796722123E+00   -1.7471392325379492E-01
N   -1.1748640651883327E-03    7.3890482301656064E+00    6.0951777586028033E-01
Ga   -9.2255256993487803E-03    7.3998909513855926E+00    2.5436418219039019E+00
N   -3.6205774256374288E-03    5.5420470794326242E+00    3.2306832813979978E+00
Ga   -1.3501396173591003E-02    5.5534857007698779E+00    5.1911961847700745E+00
N   -2.1348229716527990E-02    7.4106461798034609E+00    5.8552793283630296E+00
Ga   -3.2183949831401652E-02    7.4233377808136636E+00    7.8267279243450547E+00
N   -2.2720968449542460E-02    5.5658568440012930E+00    8.4838729523189365E+00
Ga   -1.9407868281280154E-02    5.5681255204732807E+00    1.0471176628794828E+01
N   -4.2917934809899951E-02    7.4252982579448013E+00    1.1071479482166692E+01
Ga   -5.1851289894838330E-02    7.4406636034848157E+00    1.3151096989001662E+01
N   -3.0928105886123925E-02    5.5887976968901274E+00    1.3520493035119044E+01
Ga   -1.6078317635557795E+00    8.3207511696067549E+00   -1.7554812615812873E-01
N   -1.6133594390234425E+00    1.0179867711373422E+01    6.0849635339972818E-01
Ga   -1.6220349997913190E+00    1.0189994222808449E+01    2.5427247118488379E+00
N   -1.6160082891602172E+00    8.3327835679488711E+00    3.2341038626638583E+00
Ga   -1.6267113531653998E+00    8.3419575540460382E+00    5.1959396479657176E+00
N   -1.6378847643841379E+00    1.0202726239971328E+01    5.8542933121557859E+00
Ga   -1.6495920496435568E+00    1.0210827230773415E+01    7.8259180970805362E+00
N   -1.6377541286319484E+00    8.3567490842846137E+00    8.4761043472666788E+00
Ga   -1.6467282735044730E+00    8.3620055336974630E+00    1.0468008753064012E+01
N   -1.6592671151155529E+00    1.0230359992280649E+01    1.1046507127223634E+01
Ga   -1.6732611682915033E+00    1.0251439347861783E+01    1.3114292111107451E+01
N   -1.6507240887253656E+00    8.3920390782245846E+00    1.3488700930842100E+01
Ga    6.4389982313648346E+00   -5.3645864374278346E-02   -1.7745895181869198E-01
N    6.4340933628719483E+00    1.8061587238808550E+00    6.0727812257672364E-01
Ga    6.4253872583786933E+00    1.8163884952538503E+00    2.5417305757408433E+00
N    6.4291303219894944E+00   -4.2183995868919147E-02    3.2289507625591742E+00
Ga    6.4172440463415805E+00   -3.3052113006767976E-02    5.1893394624232085E+00
N    6.4116938873437928E+00    1.8272081778248610E+00    5.8454939719403400E+00
Ga    6.3985806080722574E+00    1.8414794545960154E+00    7.8151193707517059E+00
N    6.4028032753950539E+00   -1.5259861147756636E-02    8.4605234491299885E+00
Ga    6.3915511773772256E+00    5.3963554635554087E-03    1.0446615504640619E+01
N    6.3769884459789088E+00    1.8611528671195738E+00    1.1055009782251622E+01
Ga    6.3533039300040333E+00    1.8742143236161020E+00    1.3145689569697959E+01
N    6.3941473848191137E+00    9.1479217922281995E-03    1.3501509217088167E+01
Ga    4.8273299012481470E+00    2.7386524794531848E+00   -1.7867217054960416E-01
N    4.8229642412121994E+00    4.5974840080973145E+00    6.0877068223225439E-01
Ga    4.8152634425280327E+00    4.6085931514820251E+00    2.5444176090233976E+00
N    4.8181365279825181E+00    2.7493804560112372E+00    3.2287988382640420E+00
Ga    4.8074766056827505E+00    2.7603356579166927E+00    5.1896265301281828E+00
N    4.8027269787960307E+00    4.6182502841809674E+00    5.8505702384271512E+00
Ga    4.7927707154510717E+00    4.6342458724733646E+00    7.8195207208696704E+00
N    4.7922191707764181E+00    2.7735593918197194E+00    8.4674511771117054E+00
Ga    4.7702443475943133E+00    2.7911110306683309E+00    1.0452475136795320E+01
N    4.7665018085522757E+00    4.6484542885817488E+00    1.1061154258347178E+01
Ga    4.8059132024812463E+00    4.6346903836351414E+00    1.3075206665938435E+01
N    4.7766011886490194E+00    2.8197860676656989E+00    1.3624935470115936E+01
Ga    3.2151463052402702E+00    5.5301710091531824E+00   -1.7448441762078845E-01
N    3.2110453540538053E+00    7.3894734046643791E+00    6.0966189209995925E-01
Ga    3.2041297521828356E+00    7.4002345379772638E+00    2.5448397222971497E+00
N    3.2088494184130698E+00    5.5423148617213220E+00    3.2310492314791412E+00
Ga    3.1982374095131991E+00    5.5544429589787638E+00    5.1928040161044491E+00
N    3.1914165482644816E+00    7.4150185979573324E+00    5.8490264301124659E+00
Ga    3.1794995689860368E+00    7.4315077180642390E+00    7.8177453118807696E+00
N    3.1838798351546780E+00    5.5727908493525380E+00    8.4591609552200637E+00
Ga    3.1762608611303915E+00    5.5772110125256029E+00    1.0425919919448930E+01
N    3.1698714388469060E+00    7.4249075432588629E+00    1.1065541091555218E+01
Ga    3.1706721211926574E+00    7.4799073351108838E+00    1.3089826562268966E+01
N    3.1864810524945262E+00    5.6046630239879791E+00    1.3639797708337348E+01
Ga    1.6037544361615050E+00    8.3218911412902745E+00   -1.7590444382592704E-01
N    1.5988862199370724E+00    1.0181574557453432E+01    6.0872040265946292E-01
Ga    1.5907880312303777E+00    1.0192123176785531E+01    2.5431220660924767E+00
N    1.5956858517388546E+00    8.3333939082343669E+00    3.2301284345509020E+00
Ga    1.5841699761297607E+00    8.3438396498613354E+00    5.1904317735876848E+00
N    1.5752676445316294E+00    1.0203310724407810E+01    5.8453702061718467E+00
Ga    1.5627805931705028E+00    1.0213249010226367E+01    7.8148175642816220E+00
N    1.5710877947283663E+00    8.3601845978066329E+00    8.4737243665689679E+00
Ga    1.5661359027987891E+00    8.3629006488365860E+00    1.0460909798952924E+01
N    1.5534696058849475E+00    1.0235825343984294E+01    1.1024419109382531E+01
Ga    1.5434669972353374E+00    1.0239228921796144E+01    1.3083465054326362E+01
N    1.5614671997467151E+00    8.3903464455239085E+00    1.3490286990045018E+01
Ga    9.6509058181462404E+00   -5.3483048102766773E-02   -1.7634547461617786E-01
N    9.6456457571808247E+00    1.8060340682468186E+00    6.0910622488871535E-01
Ga    9.6383181257849699E+00    1.8163027229890261E+00    2.5440113219314133E+00
N    9.6433798639353085E+00   -4.1697695897495939E-02    3.2304802035431437E+00
Ga    9.6317838861203597E+00   -3.1440557557522085E-02    5.1924171409768602E+00
N    9.6260326315603528E+00    1.8302540675597920E+00    5.8473939099661845E+00
Ga    9.6161488536545860E+00    1.8430473355637838E+00    7.8177077784218891E+00
N    9.6166106134059088E+00   -1.9092412501547466E-02    8.4462277649370137E+00
Ga    9.6123902595921962E+00   -3.0562975152527211E-03    1.0426549276669061E+01
N    9.6092792735841801E+00    1.8587567030276078E+00    1.1015357464670672E+01
Ga    9.6051377268916251E+00    1.8709328464724986E+00    1.3067232798408078E+01
N    9.6100783043648601E+00    7.2501816613864192E-03    1.3435852758528886E+01
Ga    8.0390856886755575E+00    2.7389787770639074E+00   -1.7689820867514550E-01
N    8.0338803390941624E+00    4.5976206817501835E+00    6.0987169432807276E-01
Ga    8.0260224250168015E+00    4.6083874008257339E+00    2.5448680354107740E+00
N    8.0303049392063244E+00    2.7497058575830722E+00    3.2297866123509129E+00
Ga    8.0197332610758654E+00    2.7591494599453315E+00    5.1909870234792983E+00
N    8.0140423674373853E+00    4.6173349056724273E+00    5.8554623143142832E+00
Ga    8.0038940623490618E+00    4.6337119525595263E+00    7.8270557425987697E+00
N    8.0025799867557410E+00    2.7692578104212284E+00    8.4650334167923873E+00
Ga    7.9899786361099725E+00    2.7855822848230356E+00    1.0454509272770675E+01
N    7.9892231091418209E+00    4.6481752375861332E+00    1.1065139921122777E+01
Ga    7.9878015866128536E+00    4.6550110396153501E+00    1.3141268581351930E+01
N    7.9932054093579685E+00    2.7890894690013734E+00    1.3469994737724244E+01
Ga    6.4272913474963591E+00    5.5303141522681996E+00   -1.7627298190854662E-01
N    6.4226643144781486E+00    7.3880547087420956E+00    6.1184461030387038E-01
Ga    6.4153748609220402E+00    7.3992259711384989E+00    2.5472314297388805E+00
N    6.4201200076232627E+00    5.5416980228022554E+00    3.2337511830432861E+00
Ga    6.4090039424345422E+00    5.5513990695330699E+00    5.1960939093328493E+00
N    6.4041430750106088E+00    7.4116004606688213E+00    5.8564866398314441E+00
Ga    6.3922567380714099E+00    7.4260564668683511E+00    7.8270276484898691E+00
N    6.3935164365108754E+00    5.5654334005538058E+00    8.4742711704219094E+00
Ga    6.3788393829925418E+00    5.5747924917534855E+00    1.0461442040423112E+01
N    6.3768185150890293E+00    7.4335750825912736E+00    1.1060799323806954E+01
Ga    6.3858745832406347E+00    7.4443214851823196E+00    1.3137999420452971E+01
N    6.3840165640451056E+00    5.5903155377928737E+00    1.3511981258988053E+01
Ga    4.8161434192324153E+00    8.3209440414544229E+00   -1.7513774304631663E-01
N    4.8104180375507601E+00    1.0180700768962732E+01    6.0924855342985307E-01
Ga    4.8029237962842162E+00    1.0191389135045625E+01    2.5441314474439367E+00
N    4.8092129621629711E+00    8.3342644434204214E+00    3.2326221635931551E+00
Ga    4.7988055734793571E+00    8.3462223404214466E+00    5.1944893268842964E+00
N    4.7934320821871470E+00    1.0206626026584450E+01    5.8490572016082885E+00
Ga    4.7851731412932930E+00    1.0218823729111177E+01    7.8198225498013345E+00
N    4.7851807441360545E+00    8.3628822982368192E+00    8.4658649334376612E+00
Ga    4.7708082687834166E+00    8.3675071950094058E+00    1.0451648948190064E+01
N    4.7764100611932276E+00    1.0234921140807435E+01    1.1027102461639032E+01
Ga    4.7835206101785817E+00    1.0249893447073974E+01    1.3085971467722665E+01
N    4.7839450962685959E+00    8.3948975403869817E+00    1.3477532941304579E+01
H    4.8277451330219030E+00    8.3168612245929587E+00   -1.7278532745664721E+00
H    1.6118042204329486E+00    8.3200179701023860E+00   -1.7286066573453702E+00
H   -1.5977661066129913E+00    8.3162376323315854E+00   -1.7280170906966261E+00
H   -4.8084740507253816E+00    8.3146312131941382E+00   -1.7260465203252773E+00
H    6.4388266655777500E+00    5.5282319536539140E+00   -1.7291632755162172E+00
H    3.2253085109667943E+00    5.5271111829245605E+00   -1.7273002228693513E+00
H    1.4028289109070431E-02    5.5291428821857380E+00   -1.7272003185604483E+00
H   -3.1982950845315177E+00    5.5270663853903006E+00   -1.7280682094303432E+00
H    8.0487644218004686E+00    2.7379773194758203E+00   -1.7295377719723377E+00
H    4.8410043995770069E+00    2.7366185403101730E+00   -1.7314416087847864E+00
H    1.6259108567974447E+00    2.7380439734540634E+00   -1.7293914580180403E+00
H   -1.5869468179148603E+00    2.7376901462472469E+00   -1.7281100605805828E+00
H    2.8701001144243447E-02   -5.7023966337489469E-02   -1.7286005336727694E+00
H    3.2389105866645291E+00   -6.1111222713905941E-02   -1.7295835871458802E+00
H    6.4497008722813840E+00   -5.5321993556835605E-02   -1.7301493173588149E+00
H    9.6588128898666952E+00   -5.4894891511497332E-02   -1.7290210979293537E+00
O    2.8091940782977929E+00    4.3878716997706704E+00    1.6399524706815576E+01
H    3.1775166943614259E+00    5.5410126944017941E+00    1.4666408486955747E+01
C    3.6992011836984475E+00    3.6589339509401890E+00    1.6842379757441748E+01
H    3.7308023707499562E+00    3.3815355739749728E+00    1.7921838739871031E+01
H    1.5860071355864283E+00    2.8394375963700234E+00    1.4701393165166861E+01
H    4.5217982386453315E+00    3.2445301849087640E+00    1.6200800419664031E+01
     &END COORD
     &KIND C
       BASIS_SET DZVP-MOLOPT-SR-GTH-q4
       POTENTIAL GTH-PBE-q4
       &POTENTIAL
2 2
0.3384712400000000E+00 2 -0.8803673979999999E+01  0.1339210850000000E+01
2
0.3025757500000000E+00 1  0.9622486650000001E+01
0.2915069400000000E+00 0
       &END POTENTIAL
     &END KIND
     &KIND O
       BASIS_SET DZVP-MOLOPT-SR-GTH-q6
       POTENTIAL GTH-PBE-q6
       &POTENTIAL
2 4
0.2445543000000000E+00 2 -0.1666721480000000E+02  0.2487311320000000E+01
2
0.2209559200000000E+00 1  0.1833745811000000E+02
0.2113324700000000E+00 0
       &END POTENTIAL
     &END KIND
     &KIND H
       BASIS_SET DZVP-MOLOPT-SR-GTH-q1
       POTENTIAL GTH-PBE-q1
       &POTENTIAL
1
0.2000000000000000E+00 2 -0.4178900440000000E+01  0.7244633100000000E+00
0
       &END POTENTIAL
     &END KIND
     &KIND N
       BASIS_SET DZVP-MOLOPT-SR-GTH-q5
       POTENTIAL GTH-PBE-q5
       &POTENTIAL
2 3
0.2837905100000000E+00 2 -0.1241522559000000E+02  0.1868095920000000E+01
2
0.2554050000000000E+00 1  0.1363026257000000E+02
0.2454945300000000E+00 0
       &END POTENTIAL
     &END KIND
     &KIND Ga
       BASIS_SET DZVP-MOLOPT-SR-GTH-q13
       POTENTIAL GTH-PBE-q13
       &POTENTIAL
2 1 10
0.4900000000000000E+00 0
3
0.4167772300000000E+00 3  0.1047568975000000E+02 -0.4921768140000000E+01  0.8707055900000000E+00
0.7770178090000000E+01 -0.2248152160000000E+01
0.1784415450000000E+01
0.5696265200000000E+00 2  0.1777985340000000E+01  0.1958597600000000E+00
-0.2317443900000000E+00
0.2381265000000000E+00 1 -0.1624868022000000E+02
       &END POTENTIAL
     &END KIND
     &TOPOLOGY
       NUMBER_OF_ATOMS  214
       MULTIPLE_UNIT_CELL  1 1 1
     &END TOPOLOGY
   &END SUBSYS
 &END FORCE_EVAL
