 # Version information for this restart file 
 # current date 2019-07-13 09:02:16.925
 # current working dir /lustre04/scratch/rzk/rzk/GaN-carbene/443-adatoms-both-2x2/09-BondBreaking-CH/02-0401-CH-to-NTop-PES
 # Program compiled at                              Sun Apr  7 00:48:11 EDT 2019
 # Program compiled on                          beluga2.int.ets1.calculquebec.ca
 # Program compiled for                        Beluga-Linux-x86-64-intel-openmpi
 # Source code revision number                                         svn:18619
 &GLOBAL
   PRINT_LEVEL  MEDIUM
   PROJECT_NAME TEST
   RUN_TYPE  GEO_OPT
 &END GLOBAL
 &MOTION
   &GEO_OPT
     MAX_ITER  500
     !STEP_START_VAL  177
   &END GEO_OPT
   &CONSTRAINT
     &COLLECTIVE
       COLVAR  1
       INTERMOLECULAR  T
       TARGET [angstrom] 1.00 !     2.2676713594627715E+00
       &RESTRAINT
         K     2.0000000000000000E+00
       &END RESTRAINT
     &END COLLECTIVE
   &END CONSTRAINT
 &END MOTION
 &FORCE_EVAL
   METHOD  QS
   STRESS_TENSOR  ANALYTICAL
   &DFT
     BASIS_SET_FILE_NAME BASIS_MOLOPT
     POTENTIAL_FILE_NAME GTH_POTENTIALS
     UKS  T
     SURFACE_DIPOLE_CORRECTION  T
     SURF_DIP_DIR  Z
     &SCF
       MAX_SCF  80
       EPS_SCF     5.0000000000000004E-06
       &OT  T
         PRECONDITIONER  FULL_ALL
       &END OT
       &OUTER_SCF  T
         OPTIMIZER  NONE
         EPS_SCF     5.0000000000000004E-06
         MAX_SCF  4
       &END OUTER_SCF
       &PRINT
         &RESTART  OFF
           BACKUP_COPIES  1
           &EACH
             JUST_ENERGY  0
             QS_SCF  0
             MD  20
           &END EACH
         &END RESTART
       &END PRINT
     &END SCF
     &QS
       EPS_DEFAULT     1.0000000000000000E-14
       METHOD  GPW
     &END QS
     &MGRID
       NGRIDS  5
       CUTOFF     1.2000000000000000E+03
     &END MGRID
     &XC
       DENSITY_CUTOFF     1.0000000000000000E-10
       GRADIENT_CUTOFF     1.0000000000000000E-10
       TAU_CUTOFF     1.0000000000000000E-10
       &XC_FUNCTIONAL  NO_SHORTCUT
         &PBE  T
         &END PBE
       &END XC_FUNCTIONAL
       &VDW_POTENTIAL
         POTENTIAL_TYPE  PAIR_POTENTIAL
         &PAIR_POTENTIAL
           R_CUTOFF     1.0000000000000009E+01
           TYPE  DFTD3
           PARAMETER_FILE_NAME dftd3.dat
           REFERENCE_FUNCTIONAL PBE
           EPS_CN     9.9999999999999995E-07
           CALCULATE_C9_TERM  T
           REFERENCE_C9_TERM  T
           LONG_RANGE_CORRECTION  F
           VERBOSE_OUTPUT  F
         &END PAIR_POTENTIAL
       &END VDW_POTENTIAL
     &END XC
   &END DFT
   &SUBSYS
     &CELL
       A     1.2864472766435110E+01    0.0000000000000000E+00    0.0000000000000000E+00
       B    -6.4322363581020028E+00    1.1140960178524477E+01    0.0000000000000000E+00
       C     0.0000000000000000E+00    0.0000000000000000E+00    3.2000000000000000E+01
       MULTIPLE_UNIT_CELL  1 1 1
       &CELL_REF
         A     1.2982353780853531E+01    0.0000000000000000E+00    0.0000000000000000E+00
         B    -6.4911768904267628E+00    1.1243048175136114E+01    0.0000000000000000E+00
         C     0.0000000000000000E+00    0.0000000000000000E+00    3.2000000000000000E+01
         MULTIPLE_UNIT_CELL  1 1 1
       &END CELL_REF
     &END CELL
     &COORD
N    1.0529079976586385E-01    2.0917015310400742E+00    2.6019585945253159E+00
Ga    1.1806539028849167E-01    1.3635953620264160E-01    3.0254957355321603E+00
N    1.0354510127988951E-01    1.2075098165687669E-01    5.1385663450741799E+00
Ga    8.3313655252736638E-02    1.9403808515132388E+00    5.8887326811826517E+00
N    8.7247321410601486E-02    1.9687966608197680E+00    7.8777133448349002E+00
Ga    8.1403597835047137E-02    1.1378757151255006E-01    8.5035379414354235E+00
N    8.0337118940310107E-02    1.2437365191823015E-01    1.0479465720465310E+01
Ga    7.7409366307326644E-02    1.9631539241833469E+00    1.1133720776382003E+01
N    7.4975933168189166E-02    1.9498428149782239E+00    1.3127661694747578E+01
Ga    7.5732136457764804E-02    1.2715212838729806E-01    1.3925923378468077E+01
N    7.3121130721682567E-02    1.2786347067091539E-01    1.6124512677650369E+01
Ga    7.0948616558835526E-02    2.1623702340176445E+00    1.6535851888107164E+01
Ga    1.1054553900206086E-01    3.7987203342250733E+00    1.4569165169585403E+00
N   -1.3846349559695013E+00    4.6752160000693452E+00    2.5537674481453023E+00
Ga   -1.5879465951192306E+00    2.8238752412062920E+00    3.3406266677972782E+00
N   -1.5184098654098084E+00    2.8967317207959402E+00    5.3161877269415951E+00
Ga   -1.5522168009439208E+00    4.7647107004305305E+00    5.8669458740272642E+00
N   -1.5310020880220290E+00    4.7666568724549956E+00    7.8630089891098294E+00
Ga   -1.5177993544905795E+00    2.9096139550207401E+00    8.5024045895690694E+00
N   -1.5170290426839110E+00    2.9173901826516038E+00    1.0495753536176904E+01
Ga   -1.5434628068091820E+00    4.7772704276519242E+00    1.1127721274330156E+01
N   -1.5634398503664906E+00    4.7907329753155148E+00    1.3121721850766464E+01
Ga   -1.5232480667434385E+00    2.9224031265411221E+00    1.3678961382725685E+01
N   -1.5542928603419894E+00    2.9114502765563399E+00    1.5641657482926021E+01
Ga   -1.3748882048246296E+00    4.6803576739098629E+00    1.6538516569119299E+01
N    7.7286509931803957E-02    3.8356141472378802E+00    1.7667652475373096E+01
N   -3.1168460270499643E+00    7.6433618926455891E+00    2.5764975766345248E+00
Ga   -3.0997722178877312E+00    5.6764133247532289E+00    2.8979921663055945E+00
N   -3.1219889375267296E+00    5.6765069964988859E+00    5.0760058322986765E+00
Ga   -3.1311972411420039E+00    7.5066289640247774E+00    5.8470428113022095E+00
N   -3.1287899713177940E+00    7.5347035504321251E+00    7.8495177893077104E+00
Ga   -3.1317392176873211E+00    5.6912410713010768E+00    8.5009577079931464E+00
N   -3.1360802864798285E+00    5.6960728380276722E+00    1.0476626324930177E+01
Ga   -3.1379437835695669E+00    7.5352589592928760E+00    1.1127435771097545E+01
N   -3.1415162725231407E+00    7.5207816286762297E+00    1.3121353750590997E+01
Ga   -3.1385805655025503E+00    5.7027025062549743E+00    1.3921781187684195E+01
N   -3.1423118097670328E+00    5.7034858189863611E+00    1.6128638736545089E+01
Ga   -3.1462212775650995E+00    7.7507956051275304E+00    1.6551980482720243E+01
Ga   -3.1676673131780646E+00    9.3856697959879583E+00    1.3265081893645623E+00
N   -4.6255141149722707E+00    1.0279777524272339E+01    2.6029947588751150E+00
Ga   -4.8157081000291013E+00    8.4276379092621720E+00    3.3025818071909550E+00
N   -4.7329916929128126E+00    8.4693115123613953E+00    5.2935484618846864E+00
Ga   -4.7613595480903914E+00    1.0329984081092411E+01    5.8771127752033392E+00
N   -4.7435664533144299E+00    1.0334820044186674E+01    7.8697459512106906E+00
Ga   -4.7336899919018736E+00    8.4743117428911887E+00    8.4881118798566249E+00
N   -4.7334699583646032E+00    8.4847565743022155E+00    1.0485729206419288E+01
Ga   -4.7621820574214668E+00    1.0342245585501809E+01    1.1130283672881609E+01
N   -4.7809274157454045E+00    1.0358230022520676E+01    1.3123559409346313E+01
Ga   -4.7397971890259472E+00    8.4899823984868643E+00    1.3681579773255562E+01
N   -4.7704614858568117E+00    8.4760878764108849E+00    1.5639942106245353E+01
Ga   -4.5851084006127367E+00    1.0244620946452246E+01    1.6548540409029943E+01
N   -3.1420322853168376E+00    9.4109885044334689E+00    1.7688852067410451E+01
N    3.3049378519284809E+00    1.9569852499512130E+00    2.6755820404520092E+00
Ga    3.3109284550872067E+00    1.0228358808207812E-01    3.3900926640820428E+00
N    3.3064240534552285E+00    1.2627307114120542E-01    5.3296854921601868E+00
Ga    3.3011173677999022E+00    1.9605872661927426E+00    5.9912493169714942E+00
N    3.3023002924115610E+00    1.9737375945162425E+00    7.9454477946658564E+00
Ga    3.2991452016725153E+00    1.0119858536793035E-01    8.5223650425093549E+00
N    3.2958354265337495E+00    1.1280408676138522E-01    1.0508546442702752E+01
Ga    3.2955699701289700E+00    1.9830391406129828E+00    1.1100879124594947E+01
N    3.2909844160546924E+00    1.9869517528152143E+00    1.3069374460920113E+01
Ga    3.2906430824750941E+00    1.1404206313747532E-01    1.3683016250036140E+01
N    3.2852574291175962E+00    1.4987490372827378E-01    1.5642039853588981E+01
Ga    3.2882238237532757E+00    1.9856598611045166E+00    1.5920413812331242E+01
N    1.5729842540842789E+00    4.6744513851341818E+00    2.6287097468274125E+00
Ga    1.7107330553037878E+00    2.8613455783939017E+00    3.3943518983586980E+00
N    1.7178204265824515E+00    2.8840142575203420E+00    5.3343422459690597E+00
Ga    1.7199281707602385E+00    4.7654446012644511E+00    5.8873463601552736E+00
N    1.7005734131868946E+00    4.7634780692833072E+00    7.8718477833090672E+00
Ga    1.6802416501755908E+00    2.9107884966574908E+00    8.5222053043722763E+00
N    1.6777071389610252E+00    2.9179446320663658E+00    1.0508660090987016E+01
Ga    1.7034227539414879E+00    4.7806180587456382E+00    1.1132873927918018E+01
N    1.7158932184397293E+00    4.7919157700163897E+00    1.3126021669020401E+01
Ga    1.6697620262366404E+00    2.9236960849294573E+00    1.3682302827947915E+01
N    1.6978174211192676E+00    2.9087679585106843E+00    1.5646936520261459E+01
Ga    1.5215743085262758E+00    4.6830682420169110E+00    1.6535316318570661E+01
N    9.3980923911236802E-02    7.5364392751538558E+00    2.7226761615059187E+00
Ga    8.7996267201230480E-02    5.6984215388335855E+00    3.3917965566088326E+00
N    8.7348594504048291E-02    5.6956792330359436E+00    5.3269311601672831E+00
Ga    1.0870712144843801E-01    7.5542446110952604E+00    5.9312341523366161E+00
N    9.0955653164561764E-02    7.5496489052993159E+00    7.9030931473913348E+00
Ga    8.2745279086039208E-02    5.6826120093178325E+00    8.5004242498204743E+00
N    8.0393778633892646E-02    5.6848869330004979E+00    1.0492756365189772E+01
Ga    8.2037515266405056E-02    7.5538497538552472E+00    1.1086033240068748E+01
N    7.6024592260645674E-02    7.5567836961030421E+00    1.3057777110813344E+01
Ga    7.4575771949134381E-02    5.6886706726433784E+00    1.3679237289940518E+01
N    7.0016662821858935E-02    5.7193353143321630E+00    1.5641406956291217E+01
Ga    7.2865502880512981E-02    7.5605345003268063E+00    1.5917956365850561E+01
N   -1.6214913155030519E+00    1.0275170927095056E+01    2.5870804961701555E+00
Ga   -1.5106376055362196E+00    8.4704485628159976E+00    3.3530499004578864E+00
N   -1.5054200806448732E+00    8.4650461649304649E+00    5.3023308286562747E+00
Ga   -1.4900390591263322E+00    1.0340848517483851E+01    5.8875633827636422E+00
N   -1.5189816099788003E+00    1.0333461310766786E+01    7.8749793423262373E+00
Ga   -1.5326403431611368E+00    8.4753551258951720E+00    8.5008593486305397E+00
N   -1.5382898044320092E+00    8.4853243171684554E+00    1.0493370282044555E+01
Ga   -1.5106051443433242E+00    1.0345041984900186E+01    1.1132411557833235E+01
N   -1.5000121890332312E+00    1.0359710535670681E+01    1.3125850558968621E+01
Ga   -1.5447776187144904E+00    8.4908953192109280E+00    1.3681230791304502E+01
N   -1.5198543284361770E+00    8.4745230100217412E+00    1.5642919130203440E+01
Ga   -1.7061642206513208E+00    1.0244743139418205E+01    1.6549798027066522E+01
N    6.5070621563705338E+00    2.0925038224492902E+00    2.5916882546627922E+00
Ga    6.5290194351856448E+00    8.6412781679817793E-02    2.9685402594443842E+00
N    6.5007236850461627E+00    1.2515848766728033E-01    5.1422818290462198E+00
Ga    6.5320163649519252E+00    1.9359894160540032E+00    5.8898225482748243E+00
N    6.5185703195823397E+00    1.9711038380552726E+00    7.8768615881884863E+00
Ga    6.5215052228549641E+00    1.1474000379152097E-01    8.5028484150308064E+00
N    6.5131538633996753E+00    1.2511511479548276E-01    1.0478612517496789E+01
Ga    6.5151417663269644E+00    1.9640221525407178E+00    1.1130331663998914E+01
N    6.5075231333155292E+00    1.9490989812558353E+00    1.3125890775196867E+01
Ga    6.5098314338159895E+00    1.2561662741492874E-01    1.3924512835416165E+01
N    6.5047359577068082E+00    1.2621921181115175E-01    1.6127589386755893E+01
Ga    6.5039532192130851E+00    2.1538981404438915E+00    1.6526646582048848E+01
Ga    6.5142011108053754E+00    3.8399141009979600E+00    1.6029820719026180E+00
N    5.0286525171314311E+00    4.6772556196806185E+00    2.6501910713877530E+00
Ga    4.8766342292828355E+00    2.8491833216979829E+00    3.4173191619412817E+00
N    4.8977516391672671E+00    2.8838847286935119E+00    5.3399987981903401E+00
Ga    4.8958047102830919E+00    4.7714274127108354E+00    5.8839303641522802E+00
N    4.9016930182048055E+00    4.7628507374124895E+00    7.8687019057004903E+00
Ga    4.9225061401171049E+00    2.9118736244103340E+00    8.5204807368816979E+00
N    4.9153106765662944E+00    2.9175509203672689E+00    1.0506310224568582E+01
Ga    4.8916030480104000E+00    4.7816252639466112E+00    1.1125677987474509E+01
N    4.8685807390765925E+00    4.7912935843804441E+00    1.3120801476614210E+01
Ga    4.9114591195459933E+00    2.9232331542902261E+00    1.3678705562933619E+01
N    4.8811581623242075E+00    2.9124187703907869E+00    1.5644819473911459E+01
Ga    5.0474657884626906E+00    4.6873364983479622E+00    1.6524890637126106E+01
N    6.5120830129359462E+00    3.8400947153263432E+00    1.7654331114124474E+01
N    3.3045429035284410E+00    7.5079302059597106E+00    2.6279596528198343E+00
N    3.3060584500931673E+00    5.6575001592530887E+00    5.1239093895105920E+00
Ga    3.3091515791246704E+00    7.5272834994857902E+00    5.8215519087507364E+00
N    3.3018836339549975E+00    7.5379928831532430E+00    7.8308901568667588E+00
Ga    3.3015923616286935E+00    5.6979829348271327E+00    8.4997223753675879E+00
N    3.2967937628530288E+00    5.6981383740167262E+00    1.0474990900807263E+01
Ga    3.2978512666068767E+00    7.5379420981233336E+00    1.1124666778800517E+01
N    3.2917740370584565E+00    7.5221206823516198E+00    1.3117995003996077E+01
Ga    3.2921419675121451E+00    5.7044215883550784E+00    1.3920527104391534E+01
N    3.2881851050345161E+00    5.7041149807600853E+00    1.6124966198754681E+01
Ga    3.2895553419819525E+00    7.7475104083573259E+00    1.6539647634209064E+01
Ga    4.1269968714159821E+00    1.0844981156379545E+01    7.0228481049817770E-01
N    1.7357218263139838E+00    1.0332845177657759E+01    2.5884178397475357E+00
Ga    1.7142179024900042E+00    8.5493766348981737E+00    3.2284075726056809E+00
N    1.6929646745471874E+00    8.4551198749881600E+00    5.2262668605791811E+00
Ga    1.6693512547399010E+00    1.0328773070839125E+01    5.8340383262303215E+00
N    1.6819409574902418E+00    1.0328826179853493E+01    7.8453875621308811E+00
Ga    1.7085942155275684E+00    8.4815583564216865E+00    8.4921825752520697E+00
N    1.7012074220451670E+00    8.4863581964028505E+00    1.0486721753616456E+01
Ga    1.6758803225800158E+00    1.0347000797672054E+01    1.1120834188224086E+01
N    1.6523470540654228E+00    1.0359825974328954E+01    1.3116070011123346E+01
Ga    1.6947490244898225E+00    8.4932131125864920E+00    1.3676825355787754E+01
N    1.6653518994006287E+00    8.4800396573752970E+00    1.5637360002245693E+01
Ga    1.8478687701816723E+00    1.0247670317280408E+01    1.6541702979011582E+01
N    3.2991139991706904E+00    9.4143623551204989E+00    1.7677852726719923E+01
N    9.7660292046406365E+00    1.9206645189327349E+00    2.6700737435163155E+00
Ga    9.6893786989812227E+00    1.2833825075310049E-01    3.3216461216956423E+00
N    9.7341413189805195E+00    1.0913010857746051E-01    5.3111336834157878E+00
Ga    9.7413101606266626E+00    1.9574536134171805E+00    5.9256924834817140E+00
N    9.7329004525665201E+00    1.9754312255028206E+00    7.9073365664309057E+00
Ga    9.7328295030740541E+00    1.0357963854346294E-01    8.4802809302614559E+00
N    9.7287719835338642E+00    1.1344771220471823E-01    1.0481608920524975E+01
Ga    9.7285355221608238E+00    1.9810199568898998E+00    1.1084054297042586E+01
N    9.7226434414389669E+00    1.9864019922910652E+00    1.3058614946084848E+01
Ga    9.7227558359273534E+00    1.1557284024582909E-01    1.3675688782982602E+01
N    9.7168889187414873E+00    1.4962935683995618E-01    1.5636909514528805E+01
Ga    9.7193472826933718E+00    1.9860598822461863E+00    1.5918178311612468E+01
N    8.0250766400760121E+00    4.6867057949593312E+00    2.5905818859451166E+00
Ga    8.2513610108438105E+00    2.8096609275538693E+00    3.3305407100901592E+00
N    8.1306336429899950E+00    2.8925323242539585E+00    5.2991042500552430E+00
Ga    8.1588736448936778E+00    4.7678121796985256E+00    5.8496482603444733E+00
N    8.1366727563735459E+00    4.7659151164666378E+00    7.8509970190971137E+00
Ga    8.1214521808853704E+00    2.9136186758571849E+00    8.5016268873287757E+00
N    8.1107976454941291E+00    2.9189085933829038E+00    1.0494933017542545E+01
Ga    8.1342491590698547E+00    4.7789917642249131E+00    1.1126315288993455E+01
N    8.1471002511544430E+00    4.7914692732108000E+00    1.3123204525663299E+01
Ga    8.1034014267313133E+00    2.9227943010383930E+00    1.3676319586918732E+01
N    8.1266184126432783E+00    2.9095890118942989E+00    1.5645902573096537E+01
Ga    7.9667241210141428E+00    4.6911549919726996E+00    1.6525619638938512E+01
N    6.5197474720707076E+00    7.5553701651534819E+00    2.6458058560668869E+00
Ga    6.5205671495211242E+00    5.8293202527104127E+00    3.3579113921676385E+00
N    6.5212391955071860E+00    5.6868931276668837E+00    5.3153871596321629E+00
Ga    6.4999117495630570E+00    7.5652533591426154E+00    5.8894159968575170E+00
N    6.5118336072824619E+00    7.5514551893791921E+00    7.8811714292293606E+00
Ga    6.5218539396905539E+00    5.6881448245830075E+00    8.4841453923031480E+00
N    6.5141177089646014E+00    5.6860983015962168E+00    1.0482155873212978E+01
Ga    6.5112921244687785E+00    7.5536280480685987E+00    1.1082172972926189E+01
N    6.5062213571269121E+00    7.5559037932416331E+00    1.3054797328296758E+01
Ga    6.5071327207885368E+00    5.6887853812309919E+00    1.3675934334141971E+01
N    6.5008918797960398E+00    5.7166743399602247E+00    1.5641584033209275E+01
Ga    6.5024234296339927E+00    7.5590249787260850E+00    1.5919262355969087E+01
N    4.8805475129451557E+00    1.0363744723043926E+01    2.5542257444871610E+00
Ga    4.9744273147534575E+00    8.4967438778949553E+00    3.1710584105235036E+00
N    4.9005745562164131E+00    8.4755677943426591E+00    5.2118934497218392E+00
Ga    4.9301100556965674E+00    1.0327506793272121E+01    5.8371796056788536E+00
N    4.9199600706509710E+00    1.0332194359201374E+01    7.8465715635672808E+00
Ga    4.8994374279964257E+00    8.4806564681482168E+00    8.4847983796381019E+00
N    4.8938078912197120E+00    8.4863018154583774E+00    1.0482945669810107E+01
Ga    4.9167140294021792E+00    1.0345752467356522E+01    1.1122450114020292E+01
N    4.9307365558246126E+00    1.0360191692317036E+01    1.3118970541363453E+01
Ga    4.8873064835349975E+00    8.4931161457773801E+00    1.3676085065656219E+01
N    4.9120827858801563E+00    8.4753493531619863E+00    1.5638871465739740E+01
Ga    4.7379070531111411E+00    1.0252112935806766E+01    1.6537333243423650E+01
O    6.0012608378519838E-01    3.6225569920274467E+00   -3.0754252168681756E-01
H    2.3256307945573460E+00    3.1708416007545939E+00    1.2244848751472195E-01
C   -3.3066768023831905E-01    2.9736975273741049E+00   -1.1938073618019829E+00
H   -4.0349486170672733E-01    1.8904880106570283E+00   -9.9721238090773245E-01
H   -1.3442133227410920E+00    3.3992131000359751E+00   -1.1141178617536698E+00
H    2.4002102885183889E-02    3.1257497883270866E+00   -2.2245818105288806E+00
Ga    3.2828481516726717E+00    5.5752815937337825E+00    3.0373877239868787E+00
O    3.2440725370453438E+00    3.0519531587664734E+00    4.7503312859595898E-01
H    3.7510320385379263E-02    7.4961854431604413E+00    1.6981160712056107E+00
C    3.3559167709168416E+00    1.8308059901162355E+00    1.1778466635622022E+00
H    4.3348284338468774E+00    1.3922296899275175E+00    9.2063880909741380E-01
H    3.2978485525387025E+00    7.5939513531416685E+00    1.4414924572199137E+00
H    2.5665857259543388E+00    1.1253843390202320E+00    8.6727015235257032E-01
     &END COORD
     &KIND C
       BASIS_SET DZVP-MOLOPT-SR-GTH-q4
       POTENTIAL GTH-PBE-q4
       &POTENTIAL
2 2
0.3384712400000000E+00 2 -0.8803673979999999E+01  0.1339210850000000E+01
2
0.3025757500000000E+00 1  0.9622486650000001E+01
0.2915069400000000E+00 0
       &END POTENTIAL
     &END KIND
     &KIND O
       BASIS_SET DZVP-MOLOPT-SR-GTH-q6
       POTENTIAL GTH-PBE-q6
       &POTENTIAL
2 4
0.2445543000000000E+00 2 -0.1666721480000000E+02  0.2487311320000000E+01
2
0.2209559200000000E+00 1  0.1833745811000000E+02
0.2113324700000000E+00 0
       &END POTENTIAL
     &END KIND
     &KIND H
       BASIS_SET DZVP-MOLOPT-SR-GTH-q1
       POTENTIAL GTH-PBE-q1
       &POTENTIAL
1
0.2000000000000000E+00 2 -0.4178900440000000E+01  0.7244633100000000E+00
0
       &END POTENTIAL
     &END KIND
     &KIND N
       BASIS_SET DZVP-MOLOPT-SR-GTH
       POTENTIAL GTH-PBE-q5
       &POTENTIAL
2 3
0.2837905100000000E+00 2 -0.1241522559000000E+02  0.1868095920000000E+01
2
0.2554050000000000E+00 1  0.1363026257000000E+02
0.2454945300000000E+00 0
       &END POTENTIAL
     &END KIND
     &KIND Ga
       BASIS_SET DZVP-MOLOPT-SR-GTH
       POTENTIAL GTH-PBE-q13
       &POTENTIAL
2 1 10
0.4900000000000000E+00 0
3
0.4167772300000000E+00 3  0.1047568975000000E+02 -0.4921768140000000E+01  0.8707055900000000E+00
0.7770178090000000E+01 -0.2248152160000000E+01
0.1784415450000000E+01
0.5696265200000000E+00 2  0.1777985340000000E+01  0.1958597600000000E+00
-0.2317443900000000E+00
0.2381265000000000E+00 1 -0.1624868022000000E+02
       &END POTENTIAL
     &END KIND
     &TOPOLOGY
       NUMBER_OF_ATOMS  212
       MULTIPLE_UNIT_CELL  1 1 1
     &END TOPOLOGY
     &COLVAR
       &DISTANCE
         ATOMS  127 211
       &END DISTANCE
       &PRINT
       &END PRINT
     &END COLVAR
   &END SUBSYS
 &END FORCE_EVAL
