 # Version information for this restart file 
 # current date 2019-07-12 11:33:59.505
 # current working dir /lustre04/scratch/rzk/rzk/GaN-carbene/443-adatoms-both-2x2/09-BondBreaking-CH/02-0401-CH-to-NTop-PES
 # Program compiled at                              Sun Apr  7 00:48:11 EDT 2019
 # Program compiled on                          beluga2.int.ets1.calculquebec.ca
 # Program compiled for                        Beluga-Linux-x86-64-intel-openmpi
 # Source code revision number                                         svn:18619
 &GLOBAL
   PRINT_LEVEL  MEDIUM
   PROJECT_NAME TEST
   RUN_TYPE  GEO_OPT
 &END GLOBAL
 &MOTION
   &GEO_OPT
     MAX_ITER  500
     !STEP_START_VAL  95
   &END GEO_OPT
   &CONSTRAINT
     &COLLECTIVE
       COLVAR  1
       INTERMOLECULAR  T
       TARGET [angstrom] 1.60 !     3.4015070391941573E+00
       &RESTRAINT
         K     2.0000000000000000E+00
       &END RESTRAINT
     &END COLLECTIVE
   &END CONSTRAINT
 &END MOTION
 &FORCE_EVAL
   METHOD  QS
   STRESS_TENSOR  ANALYTICAL
   &DFT
     BASIS_SET_FILE_NAME BASIS_MOLOPT
     POTENTIAL_FILE_NAME GTH_POTENTIALS
     UKS  T
     SURFACE_DIPOLE_CORRECTION  T
     SURF_DIP_DIR  Z
     &SCF
       MAX_SCF  80
       EPS_SCF     5.0000000000000004E-06
       &OT  T
         PRECONDITIONER  FULL_ALL
       &END OT
       &OUTER_SCF  T
         OPTIMIZER  NONE
         EPS_SCF     5.0000000000000004E-06
         MAX_SCF  4
       &END OUTER_SCF
       &PRINT
         &RESTART  OFF
           BACKUP_COPIES  1
           &EACH
             JUST_ENERGY  0
             QS_SCF  0
             MD  20
           &END EACH
         &END RESTART
       &END PRINT
     &END SCF
     &QS
       EPS_DEFAULT     1.0000000000000000E-14
       METHOD  GPW
     &END QS
     &MGRID
       NGRIDS  5
       CUTOFF     1.2000000000000000E+03
     &END MGRID
     &XC
       DENSITY_CUTOFF     1.0000000000000000E-10
       GRADIENT_CUTOFF     1.0000000000000000E-10
       TAU_CUTOFF     1.0000000000000000E-10
       &XC_FUNCTIONAL  NO_SHORTCUT
         &PBE  T
         &END PBE
       &END XC_FUNCTIONAL
       &VDW_POTENTIAL
         POTENTIAL_TYPE  PAIR_POTENTIAL
         &PAIR_POTENTIAL
           R_CUTOFF     1.0000000000000009E+01
           TYPE  DFTD3
           PARAMETER_FILE_NAME dftd3.dat
           REFERENCE_FUNCTIONAL PBE
           EPS_CN     9.9999999999999995E-07
           CALCULATE_C9_TERM  T
           REFERENCE_C9_TERM  T
           LONG_RANGE_CORRECTION  F
           VERBOSE_OUTPUT  F
         &END PAIR_POTENTIAL
       &END VDW_POTENTIAL
     &END XC
   &END DFT
   &SUBSYS
     &CELL
       A     1.2864472766435110E+01    0.0000000000000000E+00    0.0000000000000000E+00
       B    -6.4322363581020028E+00    1.1140960178524477E+01    0.0000000000000000E+00
       C     0.0000000000000000E+00    0.0000000000000000E+00    3.2000000000000000E+01
       MULTIPLE_UNIT_CELL  1 1 1
       &CELL_REF
         A     1.2982353780853531E+01    0.0000000000000000E+00    0.0000000000000000E+00
         B    -6.4911768904267628E+00    1.1243048175136114E+01    0.0000000000000000E+00
         C     0.0000000000000000E+00    0.0000000000000000E+00    3.2000000000000000E+01
         MULTIPLE_UNIT_CELL  1 1 1
       &END CELL_REF
     &END CELL
     &COORD
N    3.7497840320453134E-02    1.9869073017871071E+00    2.4939611017690115E+00
Ga    5.7872529876726919E-02    2.0339761204843893E-02    2.8289067691456560E+00
N    3.8122283250549859E-02   -1.4305346654135494E-02    5.0143502613714883E+00
Ga    4.0734595747411270E-02    1.8105533061533485E+00    5.7982819697922068E+00
N    3.9923286430168375E-02    1.8252236554750074E+00    7.7993365181847274E+00
Ga    4.1901939832758035E-02   -2.0904902036796288E-02    8.4395379822213048E+00
N    4.0135560660036963E-02   -2.1200780989229472E-02    1.0415607837536664E+01
Ga    4.0854342741365436E-02    1.8189096063047732E+00    1.1066129475444765E+01
N    3.9614779519349351E-02    1.7997427948126608E+00    1.3061422183657907E+01
Ga    3.9769436744273502E-02   -2.0846314257357262E-02    1.3863648458265263E+01
N    3.9966246826470347E-02   -2.1164582710366180E-02    1.6067392052602631E+01
Ga    3.8526063312690609E-02    2.0164221624849210E+00    1.6476505683868012E+01
Ga    1.6918579357367357E-02    3.6904441359328248E+00    1.3641602394703050E+00
N   -1.4425955228498364E+00    4.5604704869776720E+00    2.5122546884725163E+00
Ga   -1.6365121423162796E+00    2.7252872718625407E+00    3.2786865936392875E+00
N   -1.5691522244344045E+00    2.7665961751336372E+00    5.2568190383408737E+00
Ga   -1.5994325899429922E+00    4.6328496189525010E+00    5.8077576314279602E+00
N   -1.5770605713458461E+00    4.6287692525226651E+00    7.8029342433316078E+00
Ga   -1.5568965644932442E+00    2.7694220785732973E+00    8.4376260521738793E+00
N   -1.5569386074898193E+00    2.7714719576190139E+00    1.0431558013504516E+01
Ga   -1.5836987054634277E+00    4.6301966853530327E+00    1.1068712467559413E+01
N   -1.6005136631411265E+00    4.6403768232842584E+00    1.3062530488052344E+01
Ga   -1.5576972919620236E+00    2.7713007043866296E+00    1.3618165128839467E+01
N   -1.5845261920978277E+00    2.7578846547685165E+00    1.5581013830212699E+01
Ga   -1.4080143992662131E+00    4.5289746076984541E+00    1.6477143024362263E+01
N    4.7249775807294087E-02    3.6897922823965770E+00    1.7611930407921886E+01
N   -3.1775020322467449E+00    7.5262653744618326E+00    2.5046050611613815E+00
Ga   -3.1481741791681164E+00    5.5462886107512954E+00    2.8356666027703397E+00
N   -3.1735115177955575E+00    5.5489876076715925E+00    5.0206398509484460E+00
Ga   -3.1822110177752223E+00    7.3753947084500089E+00    5.7911783592554453E+00
N   -3.1745728169635643E+00    7.3976262409128930E+00    7.7895272726989910E+00
Ga   -3.1761810471296523E+00    5.5525009478927432E+00    8.4448006639781017E+00
N   -3.1762849106563396E+00    5.5517097049748720E+00    1.0418447343904903E+01
Ga   -3.1780282808624634E+00    7.3908111501978020E+00    1.1068592017663859E+01
N   -3.1771375346425259E+00    7.3708462360151801E+00    1.3062695869742454E+01
Ga   -3.1771725538306299E+00    5.5497789713417802E+00    1.3866665819257905E+01
N   -3.1769976062792602E+00    5.5496059627196495E+00    1.6067569325827769E+01
Ga   -3.1775638981350358E+00    7.5881551558968461E+00    1.6476591737878607E+01
Ga   -3.2005063706874730E+00    9.2784744250635747E+00    1.3460537128448165E+00
N   -4.6848515912700082E+00    1.0137094634911106E+01    2.5048762859249201E+00
Ga   -4.8752908094046958E+00    8.2951803165242488E+00    3.2528139522382249E+00
N   -4.7840569992887980E+00    8.3363127279683891E+00    5.2323825742517398E+00
Ga   -4.8094660560314919E+00    1.0208487764586730E+01    5.7826086910312160E+00
N   -4.7934824157560474E+00    1.0197937991907660E+01    7.7867103508723439E+00
Ga   -4.7752131586809847E+00    8.3431175380969904E+00    8.4276838592321734E+00
N   -4.7731849990969106E+00    8.3416600328234356E+00    1.0424039690058239E+01
Ga   -4.7987071396072105E+00    1.0200138189286559E+01    1.1064661989480234E+01
N   -4.8161177061936993E+00    1.0210299816045421E+01    1.3059711090828669E+01
Ga   -4.7745683291562511E+00    8.3422977030021670E+00    1.3618450984584630E+01
N   -4.8025396889070180E+00    8.3281453349503032E+00    1.5580638189794923E+01
Ga   -4.6221705635333983E+00    1.0098585111345278E+01    1.6477487082567151E+01
N   -3.1694495234796713E+00    9.2604805386334554E+00    1.7606942329199327E+01
N    3.2443687111017416E+00    1.8393507075312776E+00    2.6191931726827242E+00
Ga    3.2489233557738686E+00    7.8850119116696774E-02    3.2563597839004634E+00
N    3.2585423593762677E+00   -2.2050066611358513E-02    5.2362471019380052E+00
Ga    3.2496804521781697E+00    1.8320665704309815E+00    5.8652730942597815E+00
N    3.2571664178232798E+00    1.8349198533915161E+00    7.8445576079198753E+00
Ga    3.2545814387627847E+00   -3.1728082656415343E-02    8.4299839176720521E+00
N    3.2564680236880545E+00   -3.3905717666322319E-02    1.0426048845941974E+01
Ga    3.2564844373019377E+00    1.8355040691114120E+00    1.1022459504553019E+01
N    3.2554968982796471E+00    1.8362574712034943E+00    1.2994937933719822E+01
Ga    3.2549032655083758E+00   -3.2530293458493058E-02    1.3617942072360584E+01
N    3.2528505823916558E+00   -1.0469249195998855E-03    1.5580353177954235E+01
Ga    3.2546419788815708E+00    1.8374529800497648E+00    1.5861489781651221E+01
N    1.5319916357491146E+00    4.5593154846843520E+00    2.5357160697174850E+00
Ga    1.7170355092473017E+00    2.7201356160086427E+00    3.2711834913795248E+00
N    1.6496044514207451E+00    2.7639997879186722E+00    5.2538995342845105E+00
Ga    1.6759018783321440E+00    4.6280245832678570E+00    5.8043910048983847E+00
N    1.6588801138924394E+00    4.6288455452051620E+00    7.7992741196333899E+00
Ga    1.6397504221106352E+00    2.7678490129935880E+00    8.4332729591913456E+00
N    1.6380770805493536E+00    2.7713252250153304E+00    1.0429072076365044E+01
Ga    1.6638127691108360E+00    4.6290775181629646E+00    1.1069158220178231E+01
N    1.6796758045648843E+00    4.6403213529656204E+00    1.3063365685433709E+01
Ga    1.6365150170118721E+00    2.7709394999827506E+00    1.3618483265586880E+01
N    1.6618646958095897E+00    2.7561932102271109E+00    1.5582726849464208E+01
Ga    1.4927108642440090E+00    4.5333778757657086E+00    1.6476754938744840E+01
N    3.0515903171319803E-02    7.3947937426185879E+00    2.6899348524563003E+00
Ga    4.2772118724688585E-02    5.5528655665482765E+00    3.3338819264615331E+00
N    3.9847701235569993E-02    5.5652497346579679E+00    5.2714803518033664E+00
Ga    3.5597988016055938E-02    7.4070430171506851E+00    5.8994955703948921E+00
N    4.0351312386905570E-02    7.4100091926598939E+00    7.8593982545771741E+00
Ga    4.0804238349035390E-02    5.5367796336378223E+00    8.4420586497670396E+00
N    4.0640829235110032E-02    5.5377269183809572E+00    1.0433181146768638E+01
Ga    3.9628694328613170E-02    7.4066643596096871E+00    1.1027536637329979E+01
N    3.9401032320732499E-02    7.4073142701143215E+00    1.2998588241701617E+01
Ga    3.9099988355963643E-02    5.5373018166103831E+00    1.3619515779563178E+01
N    3.7206803450935376E-02    5.5681175683567092E+00    1.5582033536582697E+01
Ga    3.9449227910328150E-02    7.4071457919890769E+00    1.5861021954867546E+01
N   -1.6671403121537518E+00    1.0130535804186581E+01    2.5081200184024754E+00
Ga   -1.5594692017002247E+00    8.3247078520476592E+00    3.2958623436019390E+00
N   -1.5555767442402100E+00    8.3295039069861012E+00    5.2397839831531350E+00
Ga   -1.5461097782848152E+00    1.0211396319446923E+01    5.7948790828197323E+00
N   -1.5580376198616914E+00    1.0195739163741511E+01    7.7912880329003835E+00
Ga   -1.5818964213495290E+00    8.3434256022507025E+00    8.4410638580480448E+00
N   -1.5793573316832132E+00    8.3419575671935888E+00    1.0432062389274728E+01
Ga   -1.5541766705523938E+00    1.0201743161303055E+01    1.1068863028890034E+01
N   -1.5366993937806221E+00    1.0211032548249710E+01    1.3062883611068928E+01
Ga   -1.5804690141532629E+00    8.3424100000549508E+00    1.3619603134314943E+01
N   -1.5522359195283777E+00    8.3258194557869736E+00    1.5582716256319785E+01
Ga   -1.7250478180990922E+00    1.0103130685475747E+01    1.6476455402027625E+01
N    6.4735540112541159E+00    1.9632262360579471E+00    2.5350645195721193E+00
Ga    6.4559081746781946E+00   -1.5287044973344641E-02    2.8612165556486056E+00
N    6.4753100975320939E+00   -1.8639289891283592E-02    5.0227504521244919E+00
Ga    6.4729851999033228E+00    1.8108596008895252E+00    5.8035609360398253E+00
N    6.4729881869406096E+00    1.8248316202914652E+00    7.7988784898786445E+00
Ga    6.4708049082592369E+00   -2.0966948824226714E-02    8.4440134404377662E+00
N    6.4720667576392534E+00   -2.1031575214262056E-02    1.0417290869024248E+01
Ga    6.4718343854537119E+00    1.8198856092227651E+00    1.1067624337749574E+01
N    6.4716323676409644E+00    1.7997772643890007E+00    1.3061644425226827E+01
Ga    6.4724064072861500E+00   -1.9592543973351341E-02    1.3867748145597513E+01
N    6.4728360768768445E+00   -1.9798674453288218E-02    1.6067567600780205E+01
Ga    6.4713086835477034E+00    2.0234227739671251E+00    1.6480787529624759E+01
Ga    6.4728557218303058E+00    3.6933019548340442E+00    1.5263949212876360E+00
N    4.9720160714161352E+00    4.5593709370104429E+00    2.5366321485531782E+00
Ga    4.7529895704069736E+00    2.7000516397849621E+00    3.2958826802080972E+00
N    4.8632593219359341E+00    2.7643386404996164E+00    5.2564735634588091E+00
Ga    4.8445188315874601E+00    4.6354583935878804E+00    5.8013160679270221E+00
N    4.8545751811098414E+00    4.6283469144116900E+00    7.7961128494385683E+00
Ga    4.8722167541105659E+00    2.7690761665493886E+00    8.4340144544522655E+00
N    4.8751467224387417E+00    2.7714636377506916E+00    1.0428304706861933E+01
Ga    4.8504878280341872E+00    4.6301534566687446E+00    1.1066938303623127E+01
N    4.8323998778409401E+00    4.6402086928061568E+00    1.3060692682125135E+01
Ga    4.8742809560926332E+00    2.7714036166511065E+00    1.3618511800148083E+01
N    4.8450264848676978E+00    2.7568207497110397E+00    1.5579443894007147E+01
Ga    5.0309923582945517E+00    4.5255206683289497E+00    1.6481947538514053E+01
N    6.4780451357793458E+00    3.6896629795772071E+00    1.7614503521654775E+01
N    3.2231872857202171E+00    7.5251409940962910E+00    2.4272152556802538E+00
N    3.2587657139082413E+00    5.5539535354425169E+00    5.0227727038909373E+00
Ga    3.2608963711520071E+00    7.3765713576831837E+00    5.8050523751452054E+00
N    3.2539536775063866E+00    7.3972247630773094E+00    7.7951335778329742E+00
Ga    3.2568387559424803E+00    5.5496729549985133E+00    8.4462946475153728E+00
N    3.2564262896199079E+00    5.5511382775575573E+00    1.0418751707671470E+01
Ga    3.2580857247767017E+00    7.3899178707317201E+00    1.1070522836590925E+01
N    3.2559629963628911E+00    7.3706966931466900E+00    1.3063421367483267E+01
Ga    3.2571840901497704E+00    5.5498250576750410E+00    1.3867143731001146E+01
N    3.2575729656781229E+00    5.5499531106817033E+00    1.6067783234188401E+01
Ga    3.2550605892514457E+00    7.5893850166793522E+00    1.6479151913014864E+01
Ga    3.2846668421067977E+00    9.3447120913841957E+00    1.4801101956456411E+00
N    1.7523820726014574E+00    1.0136312678334978E+01    2.5259920374298845E+00
Ga    1.6159417198007857E+00    8.3110654213924597E+00    3.3078463738567248E+00
N    1.6377637047691047E+00    8.3277332670639286E+00    5.2412285091324167E+00
Ga    1.6205120041384229E+00    1.0210896234780220E+01    5.8053152431355368E+00
N    1.6381957021635472E+00    1.0194194980097985E+01    7.7963055230076561E+00
Ga    1.6595565919593391E+00    8.3421167379527557E+00    8.4466656227892223E+00
N    1.6597077475008504E+00    8.3417993641248707E+00    1.0434549004795670E+01
Ga    1.6334619167343165E+00    1.0202196315319544E+01    1.1069833833717366E+01
N    1.6158654220726916E+00    1.0210951314235588E+01    1.3062476393436572E+01
Ga    1.6586729248756660E+00    8.3425395105291997E+00    1.3620061858660716E+01
N    1.6304404058411601E+00    8.3281226917694653E+00    1.5581491094512808E+01
Ga    1.8111073333810301E+00    1.0098410423313481E+01    1.6479650990020755E+01
N    3.2625029326209485E+00    9.2594576070735535E+00    1.7616023673231552E+01
N    9.6984579228604755E+00    1.8476705073751447E+00    2.6246657981612835E+00
Ga    9.6942305948408816E+00    1.1439495274855127E-01    3.3071782214726140E+00
N    9.6862850950975545E+00   -1.9946349139685161E-02    5.2607817813182436E+00
Ga    9.6945114399008343E+00    1.8428495125483930E+00    5.8791372020875583E+00
N    9.6878571304173438E+00    1.8365147659372092E+00    7.8525965267017845E+00
Ga    9.6906404855042574E+00   -3.1766448831153531E-02    8.4342784709562348E+00
N    9.6882444451154814E+00   -3.3981800410733849E-02    1.0428268941085880E+01
Ga    9.6889147461113350E+00    1.8359132612349534E+00    1.1024199459962883E+01
N    9.6881552565262812E+00    1.8361647525911848E+00    1.2996395842048212E+01
Ga    9.6878870141165958E+00   -3.2801002648692595E-02    1.3619161203860099E+01
N    9.6864730541223061E+00   -1.9617535527933342E-03    1.5580704825867262E+01
Ga    9.6876893548701233E+00    1.8367493250814986E+00    1.5859771345013788E+01
N    7.9752233580338201E+00    4.5629856083570406E+00    2.5280528828428976E+00
Ga    8.1894354543022061E+00    2.7137315586618342E+00    3.2987780954048427E+00
N    8.0820349301606740E+00    2.7664189095811125E+00    5.2590122107187245E+00
Ga    8.1087489447756997E+00    4.6401444756903416E+00    5.8008851009721178E+00
N    8.0904477077920198E+00    4.6286371852881336E+00    7.7977801012793275E+00
Ga    8.0708164521728563E+00    2.7714408705092661E+00    8.4379653719998178E+00
N    8.0695004099851619E+00    2.7714887938677282E+00    1.0431198806809673E+01
Ga    8.0945142158296814E+00    4.6310490105214281E+00    1.1067577089385912E+01
N    8.1112688592047650E+00    4.6404523775337401E+00    1.3061657663951888E+01
Ga    8.0684798022548012E+00    2.7715506166579296E+00    1.3618851771086042E+01
N    8.0972840719882484E+00    2.7553167679468440E+00    1.5580708552141934E+01
Ga    7.9174835251452231E+00    4.5289039230639556E+00    1.6480912309369877E+01
N    6.4658776400346039E+00    7.4108768752693699E+00    2.6058912199068498E+00
Ga    6.4773301121179170E+00    5.6743129588527994E+00    3.2915992081364807E+00
N    6.4741142711514357E+00    5.5536271069007732E+00    5.2520531404728592E+00
Ga    6.4738690020544754E+00    7.4143484640974977E+00    5.8601634352508665E+00
N    6.4712996577859876E+00    7.4089613555673814E+00    7.8380370781846267E+00
Ga    6.4728745165207329E+00    5.5421140783951746E+00    8.4326068077716361E+00
N    6.4722092866834133E+00    5.5384865738445477E+00    1.0426914214615005E+01
Ga    6.4732650349201810E+00    7.4073354742380957E+00    1.1022396250994218E+01
N    6.4718741099643191E+00    7.4077490366387559E+00    1.2994377488091759E+01
Ga    6.4714953252512908E+00    5.5383516162944595E+00    1.3618662187366128E+01
N    6.4698510081127356E+00    5.5705552577310646E+00    1.5579385886163744E+01
Ga    6.4704700746665837E+00    7.4074638294854314E+00    1.5861753887828394E+01
N    4.7621156963990039E+00    1.0144942008905499E+01    2.5335541006326490E+00
Ga    4.9419219637429928E+00    8.2661437591960141E+00    3.2645986068854298E+00
N    4.8570358888701328E+00    8.3353650118824003E+00    5.2349116726401173E+00
Ga    4.8962238817441035E+00    1.0207809965976185E+01    5.7925202368114208E+00
N    4.8744298727548117E+00    1.0196678845668599E+01    7.7914848896036570E+00
Ga    4.8567899796676386E+00    8.3422171420574376E+00    8.4333777972481467E+00
N    4.8533385229383219E+00    8.3412193710441613E+00    1.0427186311931376E+01
Ga    4.8795358857579423E+00    1.0200407117749657E+01    1.1066513486720089E+01
N    4.8951563346573606E+00    1.0210439707900262E+01    1.3060961628217035E+01
Ga    4.8531683334464484E+00    8.3422326447217046E+00    1.3619426641670399E+01
N    4.8792367457262245E+00    8.3273147747198646E+00    1.5582262423164485E+01
Ga    4.7046932273001953E+00    1.0101603687396821E+01    1.6479239533147599E+01
O    1.0479516945082210E-01    4.0015376898193180E+00   -4.4704119288131516E-01
H    3.3527983566101227E-01    5.7809350055841522E+00   -3.5850363981875799E-01
C    1.1206213654189507E+00    3.2791476459846693E+00   -1.1711720408755057E+00
H    2.1156149748970869E+00    3.3754911016722238E+00   -7.0542955545659658E-01
H    8.7450240343381369E-01    2.2085547493755633E+00   -1.2422112731654191E+00
H    1.1652259795353261E+00    3.6954363304235245E+00   -2.1875554244965643E+00
Ga    3.2333447920188605E+00    5.5076269424764881E+00    2.8822624843413935E+00
O    5.7026158338555999E-01    6.7151065343442804E+00   -1.1643917370637387E-01
H    5.4690210775680620E-02    7.3124588089978655E+00    1.6530125337072894E+00
C    2.0052390293351090E+00    6.8087418196844176E+00   -1.1796386991488785E-01
H    2.2969956532052653E+00    7.7020954323716859E+00   -7.1084482819142880E-01
H    2.4321217907032091E+00    6.9520104061821550E+00    9.1105552535982859E-01
H    2.4712736809813065E+00    5.9344111237372390E+00   -5.9416061912378904E-01
     &END COORD
     &KIND C
       BASIS_SET DZVP-MOLOPT-SR-GTH-q4
       POTENTIAL GTH-PBE-q4
       &POTENTIAL
2 2
0.3384712400000000E+00 2 -0.8803673979999999E+01  0.1339210850000000E+01
2
0.3025757500000000E+00 1  0.9622486650000001E+01
0.2915069400000000E+00 0
       &END POTENTIAL
     &END KIND
     &KIND O
       BASIS_SET DZVP-MOLOPT-SR-GTH-q6
       POTENTIAL GTH-PBE-q6
       &POTENTIAL
2 4
0.2445543000000000E+00 2 -0.1666721480000000E+02  0.2487311320000000E+01
2
0.2209559200000000E+00 1  0.1833745811000000E+02
0.2113324700000000E+00 0
       &END POTENTIAL
     &END KIND
     &KIND H
       BASIS_SET DZVP-MOLOPT-SR-GTH-q1
       POTENTIAL GTH-PBE-q1
       &POTENTIAL
1
0.2000000000000000E+00 2 -0.4178900440000000E+01  0.7244633100000000E+00
0
       &END POTENTIAL
     &END KIND
     &KIND N
       BASIS_SET DZVP-MOLOPT-SR-GTH
       POTENTIAL GTH-PBE-q5
       &POTENTIAL
2 3
0.2837905100000000E+00 2 -0.1241522559000000E+02  0.1868095920000000E+01
2
0.2554050000000000E+00 1  0.1363026257000000E+02
0.2454945300000000E+00 0
       &END POTENTIAL
     &END KIND
     &KIND Ga
       BASIS_SET DZVP-MOLOPT-SR-GTH
       POTENTIAL GTH-PBE-q13
       &POTENTIAL
2 1 10
0.4900000000000000E+00 0
3
0.4167772300000000E+00 3  0.1047568975000000E+02 -0.4921768140000000E+01  0.8707055900000000E+00
0.7770178090000000E+01 -0.2248152160000000E+01
0.1784415450000000E+01
0.5696265200000000E+00 2  0.1777985340000000E+01  0.1958597600000000E+00
-0.2317443900000000E+00
0.2381265000000000E+00 1 -0.1624868022000000E+02
       &END POTENTIAL
     &END KIND
     &TOPOLOGY
       NUMBER_OF_ATOMS  212
       MULTIPLE_UNIT_CELL  1 1 1
     &END TOPOLOGY
     &COLVAR
       &DISTANCE
         ATOMS  127 211
       &END DISTANCE
       &PRINT
       &END PRINT
     &END COLVAR
   &END SUBSYS
 &END FORCE_EVAL
