 # Version information for this restart file 
 # current date 2019-05-25 04:55:27.575
 # current working dir /lustre03/project/6004141/rzk/GaN-carbene/00-Surface/00-Preoptimization/443-capped
 # Program compiled at                              Sun Apr  7 00:48:11 EDT 2019
 # Program compiled on                          beluga2.int.ets1.calculquebec.ca
 # Program compiled for                        Beluga-Linux-x86-64-intel-openmpi
 # Source code revision number                                         svn:18619
 &GLOBAL
   PRINT_LEVEL  MEDIUM
   PROJECT_NAME _PR1_
   RUN_TYPE  GEO_OPT
 &END GLOBAL
 &MOTION
   &GEO_OPT
     MAX_ITER 500
   &END GEO_OPT
   &CONSTRAINT
     &COLLECTIVE
       INTERMOLECULAR T
       COLVAR 1
       &RESTRAINT
         K=2.0
       &END
       TARGET [angstrom] _D1_
     &END
   &END
 &END MOTION
 &FORCE_EVAL
   METHOD  QS
   STRESS_TENSOR  ANALYTICAL
   &DFT
     UKS  T
     SURFACE_DIPOLE_CORRECTION  TRUE
     SURF_DIP_DIR               Z
     BASIS_SET_FILE_NAME BASIS_MOLOPT
     POTENTIAL_FILE_NAME GTH_POTENTIALS
     &SCF
       MAX_SCF  80
       EPS_SCF     5.0000000000000004E-06
       &OT  T
         PRECONDITIONER  FULL_ALL
       &END OT
       &OUTER_SCF  T
         OPTIMIZER  NONE
         EPS_SCF     5.0000000000000004E-06
         MAX_SCF  4
       &END OUTER_SCF
       &PRINT
         &RESTART  OFF
           BACKUP_COPIES  1
           &EACH
             JUST_ENERGY  0
             QS_SCF  0
             MD  20
           &END EACH
         &END RESTART
       &END PRINT
     &END SCF
     &QS
       EPS_DEFAULT     1.0000000000000000E-14
       METHOD  GPW
     &END QS
     &MGRID
       NGRIDS  5
       CUTOFF     1.2000000000000000E+03
     &END MGRID
     &XC
       DENSITY_CUTOFF     1.0000000000000000E-10
       GRADIENT_CUTOFF     1.0000000000000000E-10
       TAU_CUTOFF     1.0000000000000000E-10
       &XC_FUNCTIONAL  NO_SHORTCUT
         &PBE  T
         &END PBE
       &END XC_FUNCTIONAL
       &VDW_POTENTIAL
         POTENTIAL_TYPE  PAIR_POTENTIAL
         &PAIR_POTENTIAL
           R_CUTOFF     1.0000000000000002E+01
           TYPE  DFTD3
           PARAMETER_FILE_NAME dftd3.dat
           REFERENCE_FUNCTIONAL PBE
           EPS_CN     9.9999999999999995E-07
           CALCULATE_C9_TERM  T
           REFERENCE_C9_TERM  T
           LONG_RANGE_CORRECTION  F
           VERBOSE_OUTPUT  F
         &END PAIR_POTENTIAL
       &END VDW_POTENTIAL
     &END XC
   &END DFT
   &SUBSYS
     &CELL
       A     1.2864472766435110E+01    0.0000000000000000E+00    0.0000000000000000E+00
       B    -6.4322363581020028E+00    1.1140960178524471E+01    0.0000000000000000E+00
       #A     1.2982353780853531E+01    0.0000000000000000E+00    0.0000000000000000E+00
       #B    -6.4911768904267628E+00    1.1243048175136114E+01    0.0000000000000000E+00
       C     0.0000000000000000E+00    0.0000000000000000E+00    3.2000000000000000E+01
       MULTIPLE_UNIT_CELL  1 1 1
       &CELL_REF
         A     1.2982353780853531E+01    0.0000000000000000E+00    0.0000000000000000E+00
         B    -6.4911768904267628E+00    1.1243048175136114E+01    0.0000000000000000E+00
         C     0.0000000000000000E+00    0.0000000000000000E+00    3.2000000000000000E+01
         MULTIPLE_UNIT_CELL  1 1 1
       &END CELL_REF
     &END CELL
     &COORD
  N         0.0777188783        1.9766607115        2.4891638737
 Ga         0.0604395948        0.0054739652        2.8218984125
  N         0.0824361157       -0.0258100009        5.0147219630
 Ga         0.0809733744        1.7989927182        5.7980458010
  N         0.0800372239        1.8147351648        7.8008303903
 Ga         0.0773442669       -0.0302823968        8.4435917738
  N         0.0791604503       -0.0309635385       10.4196718573
 Ga         0.0791690237        1.8083267606       11.0710085154
  N         0.0796614763        1.7896941117       13.0659390078
 Ga         0.0794745417       -0.0299959049       13.8782746349
  N         0.0794507565       -0.0299909858       16.0697296978
 Ga         0.0795104227        2.0164363810       16.4940490167
 Ga         0.0446347212        3.6847653570        1.3667888407
  N        -1.4086891192        4.5478282128        2.5293575521
 Ga        -1.6018239137        2.7029924926        3.2803645692
  N        -1.5298698380        2.7531499449        5.2585480681
 Ga        -1.5583770400        4.6184596621        5.8076521203
  N        -1.5391319257        4.6179313780        7.8036133332
 Ga        -1.5195515048        2.7568083077        8.4350251742
  N        -1.5177033160        2.7606716022       10.4316525289
 Ga        -1.5427298308        4.6188116656       11.0692528843
  N        -1.5585056519        4.6300016995       13.0620392912
 Ga        -1.5169634851        2.7618737272       13.6225015562
  N        -1.5508681000        2.7500448002       15.5820882017
 Ga        -1.3493548825        4.5110948185       16.4955755895
  N         0.0793244976        3.6729434667       17.6382092183
  N        -3.1315425810        7.5180141059        2.5315799663
 Ga        -3.1108744078        5.5140345127        2.8531014862
  N        -3.1367037383        5.5407459387        5.0234583889
 Ga        -3.1439543104        7.3612694831        5.8081523855
  N        -3.1361400878        7.3863512804        7.8000679822
 Ga        -3.1369848225        5.5391880330        8.4491283323
  N        -3.1369760938        5.5409200112       10.4225164834
 Ga        -3.1378662780        7.3812305982       11.0707120900
  N        -3.1361505908        7.3625988369       13.0627262522
 Ga        -3.1268664762        5.5458791733       13.8611943783
  N        -3.1250945694        5.5471468109       16.0689514085
 Ga        -3.1341207060        7.6029605543       16.4964054587
 Ga        -3.1496430319        9.2534187272        1.5011359033
  N        -4.6395660277       10.1219063336        2.5166434219
 Ga        -4.8570965718        8.2713512602        3.2901996307
  N        -4.7439049795        8.3263971570        5.2519230940
 Ga        -4.7762464898       10.2012678985        5.7989771658
  N        -4.7544463529       10.1878116937        7.7973822179
 Ga        -4.7379697435        8.3325204707        8.4366899439
  N        -4.7340784215        8.3323983077       10.4311228548
 Ga        -4.7608788182       10.1915245157       11.0720627485
  N        -4.7763691283       10.2009944737       13.0663939442
 Ga        -4.7328974933        8.3325070649       13.6237585177
  N        -4.7602351422        8.3088778042       15.5830220079
 Ga        -4.5801320936       10.0876526161       16.4948078166
  N        -3.1457560415        9.2593134178       17.6395048129
  N         3.2845830115        1.8313902923        2.6175916628
 Ga         3.2865653914        0.0917460860        3.2884927894
  N         3.2964954375       -0.0334904353        5.2514448488
 Ga         3.2872615127        1.8287089566        5.8736110083
  N         3.2957926037        1.8251630218        7.8511520228
 Ga         3.2929666198       -0.0406741520        8.4393337421
  N         3.2950095085       -0.0427895524       10.4330822001
 Ga         3.2952234494        1.8265204479       11.0273603727
  N         3.2982058650        1.8278831191       13.0012813524
 Ga         3.2960648385       -0.0437115775       13.6241248902
  N         3.3026467934       -0.0075324109       15.5835022527
 Ga         3.2942436835        1.8262638716       15.8637096785
  N         1.5686121222        4.5494091718        2.5169867210
 Ga         1.7550714137        2.7170259101        3.2659929699
  N         1.6884009028        2.7538370356        5.2510973862
 Ga         1.7196605149        4.6180931680        5.8084316815
  N         1.6971663973        4.6166875923        7.8050874127
 Ga         1.6769616758        2.7579025971        8.4388742768
  N         1.6770076759        2.7603118961       10.4339635718
 Ga         1.7020727321        4.6194460864       11.0690300541
  N         1.7180481985        4.6302112919       13.0620281979
 Ga         1.6759001268        2.7623565351       13.6231295743
  N         1.7103631679        2.7499261534       15.5826382260
 Ga         1.5089264015        4.5110345719       16.4960990596
  N         0.0814609825        7.3795287484        2.6965732253
 Ga         0.0883573635        5.5384661387        3.3379183383
  N         0.0797931735        5.5525235672        5.2752477036
 Ga         0.0874401439        7.3941026073        5.9058020737
  N         0.0800528459        7.3982819253        7.8648432422
 Ga         0.0796671634        5.5249881159        8.4439773116
  N         0.0792892203        5.5278117027       10.4344873018
 Ga         0.0801598674        7.3971923838       11.0281855150
  N         0.0795609283        7.3975741273       12.9977483348
 Ga         0.0798256565        5.5287099160       13.6226723012
  N         0.0798503271        5.5604248819       15.5808190568
 Ga         0.0802627814        7.3976841107       15.8598640393
  N        -1.6316829110       10.1102364519        2.5243467509
 Ga        -1.4874733132        8.2969473707        3.3360884030
  N        -1.5168059184        8.3180048361        5.2633146004
 Ga        -1.5035213484       10.2039362308        5.8105837958
  N        -1.5198975479       10.1860082652        7.8017845068
 Ga        -1.5404349258        8.3318793017        8.4464286877
  N        -1.5400436347        8.3319020719       10.4348218518
 Ga        -1.5148845493       10.1912317547       11.0703449356
  N        -1.4976554986       10.1998377804       13.0625209016
 Ga        -1.5385810443        8.3318677193       13.6232359460
  N        -1.5111328542        8.3160649951       15.5811010842
 Ga        -1.7052649582       10.0780515737       16.4968982008
  N         6.5096904889        1.9494940202        2.5384038621
 Ga         6.5290966717       -0.0316827708        2.8631810377
  N         6.5071243340       -0.0305891999        5.0259295234
 Ga         6.5099063404        1.7991965396        5.8051236922
  N         6.5108041413        1.8146114413        7.8023764388
 Ga         6.5135428381       -0.0311750768        8.4462337255
  N         6.5119267112       -0.0309147279       10.4206200578
 Ga         6.5123141948        1.8088691722       11.0681232912
  N         6.5120658037        1.7880934037       13.0687910486
 Ga         6.5124041864       -0.0410317202       13.8617839201
  N         6.5120634361       -0.0428820365       16.0690388499
 Ga         6.5124312774        1.9577526582       16.4337406597
 Ga         6.5148493486        3.6816053545        1.5344587989
  N         5.0086179185        4.5485466860        2.5310761535
 Ga         4.7918819066        2.6975878342        3.2980269535
  N         4.9006902960        2.7537920547        5.2593099936
 Ga         4.8763135986        4.6267033101        5.8048280634
  N         4.8943605778        4.6168749572        7.8028390934
 Ga         4.9119433513        2.7595549475        8.4389971001
  N         4.9149136564        2.7614886792       10.4352181054
 Ga         4.8884463543        4.6214548997       11.0681957318
  N         4.8707025772        4.6315701214       13.0689799578
 Ga         4.9147874238        2.7615078812       13.6140319804
  N         4.8979558802        2.7517785827       15.5924821459
 Ga         5.0174193534        4.5470376911       16.4335284853
  N         6.5118862456        3.6836606523       17.5547543162
  N         3.2922753696        7.5105952233        2.5020607029
  N         3.2950788504        5.5375876874        5.0301334021
 Ga         3.2995217271        7.3651201661        5.7954838808
  N         3.2935901897        7.3874471981        7.7945961785
 Ga         3.2956078598        5.5416445427        8.4460638143
  N         3.2958213087        5.5413235119       10.4211167885
 Ga         3.2973846331        7.3816666208       11.0692194841
  N         3.2956824030        7.3627232273       13.0619637417
 Ga         3.2863485673        5.5464280260       13.8612721512
  N         3.2845540746        5.5472987997       16.0694029235
 Ga         3.2940580345        7.6039702899       16.4976197141
 Ga         3.3313437496        9.2751960372        1.3231781910
  N         1.7844411676       10.1174415814        2.5060405479
 Ga         1.6805878050        8.3128209838        3.2893862984
  N         1.6739312895        8.3168294928        5.2382811099
 Ga         1.6645054837       10.1979145559        5.7959061842
  N         1.6770947858       10.1847170100        7.7941866797
 Ga         1.7010604324        8.3329788075        8.4442833733
  N         1.6992154424        8.3323577427       10.4339302768
 Ga         1.6750218007       10.1915312816       11.0692666262
  N         1.6574037714       10.1998895987       13.0618929760
 Ga         1.6981150222        8.3317937028       13.6227573081
  N         1.6712072879        8.3162569541       15.5805971308
 Ga         1.8657903249       10.0777943135       16.4975809659
  N         3.3048516851        9.2595824289       17.6415844041
  N         9.7369936169        1.8244480627        2.6296446261
 Ga         9.7311063328        0.0609937618        3.2584492891
  N         9.7242928304       -0.0343371663        5.2407089370
 Ga         9.7331478242        1.8195700523        5.8676736905
  N         9.7266245720        1.8244961671        7.8481898991
 Ga         9.7299040993       -0.0425789383        8.4313867732
  N         9.7282648215       -0.0432181106       10.4287642816
 Ga         9.7287310834        1.8257400184       11.0242554889
  N         9.7255754324        1.8278326021       12.9990301586
 Ga         9.7281326329       -0.0434005587       13.6233993081
  N         9.7215774708       -0.0074940514       15.5826282338
 Ga         9.7300734852        1.8260106863       15.8636676904
  N         8.0133263784        4.5493993516        2.5397720815
 Ga         8.2307349498        2.6898275126        3.3007782393
  N         8.1194833011        2.7533329921        5.2613802172
 Ga         8.1430692326        4.6256552893        5.8023178973
  N         8.1295592654        4.6179767361        7.8004578572
 Ga         8.1118094398        2.7590710048        8.4357113832
  N         8.1086217087        2.7616649184       10.4331939517
 Ga         8.1346836315        4.6205271571       11.0685832416
  N         8.1531308185        4.6313708645       13.0689870674
 Ga         8.1095164611        2.7612944067       13.6135364299
  N         8.1265255284        2.7517476262       15.5918992945
 Ga         8.0065373754        4.5465112947       16.4333742009
  N         6.5058346342        7.3988096738        2.6109986837
 Ga         6.5051344030        5.6622428087        3.2962753816
  N         6.5102901513        5.5420716154        5.2573461215
 Ga         6.5038334726        7.4018234459        5.8694583414
  N         6.5109367289        7.3975113295        7.8466134376
 Ga         6.5116276927        5.5304180373        8.4369502907
  N         6.5119784448        5.5281725789       10.4335938799
 Ga         6.5113256375        7.3986424287       11.0253970937
  N         6.5118618198        7.3951281195       12.9998343723
 Ga         6.5119891570        5.5286076318       13.6140351160
  N         6.5122234048        5.5483850507       15.5923683100
 Ga         6.5119602223        7.3998947998       15.8643948184
  N         4.8037616523       10.1249965045        2.5112000343
 Ga         4.9794990193        8.2811403667        3.2550433946
  N         4.9009217216        8.3247499810        5.2374783989
 Ga         4.9294345985       10.1976260247        5.7836014663
  N         4.9139000159       10.1877583822        7.7898332344
 Ga         4.8937026402        8.3340293316        8.4321584244
  N         4.8932658125        8.3324255378       10.4288583721
 Ga         4.9185602566       10.1911219440       11.0704015628
  N         4.9356629267       10.2009707161       13.0653890837
 Ga         4.8921014020        8.3327877744       13.6236555233
  N         4.9200438148        8.3091318027       15.5826932493
 Ga         4.7384208427       10.0872180621       16.4958348053
  O         0.0105556132        4.0890269537       -0.4295096279
  H        -0.1886345945        5.8754159973       -0.3422019893
  C         1.1251311639        3.6352391405       -1.2206707014
  H         2.0931213813        3.9397274584       -0.7902313324
  H         1.1199160825        2.5396529266       -1.3269205331
  H         1.0300710621        4.0809035991       -2.2210168718
 Ga         3.2658047013        5.5346368242        2.8518410085
  O        -0.1904028006        6.8606338693       -0.1990012143
  H         0.0310804754        7.3091339898        1.6593186187
  C         0.9392270803        7.3929121789       -0.9038455590
  H         0.9546114773        8.4777744548       -0.7300885355
  H         1.8896634787        6.9696601231       -0.5383461596
  H         0.8654295511        7.2175980600       -1.9880216924
     &END COORD

     &KIND C
       BASIS_SET DZVP-MOLOPT-SR-GTH-q4
       POTENTIAL GTH-PBE-q4
     &END KIND

     &KIND O
       BASIS_SET DZVP-MOLOPT-SR-GTH-q6
       POTENTIAL GTH-PBE-q6
     &END KIND

     &KIND H
       BASIS_SET DZVP-MOLOPT-SR-GTH-q1
       POTENTIAL GTH-PBE-q1
     &END KIND

     &KIND N
       BASIS_SET DZVP-MOLOPT-SR-GTH
       POTENTIAL GTH-PBE-q5
     &END KIND

     &KIND Ga
       BASIS_SET DZVP-MOLOPT-SR-GTH
       POTENTIAL GTH-PBE-q13
     &END KIND

     &COLVAR
       &DISTANCE
         ATOMS _A1_ _A2_
       &END
       &PRINT
       &END
     &END

     &TOPOLOGY
       MULTIPLE_UNIT_CELL  1 1 1
     &END TOPOLOGY
   &END SUBSYS
 &END FORCE_EVAL
