 # Version information for this restart file 
 # current date 2019-07-11 23:23:32.835
 # current working dir /lustre04/scratch/rzk/rzk/GaN-carbene/443-adatoms-both-2x2/09-BondBreaking-CH/02-0401-CH-to-NTop-PES
 # Program compiled at                              Sun Apr  7 00:48:11 EDT 2019
 # Program compiled on                          beluga2.int.ets1.calculquebec.ca
 # Program compiled for                        Beluga-Linux-x86-64-intel-openmpi
 # Source code revision number                                         svn:18619
 &GLOBAL
   PRINT_LEVEL  MEDIUM
   PROJECT_NAME TEST
   RUN_TYPE  GEO_OPT
 &END GLOBAL
 &MOTION
   &GEO_OPT
     MAX_ITER  500
     !STEP_START_VAL  111
   &END GEO_OPT
   &CONSTRAINT
     &COLLECTIVE
       COLVAR  1
       INTERMOLECULAR  T
       TARGET [angstrom] 1.80 !     3.7794522657712859E+00
       &RESTRAINT
         K     2.0000000000000000E+00
       &END RESTRAINT
     &END COLLECTIVE
   &END CONSTRAINT
 &END MOTION
 &FORCE_EVAL
   METHOD  QS
   STRESS_TENSOR  ANALYTICAL
   &DFT
     BASIS_SET_FILE_NAME BASIS_MOLOPT
     POTENTIAL_FILE_NAME GTH_POTENTIALS
     UKS  T
     SURFACE_DIPOLE_CORRECTION  T
     SURF_DIP_DIR  Z
     &SCF
       MAX_SCF  80
       EPS_SCF     5.0000000000000004E-06
       &OT  T
         PRECONDITIONER  FULL_ALL
       &END OT
       &OUTER_SCF  T
         OPTIMIZER  NONE
         EPS_SCF     5.0000000000000004E-06
         MAX_SCF  4
       &END OUTER_SCF
       &PRINT
         &RESTART  OFF
           BACKUP_COPIES  1
           &EACH
             JUST_ENERGY  0
             QS_SCF  0
             MD  20
           &END EACH
         &END RESTART
       &END PRINT
     &END SCF
     &QS
       EPS_DEFAULT     1.0000000000000000E-14
       METHOD  GPW
     &END QS
     &MGRID
       NGRIDS  5
       CUTOFF     1.2000000000000000E+03
     &END MGRID
     &XC
       DENSITY_CUTOFF     1.0000000000000000E-10
       GRADIENT_CUTOFF     1.0000000000000000E-10
       TAU_CUTOFF     1.0000000000000000E-10
       &XC_FUNCTIONAL  NO_SHORTCUT
         &PBE  T
         &END PBE
       &END XC_FUNCTIONAL
       &VDW_POTENTIAL
         POTENTIAL_TYPE  PAIR_POTENTIAL
         &PAIR_POTENTIAL
           R_CUTOFF     1.0000000000000009E+01
           TYPE  DFTD3
           PARAMETER_FILE_NAME dftd3.dat
           REFERENCE_FUNCTIONAL PBE
           EPS_CN     9.9999999999999995E-07
           CALCULATE_C9_TERM  T
           REFERENCE_C9_TERM  T
           LONG_RANGE_CORRECTION  F
           VERBOSE_OUTPUT  F
         &END PAIR_POTENTIAL
       &END VDW_POTENTIAL
     &END XC
   &END DFT
   &SUBSYS
     &CELL
       A     1.2864472766435110E+01    0.0000000000000000E+00    0.0000000000000000E+00
       B    -6.4322363581020028E+00    1.1140960178524477E+01    0.0000000000000000E+00
       C     0.0000000000000000E+00    0.0000000000000000E+00    3.2000000000000000E+01
       MULTIPLE_UNIT_CELL  1 1 1
       &CELL_REF
         A     1.2982353780853531E+01    0.0000000000000000E+00    0.0000000000000000E+00
         B    -6.4911768904267628E+00    1.1243048175136114E+01    0.0000000000000000E+00
         C     0.0000000000000000E+00    0.0000000000000000E+00    3.2000000000000000E+01
         MULTIPLE_UNIT_CELL  1 1 1
       &END CELL_REF
     &END CELL
     &COORD
N    3.7820422016205002E-02    1.9862752783958517E+00    2.4973845149383069E+00
Ga    5.7683578075448862E-02    2.0604388687327998E-02    2.8323638011550782E+00
N    3.9519302892148195E-02   -1.4517811749791257E-02    5.0156063497009766E+00
Ga    4.2273512810178576E-02    1.8111448806102033E+00    5.8002521923677151E+00
N    4.1072485709217656E-02    1.8260714244383245E+00    7.8009327843362861E+00
Ga    4.3576555195624117E-02   -1.9774153158523697E-02    8.4426911791586665E+00
N    4.1893099916143185E-02   -1.9749259562371231E-02    1.0417780242495951E+01
Ga    4.2508329709654014E-02    1.8201163831869738E+00    1.1068023895649748E+01
N    4.2525943870449459E-02    1.8006598599859371E+00    1.3064458283965868E+01
Ga    4.6922616598417927E-02   -2.3231609196155904E-02    1.3862209431396451E+01
N    4.5585826323677477E-02   -2.2551796774728957E-02    1.6068919690064014E+01
Ga    4.3705565855820520E-02    2.0004219062863293E+00    1.6458514092689551E+01
Ga    1.2464334040424661E-02    3.6865783745965071E+00    1.3669557129833991E+00
N   -1.4431999558300466E+00    4.5586792101540512E+00    2.5153903559596897E+00
Ga   -1.6369726591744334E+00    2.7234732391010272E+00    3.2830146062523085E+00
N   -1.5685183653478252E+00    2.7663421175297844E+00    5.2597868850530469E+00
Ga   -1.5979967841120462E+00    4.6330601829241029E+00    5.8097923414676682E+00
N   -1.5756278456906079E+00    4.6294842132410308E+00    7.8046146019600631E+00
Ga   -1.5557570984159230E+00    2.7703711719834279E+00    8.4408140141786721E+00
N   -1.5556430448854526E+00    2.7731029826231577E+00    1.0434814619618123E+01
Ga   -1.5833110392271037E+00    4.6319555220383668E+00    1.1073159067436613E+01
N   -1.5995281923011346E+00    4.6425283821751604E+00    1.3069041126461608E+01
Ga   -1.5545612812526610E+00    2.7721929376375498E+00    1.3618212215834859E+01
N   -1.5753468938260613E+00    2.7565485798976423E+00    1.5588178039256702E+01
Ga   -1.4366035257962317E+00    4.5489378666903155E+00    1.6457546496110549E+01
N    3.3358664476476334E-02    3.7010020865886974E+00    1.7584186626544746E+01
N   -3.1747755555634254E+00    7.5262465195067385E+00    2.5053374350887090E+00
Ga   -3.1477005822094961E+00    5.5438015343488729E+00    2.8397462842336068E+00
N   -3.1723700408498341E+00    5.5495116368989059E+00    5.0216104146096745E+00
Ga   -3.1802786040214768E+00    7.3753866998820010E+00    5.7945512191441599E+00
N   -3.1727949129790876E+00    7.3981547334945832E+00    7.7914282235962293E+00
Ga   -3.1747378139481239E+00    5.5529686410333801E+00    8.4479537358795991E+00
N   -3.1745901652993314E+00    5.5528008139739145E+00    1.0420434538906342E+01
Ga   -3.1766223207476498E+00    7.3921866318830274E+00    1.1072171787503102E+01
N   -3.1749897235391247E+00    7.3727651914206014E+00    1.3062987746102966E+01
Ga   -3.1815862744504413E+00    5.5553907197870975E+00    1.3873560513504046E+01
N   -3.1817534632900917E+00    5.5563755872253529E+00    1.6069080179641713E+01
Ga   -3.1751343185326695E+00    7.6148207899585110E+00    1.6502405094214744E+01
Ga   -3.1980835390144033E+00    9.2777316103938308E+00    1.3535065576678991E+00
N   -4.6827308906085392E+00    1.0136685500251003E+01    2.5060180281772291E+00
Ga   -4.8727968779149426E+00    8.2939972216147950E+00    3.2566203880278475E+00
N   -4.7819586342675384E+00    8.3367816168032114E+00    5.2347506952143776E+00
Ga   -4.8080329664924726E+00    1.0209274642883246E+01    5.7858722185670004E+00
N   -4.7920120881610275E+00    1.0198883083851872E+01    7.7884798119525058E+00
Ga   -4.7733856298549151E+00    8.3438394325728069E+00    8.4309347274568616E+00
N   -4.7715985375277006E+00    8.3427610003283448E+00    1.0425022373185636E+01
Ga   -4.7960326921381240E+00    1.0201008604541043E+01    1.1067087694255806E+01
N   -4.8123252424122285E+00    1.0210954157265490E+01    1.3058904610466680E+01
Ga   -4.7718955436444768E+00    8.3433633495325346E+00    1.3624306298698212E+01
N   -4.8015976882472033E+00    8.3296058937797710E+00    1.5580317399658089E+01
Ga   -4.5996622394734716E+00    1.0089157449318366E+01    1.6502482145586203E+01
N   -3.1713105126780965E+00    9.2660963854678897E+00    1.7651388039014552E+01
N    3.2455056252325649E+00    1.8404457388875115E+00    2.6177044171468169E+00
Ga    3.2502886146694228E+00    8.1333186798240198E-02    3.2586762579598862E+00
N    3.2600239915020657E+00   -2.1429460149818537E-02    5.2372290741965415E+00
Ga    3.2508050345211128E+00    1.8333865639048403E+00    5.8668110161706792E+00
N    3.2581785849553007E+00    1.8359930265337128E+00    7.8451971301379304E+00
Ga    3.2563454975704440E+00   -3.0455302274534329E-02    8.4324844250303705E+00
N    3.2583960981099760E+00   -3.2230015338307189E-02    1.0426718135064636E+01
Ga    3.2578036184612156E+00    1.8371278526751422E+00    1.1024527594170141E+01
N    3.2565877817778324E+00    1.8388579826758693E+00    1.2995572940569591E+01
Ga    3.2577819805335788E+00   -3.1158488524667488E-02    1.3623953667934945E+01
N    3.2546231045751055E+00    3.2978172241603827E-03    1.5579850610652009E+01
Ga    3.2609405336463326E+00    1.8372362767126529E+00    1.5860677280500861E+01
N    1.5319648608605336E+00    4.5603416937441201E+00    2.5295778139839551E+00
Ga    1.7186244674282758E+00    2.7221883189410927E+00    3.2711442597032114E+00
N    1.6506649829561935E+00    2.7651685827038044E+00    5.2536839788388363E+00
Ga    1.6778793936490370E+00    4.6292751629750155E+00    5.8058158676649922E+00
N    1.6597573912839703E+00    4.6299528953270102E+00    7.8007499829276901E+00
Ga    1.6409060037317043E+00    2.7689830085965341E+00    8.4350682886391759E+00
N    1.6388994230813001E+00    2.7730286972100284E+00    1.0430234315477076E+01
Ga    1.6658314598365647E+00    4.6304100511434374E+00    1.1070693010461726E+01
N    1.6828258636629683E+00    4.6416151142221738E+00    1.3066025659070416E+01
Ga    1.6403269837722203E+00    2.7716766744683543E+00    1.3617328817961456E+01
N    1.6611682519491553E+00    2.7607304144722726E+00    1.5585872444006863E+01
Ga    1.5115714380446676E+00    4.5421434771892741E+00    1.6458731353675098E+01
N    3.2202674880080058E-02    7.3931804818506235E+00    2.6875386366913929E+00
Ga    4.3694216060664752E-02    5.5513410293047274E+00    3.3339187717287442E+00
N    4.1089214313031149E-02    5.5656279477729695E+00    5.2714249482842321E+00
Ga    3.6652844903756816E-02    7.4064984289551781E+00    5.9033364736651910E+00
N    4.1657895989487818E-02    7.4104092685498655E+00    7.8624265128952731E+00
Ga    4.1846026548956444E-02    5.5372705699654698E+00    8.4457900067832945E+00
N    4.1696980740214294E-02    5.5387215293570442E+00    1.0436721734293741E+01
Ga    4.0383848390798407E-02    7.4084456550049573E+00    1.1030432986648252E+01
N    4.3144387571098605E-02    7.4077289544172213E+00    1.3001439404620021E+01
Ga    4.2351715378822131E-02    5.5384644908698419E+00    1.3619298955942885E+01
N    4.6279270109181744E-02    5.5656374635009875E+00    1.5588592519779583E+01
Ga    4.0156533345983826E-02    7.4102021738402328E+00    1.5863857190206190E+01
N   -1.6659766312084487E+00    1.0129876434103549E+01    2.5084686635140265E+00
Ga   -1.5562181381182441E+00    8.3236171936310388E+00    3.2987938905132284E+00
N   -1.5538625110155737E+00    8.3297740313189230E+00    5.2414645689621802E+00
Ga   -1.5443837359777859E+00    1.0212026785677301E+01    5.7971618107111667E+00
N   -1.5563985654815145E+00    1.0196587910466336E+01    7.7924534113457469E+00
Ga   -1.5804671553462333E+00    8.3444533101066565E+00    8.4446093016895514E+00
N   -1.5779379857471079E+00    8.3435336503625290E+00    1.0433656588176035E+01
Ga   -1.5525600252202998E+00    1.0203442752926465E+01    1.1072885056454382E+01
N   -1.5347514773287896E+00    1.0212448337878659E+01    1.3063730302131926E+01
Ga   -1.5787958564271605E+00    8.3442237740782641E+00    1.3625708356292558E+01
N   -1.5468586026675553E+00    8.3256770873414272E+00    1.5581528474479819E+01
Ga   -1.7422159817481802E+00    1.0094115890678857E+01    1.6501637974646698E+01
N    6.4745895254709493E+00    1.9632034598504402E+00    2.5356687097157438E+00
Ga    6.4588898403563100E+00   -1.4677388840471053E-02    2.8629567098452946E+00
N    6.4766927887700092E+00   -1.8659910884557891E-02    5.0226260008946113E+00
Ga    6.4738620543119927E+00    1.8112930872483526E+00    5.8048771332241573E+00
N    6.4742121149198679E+00    1.8253334348603654E+00    7.7995291425833786E+00
Ga    6.4722128708553965E+00   -2.0004313626590293E-02    8.4471192308256207E+00
N    6.4737723152013995E+00   -1.9751027177393909E-02    1.0419155892353537E+01
Ga    6.4730205859672258E+00    1.8211474767965734E+00    1.1071388526810015E+01
N    6.4736570530031905E+00    1.8014423611313608E+00    1.3062840390069058E+01
Ga    6.4687704542625148E+00   -1.5099380025329847E-02    1.3877384287076021E+01
N    6.4690981117422082E+00   -1.4769257253881781E-02    1.6069374348484622E+01
Ga    6.4736644875417824E+00    2.0444357858943252E+00    1.6504374289387222E+01
Ga    6.4744238658299915E+00    3.6930416587900772E+00    1.5271557854588909E+00
N    4.9727741771202627E+00    4.5603140412486534E+00    2.5348906062519059E+00
Ga    4.7536346008332577E+00    2.7019567934945568E+00    3.2961552986145279E+00
N    4.8644017167347604E+00    2.7649782617743437E+00    5.2564745348377642E+00
Ga    4.8442462427317823E+00    4.6363670605939733E+00    5.8022669024479212E+00
N    4.8558238232686879E+00    4.6291674916535195E+00    7.7968832729672304E+00
Ga    4.8735679462177739E+00    2.7698489305309733E+00    8.4357686345773093E+00
N    4.8765714426849280E+00    2.7723668904485215E+00    1.0428671600061231E+01
Ga    4.8529722129334960E+00    4.6308360401588420E+00    1.1068610702695128E+01
N    4.8362110776040028E+00    4.6409406577296899E+00    1.3059776076706196E+01
Ga    4.8772919777877917E+00    2.7728265881279066E+00    1.3624230081119370E+01
N    4.8458298634618835E+00    2.7594855284339022E+00    1.5580495348318751E+01
Ga    5.0504665503365720E+00    4.5182036499664395E+00    1.6505400000922613E+01
N    6.4760716127549687E+00    3.6940493207427947E+00    1.7655302710920164E+01
N    3.2341972679557118E+00    7.5287790025308094E+00    2.4536814911334104E+00
N    3.2593227429776195E+00    5.5544154855126235E+00    5.0222804074402756E+00
Ga    3.2617843238638491E+00    7.3755373214107225E+00    5.8072578308639500E+00
N    3.2550754355062161E+00    7.3981175604296361E+00    7.7972154981365769E+00
Ga    3.2582276614310972E+00    5.5503101182734058E+00    8.4482569506531746E+00
N    3.2580121537341120E+00    5.5523723165682837E+00    1.0420231811766987E+01
Ga    3.2598320241434595E+00    7.3911135048765511E+00    1.1072163940867554E+01
N    3.2589732969118539E+00    7.3719441986085226E+00    1.3065410040631493E+01
Ga    3.2651048640090576E+00    5.5495151115446104E+00    1.3864407194203840E+01
N    3.2641239607773538E+00    5.5516546767853496E+00    1.6069786500782058E+01
Ga    3.2603023947070922E+00    7.5842286339101088E+00    1.6468777968700021E+01
Ga    3.2855117132075984E+00    9.3273722511644976E+00    1.4915470802619843E+00
N    1.7535795695267180E+00    1.0132866808939905E+01    2.5261517052203302E+00
Ga    1.6152004148234638E+00    8.3087843881649501E+00    3.3126169326665034E+00
N    1.6377896379857322E+00    8.3277618981187818E+00    5.2449535168284376E+00
Ga    1.6218208164431338E+00    1.0211289111973247E+01    5.8079702838377090E+00
N    1.6396561569480022E+00    1.0195114666519492E+01    7.7984749651361689E+00
Ga    1.6608949227445016E+00    8.3431588101699994E+00    8.4500039183660274E+00
N    1.6610275266230146E+00    8.3435596392029669E+00    1.0437726338384980E+01
Ga    1.6337447061264474E+00    1.0204130594066362E+01    1.1075009112924954E+01
N    1.6168723227131760E+00    1.0213088014293778E+01    1.3068958329810769E+01
Ga    1.6620389749380706E+00    8.3434983548275063E+00    1.3621283065801233E+01
N    1.6379082102010472E+00    8.3247953901679494E+00    1.5587467516359403E+01
Ga    1.7889349056836736E+00    1.0114865518332161E+01    1.6467099276370476E+01
N    3.2486495946570937E+00    9.2724302959628258E+00    1.7591659744210762E+01
N    9.6992447459410300E+00    1.8460336281486693E+00    2.6251927570886875E+00
Ga    9.6954581682055228E+00    1.1217771865725443E-01    3.3067213341529436E+00
N    9.6875913401632072E+00   -2.0560642684909192E-02    5.2613875511837565E+00
Ga    9.6952291638954318E+00    1.8420467325043404E+00    5.8823415071525567E+00
N    9.6890922632025802E+00    1.8368795201474308E+00    7.8553440289688359E+00
Ga    9.6914524660138124E+00   -3.0927504327867866E-02    8.4390116396689319E+00
N    9.6892460133435971E+00   -3.2692236049816643E-02    1.0432278445314861E+01
Ga    9.6893761826041338E+00    1.8378499516090046E+00    1.1027137547949305E+01
N    9.6917522971448058E+00    1.8373103304351421E+00    1.2999426320379193E+01
Ga    9.6910550216491256E+00   -3.1722015360924234E-02    1.3620239059393059E+01
N    9.6955619478149018E+00   -1.1928990288333663E-03    1.5586257272623179E+01
Ga    9.6882307504377039E+00    1.8398194005287782E+00    1.5863414464278900E+01
N    7.9762289155496076E+00    4.5618782123340207E+00    2.5295910142530613E+00
Ga    8.1904852647323541E+00    2.7123402207503879E+00    3.3004194067466339E+00
N    8.0834050780370124E+00    2.7661543251796066E+00    5.2603698638625414E+00
Ga    8.1098614998215552E+00    4.6398680299170403E+00    5.8029593002865116E+00
N    8.0920805256004922E+00    4.6291876228842614E+00    7.7990082963478944E+00
Ga    8.0717390495375358E+00    2.7721034477867068E+00    8.4408968864897478E+00
N    8.0706240290592106E+00    2.7728096176700663E+00    1.0432588389819156E+01
Ga    8.0957939740458862E+00    4.6324178136458407E+00    1.1070838828531192E+01
N    8.1128837764112163E+00    4.6418457714192209E+00    1.3062107952138986E+01
Ga    8.0698015638886957E+00    2.7735430540857298E+00    1.3624638503937662E+01
N    8.1022940553185929E+00    2.7566280668838203E+00    1.5580736807923062E+01
Ga    7.9023164364237868E+00    4.5213693624328739E+00    1.6504374941119796E+01
N    6.4695700814116348E+00    7.4102809203638653E+00    2.6066760529737776E+00
Ga    6.4782130221079930E+00    5.6732846876666283E+00    3.2931825686359888E+00
N    6.4751964997641487E+00    5.5536907517627290E+00    5.2533459114703147E+00
Ga    6.4764272679598758E+00    7.4136545109727878E+00    5.8648723925309447E+00
N    6.4730736640082229E+00    7.4096075949412352E+00    7.8408827657627915E+00
Ga    6.4743447613068250E+00    5.5424337202275415E+00    8.4352175988587561E+00
N    6.4739625209975697E+00    5.5398209045596261E+00    1.0427611137439133E+01
Ga    6.4745847550097304E+00    7.4086703442406385E+00    1.1024547319798756E+01
N    6.4729990732898246E+00    7.4097827970020109E+00    1.2994392374677219E+01
Ga    6.4742597535852138E+00    5.5398735828453365E+00    1.3624101112314509E+01
N    6.4715924228498523E+00    5.5735401275685836E+00    1.5579950398241841E+01
Ga    6.4766968460016212E+00    7.4077128725257442E+00    1.5861379115908910E+01
N    4.7634361289018141E+00    1.0142276364178128E+01    2.5338534551163931E+00
Ga    4.9519889205247640E+00    8.2686680371623300E+00    3.2750030796179268E+00
N    4.8596462402149516E+00    8.3359762747137651E+00    5.2413828522478081E+00
Ga    4.8973680880234474E+00    1.0209185816316632E+01    5.7972444658624944E+00
N    4.8755834317047553E+00    1.0198102820619447E+01    7.7948504327991532E+00
Ga    4.8580763579497077E+00    8.3429623401747595E+00    8.4359259598068927E+00
N    4.8543737589723053E+00    8.3429526544362886E+00    1.0428497910402628E+01
Ga    4.8814526928058122E+00    1.0201745515197041E+01    1.1068612035944676E+01
N    4.8980879339596486E+00    1.0211631309221435E+01    1.3063223540481179E+01
Ga    4.8571005981948066E+00    8.3429013382233528E+00    1.3619273188877365E+01
N    4.8800172276459817E+00    8.3302970110986738E+00    1.5584164796079383E+01
Ga    4.7161578860552194E+00    1.0106428329576085E+01    1.6468086978122681E+01
O    8.1382855006755461E-02    3.9932909846376337E+00   -4.4560615966952627E-01
H    2.4382519889582080E-01    5.7795398154299145E+00   -3.6707092465570390E-01
C    1.1207273423381567E+00    3.3020237694935592E+00   -1.1668378194208828E+00
H    2.1115179721750850E+00    3.4333725494703859E+00   -7.0073529662165135E-01
H    9.1034052142165789E-01    2.2235470199716323E+00   -1.2334655627446132E+00
H    1.1519285686576570E+00    3.7153243305396995E+00   -2.1849730160168299E+00
Ga    3.2331034030037427E+00    5.5140298480009635E+00    2.8736842681958241E+00
O    4.6073849927029348E-01    6.7276104057681962E+00   -1.6453497379548540E-01
H    4.6073095597843158E-02    7.3144519127138903E+00    1.6500228233996270E+00
C    1.8902766041095758E+00    6.8569504852908718E+00   -2.4996090222193224E-01
H    2.1217336267873432E+00    7.7917047466336200E+00   -7.9690604964019895E-01
H    2.3644839094244992E+00    6.9248877971989309E+00    7.5431927446354907E-01
H    2.3438828253277233E+00    6.0276103884748409E+00   -8.1062469406448567E-01
     &END COORD
     &KIND C
       BASIS_SET DZVP-MOLOPT-SR-GTH-q4
       POTENTIAL GTH-PBE-q4
       &POTENTIAL
2 2
0.3384712400000000E+00 2 -0.8803673979999999E+01  0.1339210850000000E+01
2
0.3025757500000000E+00 1  0.9622486650000001E+01
0.2915069400000000E+00 0
       &END POTENTIAL
     &END KIND
     &KIND O
       BASIS_SET DZVP-MOLOPT-SR-GTH-q6
       POTENTIAL GTH-PBE-q6
       &POTENTIAL
2 4
0.2445543000000000E+00 2 -0.1666721480000000E+02  0.2487311320000000E+01
2
0.2209559200000000E+00 1  0.1833745811000000E+02
0.2113324700000000E+00 0
       &END POTENTIAL
     &END KIND
     &KIND H
       BASIS_SET DZVP-MOLOPT-SR-GTH-q1
       POTENTIAL GTH-PBE-q1
       &POTENTIAL
1
0.2000000000000000E+00 2 -0.4178900440000000E+01  0.7244633100000000E+00
0
       &END POTENTIAL
     &END KIND
     &KIND N
       BASIS_SET DZVP-MOLOPT-SR-GTH
       POTENTIAL GTH-PBE-q5
       &POTENTIAL
2 3
0.2837905100000000E+00 2 -0.1241522559000000E+02  0.1868095920000000E+01
2
0.2554050000000000E+00 1  0.1363026257000000E+02
0.2454945300000000E+00 0
       &END POTENTIAL
     &END KIND
     &KIND Ga
       BASIS_SET DZVP-MOLOPT-SR-GTH
       POTENTIAL GTH-PBE-q13
       &POTENTIAL
2 1 10
0.4900000000000000E+00 0
3
0.4167772300000000E+00 3  0.1047568975000000E+02 -0.4921768140000000E+01  0.8707055900000000E+00
0.7770178090000000E+01 -0.2248152160000000E+01
0.1784415450000000E+01
0.5696265200000000E+00 2  0.1777985340000000E+01  0.1958597600000000E+00
-0.2317443900000000E+00
0.2381265000000000E+00 1 -0.1624868022000000E+02
       &END POTENTIAL
     &END KIND
     &TOPOLOGY
       NUMBER_OF_ATOMS  212
       MULTIPLE_UNIT_CELL  1 1 1
     &END TOPOLOGY
     &COLVAR
       &DISTANCE
         ATOMS  127 211
       &END DISTANCE
       &PRINT
       &END PRINT
     &END COLVAR
   &END SUBSYS
 &END FORCE_EVAL
