 # Version information for this restart file 
 # current date 2019-07-08 22:47:01.144
 # current working dir /lustre04/scratch/rzk/rzk/GaN-carbene/443-adatoms-both-2x2/09-BondBreaking-CH/02-0401-CH-to-NTop-PES
 # Program compiled at                              Sun Apr  7 00:48:11 EDT 2019
 # Program compiled on                          beluga2.int.ets1.calculquebec.ca
 # Program compiled for                        Beluga-Linux-x86-64-intel-openmpi
 # Source code revision number                                         svn:18619
 &GLOBAL
   PRINT_LEVEL  MEDIUM
   PROJECT_NAME TEST
   RUN_TYPE  GEO_OPT
 &END GLOBAL
 &MOTION
   &GEO_OPT
     MAX_ITER  500
     !STEP_START_VAL  15
   &END GEO_OPT
   &CONSTRAINT
     &COLLECTIVE
       COLVAR  1
       INTERMOLECULAR  T
       TARGET [angstrom] 3.00 !     6.0471236252340574E+00
       &RESTRAINT
         K     2.0000000000000000E+00
       &END RESTRAINT
     &END COLLECTIVE
   &END CONSTRAINT
 &END MOTION
 &FORCE_EVAL
   METHOD  QS
   STRESS_TENSOR  ANALYTICAL
   &DFT
     BASIS_SET_FILE_NAME BASIS_MOLOPT
     POTENTIAL_FILE_NAME GTH_POTENTIALS
     UKS  T
     SURFACE_DIPOLE_CORRECTION  T
     SURF_DIP_DIR  Z
     &SCF
       MAX_SCF  80
       EPS_SCF     5.0000000000000004E-06
       &OT  T
         PRECONDITIONER  FULL_ALL
       &END OT
       &OUTER_SCF  T
         OPTIMIZER  NONE
         EPS_SCF     5.0000000000000004E-06
         MAX_SCF  4
       &END OUTER_SCF
       &PRINT
         &RESTART  OFF
           BACKUP_COPIES  1
           &EACH
             JUST_ENERGY  0
             QS_SCF  0
             MD  20
           &END EACH
         &END RESTART
       &END PRINT
     &END SCF
     &QS
       EPS_DEFAULT     1.0000000000000000E-14
       METHOD  GPW
     &END QS
     &MGRID
       NGRIDS  5
       CUTOFF     1.2000000000000000E+03
     &END MGRID
     &XC
       DENSITY_CUTOFF     1.0000000000000000E-10
       GRADIENT_CUTOFF     1.0000000000000000E-10
       TAU_CUTOFF     1.0000000000000000E-10
       &XC_FUNCTIONAL  NO_SHORTCUT
         &PBE  T
         &END PBE
       &END XC_FUNCTIONAL
       &VDW_POTENTIAL
         POTENTIAL_TYPE  PAIR_POTENTIAL
         &PAIR_POTENTIAL
           R_CUTOFF     1.0000000000000005E+01
           TYPE  DFTD3
           PARAMETER_FILE_NAME dftd3.dat
           REFERENCE_FUNCTIONAL PBE
           EPS_CN     9.9999999999999995E-07
           CALCULATE_C9_TERM  T
           REFERENCE_C9_TERM  T
           LONG_RANGE_CORRECTION  F
           VERBOSE_OUTPUT  F
         &END PAIR_POTENTIAL
       &END VDW_POTENTIAL
     &END XC
   &END DFT
   &SUBSYS
     &CELL
       A     1.2864472766435110E+01    0.0000000000000000E+00    0.0000000000000000E+00
       B    -6.4322363581020028E+00    1.1140960178524475E+01    0.0000000000000000E+00
       C     0.0000000000000000E+00    0.0000000000000000E+00    3.2000000000000000E+01
       MULTIPLE_UNIT_CELL  1 1 1
       &CELL_REF
         A     1.2982353780853531E+01    0.0000000000000000E+00    0.0000000000000000E+00
         B    -6.4911768904267628E+00    1.1243048175136114E+01    0.0000000000000000E+00
         C     0.0000000000000000E+00    0.0000000000000000E+00    3.2000000000000000E+01
         MULTIPLE_UNIT_CELL  1 1 1
       &END CELL_REF
     &END CELL
     &COORD
N    7.4391793638873147E-02    1.9774835983138510E+00    2.4787992907373910E+00
Ga    7.7351973222255135E-02    1.2010488127832251E-02    2.8241498713395168E+00
N    7.8352029932635833E-02   -2.7665168375132446E-02    5.0014857857617487E+00
Ga    7.9930488155723067E-02    1.8006232582093040E+00    5.7944237812451913E+00
N    7.9654344168823776E-02    1.8137603089717371E+00    7.7908752103045567E+00
Ga    7.9170221715319219E-02   -2.9958836377362390E-02    8.4427610778691893E+00
N    7.9414875037635752E-02   -3.1270334478195418E-02    1.0412233049967067E+01
Ga    7.9833140519596973E-02    1.8077722710545450E+00    1.1071562355089100E+01
N    7.9915539450874346E-02    1.7884341532611152E+00    1.3061038122828293E+01
Ga    8.0009576126627110E-02   -3.2853434012155860E-02    1.3876184931634405E+01
N    7.9627147766733963E-02   -3.1874352380947810E-02    1.6064018992381520E+01
Ga    7.9560770965560398E-02    2.0099519559389973E+00    1.6474742218466382E+01
Ga    4.1226587399661271E-02    3.6869794440660155E+00    1.3588677797180300E+00
N   -1.4109864145511919E+00    4.5465311647495747E+00    2.5183804890873338E+00
Ga   -1.6043374198398794E+00    2.7062942918449115E+00    3.2747025619974059E+00
N   -1.5318633042811627E+00    2.7521806586724811E+00    5.2489200459174272E+00
Ga   -1.5610353607705429E+00    4.6172815009932409E+00    5.8080351927671821E+00
N   -1.5392949698097120E+00    4.6167690114285058E+00    7.7974241697728646E+00
Ga   -1.5187297389287586E+00    2.7566584947585340E+00    8.4374822650600638E+00
N   -1.5171742758351408E+00    2.7605483188368969E+00    1.0426429263868878E+01
Ga   -1.5447538487656762E+00    4.6189480328791976E+00    1.1074311599881895E+01
N   -1.5611924775543360E+00    4.6303564154000334E+00    1.3062772146007253E+01
Ga   -1.5184214700737391E+00    2.7599555796586634E+00    1.3620185350013553E+01
N   -1.5486285048813007E+00    2.7429547725259833E+00    1.5578533909346344E+01
Ga   -1.3691851015840397E+00    4.5193780674236432E+00    1.6474997843148685E+01
N    7.9262954231345648E-02    3.6825226650666343E+00    1.7592025006232216E+01
N   -3.1354204072122953E+00    7.5169238674754606E+00    2.5177373580999025E+00
Ga   -3.1143136100284790E+00    5.5160358829909351E+00    2.8489272010265880E+00
N   -3.1372962966221483E+00    5.5394947231920968E+00    5.0152949737214012E+00
Ga   -3.1458238997868118E+00    7.3593321775445464E+00    5.8066835546075879E+00
N   -3.1367880400339962E+00    7.3853184336710482E+00    7.7928784695009341E+00
Ga   -3.1375923133219206E+00    5.5380480524080626E+00    8.4494245910045329E+00
N   -3.1367767545710445E+00    5.5400319194119287E+00    1.0416215590213795E+01
Ga   -3.1383272960326698E+00    7.3787441295202196E+00    1.1074017630244962E+01
N   -3.1366652137839961E+00    7.3598747344078452E+00    1.3059831253719324E+01
Ga   -3.1387439410107154E+00    5.5411669814420250E+00    1.3877599228297418E+01
N   -3.1377687410312345E+00    5.5407178750164103E+00    1.6064414867510735E+01
Ga   -3.1375323600318117E+00    7.5918896043334989E+00    1.6488212817703342E+01
Ga   -3.1523640241102573E+00    9.2537473656934832E+00    1.4647800089253753E+00
N   -4.6420497696194643E+00    1.0121072950541922E+01    2.5064631461046112E+00
Ga   -4.8514179527377737E+00    8.2705868027805298E+00    3.2794225105113317E+00
N   -4.7453703793134672E+00    8.3246886195813108E+00    5.2407660362170061E+00
Ga   -4.7748052615201759E+00    1.0199135594828130E+01    5.7929581024331398E+00
N   -4.7553004283377929E+00    1.0186905940289014E+01    7.7861611220959350E+00
Ga   -4.7374072482421639E+00    8.3320869379797724E+00    8.4368366157593844E+00
N   -4.7337698326035582E+00    8.3315967881087989E+00    1.0424109039094612E+01
Ga   -4.7600958443184629E+00    1.0191071011460121E+01    1.1070843897849501E+01
N   -4.7763378643730618E+00    1.0200752107312208E+01    1.3057851167161134E+01
Ga   -4.7333926698492430E+00    8.3322370854114745E+00    1.3621601817089289E+01
N   -4.7603282167379533E+00    8.3164701764910625E+00    1.5576362542517547E+01
Ga   -4.5764817216756475E+00    1.0084175783250590E+01    1.6488026767587300E+01
N   -3.1326593964615630E+00    9.2564101856540564E+00    1.7635414368523172E+01
N    3.2837169293730257E+00    1.8306746382092984E+00    2.6051922568985328E+00
Ga    3.2857657694063303E+00    8.8855947733990540E-02    3.2761476545113353E+00
N    3.2958885298871827E+00   -3.4031597625865169E-02    5.2388560064832168E+00
Ga    3.2862868391406375E+00    1.8276247464859083E+00    5.8679158975233747E+00
N    3.2950453505875528E+00    1.8245529811580317E+00    7.8402569054710556E+00
Ga    3.2928275043099253E+00   -4.0899949479074979E-02    8.4365454965230757E+00
N    3.2956188462973834E+00   -4.4021955187530729E-02    1.0423704769120567E+01
Ga    3.2963367652331153E+00    1.8260724467837111E+00    1.1025553560224461E+01
N    3.2962418377027221E+00    1.8260960076330950E+00    1.2990772334476995E+01
Ga    3.2954448359352559E+00   -4.2923520373910333E-02    1.3622239464911026E+01
N    3.2938970462964399E+00   -1.2665181740708376E-02    1.5577939027022806E+01
Ga    3.2997994810193867E+00    1.8247420393073672E+00    1.5860279835767377E+01
N    1.5651524957526650E+00    4.5515145601348657E+00    2.5096944272321999E+00
Ga    1.7552346467423467E+00    2.7156922062955968E+00    3.2575977763762225E+00
N    1.6871951968759471E+00    2.7535431942383641E+00    5.2394804018761896E+00
Ga    1.7170423452158041E+00    4.6161317792824423E+00    5.8064913092230741E+00
N    1.6973847398991897E+00    4.6166736101000021E+00    7.7962828072949222E+00
Ga    1.6773019417715629E+00    2.7572927893535883E+00    8.4377717880094352E+00
N    1.6767932078549019E+00    2.7606990144654744E+00    1.0426441824548222E+01
Ga    1.7041172308983166E+00    4.6191227041340088E+00    1.1074076880877309E+01
N    1.7210140075081779E+00    4.6304624805070400E+00    1.3062540373996129E+01
Ga    1.6779621311673401E+00    2.7602797686027229E+00    1.3620502121423957E+01
N    1.7081906792111818E+00    2.7429992691507410E+00    1.5578873530333880E+01
Ga    1.5279491798860640E+00    4.5191977603049747E+00    1.6475143180155722E+01
N    6.9392141113712780E-02    7.3759459547340729E+00    2.6938231270293866E+00
Ga    8.1190739057096825E-02    5.5330169281362833E+00    3.3369402330437397E+00
N    7.7926841529619192E-02    5.5512619585325398E+00    5.2699120365434116E+00
Ga    7.9033598355313692E-02    7.3902364004676340E+00    5.9098198272441334E+00
N    7.9068773535495726E-02    7.3971768613366304E+00    7.8619373012776057E+00
Ga    7.9324430844277358E-02    5.5225737006297964E+00    8.4474635600742047E+00
N    7.9585700641577495E-02    5.5263350458834983E+00    1.0431621691084102E+01
Ga    7.9603788624547506E-02    7.3967426854055001E+00    1.1029886795853972E+01
N    7.9698606975288772E-02    7.3971525275781485E+00    1.2993543010012845E+01
Ga    7.9969729681681437E-02    5.5279722961972197E+00    1.3621510902339461E+01
N    7.9790164377791156E-02    5.5637474352738181E+00    1.5579642469888757E+01
Ga    7.9984763163625655E-02    7.4013295260738419E+00    1.5860632905488934E+01
N   -1.6321066495898269E+00    1.0108879218277549E+01    2.5137417653722518E+00
Ga   -1.5031538535073141E+00    8.2985965221183058E+00    3.3303910197338578E+00
N   -1.5190763210578133E+00    8.3169508230176987E+00    5.2563623794347656E+00
Ga   -1.5064341091176174E+00    1.0202305120909829E+01    5.8067507842156880E+00
N   -1.5194926311081922E+00    1.0185468245028511E+01    7.7922007355051157E+00
Ga   -1.5424771948122102E+00    8.3318983434395690E+00    8.4485582906353702E+00
N   -1.5407237807566867E+00    8.3318484568910200E+00    1.0430291754469396E+01
Ga   -1.5141180383585247E+00    1.0192046767786389E+01    1.1073839239948896E+01
N   -1.4960754194746093E+00    1.0201071559122619E+01    1.3060247589346776E+01
Ga   -1.5398598752286639E+00    8.3318507224395120E+00    1.3622997188366552E+01
N   -1.5140680632250871E+00    8.3151448217408461E+00    1.5578527046086803E+01
Ga   -1.6940271288395097E+00    1.0086827130997957E+01    1.6488681011053671E+01
N    6.5092130668848629E+00    1.9482639810560614E+00    2.5272721204598980E+00
Ga    6.5102649009397364E+00   -2.4692257881727443E-02    2.8648913009660140E+00
N    6.5096889050246975E+00   -3.3639138858523113E-02    5.0133836607541911E+00
Ga    6.5094536024291703E+00    1.8001192820195195E+00    5.8010036022652018E+00
N    6.5108911519238646E+00    1.8129230432170131E+00    7.7914419289284638E+00
Ga    6.5115639075308280E+00   -3.0676161535500429E-02    8.4476234245227158E+00
N    6.5118558156780653E+00   -3.1406638669065894E-02    1.0414298577214899E+01
Ga    6.5119085213851395E+00    1.8092896682095774E+00    1.1071065693787121E+01
N    6.5120468092963630E+00    1.7892690733009644E+00    1.3058691049088557E+01
Ga    6.5121006290794048E+00   -2.9808046911860248E-02    1.3877464485629453E+01
N    6.5120552640943901E+00   -3.0223613405915183E-02    1.6063877730513735E+01
Ga    6.5118955015952169E+00    2.0166159819943652E+00    1.6487340395953659E+01
Ga    6.5122848029293703E+00    3.6805195450625532E+00    1.5088742769237957E+00
N    5.0074399162046532E+00    4.5489065582887420E+00    2.5221627398094375E+00
Ga    4.7919148158919258E+00    2.6960524718418064E+00    3.2886500766957947E+00
N    4.9001515716431747E+00    2.7527731539124556E+00    5.2479415898535295E+00
Ga    4.8780360862577590E+00    4.6248599193053854E+00    5.8004840803486486E+00
N    4.8933456549897496E+00    4.6169426244452465E+00    7.7915737303393948E+00
Ga    4.9114880069563727E+00    2.7586755652551394E+00    8.4363903089534684E+00
N    4.9151386858032913E+00    2.7610678353750604E+00    1.0423920937977048E+01
Ga    4.8891137260779436E+00    4.6200272376760623E+00    1.1070901187683779E+01
N    4.8719934525825632E+00    4.6300977955075346E+00    1.3057971414587461E+01
Ga    4.9149194495416246E+00    2.7614089844429976E+00    1.3621206895396046E+01
N    4.8882986760970155E+00    2.7481104116029687E+00    1.5577307296142251E+01
Ga    5.0723951692616422E+00    4.5153762119703806E+00    1.6486969864120166E+01
N    6.5118154735028613E+00    3.6781827392001412E+00    1.7634631133174313E+01
N    3.2862043390312192E+00    7.5168159548438584E+00    2.5018500171738092E+00
N    3.2941138957275440E+00    5.5402018803665642E+00    5.0170887805706128E+00
Ga    3.2979919055024980E+00    7.3616092517164597E+00    5.8037665097489004E+00
N    3.2928486801205326E+00    7.3864533637824623E+00    7.7906495076907740E+00
Ga    3.2956514539437269E+00    5.5387946660920075E+00    8.4477690919479915E+00
N    3.2957000306744391E+00    5.5405112320754810E+00    1.0415018650744642E+01
Ga    3.2975956134435678E+00    7.3788138611168756E+00    1.1073979071804439E+01
N    3.2962775078886972E+00    7.3598652799347688E+00    1.3059805999268034E+01
Ga    3.2986594090927990E+00    5.5410749971193543E+00    1.3877229006983253E+01
N    3.2971148664458898E+00    5.5407480894009824E+00    1.6064527389720325E+01
Ga    3.2968654712508476E+00    7.5912693604213075E+00    1.6487681677782046E+01
Ga    3.3204201707610292E+00    9.2705208522119182E+00    1.4529229262724770E+00
N    1.7865939012222125E+00    1.0111247861751586E+01    2.5077986969664012E+00
Ga    1.6534180711502049E+00    8.2983256621331378E+00    3.3091421241989658E+00
N    1.6718561594417756E+00    8.3150129790664344E+00    5.2412996950546633E+00
Ga    1.6606337103229296E+00    1.0198026203646187E+01    5.8038117666206448E+00
N    1.6764496297449212E+00    1.0183693831747011E+01    7.7902786534328223E+00
Ga    1.6996827449638896E+00    8.3317616486830328E+00    8.4498153306903081E+00
N    1.6997527091014633E+00    8.3320955357866069E+00    1.0430987455804649E+01
Ga    1.6731746690444580E+00    1.0192305918922450E+01    1.1074326262268654E+01
N    1.6558794165827611E+00    1.0201013249106282E+01    1.3060644658143252E+01
Ga    1.6994146796899987E+00    8.3315559438845508E+00    1.3622806386755524E+01
N    1.6740603430557268E+00    8.3151919030049886E+00    1.5578525907294344E+01
Ga    1.8527903337097607E+00    1.0087127603466257E+01    1.6487928448999025E+01
N    3.2917383732374681E+00    9.2564715655211565E+00    1.7635501175497190E+01
N    9.7335310213368214E+00    1.8285045991711648E+00    2.6143920570705999E+00
Ga    9.7299246743217829E+00    8.6064275514532912E-02    3.2811606647294491E+00
N    9.7229970416062823E+00   -3.5422563321647650E-02    5.2427043921521568E+00
Ga    9.7317475951260395E+00    1.8256007084163728E+00    5.8722394693757112E+00
N    9.7265423582369248E+00    1.8239914442247036E+00    7.8431275795241442E+00
Ga    9.7291429129298646E+00   -4.2318374166149149E-02    8.4358671299142873E+00
N    9.7276145750265428E+00   -4.4541282095103628E-02    1.0423265381282345E+01
Ga    9.7277556014826114E+00    1.8257506013325926E+00    1.1025015183893711E+01
N    9.7276692997343392E+00    1.8259082550487875E+00    1.2990537567801585E+01
Ga    9.7290187440225591E+00   -4.2968890401937250E-02    1.3622237575510825E+01
N    9.7303066278653354E+00   -1.2968867694337602E-02    1.5578143283557086E+01
Ga    9.7245291323737160E+00    1.8245539901249095E+00    1.5860323024817651E+01
N    8.0116909230869755E+00    4.5486804910087395E+00    2.5256252532326560E+00
Ga    8.2255811737631674E+00    2.6953735673081991E+00    3.2923814887157676E+00
N    8.1191856604444457E+00    2.7528260807541054E+00    5.2510239939492074E+00
Ga    8.1430388604695896E+00    4.6253647713146533E+00    5.8000902664896063E+00
N    8.1291456623544391E+00    4.6172797038661244E+00    7.7916883123944869E+00
Ga    8.1102408062734543E+00    2.7591369925138411E+00    8.4369230276674969E+00
N    8.1084485808817508E+00    2.7610012349801316E+00    1.0424351372150356E+01
Ga    8.1342029921625603E+00    4.6197076432051762E+00    1.1071506777888478E+01
N    8.1520709599832539E+00    4.6300952300538185E+00    1.3058463039656241E+01
Ga    8.1091428594339181E+00    2.7614185450868849E+00    1.3621403625221703E+01
N    8.1359298399649695E+00    2.7479168387747488E+00    1.5577589914770693E+01
Ga    7.9515576042539715E+00    4.5154580581325705E+00    1.6486992053880250E+01
N    6.5074813837415579E+00    7.3954106301484623E+00    2.5989420309703157E+00
Ga    6.5087540259000640E+00    5.6559629750153135E+00    3.2881086917740552E+00
N    6.5101396006387890E+00    5.5419019902443303E+00    5.2470946443675226E+00
Ga    6.5087667997903340E+00    7.3979788987404280E+00    5.8716744432774872E+00
N    6.5104809801017982E+00    7.3969996844221617E+00    7.8402166607479709E+00
Ga    6.5112567367401120E+00    5.5285438832190987E+00    8.4372643436676604E+00
N    6.5117614354885589E+00    5.5278024667641548E+00    1.0424681561879147E+01
Ga    6.5116995821032528E+00    7.3970804644406094E+00    1.1026065454919852E+01
N    6.5117347852703906E+00    7.3970547586702402E+00    1.2992396889034630E+01
Ga    6.5120237017590075E+00    5.5267276647337864E+00    1.3621054527731157E+01
N    6.5119535996646922E+00    5.5581936433062822E+00    1.5576279046790976E+01
Ga    6.5120424846037910E+00    7.3970044323358293E+00    1.5853640671961148E+01
N    4.7991657837987738E+00    1.0123057728162038E+01    2.5134729075062459E+00
Ga    4.9991729191732803E+00    8.2677998422247914E+00    3.2773822157494683E+00
N    4.8988409886314601E+00    8.3243458260214762E+00    5.2391869544873177E+00
Ga    4.9310561715429726E+00    1.0198582432857297E+01    5.7921784465549280E+00
N    4.9136158708015829E+00    1.0187167598220913E+01    7.7855956966630639E+00
Ga    4.8941382392612240E+00    8.3324993499736717E+00    8.4359456559255293E+00
N    4.8925441270916510E+00    8.3314863023144063E+00    1.0423487747820635E+01
Ga    4.9189948838950182E+00    1.0190790954585941E+01    1.1070613005254579E+01
N    4.9360474207665970E+00    1.0200704677452345E+01    1.3057789316688545E+01
Ga    4.8926763382022838E+00    8.3324495957368754E+00    1.3621837757747841E+01
N    4.9196466075811145E+00    8.3165572110244153E+00    1.5576819611546641E+01
Ga    4.7365118130044266E+00    1.0084545554201879E+01    1.6487556043106657E+01
O    2.1127506549083613E-02    4.1026985350892851E+00   -4.3650772423653006E-01
H   -1.6844199996333403E-01    5.8827892136254007E+00   -3.4428133225030549E-01
C    1.1401720227558603E+00    3.6498172663929775E+00   -1.2215493374236555E+00
H    2.1054529886588447E+00    3.9562159358999689E+00   -7.8622869855680133E-01
H    1.1376503406830756E+00    2.5539869871619829E+00   -1.3262937241021320E+00
H    1.0490098708343114E+00    4.0935821542654036E+00   -2.2232534736992999E+00
Ga    3.2665434711331001E+00    5.5156210251341138E+00    2.8578121343585763E+00
O   -1.9046357381609216E-01    6.8689772338177155E+00   -2.0116672257165116E-01
H    1.8960693852387755E-02    7.3071126584573234E+00    1.6570678666981409E+00
C    9.7428202586554480E-01    7.4192358155256883E+00   -8.2714967863564870E-01
H    9.1884957492943375E-01    8.5113908364274398E+00   -7.1661856714034278E-01
H    1.9050503828811198E+00    7.0645986391977669E+00   -3.4915286620259089E-01
H    1.0171537938001027E+00    7.1840338134112116E+00   -1.9014403186886273E+00
     &END COORD
     &KIND C
       BASIS_SET DZVP-MOLOPT-SR-GTH-q4
       POTENTIAL GTH-PBE-q4
       &POTENTIAL
2 2
0.3384712400000000E+00 2 -0.8803673979999999E+01  0.1339210850000000E+01
2
0.3025757500000000E+00 1  0.9622486650000001E+01
0.2915069400000000E+00 0
       &END POTENTIAL
     &END KIND
     &KIND O
       BASIS_SET DZVP-MOLOPT-SR-GTH-q6
       POTENTIAL GTH-PBE-q6
       &POTENTIAL
2 4
0.2445543000000000E+00 2 -0.1666721480000000E+02  0.2487311320000000E+01
2
0.2209559200000000E+00 1  0.1833745811000000E+02
0.2113324700000000E+00 0
       &END POTENTIAL
     &END KIND
     &KIND H
       BASIS_SET DZVP-MOLOPT-SR-GTH-q1
       POTENTIAL GTH-PBE-q1
       &POTENTIAL
1
0.2000000000000000E+00 2 -0.4178900440000000E+01  0.7244633100000000E+00
0
       &END POTENTIAL
     &END KIND
     &KIND N
       BASIS_SET DZVP-MOLOPT-SR-GTH
       POTENTIAL GTH-PBE-q5
       &POTENTIAL
2 3
0.2837905100000000E+00 2 -0.1241522559000000E+02  0.1868095920000000E+01
2
0.2554050000000000E+00 1  0.1363026257000000E+02
0.2454945300000000E+00 0
       &END POTENTIAL
     &END KIND
     &KIND Ga
       BASIS_SET DZVP-MOLOPT-SR-GTH
       POTENTIAL GTH-PBE-q13
       &POTENTIAL
2 1 10
0.4900000000000000E+00 0
3
0.4167772300000000E+00 3  0.1047568975000000E+02 -0.4921768140000000E+01  0.8707055900000000E+00
0.7770178090000000E+01 -0.2248152160000000E+01
0.1784415450000000E+01
0.5696265200000000E+00 2  0.1777985340000000E+01  0.1958597600000000E+00
-0.2317443900000000E+00
0.2381265000000000E+00 1 -0.1624868022000000E+02
       &END POTENTIAL
     &END KIND
     &TOPOLOGY
       NUMBER_OF_ATOMS  212
       MULTIPLE_UNIT_CELL  1 1 1
     &END TOPOLOGY
     &COLVAR
       &DISTANCE
         ATOMS  127 211
       &END DISTANCE
       &PRINT
       &END PRINT
     &END COLVAR
   &END SUBSYS
 &END FORCE_EVAL
