 # Version information for this restart file 
 # current date 2019-07-10 06:50:27.638
 # current working dir /lustre04/scratch/rzk/rzk/GaN-carbene/443-adatoms-both-2x2/09-BondBreaking-CH/02-0401-CH-to-NTop-PES
 # Program compiled at                              Sun Apr  7 00:48:11 EDT 2019
 # Program compiled on                          beluga2.int.ets1.calculquebec.ca
 # Program compiled for                        Beluga-Linux-x86-64-intel-openmpi
 # Source code revision number                                         svn:18619
 &GLOBAL
   PRINT_LEVEL  MEDIUM
   PROJECT_NAME TEST
   RUN_TYPE  GEO_OPT
 &END GLOBAL
 &MOTION
   &GEO_OPT
     MAX_ITER  500
     !STEP_START_VAL  194
   &END GEO_OPT
   &CONSTRAINT
     &COLLECTIVE
       COLVAR  1
       INTERMOLECULAR  T
       TARGET [angstrom] 2.40 !     4.9132879455026721E+00
       &RESTRAINT
         K     2.0000000000000000E+00
       &END RESTRAINT
     &END COLLECTIVE
   &END CONSTRAINT
 &END MOTION
 &FORCE_EVAL
   METHOD  QS
   STRESS_TENSOR  ANALYTICAL
   &DFT
     BASIS_SET_FILE_NAME BASIS_MOLOPT
     POTENTIAL_FILE_NAME GTH_POTENTIALS
     UKS  T
     SURFACE_DIPOLE_CORRECTION  T
     SURF_DIP_DIR  Z
     &SCF
       MAX_SCF  80
       EPS_SCF     5.0000000000000004E-06
       &OT  T
         PRECONDITIONER  FULL_ALL
       &END OT
       &OUTER_SCF  T
         OPTIMIZER  NONE
         EPS_SCF     5.0000000000000004E-06
         MAX_SCF  4
       &END OUTER_SCF
       &PRINT
         &RESTART  OFF
           BACKUP_COPIES  1
           &EACH
             JUST_ENERGY  0
             QS_SCF  0
             MD  20
           &END EACH
         &END RESTART
       &END PRINT
     &END SCF
     &QS
       EPS_DEFAULT     1.0000000000000000E-14
       METHOD  GPW
     &END QS
     &MGRID
       NGRIDS  5
       CUTOFF     1.2000000000000000E+03
     &END MGRID
     &XC
       DENSITY_CUTOFF     1.0000000000000000E-10
       GRADIENT_CUTOFF     1.0000000000000000E-10
       TAU_CUTOFF     1.0000000000000000E-10
       &XC_FUNCTIONAL  NO_SHORTCUT
         &PBE  T
         &END PBE
       &END XC_FUNCTIONAL
       &VDW_POTENTIAL
         POTENTIAL_TYPE  PAIR_POTENTIAL
         &PAIR_POTENTIAL
           R_CUTOFF     1.0000000000000009E+01
           TYPE  DFTD3
           PARAMETER_FILE_NAME dftd3.dat
           REFERENCE_FUNCTIONAL PBE
           EPS_CN     9.9999999999999995E-07
           CALCULATE_C9_TERM  T
           REFERENCE_C9_TERM  T
           LONG_RANGE_CORRECTION  F
           VERBOSE_OUTPUT  F
         &END PAIR_POTENTIAL
       &END VDW_POTENTIAL
     &END XC
   &END DFT
   &SUBSYS
     &CELL
       A     1.2864472766435110E+01    0.0000000000000000E+00    0.0000000000000000E+00
       B    -6.4322363581020028E+00    1.1140960178524477E+01    0.0000000000000000E+00
       C     0.0000000000000000E+00    0.0000000000000000E+00    3.2000000000000000E+01
       MULTIPLE_UNIT_CELL  1 1 1
       &CELL_REF
         A     1.2982353780853531E+01    0.0000000000000000E+00    0.0000000000000000E+00
         B    -6.4911768904267628E+00    1.1243048175136114E+01    0.0000000000000000E+00
         C     0.0000000000000000E+00    0.0000000000000000E+00    3.2000000000000000E+01
         MULTIPLE_UNIT_CELL  1 1 1
       &END CELL_REF
     &END CELL
     &COORD
N    4.9869095005577249E-02    1.9959359707720843E+00    2.4863689751658562E+00
Ga    6.9004732164349949E-02    2.7447165020790459E-02    2.8214565928247728E+00
N    5.1792956995599049E-02   -4.7087854735812801E-03    5.0082967118343271E+00
Ga    5.5363509079703374E-02    1.8209944451784636E+00    5.7905661447216294E+00
N    5.4980610988866044E-02    1.8361513799404574E+00    7.7930853801999662E+00
Ga    5.7228993472908107E-02   -9.3185441847449379E-03    8.4353417455817628E+00
N    5.6794229063331876E-02   -9.4393493615495261E-03    1.0411715094124823E+01
Ga    5.6906489797436760E-02    1.8307677628875314E+00    1.1061219357075331E+01
N    5.8220160647420152E-02    1.8116395408642652E+00    1.3056628500843459E+01
Ga    5.8504186842080745E-02   -8.5665955796706151E-03    1.3858573591094732E+01
N    5.9089382970599930E-02   -7.0884325973258862E-03    1.6063116653708342E+01
Ga    5.9242777117566044E-02    2.0375398205865949E+00    1.6476095357726955E+01
Ga    1.9080749346180211E-02    3.6966239915022676E+00    1.3585830781328920E+00
N   -1.4341117674207799E+00    4.5668412997105685E+00    2.5125387459310442E+00
Ga   -1.6263454286805386E+00    2.7302805357774789E+00    3.2748950253893834E+00
N   -1.5562922288332430E+00    2.7749681206375363E+00    5.2522547104226449E+00
Ga   -1.5864115429843224E+00    4.6418571388686729E+00    5.8017898221629691E+00
N   -1.5627116717276812E+00    4.6390865327925503E+00    7.7977156471703877E+00
Ga   -1.5427270737170569E+00    2.7793841368158341E+00    8.4309817232615600E+00
N   -1.5410533051353681E+00    2.7827816415959563E+00    1.0426410409039537E+01
Ga   -1.5674198134493786E+00    4.6410489182936496E+00    1.1064649489779427E+01
N   -1.5816749852859906E+00    4.6514338319208601E+00    1.3059560046923613E+01
Ga   -1.5383955965239238E+00    2.7821875827961851E+00    1.3614427270768516E+01
N   -1.5640799845397493E+00    2.7661752751056183E+00    1.5577629244037238E+01
Ga   -1.3907003799449056E+00    4.5418401243543958E+00    1.6476047999118730E+01
N    5.9306012353749459E-02    3.7126305229583321E+00    1.7611280917719228E+01
N   -3.1606219213106339E+00    7.5340460761240049E+00    2.5018633523722520E+00
Ga   -3.1368152014927082E+00    5.5519906872102718E+00    2.8332116495701238E+00
N   -3.1612035635409677E+00    5.5589690890840258E+00    5.0176908025536742E+00
Ga   -3.1684947094443534E+00    7.3842396838691142E+00    5.7895765436385460E+00
N   -3.1600671787349359E+00    7.4080585759282229E+00    7.7875156114508517E+00
Ga   -3.1614306871763449E+00    5.5624730861876657E+00    8.4408882508819829E+00
N   -3.1600319518978996E+00    5.5626824148330600E+00    1.0414919963366680E+01
Ga   -3.1613081050574561E+00    7.4021574917358475E+00    1.1064305608047187E+01
N   -3.1582838712078485E+00    7.3822719662472265E+00    1.3058217218661593E+01
Ga   -3.1580783172009186E+00    5.5620045847616568E+00    1.3860546091776865E+01
N   -3.1568267454262546E+00    5.5632634125170206E+00    1.6063959045961077E+01
Ga   -3.1573186730369471E+00    7.6092158597374802E+00    1.6476309018603555E+01
Ga   -3.1831151907171611E+00    9.2826702022936836E+00    1.3491328757743557E+00
N   -4.6695668796201319E+00    1.0145016867240352E+01    2.5001223371733299E+00
Ga   -4.8561719532300769E+00    8.3026337972121542E+00    3.2523751595603292E+00
N   -4.7690589274112538E+00    8.3464399062298007E+00    5.2311092017710568E+00
Ga   -4.7963689955853495E+00    1.0219567777582730E+01    5.7781643795452693E+00
N   -4.7786882916578088E+00    1.0208737329311123E+01    7.7829034461808915E+00
Ga   -4.7597184300422857E+00    8.3545352081496009E+00    8.4255688926197383E+00
N   -4.7565648716984077E+00    8.3535748128665333E+00    1.0421808651706339E+01
Ga   -4.7819078757390674E+00    1.0212256610075006E+01    1.1061394980036642E+01
N   -4.7972521524089347E+00    1.0221562524677308E+01    1.3056809229898626E+01
Ga   -4.7552365503579885E+00    8.3529403482483868E+00    1.3614322040682865E+01
N   -4.7804227032706335E+00    8.3363786144152847E+00    1.5576691126462201E+01
Ga   -4.6063085066057328E+00    1.0112382771459210E+01    1.6475184074010865E+01
N   -3.1576127174599420E+00    9.2841929667615588E+00    1.7610295624211798E+01
N    3.2584212237847523E+00    1.8491591570923138E+00    2.6128936709988659E+00
Ga    3.2625677580208445E+00    8.9802489398320445E-02    3.2516576611305936E+00
N    3.2720509068082602E+00   -1.1876305088861092E-02    5.2311159140343051E+00
Ga    3.2624329486720689E+00    1.8432612198427492E+00    5.8575287987985858E+00
N    3.2713008166938478E+00    1.8461049033927053E+00    7.8381522386714764E+00
Ga    3.2690751080497331E+00   -2.0157142274055830E-02    8.4254617564102983E+00
N    3.2726575473424586E+00   -2.1563323954550156E-02    1.0422135644226048E+01
Ga    3.2726571817404673E+00    1.8477791360291447E+00    1.1018169731818263E+01
N    3.2744946520665383E+00    1.8480412097830468E+00    1.2991409640769229E+01
Ga    3.2740704328264258E+00   -2.1280015176802846E-02    1.3614091608998763E+01
N    3.2754896381580667E+00    1.0434258548442932E-02    1.5577629669519382E+01
Ga    3.2756800185623729E+00    1.8481354212812031E+00    1.5856693556983959E+01
N    1.5429699968515984E+00    4.5730792523581343E+00    2.5125974577192984E+00
Ga    1.7312296158528828E+00    2.7339224329802772E+00    3.2583239399813713E+00
N    1.6625310261291559E+00    2.7757137677283983E+00    5.2431259612224359E+00
Ga    1.6908305923252696E+00    4.6385976105455011E+00    5.7988652260321825E+00
N    1.6728245784748126E+00    4.6394039251620791E+00    7.7948888173034865E+00
Ga    1.6542143763714223E+00    2.7788121345423735E+00    8.4282045323777428E+00
N    1.6540048444388336E+00    2.7829016346325219E+00    1.0424413464154435E+01
Ga    1.6798765672473388E+00    4.6404477017260337E+00    1.1064452103397452E+01
N    1.6976721836537241E+00    4.6512697329526302E+00    1.3058872875090575E+01
Ga    1.6552371304239795E+00    2.7817705850938106E+00    1.3613824992568366E+01
N    1.6826483575616127E+00    2.7662225652721100E+00    1.5576710357535301E+01
Ga    1.5083944548644475E+00    4.5412714691518374E+00    1.6476082212901591E+01
N    4.2730175110170715E-02    7.4007266559968965E+00    2.6817040534152086E+00
Ga    5.4220325905826157E-02    5.5588001460682444E+00    3.3262543157335811E+00
N    5.3256904136210648E-02    5.5743291246875772E+00    5.2645141117110965E+00
Ga    4.7955134738744430E-02    7.4149637390931904E+00    5.8979597546280713E+00
N    5.4232111995102132E-02    7.4197738868834149E+00    7.8572398652740718E+00
Ga    5.4882645761251493E-02    5.5463195095272626E+00    8.4383147439621577E+00
N    5.6365835042857464E-02    5.5491333855893217E+00    1.0429863252407463E+01
Ga    5.5629265270606458E-02    7.4185935464051820E+00    1.1023021218029426E+01
N    5.7908260073061310E-02    7.4186546128836897E+00    1.2994241739450407E+01
Ga    5.8039182641942424E-02    5.5484345334775282E+00    1.3615612604121303E+01
N    5.9341918123089941E-02    5.5806282726205811E+00    1.5579368771134192E+01
Ga    5.9082146543845152E-02    7.4185300550517290E+00    1.5857607636024285E+01
N   -1.6534869823815039E+00    1.0137395241989420E+01    2.5035688199244266E+00
Ga   -1.5446101573624806E+00    8.3322707117453039E+00    3.2962048683628211E+00
N   -1.5424282802313645E+00    8.3392499491818981E+00    5.2385554941246602E+00
Ga   -1.5323256327740167E+00    1.0222559541054325E+01    5.7909480684828356E+00
N   -1.5438516435387368E+00    1.0206661618996222E+01    7.7874554116445536E+00
Ga   -1.5676226386232623E+00    8.3544552914968246E+00    8.4372859126177424E+00
N   -1.5634222013149435E+00    8.3536951403811095E+00    1.0428085175300536E+01
Ga   -1.5381329031006166E+00    1.0213362565804285E+01    1.1064123672143978E+01
N   -1.5185851846584693E+00    1.0221833724119172E+01    1.3058172866295015E+01
Ga   -1.5612842255224126E+00    8.3528974020400213E+00    1.3615216266831853E+01
N   -1.5336420012262866E+00    8.3365746886103285E+00    1.5577342626372161E+01
Ga   -1.7082446346703046E+00    1.0112229611990804E+01    1.6475435021762845E+01
N    6.4857285759915264E+00    1.9709618487067426E+00    2.5284817076019817E+00
Ga    6.4724699743326273E+00   -8.0407134035323843E-03    2.8548406580315344E+00
N    6.4881888569888950E+00   -9.0519279155452364E-03    5.0177116478897847E+00
Ga    6.4850692645904644E+00    1.8208340652630224E+00    5.7977044152235147E+00
N    6.4870943102585228E+00    1.8355757087598312E+00    7.7938909357263757E+00
Ga    6.4853949596755296E+00   -1.0146544706951035E-02    8.4389352163359330E+00
N    6.4882064933341823E+00   -9.6145540720166470E-03    1.0412975125247787E+01
Ga    6.4881860282428487E+00    1.8314740311280011E+00    1.1062081837370927E+01
N    6.4900717995164294E+00    1.8114518321826252E+00    1.3056954460653943E+01
Ga    6.4901354659237320E+00   -8.4616946393663451E-03    1.3860138515768297E+01
N    6.4915069847635527E+00   -7.2521700938820511E-03    1.6063569160011813E+01
Ga    6.4915359451573309E+00    2.0348944836156595E+00    1.6473336388548514E+01
Ga    6.4859848689801716E+00    3.7024765412111758E+00    1.5184384243993181E+00
N    4.9834263794712337E+00    4.5708804516336734E+00    2.5265652624204193E+00
Ga    4.7657060320476150E+00    2.7133444808798566E+00    3.2889676082282153E+00
N    4.8764140167922605E+00    2.7751397479305133E+00    5.2500766217915480E+00
Ga    4.8549861826355860E+00    4.6463670108526749E+00    5.7954164825931747E+00
N    4.8693539720490771E+00    4.6391286163506260E+00    7.7920182265095361E+00
Ga    4.8866175908750398E+00    2.7801308640450348E+00    8.4283041744541460E+00
N    4.8912479176288066E+00    2.7829017027618383E+00    1.0423777223408244E+01
Ga    4.8667694629187146E+00    4.6412377385983410E+00    1.1062838624904613E+01
N    4.8511937333586168E+00    4.6511860760293935E+00    1.3057963729316784E+01
Ga    4.8935204823729785E+00    2.7821554365229710E+00    1.3613575904874999E+01
N    4.8689484914411842E+00    2.7667506270257629E+00    1.5577047730175712E+01
Ga    5.0393768760178430E+00    4.5436054249587707E+00    1.6472971085673102E+01
N    6.4919434244598859E+00    3.7138419169489909E+00    1.7606476760654225E+01
N    3.2605028922916137E+00    7.5402726588975764E+00    2.4927113966744048E+00
N    3.2704173446449980E+00    5.5631022543504969E+00    5.0173272343945063E+00
Ga    3.2737277611944577E+00    7.3843910929038605E+00    5.7987490321646948E+00
N    3.2686662142280762E+00    7.4081002957953315E+00    7.7911696909501282E+00
Ga    3.2714106163035779E+00    5.5602698466847134E+00    8.4415220811843579E+00
N    3.2726356043218985E+00    5.5622040193622961E+00    1.0414664421155797E+01
Ga    3.2743609272066929E+00    7.4014388968363054E+00    1.1064821865934784E+01
N    3.2745217956984503E+00    7.3820790282471691E+00    1.3058425491895413E+01
Ga    3.2746286185200453E+00    5.5617031884736949E+00    1.3859545218480486E+01
N    3.2751518041473591E+00    5.5635453147129139E+00    1.6064601965436353E+01
Ga    3.2757692720333411E+00    7.6060360350962002E+00    1.6474436684317091E+01
Ga    3.2967310076786345E+00    9.3044977705549403E+00    1.4808657653179023E+00
N    1.7642991233342946E+00    1.0136052324004195E+01    2.5143978853688287E+00
Ga    1.6231093962558891E+00    8.3178329731357987E+00    3.3085464763476051E+00
N    1.6476982605947270E+00    8.3370118218910587E+00    5.2413055630293091E+00
Ga    1.6337787874119305E+00    1.0221139701887321E+01    5.8001529442432114E+00
N    1.6530128950859733E+00    1.0205187017526200E+01    7.7922900490184528E+00
Ga    1.6744990122664605E+00    8.3528806812130938E+00    8.4415832835690612E+00
N    1.6756992104214159E+00    8.3533446885728360E+00    1.0430321937191245E+01
Ga    1.6496454944367460E+00    1.0213667061164234E+01    1.1065148473413908E+01
N    1.6342167747001139E+00    1.0221959552464812E+01    1.3059152346931839E+01
Ga    1.6773614940423278E+00    8.3528922589788852E+00    1.3615065166359365E+01
N    1.6523887980430911E+00    8.3367240151653537E+00    1.5577493754070058E+01
Ga    1.8232905099549437E+00    1.0114325966654372E+01    1.6473640329023620E+01
N    3.2763786739764305E+00    9.2847515202985722E+00    1.7606261007504415E+01
N    9.7099100756822274E+00    1.8521163915982199E+00    2.6205842514227524E+00
Ga    9.7070143294176674E+00    1.1280043487599892E-01    3.2901100239159939E+00
N    9.6993946763187129E+00   -1.3060875035163571E-02    5.2500161555725411E+00
Ga    9.7069004557133223E+00    1.8492144939204527E+00    5.8700122442874747E+00
N    9.7021882259751937E+00    1.8462077129461392E+00    7.8454655297010492E+00
Ga    9.7050367104303916E+00   -2.0495042730632927E-02    8.4307298071018142E+00
N    9.7043434619338864E+00   -2.1734232124166423E-02    1.0425387996764519E+01
Ga    9.7050484710730185E+00    1.8482697660234899E+00    1.1020237522868882E+01
N    9.7060510361185592E+00    1.8479159320781888E+00    1.2993266986521457E+01
Ga    9.7067140830857230E+00   -2.1855410298579923E-02    1.3615061332133811E+01
N    9.7075966393896156E+00    1.0085839193998828E-02    1.5578750938563360E+01
Ga    9.7076609620015812E+00    1.8483433293591125E+00    1.5858058769533381E+01
N    7.9881278243595517E+00    4.5703637660148759E+00    2.5242503943637269E+00
Ga    8.2009289855396634E+00    2.7199001101858937E+00    3.2926787691277930E+00
N    8.0947630624195739E+00    2.7754005968047104E+00    5.2538515524592864E+00
Ga    8.1212047757448325E+00    4.6487545613572676E+00    5.7962430079407241E+00
N    8.1049392221963643E+00    4.6388593824350579E+00    7.7938708327729502E+00
Ga    8.0858934794071740E+00    2.7813465360861018E+00    8.4317984837525710E+00
N    8.0857102255380155E+00    2.7828176330608967E+00    1.0426317754991906E+01
Ga    8.1109648575866409E+00    4.6418095565863604E+00    1.1063227832118958E+01
N    8.1293942472815761E+00    4.6511535458829396E+00    1.3058752715365118E+01
Ga    8.0866776614698157E+00    2.7822951146327712E+00    1.3614432969003468E+01
N    8.1141247421969780E+00    2.7662649563501112E+00    1.5577944823551015E+01
Ga    7.9452340394409067E+00    4.5441879669396448E+00    1.6472558792965298E+01
N    6.4867311571212571E+00    7.4195295612819825E+00    2.6045881087357698E+00
Ga    6.4896489264724968E+00    5.6814242963878607E+00    3.2872363991308347E+00
N    6.4867215531148501E+00    5.5631561459703240E+00    5.2485021180726070E+00
Ga    6.4906947186514810E+00    7.4223970179377980E+00    5.8609626120707414E+00
N    6.4873683176800192E+00    7.4190171879182110E+00    7.8377427534340391E+00
Ga    6.4876839558610255E+00    5.5516766999195770E+00    8.4295748406983577E+00
N    6.4886363678365644E+00    5.5498621177660734E+00    1.0424743286673936E+01
Ga    6.4897961391344587E+00    7.4193211711185301E+00    1.1018838137698305E+01
N    6.4904664744682705E+00    7.4183795334494773E+00    1.2991789561848023E+01
Ga    6.4904342991505901E+00    5.5486122385344441E+00    1.3614745688666572E+01
N    6.4913466327169909E+00    5.5800786076858069E+00    1.5579075499967020E+01
Ga    6.4919597109576257E+00    7.4181671167243195E+00    1.5857884476588250E+01
N    4.7759308691669133E+00    1.0147795614052940E+01    2.5206320681866328E+00
Ga    4.9782382389405502E+00    8.2876252517558999E+00    3.2777847330940113E+00
N    4.8744625046751446E+00    8.3465727797579916E+00    5.2414799187301480E+00
Ga    4.9093203345312242E+00    1.0220833569148041E+01    5.7900915201707468E+00
N    4.8890524450975992E+00    1.0208547212109952E+01    7.7892068459916857E+00
Ga    4.8715839863260895E+00    8.3531578002385043E+00    8.4287385430206392E+00
N    4.8698101547708568E+00    8.3528985523959722E+00    1.0423343528275803E+01
Ga    4.8960602233376314E+00    1.0212275242587369E+01    1.1061585821291503E+01
N    4.9137054980323391E+00    1.0221449589262360E+01    1.3057311394336210E+01
Ga    4.8719366470816974E+00    8.3528445344643441E+00    1.3614525523398330E+01
N    4.8987677531802980E+00    8.3361870682797914E+00    1.5576941801309829E+01
Ga    4.7290735672940478E+00    1.0114567297351597E+01    1.6473104386052416E+01
O    2.0999220273572775E-02    4.0411389199081293E+00   -4.4846205974250863E-01
H    4.4236690307302151E-02    5.8280103366707863E+00   -3.8102383297882986E-01
C    1.0670833102235300E+00    3.4293857562883567E+00   -1.2282892854645879E+00
H    2.0704599737920892E+00    3.6740927992617616E+00   -8.4322238745287681E-01
H    9.6164435388341551E-01    2.3341027238326557E+00   -1.2520192409242734E+00
H    9.8288046707131638E-01    3.8081452609254498E+00   -2.2566852819867531E+00
Ga    3.2438078434561435E+00    5.5342802956025183E+00    2.8570988176127661E+00
O    1.7583857454040908E-01    6.8051296814717128E+00   -2.4491641878227971E-01
H    3.2392912737222897E-02    7.3304121873340238E+00    1.6443796952467074E+00
C    1.5393311906682832E+00    7.0866682140471635E+00   -5.8493557104055272E-01
H    1.6204026746040068E+00    8.1748312237005152E+00   -7.3608285425344822E-01
H    2.2357989411875598E+00    6.7936279841382818E+00    2.2203728029954592E-01
H    1.8418249438009719E+00    6.5961306704032028E+00   -1.5212760411126924E+00
     &END COORD
     &KIND C
       BASIS_SET DZVP-MOLOPT-SR-GTH-q4
       POTENTIAL GTH-PBE-q4
       &POTENTIAL
2 2
0.3384712400000000E+00 2 -0.8803673979999999E+01  0.1339210850000000E+01
2
0.3025757500000000E+00 1  0.9622486650000001E+01
0.2915069400000000E+00 0
       &END POTENTIAL
     &END KIND
     &KIND O
       BASIS_SET DZVP-MOLOPT-SR-GTH-q6
       POTENTIAL GTH-PBE-q6
       &POTENTIAL
2 4
0.2445543000000000E+00 2 -0.1666721480000000E+02  0.2487311320000000E+01
2
0.2209559200000000E+00 1  0.1833745811000000E+02
0.2113324700000000E+00 0
       &END POTENTIAL
     &END KIND
     &KIND H
       BASIS_SET DZVP-MOLOPT-SR-GTH-q1
       POTENTIAL GTH-PBE-q1
       &POTENTIAL
1
0.2000000000000000E+00 2 -0.4178900440000000E+01  0.7244633100000000E+00
0
       &END POTENTIAL
     &END KIND
     &KIND N
       BASIS_SET DZVP-MOLOPT-SR-GTH
       POTENTIAL GTH-PBE-q5
       &POTENTIAL
2 3
0.2837905100000000E+00 2 -0.1241522559000000E+02  0.1868095920000000E+01
2
0.2554050000000000E+00 1  0.1363026257000000E+02
0.2454945300000000E+00 0
       &END POTENTIAL
     &END KIND
     &KIND Ga
       BASIS_SET DZVP-MOLOPT-SR-GTH
       POTENTIAL GTH-PBE-q13
       &POTENTIAL
2 1 10
0.4900000000000000E+00 0
3
0.4167772300000000E+00 3  0.1047568975000000E+02 -0.4921768140000000E+01  0.8707055900000000E+00
0.7770178090000000E+01 -0.2248152160000000E+01
0.1784415450000000E+01
0.5696265200000000E+00 2  0.1777985340000000E+01  0.1958597600000000E+00
-0.2317443900000000E+00
0.2381265000000000E+00 1 -0.1624868022000000E+02
       &END POTENTIAL
     &END KIND
     &TOPOLOGY
       NUMBER_OF_ATOMS  212
       MULTIPLE_UNIT_CELL  1 1 1
     &END TOPOLOGY
     &COLVAR
       &DISTANCE
         ATOMS  127 211
       &END DISTANCE
       &PRINT
       &END PRINT
     &END COLVAR
   &END SUBSYS
 &END FORCE_EVAL
