 # Version information for this restart file 
 # current date 2019-07-10 14:49:52.891
 # current working dir /lustre04/scratch/rzk/rzk/GaN-carbene/443-adatoms-both-2x2/09-BondBreaking-CH/02-0401-CH-to-NTop-PES
 # Program compiled at                              Sun Apr  7 00:48:11 EDT 2019
 # Program compiled on                          beluga2.int.ets1.calculquebec.ca
 # Program compiled for                        Beluga-Linux-x86-64-intel-openmpi
 # Source code revision number                                         svn:18619
 &GLOBAL
   PRINT_LEVEL  MEDIUM
   PROJECT_NAME TEST
   RUN_TYPE  GEO_OPT
 &END GLOBAL
 &MOTION
   &GEO_OPT
     MAX_ITER  500
     STEP_START_VAL  68
   &END GEO_OPT
   &CONSTRAINT
     &COLLECTIVE
       COLVAR  1
       INTERMOLECULAR  T
       TARGET     4.5353427189255431E+00
       &RESTRAINT
         K     2.0000000000000000E+00
       &END RESTRAINT
     &END COLLECTIVE
     &COLVAR_RESTART
           4.5353427189255431E+00
     &END COLVAR_RESTART
   &END CONSTRAINT
 &END MOTION
 &FORCE_EVAL
   METHOD  QS
   STRESS_TENSOR  ANALYTICAL
   &DFT
     BASIS_SET_FILE_NAME BASIS_MOLOPT
     POTENTIAL_FILE_NAME GTH_POTENTIALS
     UKS  T
     SURFACE_DIPOLE_CORRECTION  T
     SURF_DIP_DIR  Z
     &SCF
       MAX_SCF  80
       EPS_SCF     5.0000000000000004E-06
       &OT  T
         PRECONDITIONER  FULL_ALL
       &END OT
       &OUTER_SCF  T
         OPTIMIZER  NONE
         EPS_SCF     5.0000000000000004E-06
         MAX_SCF  4
       &END OUTER_SCF
       &PRINT
         &RESTART  OFF
           BACKUP_COPIES  1
           &EACH
             JUST_ENERGY  0
             QS_SCF  0
             MD  20
           &END EACH
         &END RESTART
       &END PRINT
     &END SCF
     &QS
       EPS_DEFAULT     1.0000000000000000E-14
       METHOD  GPW
     &END QS
     &MGRID
       NGRIDS  5
       CUTOFF     1.2000000000000000E+03
     &END MGRID
     &XC
       DENSITY_CUTOFF     1.0000000000000000E-10
       GRADIENT_CUTOFF     1.0000000000000000E-10
       TAU_CUTOFF     1.0000000000000000E-10
       &XC_FUNCTIONAL  NO_SHORTCUT
         &PBE  T
         &END PBE
       &END XC_FUNCTIONAL
       &VDW_POTENTIAL
         POTENTIAL_TYPE  PAIR_POTENTIAL
         &PAIR_POTENTIAL
           R_CUTOFF     1.0000000000000009E+01
           TYPE  DFTD3
           PARAMETER_FILE_NAME dftd3.dat
           REFERENCE_FUNCTIONAL PBE
           EPS_CN     9.9999999999999995E-07
           CALCULATE_C9_TERM  T
           REFERENCE_C9_TERM  T
           LONG_RANGE_CORRECTION  F
           VERBOSE_OUTPUT  F
         &END PAIR_POTENTIAL
       &END VDW_POTENTIAL
     &END XC
   &END DFT
   &SUBSYS
     &CELL
       A     1.2864472766435110E+01    0.0000000000000000E+00    0.0000000000000000E+00
       B    -6.4322363581020028E+00    1.1140960178524477E+01    0.0000000000000000E+00
       C     0.0000000000000000E+00    0.0000000000000000E+00    3.2000000000000000E+01
       MULTIPLE_UNIT_CELL  1 1 1
       &CELL_REF
         A     1.2982353780853531E+01    0.0000000000000000E+00    0.0000000000000000E+00
         B    -6.4911768904267628E+00    1.1243048175136114E+01    0.0000000000000000E+00
         C     0.0000000000000000E+00    0.0000000000000000E+00    3.2000000000000000E+01
         MULTIPLE_UNIT_CELL  1 1 1
       &END CELL_REF
     &END CELL
     &COORD
N    4.9322001507352296E-02    1.9946787849424452E+00    2.4910830257853180E+00
Ga    5.2163461779090946E-02    2.8064150530822556E-02    2.8260813940617378E+00
N    5.1417755795649923E-02   -6.9854687523435389E-03    5.0111181427735465E+00
Ga    5.2249482374320630E-02    1.8188822383738354E+00    5.7952144983924079E+00
N    5.0802567446807743E-02    1.8325502820480346E+00    7.7961983651674345E+00
Ga    5.0589323487489748E-02   -1.2907021587139236E-02    8.4391559687406534E+00
N    5.0277073689187574E-02   -1.3827720908712544E-02    1.0414442146215043E+01
Ga    5.0304288840773134E-02    1.8261731673279007E+00    1.1065838598616743E+01
N    5.0901719856082994E-02    1.8066459376746382E+00    1.3060138606456174E+01
Ga    5.0251906715847665E-02   -1.3462165798567865E-02    1.3865364201915765E+01
N    4.9798612005323463E-02   -1.3138975162123328E-02    1.6065389806148961E+01
Ga    5.0751380895149599E-02    2.0292804792303110E+00    1.6479273213163331E+01
Ga    1.9477018012951229E-02    3.6941900722945138E+00    1.3620814497534666E+00
N   -1.4345335397510834E+00    4.5663728841418285E+00    2.5156611937913498E+00
Ga   -1.6289109748966544E+00    2.7277025377247885E+00    3.2781050867894614E+00
N   -1.5586538717489844E+00    2.7733852537768535E+00    5.2549449131849633E+00
Ga   -1.5878193950281632E+00    4.6394317698281480E+00    5.8049676702497033E+00
N   -1.5671328506181808E+00    4.6361188264653341E+00    7.7997005998113682E+00
Ga   -1.5475780476259047E+00    2.7757121066242143E+00    8.4339366458478349E+00
N   -1.5474744787008372E+00    2.7780053568861063E+00    1.0428741255039869E+01
Ga   -1.5734737434815289E+00    4.6361813482273559E+00    1.1068165735567312E+01
N   -1.5890794275968365E+00    4.6470529355149859E+00    1.3061209849843916E+01
Ga   -1.5462327520538890E+00    2.7778218691406655E+00    1.3617320291681459E+01
N   -1.5752695613553049E+00    2.7624741999517677E+00    1.5578939076885257E+01
Ga   -1.3954658908760460E+00    4.5356072804657286E+00    1.6479742311749106E+01
N    4.4493932306629867E-02    3.6958286179518360E+00    1.7612205875179018E+01
N   -3.1611403375762688E+00    7.5370966470812348E+00    2.5121740122665632E+00
Ga   -3.1389008738923883E+00    5.5413650564740706E+00    2.8406918523533027E+00
N   -3.1637170632733880E+00    5.5587769713485233E+00    5.0176493006754894E+00
Ga   -3.1713700202639563E+00    7.3808633902815703E+00    5.7984747254763507E+00
N   -3.1643539528151745E+00    7.4044640953650482E+00    7.7920567525050117E+00
Ga   -3.1658973031878239E+00    5.5578531230730146E+00    8.4449422119657100E+00
N   -3.1660282806549547E+00    5.5583651292559173E+00    1.0417556669402250E+01
Ga   -3.1677347319425748E+00    7.3974194858852318E+00    1.1068651340783944E+01
N   -3.1655448105673991E+00    7.3776493494453677E+00    1.3061505421651969E+01
Ga   -3.1649984863962199E+00    5.5568312251878922E+00    1.3865406440713199E+01
N   -3.1653732401445254E+00    5.5574633545454173E+00    1.6066165786497805E+01
Ga   -3.1651949514885782E+00    7.5989283096972624E+00    1.6478120123705647E+01
Ga   -3.1824223086198673E+00    9.2818700906899565E+00    1.4314396603965687E+00
N   -4.6695136620430739E+00    1.0143390916450960E+01    2.5088025596763788E+00
Ga   -4.8736052690330380E+00    8.2953296241325329E+00    3.2707467738894258E+00
N   -4.7719544411158337E+00    8.3447067190929278E+00    5.2393461226392937E+00
Ga   -4.8016620555587570E+00    1.0218369728836310E+01    5.7893595887804397E+00
N   -4.7830411472485750E+00    1.0205197474607827E+01    7.7889977990944113E+00
Ga   -4.7656264076707640E+00    8.3500259729510855E+00    8.4307766253795755E+00
N   -4.7635079730929073E+00    8.3485677960920928E+00    1.0425501046560472E+01
Ga   -4.7893198760067310E+00    1.0207645004967807E+01    1.1065800433238886E+01
N   -4.8049746006527130E+00    1.0217488498959716E+01    1.3059991370866797E+01
Ga   -4.7625562711700251E+00    8.3490872320994978E+00    1.3617893665528239E+01
N   -4.7905040261066887E+00    8.3325121793343548E+00    1.5580185645979823E+01
Ga   -4.6154516297296331E+00    1.0108925885985791E+01    1.6477473395860954E+01
N   -3.1731788025226266E+00    9.2684346337706280E+00    1.7609324013931960E+01
N    3.2571982879394250E+00    1.8502579784206623E+00    2.6138377312022754E+00
Ga    3.2606954078936554E+00    1.0241558552742323E-01    3.2723327902510264E+00
N    3.2690465626655798E+00   -1.4427063574427865E-02    5.2411818806008919E+00
Ga    3.2600008127673816E+00    1.8449237186718728E+00    5.8657904989887042E+00
N    3.2671952071080819E+00    1.8427363069291960E+00    7.8434755580018942E+00
Ga    3.2646514717323276E+00   -2.3351108071942184E-02    8.4323287441777115E+00
N    3.2663796164578107E+00   -2.6556759584320435E-02    1.0426375713724791E+01
Ga    3.2660446299782468E+00    1.8430546713945561E+00    1.1022547704746321E+01
N    3.2674633911348629E+00    1.8434691518482842E+00    1.2994232509862233E+01
Ga    3.2670491112470827E+00   -2.5667829377879672E-02    1.3617517401952579E+01
N    3.2691735966627617E+00    6.5559927361621478E-03    1.5578800134569155E+01
Ga    3.2675245004131765E+00    1.8444057887434919E+00    1.5859993405630060E+01
N    1.5415936541054989E+00    4.5698824791747299E+00    2.5153133242038557E+00
Ga    1.7295000195166617E+00    2.7348537256326590E+00    3.2638442065581308E+00
N    1.6602415118492801E+00    2.7732130037403708E+00    5.2473742331564406E+00
Ga    1.6894738663287037E+00    4.6371646533668702E+00    5.8030732344669751E+00
N    1.6685701534064972E+00    4.6357220015512848E+00    7.7983132725621198E+00
Ga    1.6491754446053846E+00    2.7755979987545154E+00    8.4332564602287068E+00
N    1.6478546737347226E+00    2.7782249784760902E+00    1.0427840161325870E+01
Ga    1.6741336646172122E+00    4.6362801483366036E+00    1.1067469152673480E+01
N    1.6907627246449264E+00    4.6470415131763891E+00    1.3060315756458506E+01
Ga    1.6481441448398011E+00    2.7781593501300512E+00    1.3617622766886242E+01
N    1.6773684571634022E+00    2.7640275652882242E+00    1.5578382830193322E+01
Ga    1.4915217998064083E+00    4.5325503400602445E+00    1.6480451073903122E+01
N    4.6664756439306850E-02    7.3996276450599359E+00    2.6851096434113453E+00
Ga    5.6880678926095822E-02    5.5573600062452337E+00    3.3300530054582174E+00
N    5.0987323941328516E-02    5.5721737775199891E+00    5.2674680702116143E+00
Ga    5.2493829385985562E-02    7.4125690730552742E+00    5.9010703931135042E+00
N    5.0978478327003779E-02    7.4165020253866238E+00    7.8595690966472507E+00
Ga    5.0879552816400692E-02    5.5430499015488328E+00    8.4418124187235701E+00
N    5.0333124314896747E-02    5.5442769168759796E+00    1.0431843015990465E+01
Ga    4.9860698823227606E-02    7.4133895895469140E+00    1.1026271353588289E+01
N    5.0663558143828689E-02    7.4144888513849674E+00    1.2996035903423728E+01
Ga    5.1198052953143107E-02    5.5444501256919789E+00    1.3618409942020691E+01
N    5.2291352958857458E-02    5.5772779880328915E+00    1.5578759460146681E+01
Ga    5.1598448004591499E-02    7.4144720812862941E+00    1.5860048691282442E+01
N   -1.6575551636258650E+00    1.0133907059361160E+01    2.5127546170443180E+00
Ga   -1.5303318823903380E+00    8.3237245335262333E+00    3.3146910470004514E+00
N   -1.5446913020880464E+00    8.3370618102515373E+00    5.2485403680491736E+00
Ga   -1.5328412539712493E+00    1.0221297079579680E+01    5.8012392603694947E+00
N   -1.5481084026340766E+00    1.0203157281611658E+01    7.7936232869523376E+00
Ga   -1.5705086565306803E+00    8.3499896465990666E+00    8.4425897487333756E+00
N   -1.5694622938933578E+00    8.3490229862791914E+00    1.0431305098390240E+01
Ga   -1.5435151809967129E+00    1.0208948845505502E+01    1.1067719280282935E+01
N   -1.5255814500184317E+00    1.0217671472905275E+01    1.3060327671812818E+01
Ga   -1.5682620922339094E+00    8.3492277660448444E+00    1.3618578746431023E+01
N   -1.5396361302502062E+00    8.3348316455348002E+00    1.5579734581149319E+01
Ga   -1.7226732805664779E+00    1.0104508817261372E+01    1.6478669620042176E+01
N    6.4833722655674144E+00    1.9701336740194599E+00    2.5304649558354551E+00
Ga    6.4846787473678251E+00   -7.0899925171404796E-03    2.8589572870637716E+00
N    6.4826953303240034E+00   -1.1512537553514283E-02    5.0199415853683274E+00
Ga    6.4822222848729121E+00    1.8188479435156224E+00    5.8008655695816378E+00
N    6.4825903623624752E+00    1.8320800693850483E+00    7.7963983663553220E+00
Ga    6.4829207393781330E+00   -1.3337078711044142E-02    8.4430873587583353E+00
N    6.4827373847482415E+00   -1.3674277241017552E-02    1.0416056535173771E+01
Ga    6.4822994845672701E+00    1.8272171703829900E+00    1.1066115753040103E+01
N    6.4829983725707869E+00    1.8065677274537923E+00    1.3060701239190806E+01
Ga    6.4828391191811452E+00   -1.4177961544337076E-02    1.3864537474277661E+01
N    6.4822441295358155E+00   -1.4086421735644086E-02    1.6066383093727257E+01
Ga    6.4837465397950123E+00    2.0213218937773880E+00    1.6473220151778584E+01
Ga    6.4860890856469098E+00    3.7011295490774541E+00    1.5146886085399296E+00
N    4.9820268387304356E+00    4.5692011450113146E+00    2.5259189899082690E+00
Ga    4.7659203858714934E+00    2.7158326709172225E+00    3.2909318973627433E+00
N    4.8732877878154541E+00    2.7730365587077555E+00    5.2525930756283481E+00
Ga    4.8506674864565573E+00    4.6450614833315234E+00    5.7987188511166785E+00
N    4.8650471252077478E+00    4.6354913950015080E+00    7.7948343414696240E+00
Ga    4.8829304803185893E+00    2.7771226482469920E+00    8.4335479813876901E+00
N    4.8850601265427400E+00    2.7783982232200475E+00    1.0427792108963214E+01
Ga    4.8600912536768091E+00    4.6372888931936389E+00    1.1066166248169505E+01
N    4.8433178205493101E+00    4.6471742333532795E+00    1.3060741570412508E+01
Ga    4.8862655279335332E+00    2.7783246657629381E+00    1.3616691008414879E+01
N    4.8608089965419463E+00    2.7638877551508596E+00    1.5581446127387311E+01
Ga    5.0278318440776220E+00    4.5414479317060961E+00    1.6473117294774426E+01
N    6.4758843760129334E+00    3.6973161453478371E+00    1.7606982380799913E+01
N    3.2562562574625731E+00    7.5365215421331744E+00    2.4725955358838263E+00
N    3.2674633515239067E+00    5.5602110425507769E+00    5.0204986904062068E+00
Ga    3.2709160130470725E+00    7.3829960430933168E+00    5.7983478113938896E+00
N    3.2643557841192763E+00    7.4050269445562726E+00    7.7916986005924338E+00
Ga    3.2670756799556813E+00    5.5578802774249167E+00    8.4438415407787311E+00
N    3.2667936702076390E+00    5.5584381012327073E+00    1.0416886043355147E+01
Ga    3.2681760165969642E+00    7.3972699123503407E+00    1.1068787827269087E+01
N    3.2672120614112656E+00    7.3777195122788113E+00    1.3061529709618910E+01
Ga    3.2659270158962470E+00    5.5569803523348051E+00    1.3865045050013794E+01
N    3.2651164938420201E+00    5.5575932552207368E+00    1.6066410244082316E+01
Ga    3.2673244131893822E+00    7.5984694814844955E+00    1.6478719015653382E+01
Ga    3.2999287784327160E+00    9.3212676719618646E+00    1.4219451015925204E+00
N    1.7618367707708733E+00    1.0138790734347630E+01    2.5128277462247954E+00
Ga    1.6375895052974534E+00    8.3222597315721316E+00    3.2973067718578219E+00
N    1.6462001233511139E+00    8.3353120652388011E+00    5.2365445479725592E+00
Ga    1.6323386951576759E+00    1.0217509236909743E+01    5.7995398944326118E+00
N    1.6483363551513510E+00    1.0201625988499853E+01    7.7925697871573858E+00
Ga    1.6711625832703900E+00    8.3498747997250682E+00    8.4444427698005562E+00
N    1.6697451520457458E+00    8.3489027470218762E+00    1.0432635560996561E+01
Ga    1.6441941276177694E+00    1.0208994989846010E+01    1.1068441747801803E+01
N    1.6273420445894484E+00    1.0217648723631751E+01    1.3061184898054039E+01
Ga    1.6702368312105156E+00    8.3490046372918645E+00    1.3618676316793708E+01
N    1.6433350192686171E+00    8.3342544802840557E+00    1.5581151483342298E+01
Ga    1.8187484738828150E+00    1.0108190604091224E+01    1.6478653057581965E+01
N    3.2613138710306084E+00    9.2678116333290870E+00    1.7615603734349431E+01
N    9.7085463055778636E+00    1.8495036246732490E+00    2.6243789797505883E+00
Ga    9.7040359510153760E+00    1.0383186502184956E-01    3.2852394029989118E+00
N    9.6962730434536120E+00   -1.4580066007615839E-02    5.2495120369681727E+00
Ga    9.7041112993394218E+00    1.8453505832349584E+00    5.8708841157835518E+00
N    9.6979518505069517E+00    1.8429914836739067E+00    7.8468233572340980E+00
Ga    9.7005652262419488E+00   -2.4447451937279957E-02    8.4310606308293199E+00
N    9.6983925621267169E+00   -2.6961710013264202E-02    1.0425750356502576E+01
Ga    9.6981777890248893E+00    1.8426474743406409E+00    1.1022056130436638E+01
N    9.6982068825198002E+00    1.8431715037789609E+00    1.2994290049098590E+01
Ga    9.6997918366648133E+00   -2.5842184229121368E-02    1.3617585992426475E+01
N    9.7003968593028418E+00    5.1609034569749645E-03    1.5578840207195846E+01
Ga    9.6992592343541659E+00    1.8437253996199845E+00    1.5858609581872598E+01
N    7.9864984974156101E+00    4.5698845574330154E+00    2.5273909477320529E+00
Ga    8.1993333463111426E+00    2.7168506536719237E+00    3.2946454419693683E+00
N    8.0916753107442165E+00    2.7733688856912311E+00    5.2556448069704835E+00
Ga    8.1168400597382142E+00    4.6461635616248005E+00    5.7982488458554116E+00
N    8.1008498466493961E+00    4.6359492477383517E+00    7.7950324910287394E+00
Ga    8.0817514141983047E+00    2.7777171924928563E+00    8.4341616592059641E+00
N    8.0793487629721490E+00    2.7786829000311295E+00    1.0428062126543580E+01
Ga    8.1048694565115156E+00    4.6374758853054576E+00    1.1066204377461540E+01
N    8.1226469623428077E+00    4.6471245922861382E+00    1.3060249829117813E+01
Ga    8.0801260607093379E+00    2.7784725476055110E+00    1.3616404629784464E+01
N    8.1066343145372173E+00    2.7653317094166296E+00    1.5579829503485142E+01
Ga    7.9330009990923953E+00    4.5377520867856083E+00    1.6473310438484173E+01
N    6.4801156437128231E+00    7.4175866336471667E+00    2.6043619293496914E+00
Ga    6.4834706725208955E+00    5.6788353210357370E+00    3.2883582586981377E+00
N    6.4833485044193155E+00    5.5610955140824565E+00    5.2496680737722876E+00
Ga    6.4809527548248305E+00    7.4198046467419818E+00    5.8630653394916825E+00
N    6.4822272437846165E+00    7.4157346968119251E+00    7.8392736353490502E+00
Ga    6.4827999487019285E+00    5.5483020852813825E+00    8.4323734769572454E+00
N    6.4824571629347458E+00    5.5450743713620296E+00    1.0426616902934253E+01
Ga    6.4819557605437010E+00    7.4139861824572089E+00    1.1021936185134281E+01
N    6.4826951361115963E+00    7.4139424317555642E+00    1.2994131609780728E+01
Ga    6.4833470630498145E+00    5.5446508058836406E+00    1.3616627991005808E+01
N    6.4848911050261302E+00    5.5745084683982986E+00    1.5579985567107153E+01
Ga    6.4828238214828628E+00    7.4142898333002600E+00    1.5859559953959357E+01
N    4.7754235916320509E+00    1.0148460748862405E+01    2.5215112134993749E+00
Ga    4.9599160384718397E+00    8.2869975082105132E+00    3.2630705980917063E+00
N    4.8707062988291909E+00    8.3435682054315468E+00    5.2351936829478509E+00
Ga    4.9043559663386365E+00    1.0216297230715890E+01    5.7881977271842633E+00
N    4.8848552728715067E+00    1.0204711770908563E+01    7.7885303512396327E+00
Ga    4.8659922084535854E+00    8.3500585399588250E+00    8.4308141254090891E+00
N    4.8633940031012148E+00    8.3486737960522799E+00    1.0425145194038329E+01
Ga    4.8895696383861660E+00    1.0207700349873823E+01    1.1065205631051315E+01
N    4.9063365988305625E+00    1.0217337842361431E+01    1.3059065120982778E+01
Ga    4.8643294768274634E+00    8.3494346252253386E+00    1.3618010664045375E+01
N    4.8916741472721545E+00    8.3350922515012815E+00    1.5579449943434437E+01
Ga    4.7118187080018741E+00    1.0105906144182791E+01    1.6478506664789133E+01
O    3.5034783252065514E-02    4.0333740624101226E+00   -4.4645532182050524E-01
H    5.1338290489920377E-02    5.8211746797638746E+00   -3.6329560655703491E-01
C    1.1132708198569690E+00    3.4513856989523850E+00   -1.2044231006716448E+00
H    2.1010165666346126E+00    3.7013373978200761E+00   -7.8356805391333684E-01
H    1.0229591098257123E+00    2.3553501953518654E+00   -1.2513402504309450E+00
H    1.0545454039788213E+00    3.8489132518404672E+00   -2.2276872949908291E+00
Ga    3.2423540907305801E+00    5.5389270510610240E+00    2.8568774463363118E+00
O    1.9696826781318980E-01    6.7952680956064047E+00   -2.2358769618550939E-01
H    2.6112550946409664E-02    7.3270855738578646E+00    1.6472380344308817E+00
C    1.5868486599261618E+00    7.0429944425143329E+00   -4.8275705391822354E-01
H    1.6866981620168557E+00    8.1005026758778840E+00   -7.7802678670785108E-01
H    2.2121986299494503E+00    6.8736890612486752E+00    4.1486217196274167E-01
H    1.9673129400123610E+00    6.4277253577803961E+00   -1.3105176504502760E+00
     &END COORD
     &KIND C
       BASIS_SET DZVP-MOLOPT-SR-GTH-q4
       POTENTIAL GTH-PBE-q4
       &POTENTIAL
2 2
0.3384712400000000E+00 2 -0.8803673979999999E+01  0.1339210850000000E+01
2
0.3025757500000000E+00 1  0.9622486650000001E+01
0.2915069400000000E+00 0
       &END POTENTIAL
     &END KIND
     &KIND O
       BASIS_SET DZVP-MOLOPT-SR-GTH-q6
       POTENTIAL GTH-PBE-q6
       &POTENTIAL
2 4
0.2445543000000000E+00 2 -0.1666721480000000E+02  0.2487311320000000E+01
2
0.2209559200000000E+00 1  0.1833745811000000E+02
0.2113324700000000E+00 0
       &END POTENTIAL
     &END KIND
     &KIND H
       BASIS_SET DZVP-MOLOPT-SR-GTH-q1
       POTENTIAL GTH-PBE-q1
       &POTENTIAL
1
0.2000000000000000E+00 2 -0.4178900440000000E+01  0.7244633100000000E+00
0
       &END POTENTIAL
     &END KIND
     &KIND N
       BASIS_SET DZVP-MOLOPT-SR-GTH
       POTENTIAL GTH-PBE-q5
       &POTENTIAL
2 3
0.2837905100000000E+00 2 -0.1241522559000000E+02  0.1868095920000000E+01
2
0.2554050000000000E+00 1  0.1363026257000000E+02
0.2454945300000000E+00 0
       &END POTENTIAL
     &END KIND
     &KIND Ga
       BASIS_SET DZVP-MOLOPT-SR-GTH
       POTENTIAL GTH-PBE-q13
       &POTENTIAL
2 1 10
0.4900000000000000E+00 0
3
0.4167772300000000E+00 3  0.1047568975000000E+02 -0.4921768140000000E+01  0.8707055900000000E+00
0.7770178090000000E+01 -0.2248152160000000E+01
0.1784415450000000E+01
0.5696265200000000E+00 2  0.1777985340000000E+01  0.1958597600000000E+00
-0.2317443900000000E+00
0.2381265000000000E+00 1 -0.1624868022000000E+02
       &END POTENTIAL
     &END KIND
     &TOPOLOGY
       NUMBER_OF_ATOMS  212
       MULTIPLE_UNIT_CELL  1 1 1
     &END TOPOLOGY
     &COLVAR
       &DISTANCE
         ATOMS  127 211
       &END DISTANCE
       &PRINT
       &END PRINT
     &END COLVAR
   &END SUBSYS
 &END FORCE_EVAL
