 # Version information for this restart file 
 # current date 2019-07-11 13:06:03.610
 # current working dir /lustre04/scratch/rzk/rzk/GaN-carbene/443-adatoms-both-2x2/09-BondBreaking-CH/02-0401-CH-to-NTop-PES
 # Program compiled at                              Sun Apr  7 00:48:11 EDT 2019
 # Program compiled on                          beluga2.int.ets1.calculquebec.ca
 # Program compiled for                        Beluga-Linux-x86-64-intel-openmpi
 # Source code revision number                                         svn:18619
 &GLOBAL
   PRINT_LEVEL  MEDIUM
   PROJECT_NAME TEST
   RUN_TYPE  GEO_OPT
 &END GLOBAL
 &MOTION
   &GEO_OPT
     MAX_ITER  500
     STEP_START_VAL  25
   &END GEO_OPT
   &CONSTRAINT
     &COLLECTIVE
       COLVAR  1
       INTERMOLECULAR  T
       TARGET     3.7794522657712859E+00
       &RESTRAINT
         K     2.0000000000000000E+00
       &END RESTRAINT
     &END COLLECTIVE
     &COLVAR_RESTART
           3.7794522657712859E+00
     &END COLVAR_RESTART
   &END CONSTRAINT
 &END MOTION
 &FORCE_EVAL
   METHOD  QS
   STRESS_TENSOR  ANALYTICAL
   &DFT
     BASIS_SET_FILE_NAME BASIS_MOLOPT
     POTENTIAL_FILE_NAME GTH_POTENTIALS
     UKS  T
     SURFACE_DIPOLE_CORRECTION  T
     SURF_DIP_DIR  Z
     &SCF
       MAX_SCF  80
       EPS_SCF     5.0000000000000004E-06
       &OT  T
         PRECONDITIONER  FULL_ALL
       &END OT
       &OUTER_SCF  T
         OPTIMIZER  NONE
         EPS_SCF     5.0000000000000004E-06
         MAX_SCF  4
       &END OUTER_SCF
       &PRINT
         &RESTART  OFF
           BACKUP_COPIES  1
           &EACH
             JUST_ENERGY  0
             QS_SCF  0
             MD  20
           &END EACH
         &END RESTART
       &END PRINT
     &END SCF
     &QS
       EPS_DEFAULT     1.0000000000000000E-14
       METHOD  GPW
     &END QS
     &MGRID
       NGRIDS  5
       CUTOFF     1.2000000000000000E+03
     &END MGRID
     &XC
       DENSITY_CUTOFF     1.0000000000000000E-10
       GRADIENT_CUTOFF     1.0000000000000000E-10
       TAU_CUTOFF     1.0000000000000000E-10
       &XC_FUNCTIONAL  NO_SHORTCUT
         &PBE  T
         &END PBE
       &END XC_FUNCTIONAL
       &VDW_POTENTIAL
         POTENTIAL_TYPE  PAIR_POTENTIAL
         &PAIR_POTENTIAL
           R_CUTOFF     1.0000000000000009E+01
           TYPE  DFTD3
           PARAMETER_FILE_NAME dftd3.dat
           REFERENCE_FUNCTIONAL PBE
           EPS_CN     9.9999999999999995E-07
           CALCULATE_C9_TERM  T
           REFERENCE_C9_TERM  T
           LONG_RANGE_CORRECTION  F
           VERBOSE_OUTPUT  F
         &END PAIR_POTENTIAL
       &END VDW_POTENTIAL
     &END XC
   &END DFT
   &SUBSYS
     &CELL
       A     1.2864472766435110E+01    0.0000000000000000E+00    0.0000000000000000E+00
       B    -6.4322363581020028E+00    1.1140960178524477E+01    0.0000000000000000E+00
       C     0.0000000000000000E+00    0.0000000000000000E+00    3.2000000000000000E+01
       MULTIPLE_UNIT_CELL  1 1 1
       &CELL_REF
         A     1.2982353780853531E+01    0.0000000000000000E+00    0.0000000000000000E+00
         B    -6.4911768904267628E+00    1.1243048175136114E+01    0.0000000000000000E+00
         C     0.0000000000000000E+00    0.0000000000000000E+00    3.2000000000000000E+01
         MULTIPLE_UNIT_CELL  1 1 1
       &END CELL_REF
     &END CELL
     &COORD
N    3.9155725588719173E-02    1.9921967810588945E+00    2.4856113521944438E+00
Ga    4.3748365366396438E-02    2.9960022055650889E-02    2.8323977036789536E+00
N    4.1010574593011093E-02   -1.1830990849289003E-02    5.0037007645734004E+00
Ga    4.2022367401807502E-02    1.8159539550497485E+00    5.7956108265302975E+00
N    4.1295787150007444E-02    1.8273879471780052E+00    7.7911452310055536E+00
Ga    4.1264553550842555E-02   -1.7459905565112448E-02    8.4403694334618233E+00
N    4.1340545566525846E-02   -1.8900339151376129E-02    1.0410432256219126E+01
Ga    4.1785403676555047E-02    1.8208883245045353E+00    1.1068144184949738E+01
N    4.2096466592376279E-02    1.8006935566182407E+00    1.3056649096055139E+01
Ga    4.2194950315236048E-02   -1.8309860840105222E-02    1.3871136194780233E+01
N    4.2497965092810674E-02   -1.6494779622218604E-02    1.6062303604764864E+01
Ga    4.2520435538146502E-02    2.0372441268223924E+00    1.6482911374455394E+01
Ga    1.4193519744916285E-02    3.6950265528021751E+00    1.3574615438410542E+00
N   -1.4426691492929711E+00    4.5645969331316163E+00    2.5077995144782870E+00
Ga   -1.6385226017914893E+00    2.7271731073219745E+00    3.2737277186321099E+00
N   -1.5686671649250938E+00    2.7692068562888572E+00    5.2485331056635740E+00
Ga   -1.5973864308395849E+00    4.6344234896404206E+00    5.8066604592493398E+00
N   -1.5765640216346517E+00    4.6316204082031600E+00    7.7959377897022524E+00
Ga   -1.5561544285448374E+00    2.7715371833880038E+00    8.4369551072894975E+00
N   -1.5552793953616530E+00    2.7739564123947797E+00    1.0424789725172769E+01
Ga   -1.5826581757305103E+00    4.6321332936765636E+00    1.1071780739233526E+01
N   -1.5986185605274559E+00    4.6420090676167325E+00    1.3059368487888671E+01
Ga   -1.5556905886826022E+00    2.7716006855650717E+00    1.3618217780260970E+01
N   -1.5842889270599083E+00    2.7538730321743414E+00    1.5573656270968005E+01
Ga   -1.3985872826163508E+00    4.5271648912751852E+00    1.6481542667544211E+01
N    4.2480962670484894E-02    3.7008270737674671E+00    1.7610164715956586E+01
N   -3.1743588102292626E+00    7.5348493222720139E+00    2.5091977922820314E+00
Ga   -3.1502499308321634E+00    5.5346838154711770E+00    2.8427273917336318E+00
N   -3.1730417746619128E+00    5.5545060478680597E+00    5.0116155552945099E+00
Ga   -3.1821111113165044E+00    7.3754224245568141E+00    5.8001509346079949E+00
N   -3.1740706259249674E+00    7.3995363359572073E+00    7.7878990837316318E+00
Ga   -3.1754356253161236E+00    5.5529459158383396E+00    8.4464905134933410E+00
N   -3.1748088393333438E+00    5.5535475120743003E+00    1.0413955517050887E+01
Ga   -3.1765471303181507E+00    7.3921280827755984E+00    1.1070985302507214E+01
N   -3.1745497524247099E+00    7.3721563143698541E+00    1.3058211027837823E+01
Ga   -3.1743508550568347E+00    5.5518828510939722E+00    1.3875703365712486E+01
N   -3.1738693745509376E+00    5.5524630284453274E+00    1.6061372576398195E+01
Ga   -3.1739133032274558E+00    7.5980920783555721E+00    1.6479885833017359E+01
Ga   -3.1955480286481568E+00    9.2810730231109186E+00    1.4505465386406311E+00
N   -4.6814669776463154E+00    1.0139977005611618E+01    2.5095261255679437E+00
Ga   -4.8913104453695206E+00    8.2883552553186579E+00    3.2727994149682176E+00
N   -4.7831732423087123E+00    8.3395818947505589E+00    5.2356617647595929E+00
Ga   -4.8114873468881907E+00    1.0213171252487092E+01    5.7904930398018770E+00
N   -4.7930045576541493E+00    1.0200629536261577E+01    7.7840475801395170E+00
Ga   -4.7751526749316522E+00    8.3452900188004939E+00    8.4319266378398492E+00
N   -4.7716929976762641E+00    8.3441935334456563E+00    1.0420260307997877E+01
Ga   -4.7980399588078058E+00    1.0202904559529356E+01    1.1067605865644992E+01
N   -4.8138501006599412E+00    1.0212233841995625E+01    1.3056411233603024E+01
Ga   -4.7711800625428573E+00    8.3436435302365020E+00    1.3619127872433911E+01
N   -4.7961026112181333E+00    8.3289751448473268E+00    1.5576972162033023E+01
Ga   -4.6218742869988461E+00    1.0102186952311312E+01    1.6480086590662470E+01
N   -3.1740332200657844E+00    9.2723055591373296E+00    1.7623909187006767E+01
N    3.2470727725657671E+00    1.8472136816663294E+00    2.6070154415491413E+00
Ga    3.2495063115619831E+00    1.0418030620272738E-01    3.2772074989743394E+00
N    3.2588762745479181E+00   -1.8587354211741403E-02    5.2395708732206039E+00
Ga    3.2504772642497377E+00    1.8420669996619949E+00    5.8692123100240501E+00
N    3.2579035991869247E+00    1.8384209623478491E+00    7.8408742026984877E+00
Ga    3.2552415792568787E+00   -2.7854938929775166E-02    8.4338381188046743E+00
N    3.2575348196373928E+00   -3.1756719692836562E-02    1.0421701671299665E+01
Ga    3.2574837567519701E+00    1.8384418039889818E+00    1.1022662603521864E+01
N    3.2581910093357282E+00    1.8372190882899813E+00    1.2987503132833355E+01
Ga    3.2578287089676978E+00   -3.0729268020198906E-02    1.3618848070870136E+01
N    3.2583932213426086E+00   -2.2136070890057375E-03    1.5577458773511008E+01
Ga    3.2587475523418279E+00    1.8365224214555367E+00    1.5859106723957805E+01
N    1.5318381254193452E+00    4.5655215998107659E+00    2.5184572639186529E+00
Ga    1.7192389600064577E+00    2.7298709744088612E+00    3.2637423752052648E+00
N    1.6507769337415987E+00    2.7681472731373358E+00    5.2439447095174030E+00
Ga    1.6785625489530571E+00    4.6317783927021408E+00    5.8044872876884304E+00
N    1.6594839898705869E+00    4.6313686403711793E+00    7.7940558085288512E+00
Ga    1.6395154751854246E+00    2.7711594544575981E+00    8.4354547970808564E+00
N    1.6385388021011194E+00    2.7739340452039354E+00    1.0423826429185956E+01
Ga    1.6657837771778912E+00    4.6317993180783406E+00    1.1071539947196726E+01
N    1.6826870484521952E+00    4.6418940898159704E+00    1.3059180141195894E+01
Ga    1.6397888611737641E+00    2.7716308035124047E+00    1.3618448443099068E+01
N    1.6692684406727396E+00    2.7538599297586983E+00    1.5573767639092008E+01
Ga    1.4836368852167272E+00    4.5271295717708036E+00    1.6481737429331453E+01
N    3.3900706218300367E-02    7.3957926037081245E+00    2.6850685811291441E+00
Ga    4.6333387973896571E-02    5.5523206097587261E+00    3.3313740086775532E+00
N    4.0933870319088857E-02    5.5678965410661938E+00    5.2654857104866934E+00
Ga    4.1803554703516328E-02    7.4070560265546934E+00    5.9036504111484627E+00
N    4.1538029487313756E-02    7.4122180691903292E+00    7.8567697196144692E+00
Ga    4.1613812448500202E-02    5.5382129985955197E+00    8.4442895283564798E+00
N    4.1633646966410427E-02    5.5398914610368859E+00    1.0428978547306709E+01
Ga    4.1017210282183199E-02    7.4095413002269757E+00    1.1027520765307386E+01
N    4.1798600829384025E-02    7.4101210719407016E+00    1.2992114405568071E+01
Ga    4.2115205754931655E-02    5.5391988658400271E+00    1.3619791531541489E+01
N    4.2557469192109183E-02    5.5762751585865411E+00    1.5575578510663536E+01
Ga    4.2247077525013069E-02    7.4111627408309007E+00    1.5856613942863016E+01
N   -1.6699782004669914E+00    1.0130059032367214E+01    2.5128321164906482E+00
Ga   -1.5414575580257663E+00    8.3176878051943195E+00    3.3172189787389490E+00
N   -1.5552697957902448E+00    8.3324002113518301E+00    5.2464996771820607E+00
Ga   -1.5431943969582196E+00    1.0216462718671947E+01    5.8032011478635406E+00
N   -1.5571479966265152E+00    1.0198760040584727E+01    7.7894065069555145E+00
Ga   -1.5803300504109281E+00    8.3455157723463138E+00    8.4444183190407784E+00
N   -1.5787404968403191E+00    8.3445977370591411E+00    1.0427428399970742E+01
Ga   -1.5522802598625862E+00    1.0204353799542961E+01    1.1070590493847307E+01
N   -1.5342796435323358E+00    1.0212748879566728E+01    1.3058174976847397E+01
Ga   -1.5779187765672011E+00    8.3437722283769080E+00    1.3619902327339600E+01
N   -1.5516049032788140E+00    8.3289884334311477E+00    1.5577528837567662E+01
Ga   -1.7260004243808436E+00    1.0102181390557252E+01    1.6480238657113183E+01
N    6.4729888284287371E+00    1.9667272063276739E+00    2.5265969026031327E+00
Ga    6.4699490448376844E+00   -4.9282944232134484E-03    2.8642484857503985E+00
N    6.4730158191127307E+00   -1.7109960505399875E-02    5.0135602854524670E+00
Ga    6.4730593612924192E+00    1.8158427529582102E+00    5.8010918732017691E+00
N    6.4735075210162867E+00    1.8268627232007957E+00    7.7913786353453993E+00
Ga    6.4732276471627745E+00   -1.7623721871004281E-02    8.4450252468436933E+00
N    6.4737474476760779E+00   -1.8786374827727517E-02    1.0412481290279624E+01
Ga    6.4736221381203407E+00    1.8220221375724663E+00    1.1068734814310909E+01
N    6.4742084114884895E+00    1.8008271684868506E+00    1.3056627791339750E+01
Ga    6.4741682484774294E+00   -1.7781111529584209E-02    1.3872804877028798E+01
N    6.4745774536789549E+00   -1.6241328461219048E-02    1.6062533324665964E+01
Ga    6.4747979136766700E+00    2.0375306001011690E+00    1.6482461283291876E+01
Ga    6.4750303766596486E+00    3.6963737052820234E+00    1.5017362389447106E+00
N    4.9720721225485143E+00    4.5641535782781135E+00    2.5233963030908324E+00
Ga    4.7566998044711424E+00    2.7116386346621493E+00    3.2886173776154757E+00
N    4.8634211007756596E+00    2.7680592574540968E+00    5.2482367570267945E+00
Ga    4.8435343748187840E+00    4.6394936769792308E+00    5.7996802167841182E+00
N    4.8557107197045850E+00    4.6310532880153215E+00    7.7901487894266586E+00
Ga    4.8741652157719768E+00    2.7725281421234453E+00    8.4356212123482521E+00
N    4.8768556310170066E+00    2.7740368073783954E+00    1.0423185321324903E+01
Ga    4.8510652155426488E+00    4.6327757855453138E+00    1.1069637175201830E+01
N    4.8340380860381433E+00    4.6419802305194944E+00    1.3057703002970889E+01
Ga    4.8765595198222460E+00    2.7719459802553121E+00    1.3617994367960367E+01
N    4.8481210406905788E+00    2.7540532607368116E+00    1.5573338463322436E+01
Ga    5.0336005691928420E+00    4.5274461665080601E+00    1.6481025670622792E+01
N    6.4748542684116632E+00    3.7014601847343895E+00    1.7610137228104708E+01
N    3.2333369582743643E+00    7.5326925227198069E+00    2.4403757358989995E+00
N    3.2584173236119143E+00    5.5570179250829330E+00    5.0151738607868328E+00
Ga    3.2613579198732663E+00    7.3784989871895998E+00    5.8030148303345719E+00
N    3.2547372943395625E+00    7.4000183049685671E+00    7.7888124950194992E+00
Ga    3.2578352781336219E+00    5.5523570404878324E+00    8.4458360575798768E+00
N    3.2578086536056792E+00    5.5533421408723678E+00    1.0413345478506855E+01
Ga    3.2593617487627187E+00    7.3915470731353246E+00    1.1071634383809492E+01
N    3.2584964218270800E+00    7.3717916989280603E+00    1.3058682743887957E+01
Ga    3.2585879892310214E+00    5.5515043275559881E+00    1.3875980542298668E+01
N    3.2587996853863923E+00    5.5522511218260293E+00    1.6061632558720138E+01
Ga    3.2587965555371419E+00    7.5978766018914694E+00    1.6479864320034721E+01
Ga    3.2862527661196492E+00    9.3387483774989111E+00    1.4586646002006050E+00
N    1.7517046510661953E+00    1.0137416317783849E+01    2.5154133425731739E+00
Ga    1.6218102682986142E+00    8.3155245804362217E+00    3.3026193450684476E+00
N    1.6372375485057333E+00    8.3307234219024160E+00    5.2348971319621560E+00
Ga    1.6224681490600643E+00    1.0213315025989871E+01    5.8028348092633060E+00
N    1.6385338866057113E+00    1.0197057685465735E+01    7.7887977471297054E+00
Ga    1.6615258850900889E+00    8.3452984960910452E+00    8.4470325341416430E+00
N    1.6613858031059188E+00    8.3445239748241260E+00    1.0428909974335635E+01
Ga    1.6350988871566612E+00    1.0204572204915342E+01    1.1071255547384673E+01
N    1.6182610436799758E+00    1.0212781395664567E+01    1.3058717487871075E+01
Ga    1.6617501184740926E+00    8.3435451035258232E+00    1.3619934822014940E+01
N    1.6363299608966468E+00    8.3288540478690116E+00    1.5577782262300728E+01
Ga    1.8107212647520488E+00    1.0102234176212649E+01    1.6480141989145928E+01
N    3.2589822238132728E+00    9.2723010782774864E+00    1.7623868925957190E+01
N    9.6976479503917865E+00    1.8503735625014950E+00    2.6139842755608105E+00
Ga    9.6934869128758141E+00    1.1483150077415485E-01    3.2961476942620500E+00
N    9.6863184620622480E+00   -1.7195113318693642E-02    5.2500408335723217E+00
Ga    9.6946013804106865E+00    1.8447051784176047E+00    5.8753116642954586E+00
N    9.6888149985891570E+00    1.8390440056583497E+00    7.8445950460815972E+00
Ga    9.6914196871235863E+00   -2.8817861971655038E-02    8.4330230459208586E+00
N    9.6896070031812123E+00   -3.2092745128940142E-02    1.0421224962151852E+01
Ga    9.6899025646514811E+00    1.8383585845377395E+00    1.1022510558422407E+01
N    9.6902253062498023E+00    1.8371561696774386E+00    1.2987425143039538E+01
Ga    9.6908446448648142E+00   -3.0627216785034758E-02    1.3619065274396146E+01
N    9.6909709247688571E+00   -2.0977592588901830E-03    1.5577756135008114E+01
Ga    9.6906329523384951E+00    1.8367310561601553E+00    1.5859201463995246E+01
N    7.9753375678504650E+00    4.5669128681270115E+00    2.5213973348218808E+00
Ga    8.1878526696933420E+00    2.7167808372783377E+00    3.2914787483712358E+00
N    8.0824190136299805E+00    2.7691620811157227E+00    5.2505223227580720E+00
Ga    8.1067517302369723E+00    4.6418980011380473E+00    5.7984806236479249E+00
N    8.0914428234384150E+00    4.6316850679621062E+00    7.7902196413790419E+00
Ga    8.0719024981576570E+00    2.7737574779610794E+00    8.4366851116056250E+00
N    8.0703230589898602E+00    2.7742884692290377E+00    1.0423892610447181E+01
Ga    8.0965169080215933E+00    4.6330862689790928E+00    1.1070029366886510E+01
N    8.1144845722972843E+00    4.6420996846904359E+00    1.3057918766780485E+01
Ga    8.0719899802075723E+00    2.7720398620200606E+00    1.3617901973859581E+01
N    8.1012571350989049E+00    2.7541165065755511E+00    1.5573179228227128E+01
Ga    7.9159578078284962E+00    4.5275448564060827E+00    1.6480839496616383E+01
N    6.4657810292074371E+00    7.4120893139559838E+00    2.5945233771414911E+00
Ga    6.4733872080165744E+00    5.6724992468666571E+00    3.2843840091400560E+00
N    6.4739140827057540E+00    5.5571236644465030E+00    5.2437993639356462E+00
Ga    6.4696832879428463E+00    7.4138576950446051E+00    5.8647908590983926E+00
N    6.4720450318098290E+00    7.4112005577262972E+00    7.8351718051473567E+00
Ga    6.4736418983920130E+00    5.5433763979617625E+00    8.4346818873178098E+00
N    6.4737174708880376E+00    5.5406658071854196E+00    1.0422834243378993E+01
Ga    6.4737217041723554E+00    7.4101363218282490E+00    1.1022876964309084E+01
N    6.4742573488756863E+00    7.4101478678788606E+00    1.2988861626643864E+01
Ga    6.4743135961476082E+00    5.5398089186835060E+00    1.3618333674426383E+01
N    6.4746339242787672E+00    5.5761750800812218E+00    1.5574289493726898E+01
Ga    6.4746905456433810E+00    7.4109510389754725E+00    1.5856395381598698E+01
N    4.7630366180066890E+00    1.0147046870271053E+01    2.5246806125967338E+00
Ga    4.9439685568209439E+00    8.2718969697437714E+00    3.2621374110433221E+00
N    4.8589384518024792E+00    8.3384852268072525E+00    5.2293104993627928E+00
Ga    4.8946394535970565E+00    1.0210777878594364E+01    5.7895368575708890E+00
N    4.8757351321348903E+00    1.0199864550033725E+01    7.7833580623133614E+00
Ga    4.8564219279749503E+00    8.3455189422088853E+00    8.4333953516715034E+00
N    4.8540558191358976E+00    8.3440786180876643E+00    1.0421050765529369E+01
Ga    4.8808957832167588E+00    1.0202984350261922E+01    1.1067869873517980E+01
N    4.8978770441189408E+00    1.0212259383950594E+01    1.3056619800973571E+01
Ga    4.8553176273897494E+00    8.3436173229110526E+00    1.3619182170772769E+01
N    4.8809130073054803E+00    8.3289593037439165E+00    1.5577081846087337E+01
Ga    4.7069473665403789E+00    1.0102289691164392E+01    1.6480038708451371E+01
O    7.8526569584510292E-02    4.0289866504495624E+00   -4.5240601175349038E-01
H    2.0831239362770110E-01    5.8115505912338268E+00   -3.5857962567427537E-01
C    1.1429735223337822E+00    3.3876952088613570E+00   -1.1820644806387230E+00
H    2.1307307542839427E+00    3.5715217531080676E+00   -7.2703821649458922E-01
H    9.8718700342340904E-01    2.2994674974894473E+00   -1.2430085182046209E+00
H    1.1425330894382217E+00    3.7974411093345912E+00   -2.2023818357404057E+00
Ga    3.2343458931647766E+00    5.5211945132678366E+00    2.8697187589672577E+00
O    3.9425431798380334E-01    6.7700190547718497E+00   -1.6937314081336169E-01
H    2.9436412979551987E-02    7.3195013085853251E+00    1.6470214539474699E+00
C    1.8186906629807558E+00    6.9438837905290969E+00   -2.3456212972852750E-01
H    2.0190296512998041E+00    7.9311983428337047E+00   -6.9641190624930582E-01
H    2.2974768802898353E+00    6.9463220484623527E+00    7.7049247793133580E-01
H    2.2977912153095934E+00    6.1824393839527989E+00   -8.6591867402615197E-01
     &END COORD
     &KIND C
       BASIS_SET DZVP-MOLOPT-SR-GTH-q4
       POTENTIAL GTH-PBE-q4
       &POTENTIAL
2 2
0.3384712400000000E+00 2 -0.8803673979999999E+01  0.1339210850000000E+01
2
0.3025757500000000E+00 1  0.9622486650000001E+01
0.2915069400000000E+00 0
       &END POTENTIAL
     &END KIND
     &KIND O
       BASIS_SET DZVP-MOLOPT-SR-GTH-q6
       POTENTIAL GTH-PBE-q6
       &POTENTIAL
2 4
0.2445543000000000E+00 2 -0.1666721480000000E+02  0.2487311320000000E+01
2
0.2209559200000000E+00 1  0.1833745811000000E+02
0.2113324700000000E+00 0
       &END POTENTIAL
     &END KIND
     &KIND H
       BASIS_SET DZVP-MOLOPT-SR-GTH-q1
       POTENTIAL GTH-PBE-q1
       &POTENTIAL
1
0.2000000000000000E+00 2 -0.4178900440000000E+01  0.7244633100000000E+00
0
       &END POTENTIAL
     &END KIND
     &KIND N
       BASIS_SET DZVP-MOLOPT-SR-GTH
       POTENTIAL GTH-PBE-q5
       &POTENTIAL
2 3
0.2837905100000000E+00 2 -0.1241522559000000E+02  0.1868095920000000E+01
2
0.2554050000000000E+00 1  0.1363026257000000E+02
0.2454945300000000E+00 0
       &END POTENTIAL
     &END KIND
     &KIND Ga
       BASIS_SET DZVP-MOLOPT-SR-GTH
       POTENTIAL GTH-PBE-q13
       &POTENTIAL
2 1 10
0.4900000000000000E+00 0
3
0.4167772300000000E+00 3  0.1047568975000000E+02 -0.4921768140000000E+01  0.8707055900000000E+00
0.7770178090000000E+01 -0.2248152160000000E+01
0.1784415450000000E+01
0.5696265200000000E+00 2  0.1777985340000000E+01  0.1958597600000000E+00
-0.2317443900000000E+00
0.2381265000000000E+00 1 -0.1624868022000000E+02
       &END POTENTIAL
     &END KIND
     &TOPOLOGY
       NUMBER_OF_ATOMS  212
       MULTIPLE_UNIT_CELL  1 1 1
     &END TOPOLOGY
     &COLVAR
       &DISTANCE
         ATOMS  127 211
       &END DISTANCE
       &PRINT
       &END PRINT
     &END COLVAR
   &END SUBSYS
 &END FORCE_EVAL
