 # Version information for this restart file 
 # current date 2019-07-09 10:40:19.399
 # current working dir /lustre04/scratch/rzk/rzk/GaN-carbene/443-adatoms-both-2x2/09-BondBreaking-CH/02-0401-CH-to-NTop-PES
 # Program compiled at                              Sun Apr  7 00:48:11 EDT 2019
 # Program compiled on                          beluga2.int.ets1.calculquebec.ca
 # Program compiled for                        Beluga-Linux-x86-64-intel-openmpi
 # Source code revision number                                         svn:18619
 &GLOBAL
   PRINT_LEVEL  MEDIUM
   PROJECT_NAME TEST
   RUN_TYPE  GEO_OPT
 &END GLOBAL
 &MOTION
   &GEO_OPT
     MAX_ITER  500
     STEP_START_VAL  121
   &END GEO_OPT
   &CONSTRAINT
     &COLLECTIVE
       COLVAR  1
       INTERMOLECULAR  T
       TARGET     5.6691783986569284E+00
       &RESTRAINT
         K     2.0000000000000000E+00
       &END RESTRAINT
     &END COLLECTIVE
     &COLVAR_RESTART
           5.6691783986569284E+00
     &END COLVAR_RESTART
   &END CONSTRAINT
 &END MOTION
 &FORCE_EVAL
   METHOD  QS
   STRESS_TENSOR  ANALYTICAL
   &DFT
     BASIS_SET_FILE_NAME BASIS_MOLOPT
     POTENTIAL_FILE_NAME GTH_POTENTIALS
     UKS  T
     SURFACE_DIPOLE_CORRECTION  T
     SURF_DIP_DIR  Z
     &SCF
       MAX_SCF  80
       EPS_SCF     5.0000000000000004E-06
       &OT  T
         PRECONDITIONER  FULL_ALL
       &END OT
       &OUTER_SCF  T
         OPTIMIZER  NONE
         EPS_SCF     5.0000000000000004E-06
         MAX_SCF  4
       &END OUTER_SCF
       &PRINT
         &RESTART  OFF
           BACKUP_COPIES  1
           &EACH
             JUST_ENERGY  0
             QS_SCF  0
             MD  20
           &END EACH
         &END RESTART
       &END PRINT
     &END SCF
     &QS
       EPS_DEFAULT     1.0000000000000000E-14
       METHOD  GPW
     &END QS
     &MGRID
       NGRIDS  5
       CUTOFF     1.2000000000000000E+03
     &END MGRID
     &XC
       DENSITY_CUTOFF     1.0000000000000000E-10
       GRADIENT_CUTOFF     1.0000000000000000E-10
       TAU_CUTOFF     1.0000000000000000E-10
       &XC_FUNCTIONAL  NO_SHORTCUT
         &PBE  T
         &END PBE
       &END XC_FUNCTIONAL
       &VDW_POTENTIAL
         POTENTIAL_TYPE  PAIR_POTENTIAL
         &PAIR_POTENTIAL
           R_CUTOFF     1.0000000000000007E+01
           TYPE  DFTD3
           PARAMETER_FILE_NAME dftd3.dat
           REFERENCE_FUNCTIONAL PBE
           EPS_CN     9.9999999999999995E-07
           CALCULATE_C9_TERM  T
           REFERENCE_C9_TERM  T
           LONG_RANGE_CORRECTION  F
           VERBOSE_OUTPUT  F
         &END PAIR_POTENTIAL
       &END VDW_POTENTIAL
     &END XC
   &END DFT
   &SUBSYS
     &CELL
       A     1.2864472766435110E+01    0.0000000000000000E+00    0.0000000000000000E+00
       B    -6.4322363581020028E+00    1.1140960178524477E+01    0.0000000000000000E+00
       C     0.0000000000000000E+00    0.0000000000000000E+00    3.2000000000000000E+01
       MULTIPLE_UNIT_CELL  1 1 1
       &CELL_REF
         A     1.2982353780853531E+01    0.0000000000000000E+00    0.0000000000000000E+00
         B    -6.4911768904267628E+00    1.1243048175136114E+01    0.0000000000000000E+00
         C     0.0000000000000000E+00    0.0000000000000000E+00    3.2000000000000000E+01
         MULTIPLE_UNIT_CELL  1 1 1
       &END CELL_REF
     &END CELL
     &COORD
N    7.6393700731001477E-02    1.9804632430290532E+00    2.4935657130415785E+00
Ga    6.1567099836009748E-02    1.1035652876337140E-02    2.8261981468775308E+00
N    8.0131576007577948E-02   -2.1937629470948666E-02    5.0156466633747199E+00
Ga    7.8882595161097566E-02    1.8033686934742910E+00    5.7992843582313824E+00
N    7.7393912239532806E-02    1.8189388888370746E+00    7.8010595622676542E+00
Ga    7.5029392396019495E-02   -2.6260593609330755E-02    8.4439089110608965E+00
N    7.6196682446974334E-02   -2.7053791646562072E-02    1.0419350783798242E+01
Ga    7.6295308986017718E-02    1.8132018719421541E+00    1.1068879548937055E+01
N    7.6266711452149805E-02    1.7938745359272892E+00    1.3063226386046884E+01
Ga    7.6546665785042767E-02   -2.5528341216624562E-02    1.3867294840740158E+01
N    7.6138976479901560E-02   -2.4543183157842565E-02    1.6069239596040482E+01
Ga    7.5879341889846005E-02    2.0210862809276406E+00    1.6482429126845656E+01
Ga    4.6428476737187196E-02    3.6841481247904935E+00    1.3688529780265277E+00
N   -1.4095900387426612E+00    4.5510022822297911E+00    2.5251006995104448E+00
Ga   -1.6035559187965684E+00    2.7080692898578875E+00    3.2818544026714416E+00
N   -1.5319753782357517E+00    2.7577351000806294E+00    5.2592462051535378E+00
Ga   -1.5603130216912167E+00    4.6230405039814233E+00    5.8088225650070111E+00
N   -1.5413498656399824E+00    4.6225979794020944E+00    7.8038228513867862E+00
Ga   -1.5221265972411198E+00    2.7616293866267219E+00    8.4364891533364261E+00
N   -1.5207361796675354E+00    2.7656470528655395E+00    1.0431756440402019E+01
Ga   -1.5469218299926537E+00    4.6232894007150396E+00    1.1072309329372317E+01
N   -1.5636019046597911E+00    4.6339429420599831E+00    1.3065797138162360E+01
Ga   -1.5208775826931797E+00    2.7642823306922897E+00    1.3620727041281919E+01
N   -1.5474123876518660E+00    2.7484249150579028E+00    1.5582361214723457E+01
Ga   -1.3737382809083076E+00    4.5242993168070678E+00    1.6481912460886551E+01
N    7.5093637878780872E-02    3.6953320858425371E+00    1.7617607213167595E+01
N   -3.1334351170455905E+00    7.5224873082938357E+00    2.5290998770958755E+00
Ga   -3.1125659474683811E+00    5.5183440989596502E+00    2.8528311728439939E+00
N   -3.1381484330816738E+00    5.5446720666539990E+00    5.0220755830943133E+00
Ga   -3.1458711772928276E+00    7.3650503416233004E+00    5.8083007376887306E+00
N   -3.1383540057384183E+00    7.3903886234079126E+00    7.7995432986139095E+00
Ga   -3.1397447261196105E+00    5.5433242056577017E+00    8.4504554286091516E+00
N   -3.1398836312319292E+00    5.5449065625927982E+00    1.0422587212560961E+01
Ga   -3.1412348902050575E+00    7.3840300701427530E+00    1.1072996507037166E+01
N   -3.1401743609952320E+00    7.3646543620861840E+00    1.3065369784969901E+01
Ga   -3.1397539351184025E+00    5.5446271876086071E+00    1.3869378121682233E+01
N   -3.1400861854863797E+00    5.5460202416511892E+00    1.6069780734820231E+01
Ga   -3.1403661411265142E+00    7.5919615949149657E+00    1.6483392009290675E+01
Ga   -3.1524811549088954E+00    9.2601506121210360E+00    1.4985281167114011E+00
N   -4.6415679565178101E+00    1.0126577688117912E+01    2.5174578115031054E+00
Ga   -4.8585807067409261E+00    8.2756290039425462E+00    3.2897409757385079E+00
N   -4.7458569010225009E+00    8.3302958262677045E+00    5.2513355507645372E+00
Ga   -4.7777528027538887E+00    1.0205065802296026E+01    5.7995876681166978E+00
N   -4.7567075775503049E+00    1.0191799480512499E+01    7.7971486133608101E+00
Ga   -4.7401590532632119E+00    8.3362114557883320E+00    8.4372657156630950E+00
N   -4.7365007895889439E+00    8.3360128667876321E+00    1.0430708698481240E+01
Ga   -4.7630781650789080E+00    1.0195078577992101E+01    1.1070248243246587E+01
N   -4.7793871801256333E+00    1.0204360622651061E+01    1.3064333089916088E+01
Ga   -4.7373562735204660E+00    8.3355384427276924E+00    1.3621775171775823E+01
N   -4.7637763088128793E+00    8.3191349272264610E+00    1.5582993953724195E+01
Ga   -4.5897426769149900E+00    1.0094978000224510E+01    1.6482250819771906E+01
N   -3.1412381377473197E+00    9.2664138434412617E+00    1.7617871938670575E+01
N    3.2827235354080369E+00    1.8360205959508806E+00    2.6176406692417973E+00
Ga    3.2851475732996773E+00    9.6414793508646027E-02    3.2891665433446038E+00
N    3.2947244819850026E+00   -2.9205144240709434E-02    5.2516704792729323E+00
Ga    3.2858077558613061E+00    1.8328390073011038E+00    5.8747946798832178E+00
N    3.2932995822756208E+00    1.8292412412435177E+00    7.8510209083890921E+00
Ga    3.2909481899967226E+00   -3.6503860549109035E-02    8.4402129843879994E+00
N    3.2927311917233792E+00   -3.8702798235478474E-02    1.0433139422999377E+01
Ga    3.2927170312051963E+00    1.8314754906568236E+00    1.1027611148004031E+01
N    3.2925806093865182E+00    1.8305408898367876E+00    1.2999175282663693E+01
Ga    3.2921390045074448E+00   -3.8933144384393166E-02    1.3622153566212427E+01
N    3.2921601560162261E+00   -6.7726363666137587E-03    1.5584458433755231E+01
Ga    3.2919968842043277E+00    1.8310343235791735E+00    1.5862523922273017E+01
N    1.5683142309845939E+00    4.5545604691819541E+00    2.5195763118612216E+00
Ga    1.7546274842984289E+00    2.7217863383725018E+00    3.2691159923125812E+00
N    1.6867114820947580E+00    2.7582603299685102E+00    5.2528331498570013E+00
Ga    1.7174050156500986E+00    4.6229801715185301E+00    5.8089005755654872E+00
N    1.6944674041077918E+00    4.6216260192169214E+00    7.8048028168333783E+00
Ga    1.6746635887190000E+00    2.7626446143097834E+00    8.4393820114843834E+00
N    1.6740615347046328E+00    2.7653924970673711E+00    1.0433440507775993E+01
Ga    1.7002769475702428E+00    4.6238209104073844E+00    1.1071781165092423E+01
N    1.7163051124602178E+00    4.6340755652002317E+00    1.3065453329815945E+01
Ga    1.6729959099413907E+00    2.7647149741759081E+00    1.3621198776535811E+01
N    1.6993741480109412E+00    2.7487181669172278E+00    1.5582688738561421E+01
Ga    1.5243876175983639E+00    4.5236989830132801E+00    1.6482112201541565E+01
N    7.7700337774995853E-02    7.3836511886960601E+00    2.6952512862628888E+00
Ga    8.6157883331072535E-02    5.5420885794016614E+00    3.3372431929825410E+00
N    7.7433338023956272E-02    5.5569934454373042E+00    5.2744449089943721E+00
Ga    8.4749109447532694E-02    7.3980428715745834E+00    5.9069798079392468E+00
N    7.7565896363365194E-02    7.4025102504934743E+00    7.8658139763978916E+00
Ga    7.7128003590620720E-02    5.5291920972374635E+00    8.4467776799227998E+00
N    7.6348792437524529E-02    5.5320346382773433E+00    1.0437238643520091E+01
Ga    7.7025846352364147E-02    7.4016590094576991E+00    1.1030293755710236E+01
N    7.6348628881264147E-02    7.4014915092837432E+00    1.3000726279776639E+01
Ga    7.6412099776190262E-02    5.5310623412076270E+00    1.3622389687174786E+01
N    7.6229372176573690E-02    5.5636826404895814E+00    1.5584713094997001E+01
Ga    7.6018875626722562E-02    7.4012529431584149E+00    1.5863078779170682E+01
N   -1.6333898395268567E+00    1.0115001365491535E+01    2.5242204289588415E+00
Ga   -1.4909501405267382E+00    8.3017602717489893E+00    3.3359346775002336E+00
N   -1.5188138732201062E+00    8.3220547949223853E+00    5.2629843855402632E+00
Ga   -1.5054010456806775E+00    1.0207917653688114E+01    5.8110097934565577E+00
N   -1.5221882908835145E+00    1.0189818869366549E+01    7.8014924273824038E+00
Ga   -1.5433323928649194E+00    8.3360631117488460E+00    8.4484804815022478E+00
N   -1.5432148982897893E+00    8.3361007106311078E+00    1.0436846846904421E+01
Ga   -1.5170685335432144E+00    1.0196096616736751E+01    1.1072839248124001E+01
N   -1.5001100707813688E+00    1.0204703957814040E+01    1.3065759758444376E+01
Ga   -1.5432450361512002E+00    8.3356371354428891E+00    1.3622629152998845E+01
N   -1.5165453174253813E+00    8.3192110719442063E+00    1.5583625139846035E+01
Ga   -1.6921240096824994E+00    1.0094348094286470E+01    1.6482676162592650E+01
N    6.5081998420565359E+00    1.9539896362091360E+00    2.5378988319155615E+00
Ga    6.5257133849409490E+00   -2.6248695265532890E-02    2.8641014711186537E+00
N    6.5058268154369427E+00   -2.6784558333738762E-02    5.0253449859392445E+00
Ga    6.5080777990031544E+00    1.8033181664579647E+00    5.8055224522137996E+00
N    6.5084480623521621E+00    1.8183117962925679E+00    7.8013451012417114E+00
Ga    6.5107922701116205E+00   -2.6951544047440556E-02    8.4477813892458524E+00
N    6.5090439724183700E+00   -2.7019313256371098E-02    1.0420794105370765E+01
Ga    6.5093150139078189E+00    1.8140812593699904E+00    1.1069598534321607E+01
N    6.5086077630937265E+00    1.7938609070128628E+00    1.3063662095105400E+01
Ga    6.5083185513279389E+00   -2.5522535310944141E-02    1.3868457863136339E+01
N    6.5076663266855315E+00   -2.4816142954159393E-02    1.6069944004644249E+01
Ga    6.5079499270468268E+00    2.0192177247442786E+00    1.6480345539633948E+01
Ga    6.5129369528104553E+00    3.6858160898527270E+00    1.5332327484892727E+00
N    5.0070418769650544E+00    4.5532672787032968E+00    2.5306675593470178E+00
Ga    4.7903528169156333E+00    2.7018589888510265E+00    3.2980120935619253E+00
N    4.8989119555569793E+00    2.7580226924369891E+00    5.2589260207016624E+00
Ga    4.8748264218898045E+00    4.6309007005654230E+00    5.8051153497105883E+00
N    4.8916952801937779E+00    4.6213882274342737E+00    7.8016349772937277E+00
Ga    4.9097390905386487E+00    2.7638701490724249E+00    8.4397265578585703E+00
N    4.9118366641249089E+00    2.7656106086913681E+00    1.0433019409606262E+01
Ga    4.8866023010086428E+00    4.6249474564356836E+00    1.1070134332595570E+01
N    4.8690738080740203E+00    4.6341258494694468E+00    1.3064573676293181E+01
Ga    4.9116604882074295E+00    2.7648878021784480E+00    1.3620718856146199E+01
N    4.8853087764612706E+00    2.7489518419268544E+00    1.5582952125943315E+01
Ga    5.0567304779332041E+00    4.5254265337500348E+00    1.6479506273112069E+01
N    6.5085046581161832E+00    3.6963354569100937E+00    1.7613060496996560E+01
N    3.2888601335650920E+00    7.5170566470557043E+00    2.4951705433604805E+00
N    3.2935032234362605E+00    5.5429959232148720E+00    5.0294588177360078E+00
Ga    3.2972537349980144E+00    7.3692557491321296E+00    5.7979482851725503E+00
N    3.2906651160705565E+00    7.3916454944994232E+00    7.7952431102780322E+00
Ga    3.2932513605909390E+00    5.5455291649519047E+00    8.4476942880911672E+00
N    3.2929148903368204E+00    5.5453287462893543E+00    1.0421339953873701E+01
Ga    3.2947525567670803E+00    7.3843460720863048E+00    1.1071594445807252E+01
N    3.2928497224147129E+00    7.3646317641275143E+00    1.3064873252436055E+01
Ga    3.2925324736987709E+00    5.5443164337269524E+00    1.3868229806886060E+01
N    3.2916801636376176E+00    5.5456212732660646E+00    1.6069945618893581E+01
Ga    3.2919532101587126E+00    7.5889762687732318E+00    1.6480309824525541E+01
Ga    3.3316184186240179E+00    9.2896065283798652E+00    1.3437552809142290E+00
N    1.7845020422653728E+00    1.0122670723387802E+01    2.5092019980862594E+00
Ga    1.6766893416279607E+00    8.3152425861055566E+00    3.2908217903939443E+00
N    1.6718876879781976E+00    8.3206908921636575E+00    5.2382700774186759E+00
Ga    1.6618132387502773E+00    1.0201650595291595E+01    5.7982988571898924E+00
N    1.6744180626400216E+00    1.0188282985944520E+01    7.7949357817611293E+00
Ga    1.6984538137580265E+00    8.3369710757911584E+00    8.4473181210501718E+00
N    1.6964993513437543E+00    8.3365376000120932E+00    1.0436580292331193E+01
Ga    1.6711249344502690E+00    1.0196425426129135E+01    1.1072032684597421E+01
N    1.6528642327509762E+00    1.0204788269928326E+01    1.3065649122576945E+01
Ga    1.6958154249033233E+00    8.3355087925119165E+00    1.3621704773497520E+01
N    1.6693891129300977E+00    8.3194799693551484E+00    1.5583757808097952E+01
Ga    1.8401983635572636E+00    1.0096307827287843E+01    1.6479436786407199E+01
N    3.2925512447469694E+00    9.2670213476356089E+00    1.7613094202084849E+01
N    9.7355005995064676E+00    1.8295954550186599E+00    2.6296663343930358E+00
Ga    9.7293310645655655E+00    7.0163911444615062E-02    3.2667604281393894E+00
N    9.7222746409261607E+00   -3.0092001283461761E-02    5.2445163803486192E+00
Ga    9.7309870312560527E+00    1.8250465300016698E+00    5.8702763790499999E+00
N    9.7242263097911597E+00    1.8287869491921933E+00    7.8489246518387654E+00
Ga    9.7268381978027012E+00   -3.8323288041281781E-02    8.4330169215869173E+00
N    9.7246421082486876E+00   -3.9176693009423939E-02    1.0429351375088544E+01
Ga    9.7251270442366362E+00    1.8306629356649762E+00    1.1024985436737511E+01
N    9.7243026707589983E+00    1.8302308016987858E+00    1.2997593704090937E+01
Ga    9.7251382862118110E+00   -3.8749656153203249E-02    1.3621263386843452E+01
N    9.7241224153661481E+00   -7.4096532239567598E-03    1.5584723002829593E+01
Ga    9.7245776750131636E+00    1.8310909908508595E+00    1.5862781245617967E+01
N    8.0119084724336975E+00    4.5538329755969400E+00    2.5383353423984598E+00
Ga    8.2287772352413722E+00    2.6949509682358204E+00    3.3009259928978136E+00
N    8.1176434651982738E+00    2.7575142096050826E+00    5.2611270835100790E+00
Ga    8.1414304762508127E+00    4.6299063266142424E+00    5.8025828454587396E+00
N    8.1272786009642441E+00    4.6223887790818523E+00    7.7993450995945768E+00
Ga    8.1087903231833405E+00    2.7636121374173932E+00    8.4369998518272666E+00
N    8.1058836380690629E+00    2.7658652973557252E+00    1.0431374519214264E+01
Ga    8.1307743935382941E+00    4.6241984252481263E+00    1.1070910455517188E+01
N    8.1481722100357530E+00    4.6341070148897829E+00    1.3065078523308026E+01
Ga    8.1055780833386493E+00    2.7648051660277488E+00    1.3620611286203596E+01
N    8.1311042551344830E+00    2.7484740121503166E+00    1.5583055725835255E+01
Ga    7.9597376859434021E+00    4.5258011381547707E+00    1.6479457501420409E+01
N    6.5039426458432530E+00    7.4029539491717689E+00    2.6102236338539817E+00
Ga    6.5042755001214285E+00    5.6661397174493695E+00    3.2960085679415410E+00
N    6.5087003219784751E+00    5.5463008313053956E+00    5.2565990516247405E+00
Ga    6.5020992564285542E+00    7.4057151067685458E+00    5.8699265982892701E+00
N    6.5083485516435564E+00    7.4019740624098231E+00    7.8459562952796800E+00
Ga    6.5091775884203074E+00    5.5345544357364282E+00    8.4378785824534752E+00
N    6.5090978821786445E+00    5.5328958130933854E+00    1.0431833659153700E+01
Ga    6.5083035819754622E+00    7.4024624160883894E+00    1.1025867721258173E+01
N    6.5082045228260590E+00    7.4014998180010636E+00    1.2997954141713338E+01
Ga    6.5085816625326212E+00    5.5317870392507222E+00    1.3621176679415493E+01
N    6.5077717628603944E+00    5.5634370637233186E+00    1.5584521478995420E+01
Ga    6.5083166785790603E+00    7.4014959574445376E+00    1.5863258363541375E+01
N    4.8024443900700202E+00    1.0130772229238927E+01    2.5173897765659374E+00
Ga    4.9782978909231357E+00    8.2824202072773101E+00    3.2577463507478135E+00
N    4.8982255832830726E+00    8.3288105335042442E+00    5.2380202443619632E+00
Ga    4.9278667789618522E+00    1.0201355927428128E+01    5.7863983118276785E+00
N    4.9111859794475201E+00    1.0191609806032673E+01    7.7907719363592545E+00
Ga    4.8910323467707757E+00    8.3375648372461306E+00    8.4335750838557164E+00
N    4.8896141927635481E+00    8.3361699313451556E+00    1.0428937952069424E+01
Ga    4.9149889989521691E+00    1.0194821945073143E+01    1.1068857676823360E+01
N    4.9319910247892551E+00    1.0204445446741039E+01    1.3063872895509277E+01
Ga    4.8896181170520245E+00    8.3358480065950076E+00    1.3621296083008536E+01
N    4.9148518309349143E+00    8.3192818922121710E+00    1.5583605538182299E+01
Ga    4.7442860545071959E+00    1.0096710669865065E+01    1.6479276707065317E+01
O    6.9306873094130764E-02    4.0702963143627739E+00   -4.3119534671623866E-01
H   -1.1476399427733992E-01    5.8584347601650073E+00   -3.4117348779439194E-01
C    1.2461970125710424E+00    3.6537388364814523E+00   -1.1515485605000058E+00
H    2.1742386670374114E+00    3.9959194812992118E+00   -6.6466695702718415E-01
H    1.2881426180442055E+00    2.5584393177353917E+00   -1.2497539425794000E+00
H    1.1953818794254871E+00    4.0915500442561994E+00   -2.1584116359365897E+00
Ga    3.2648562989394367E+00    5.5378144000123450E+00    2.8548734778180260E+00
O   -9.3209520463351528E-02    6.8454974283932568E+00   -2.1374854888592901E-01
H    2.8837436274101267E-02    7.3125119647504135E+00    1.6581312861850046E+00
C    1.1512081321127761E+00    7.3072672132699585E+00   -7.5695200727276601E-01
H    1.1337491853639894E+00    8.4059196977354826E+00   -7.3017351034828559E-01
H    2.0139132271326687E+00    6.9573980313862638E+00   -1.6240786363092613E-01
H    1.2860773935190899E+00    6.9918290455825005E+00   -1.8023152249725616E+00
     &END COORD
     &KIND C
       BASIS_SET DZVP-MOLOPT-SR-GTH-q4
       POTENTIAL GTH-PBE-q4
       &POTENTIAL
2 2
0.3384712400000000E+00 2 -0.8803673979999999E+01  0.1339210850000000E+01
2
0.3025757500000000E+00 1  0.9622486650000001E+01
0.2915069400000000E+00 0
       &END POTENTIAL
     &END KIND
     &KIND O
       BASIS_SET DZVP-MOLOPT-SR-GTH-q6
       POTENTIAL GTH-PBE-q6
       &POTENTIAL
2 4
0.2445543000000000E+00 2 -0.1666721480000000E+02  0.2487311320000000E+01
2
0.2209559200000000E+00 1  0.1833745811000000E+02
0.2113324700000000E+00 0
       &END POTENTIAL
     &END KIND
     &KIND H
       BASIS_SET DZVP-MOLOPT-SR-GTH-q1
       POTENTIAL GTH-PBE-q1
       &POTENTIAL
1
0.2000000000000000E+00 2 -0.4178900440000000E+01  0.7244633100000000E+00
0
       &END POTENTIAL
     &END KIND
     &KIND N
       BASIS_SET DZVP-MOLOPT-SR-GTH
       POTENTIAL GTH-PBE-q5
       &POTENTIAL
2 3
0.2837905100000000E+00 2 -0.1241522559000000E+02  0.1868095920000000E+01
2
0.2554050000000000E+00 1  0.1363026257000000E+02
0.2454945300000000E+00 0
       &END POTENTIAL
     &END KIND
     &KIND Ga
       BASIS_SET DZVP-MOLOPT-SR-GTH
       POTENTIAL GTH-PBE-q13
       &POTENTIAL
2 1 10
0.4900000000000000E+00 0
3
0.4167772300000000E+00 3  0.1047568975000000E+02 -0.4921768140000000E+01  0.8707055900000000E+00
0.7770178090000000E+01 -0.2248152160000000E+01
0.1784415450000000E+01
0.5696265200000000E+00 2  0.1777985340000000E+01  0.1958597600000000E+00
-0.2317443900000000E+00
0.2381265000000000E+00 1 -0.1624868022000000E+02
       &END POTENTIAL
     &END KIND
     &TOPOLOGY
       NUMBER_OF_ATOMS  212
       MULTIPLE_UNIT_CELL  1 1 1
     &END TOPOLOGY
     &COLVAR
       &DISTANCE
         ATOMS  127 211
       &END DISTANCE
       &PRINT
       &END PRINT
     &END COLVAR
   &END SUBSYS
 &END FORCE_EVAL
