 # Version information for this restart file 
 # current date 2019-07-10 14:45:56.259
 # current working dir /lustre04/scratch/rzk/rzk/GaN-carbene/443-adatoms-both-2x2/09-BondBreaking-CH/02-0401-CH-to-NTop-PES
 # Program compiled at                              Sun Apr  7 00:48:11 EDT 2019
 # Program compiled on                          beluga2.int.ets1.calculquebec.ca
 # Program compiled for                        Beluga-Linux-x86-64-intel-openmpi
 # Source code revision number                                         svn:18619
 &GLOBAL
   PRINT_LEVEL  MEDIUM
   PROJECT_NAME TEST
   RUN_TYPE  GEO_OPT
 &END GLOBAL
 &MOTION
   &GEO_OPT
     MAX_ITER  500
     STEP_START_VAL  66
   &END GEO_OPT
   &CONSTRAINT
     &COLLECTIVE
       COLVAR  1
       INTERMOLECULAR  T
       TARGET     4.5353427189255431E+00
       &RESTRAINT
         K     2.0000000000000000E+00
       &END RESTRAINT
     &END COLLECTIVE
     &COLVAR_RESTART
           4.5353427189255431E+00
     &END COLVAR_RESTART
   &END CONSTRAINT
 &END MOTION
 &FORCE_EVAL
   METHOD  QS
   STRESS_TENSOR  ANALYTICAL
   &DFT
     BASIS_SET_FILE_NAME BASIS_MOLOPT
     POTENTIAL_FILE_NAME GTH_POTENTIALS
     UKS  T
     SURFACE_DIPOLE_CORRECTION  T
     SURF_DIP_DIR  Z
     &SCF
       MAX_SCF  80
       EPS_SCF     5.0000000000000004E-06
       &OT  T
         PRECONDITIONER  FULL_ALL
       &END OT
       &OUTER_SCF  T
         OPTIMIZER  NONE
         EPS_SCF     5.0000000000000004E-06
         MAX_SCF  4
       &END OUTER_SCF
       &PRINT
         &RESTART  OFF
           BACKUP_COPIES  1
           &EACH
             JUST_ENERGY  0
             QS_SCF  0
             MD  20
           &END EACH
         &END RESTART
       &END PRINT
     &END SCF
     &QS
       EPS_DEFAULT     1.0000000000000000E-14
       METHOD  GPW
     &END QS
     &MGRID
       NGRIDS  5
       CUTOFF     1.2000000000000000E+03
     &END MGRID
     &XC
       DENSITY_CUTOFF     1.0000000000000000E-10
       GRADIENT_CUTOFF     1.0000000000000000E-10
       TAU_CUTOFF     1.0000000000000000E-10
       &XC_FUNCTIONAL  NO_SHORTCUT
         &PBE  T
         &END PBE
       &END XC_FUNCTIONAL
       &VDW_POTENTIAL
         POTENTIAL_TYPE  PAIR_POTENTIAL
         &PAIR_POTENTIAL
           R_CUTOFF     1.0000000000000009E+01
           TYPE  DFTD3
           PARAMETER_FILE_NAME dftd3.dat
           REFERENCE_FUNCTIONAL PBE
           EPS_CN     9.9999999999999995E-07
           CALCULATE_C9_TERM  T
           REFERENCE_C9_TERM  T
           LONG_RANGE_CORRECTION  F
           VERBOSE_OUTPUT  F
         &END PAIR_POTENTIAL
       &END VDW_POTENTIAL
     &END XC
   &END DFT
   &SUBSYS
     &CELL
       A     1.2864472766435110E+01    0.0000000000000000E+00    0.0000000000000000E+00
       B    -6.4322363581020028E+00    1.1140960178524477E+01    0.0000000000000000E+00
       C     0.0000000000000000E+00    0.0000000000000000E+00    3.2000000000000000E+01
       MULTIPLE_UNIT_CELL  1 1 1
       &CELL_REF
         A     1.2982353780853531E+01    0.0000000000000000E+00    0.0000000000000000E+00
         B    -6.4911768904267628E+00    1.1243048175136114E+01    0.0000000000000000E+00
         C     0.0000000000000000E+00    0.0000000000000000E+00    3.2000000000000000E+01
         MULTIPLE_UNIT_CELL  1 1 1
       &END CELL_REF
     &END CELL
     &COORD
N    4.9475035626736018E-02    1.9946604584668750E+00    2.4912019501195442E+00
Ga    5.1983305999917920E-02    2.7816240405045208E-02    2.8255594941165558E+00
N    5.1448428483376253E-02   -6.7795031615231292E-03    5.0113572062295697E+00
Ga    5.2199116876018449E-02    1.8189028453590099E+00    5.7953226723993927E+00
N    5.0788954277751326E-02    1.8326773277535058E+00    7.7965623373637509E+00
Ga    5.0479992685817654E-02   -1.2944981657817595E-02    8.4388261008580834E+00
N    5.0213625083922020E-02   -1.3915418797191428E-02    1.0414427102528867E+01
Ga    5.0298461959725642E-02    1.8261648398185935E+00    1.1065547867542922E+01
N    5.0770147128858897E-02    1.8065651373594123E+00    1.3060181121624600E+01
Ga    5.0212683534743681E-02   -1.3644217367038506E-02    1.3865070231103591E+01
N    4.9825093103815637E-02   -1.3213678833570072E-02    1.6065598679045610E+01
Ga    5.0470942342438312E-02    2.0283692271011913E+00    1.6478511732761600E+01
Ga    1.9579892143338405E-02    3.6941038316394961E+00    1.3619427032042850E+00
N   -1.4343672596690575E+00    4.5664953217198176E+00    2.5156099387835429E+00
Ga   -1.6287287251880598E+00    2.7277331277689307E+00    3.2779833170692747E+00
N   -1.5586194727483875E+00    2.7735249269336291E+00    5.2550075332301782E+00
Ga   -1.5877902905504646E+00    4.6395731050342590E+00    5.8048203099298181E+00
N   -1.5671246814481736E+00    4.6362331021939793E+00    7.7998323411578019E+00
Ga   -1.5477192266059565E+00    2.7757669604294679E+00    8.4336229638197491E+00
N   -1.5475783802320546E+00    2.7779280047834010E+00    1.0428721377871160E+01
Ga   -1.5734280801274840E+00    4.6361243972259558E+00    1.1067874152956099E+01
N   -1.5891307031607400E+00    4.6468331415102746E+00    1.3061185439196327E+01
Ga   -1.5463813212295594E+00    2.7776711651994219E+00    1.3617486781556821E+01
N   -1.5750413190347528E+00    2.7626661747860286E+00    1.5579144669341296E+01
Ga   -1.3962630029758387E+00    4.5357916854078510E+00    1.6479116355851527E+01
N    4.4307442305870498E-02    3.6955525501853970E+00    1.7611370373993207E+01
N   -3.1609969419126509E+00    7.5372973813696920E+00    2.5118009422733936E+00
Ga   -3.1385406626942309E+00    5.5419188552378511E+00    2.8402122808918446E+00
N   -3.1637694467871311E+00    5.5587594379428396E+00    5.0178689102391489E+00
Ga   -3.1711251479374369E+00    7.3809840420937842E+00    5.7982396272679955E+00
N   -3.1643410134605610E+00    7.4045186641418788E+00    7.7921430665879852E+00
Ga   -3.1659370966587987E+00    5.5579242203381511E+00    8.4447413643558686E+00
N   -3.1660415387294969E+00    5.5584729805515050E+00    1.0417684869402279E+01
Ga   -3.1678321932462770E+00    7.3976216306396827E+00    1.1068461156149043E+01
N   -3.1657384736702752E+00    7.3777746832070239E+00    1.3061509384057036E+01
Ga   -3.1647454620752913E+00    5.5570593428602768E+00    1.3864964840585051E+01
N   -3.1656077430504856E+00    5.5571965379451402E+00    1.6066292766637851E+01
Ga   -3.1654643027356695E+00    7.5981434447912504E+00    1.6477371766021790E+01
Ga   -3.1823686283694985E+00    9.2820233991938839E+00    1.4302829352885915E+00
N   -4.6694566333212615E+00    1.0143557496280566E+01    2.5085567132796456E+00
Ga   -4.8732671704600783E+00    8.2956067048122684E+00    3.2703209065898102E+00
N   -4.7719224056451273E+00    8.3447982162035004E+00    5.2393668502298612E+00
Ga   -4.8016836602326931E+00    1.0218597930528571E+01    5.7893734736869265E+00
N   -4.7829954624735134E+00    1.0205220490821306E+01    7.7892879469291705E+00
Ga   -4.7656318203303965E+00    8.3500437891962900E+00    8.4306112226607084E+00
N   -4.7636746691459546E+00    8.3485244231171531E+00    1.0425577888025011E+01
Ga   -4.7893253307715424E+00    1.0207552656511654E+01    1.1065679099793840E+01
N   -4.8050441281351990E+00    1.0217356513345557E+01    1.3060101392254953E+01
Ga   -4.7626528177347272E+00    8.3491073785971146E+00    1.3617974338413399E+01
N   -4.7902214791914925E+00    8.3325141993620839E+00    1.5580195690956131E+01
Ga   -4.6162269658549979E+00    1.0108956935211154E+01    1.6476698318769696E+01
N   -3.1733489166924733E+00    9.2682554292600212E+00    1.7609132960334165E+01
N    3.2571943508839927E+00    1.8503303042169919E+00    2.6139855840590949E+00
Ga    3.2608347219361384E+00    1.0216396449518791E-01    3.2719200048209962E+00
N    3.2691724902178225E+00   -1.4286140430576997E-02    5.2411690723417133E+00
Ga    3.2600153864436079E+00    1.8450268411120236E+00    5.8656402458040597E+00
N    3.2672361036674489E+00    1.8427757471605140E+00    7.8435974476557817E+00
Ga    3.2647216461660173E+00   -2.3367705324185199E-02    8.4321935040695237E+00
N    3.2663214934479576E+00   -2.6585323448297678E-02    1.0426516344306552E+01
Ga    3.2661134283049269E+00    1.8430505710972998E+00    1.1022406941119906E+01
N    3.2672334125072457E+00    1.8431919821626594E+00    1.2994303141193450E+01
Ga    3.2669511578790589E+00   -2.5899626736316315E-02    1.3617512818796353E+01
N    3.2690307879252081E+00    6.2348137744852811E-03    1.5578922511673165E+01
Ga    3.2670959385008591E+00    1.8441596675107508E+00    1.5859450410477461E+01
N    1.5416008372567536E+00    4.5699110603090016E+00    2.5150485738855566E+00
Ga    1.7294725924877976E+00    2.7349903807732350E+00    3.2637940275427826E+00
N    1.6602090335581097E+00    2.7733076591280525E+00    5.2474938503537123E+00
Ga    1.6894929205682236E+00    4.6373372857299815E+00    5.8029543025294501E+00
N    1.6685870262469351E+00    4.6358459541725843E+00    7.7985128954138432E+00
Ga    1.6492126275791834E+00    2.7756919249486272E+00    8.4330908840476937E+00
N    1.6478749156760244E+00    2.7782260581444591E+00    1.0427959104122399E+01
Ga    1.6742285352252591E+00    4.6363136676434431E+00    1.1067281404817795E+01
N    1.6906788986723622E+00    4.6468919932482233E+00    1.3060222185546394E+01
Ga    1.6481110092532358E+00    2.7781117714870187E+00    1.3617683470811883E+01
N    1.6769756245721776E+00    2.7641135102787242E+00    1.5578642014106734E+01
Ga    1.4920950952737613E+00    4.5329334128851020E+00    1.6479665844007318E+01
N    4.6749769027313245E-02    7.3998140151669602E+00    2.6852165575544293E+00
Ga    5.7049637087842414E-02    5.5576451417985053E+00    3.3300019375003691E+00
N    5.0993186554184909E-02    5.5723645451895285E+00    5.2675487110006669E+00
Ga    5.2679790731230525E-02    7.4127941450024455E+00    5.9009714387905836E+00
N    5.0964045946280269E-02    7.4166005642470658E+00    7.8597321793585619E+00
Ga    5.0879617744655117E-02    5.5431930317655613E+00    8.4416065983293969E+00
N    5.0361161084595284E-02    5.5443639919072929E+00    1.0431971267342067E+01
Ga    4.9939776642725864E-02    7.4135334859498672E+00    1.1026257625585297E+01
N    5.0572380064884334E-02    7.4145087743617122E+00    1.2996212483639713E+01
Ga    5.1198546654452302E-02    5.5444382836724211E+00    1.3618336250104401E+01
N    5.2109170551101133E-02    5.5768687114268261E+00    1.5578853870774447E+01
Ga    5.1366632573210461E-02    7.4142620862157242E+00    1.5860017041094755E+01
N   -1.6574617550296691E+00    1.0134048678782900E+01    2.5123833598065692E+00
Ga   -1.5303486217146598E+00    8.3240143450993038E+00    3.3143126071634974E+00
N   -1.5444594932228559E+00    8.3371410841401854E+00    5.2484513352963535E+00
Ga   -1.5326424070755362E+00    1.0221334364537121E+01    5.8011686386116672E+00
N   -1.5480522332197799E+00    1.0203188380369927E+01    7.7938566376580720E+00
Ga   -1.5705130746030076E+00    8.3500644378320121E+00    8.4424284113873380E+00
N   -1.5694703995590122E+00    8.3490137639959379E+00    1.0431441304884688E+01
Ga   -1.5435213624161916E+00    1.0208967027868638E+01    1.1067625484789696E+01
N   -1.5257798404420744E+00    1.0217605356769077E+01    1.3060312192888906E+01
Ga   -1.5683554016807326E+00    8.3492394284738349E+00    1.3618634856049569E+01
N   -1.5400128594228388E+00    8.3347381678689807E+00    1.5579907714540278E+01
Ga   -1.7221863792554943E+00    1.0104716292163824E+01    1.6477870158105851E+01
N    6.4834397402561867E+00    1.9701699799186569E+00    2.5305251286521342E+00
Ga    6.4850349869354513E+00   -7.6436628231412486E-03    2.8583793385349132E+00
N    6.4827710401680516E+00   -1.1207154012063911E-02    5.0201574587687645E+00
Ga    6.4822887915122784E+00    1.8187223306761731E+00    5.8011737264972805E+00
N    6.4825869591676577E+00    1.8321790534264062E+00    7.7967781384354167E+00
Ga    6.4830234821523884E+00   -1.3333958519476241E-02    8.4429563935117926E+00
N    6.4827519311435235E+00   -1.3756427744265373E-02    1.0416187394008382E+01
Ga    6.4821375761421942E+00    1.8271642943582547E+00    1.1065802589714821E+01
N    6.4829784683006197E+00    1.8063332887924162E+00    1.3060884449717967E+01
Ga    6.4827057944547564E+00   -1.4754725392263975E-02    1.3864454541234476E+01
N    6.4822681444865680E+00   -1.3855788402857843E-02    1.6066659835519193E+01
Ga    6.4834289919117225E+00    2.0215384517367969E+00    1.6473305602354582E+01
Ga    6.4861296944179818E+00    3.7012489937466837E+00    1.5144750496209527E+00
N    4.9819744976319278E+00    4.5694042978681022E+00    2.5259034770858340E+00
Ga    4.7659095944169421E+00    2.7159105657189877E+00    3.2908158003405621E+00
N    4.8735214116757346E+00    2.7731716448815189E+00    5.2526424070873805E+00
Ga    4.8505759570754012E+00    4.6452117199325587E+00    5.7988524374666008E+00
N    4.8650545630751409E+00    4.6355264350838725E+00    7.7950848952640772E+00
Ga    4.8829428786394340E+00    2.7771713564699105E+00    8.4335198575500936E+00
N    4.8850223245253446E+00    2.7784521604783192E+00    1.0427894842962489E+01
Ga    4.8599810720222658E+00    4.6372729304337108E+00    1.1065926570753136E+01
N    4.8431261853000747E+00    4.6472295937345862E+00    1.3060928294861951E+01
Ga    4.8859098313530351E+00    2.7781540020699547E+00    1.3616657573918932E+01
N    4.8603484712875904E+00    2.7635899071754446E+00    1.5581394288231602E+01
Ga    5.0280231916831220E+00    4.5409903109237408E+00    1.6473213153326945E+01
N    6.4755871520416868E+00    3.6969214256107699E+00    1.7607060779655754E+01
N    3.2562898099889805E+00    7.5368643752106772E+00    2.4721880828867682E+00
N    3.2675835685670847E+00    5.5601899948596101E+00    5.0208803223009362E+00
Ga    3.2708348768321822E+00    7.3832602643099712E+00    5.7980003600803514E+00
N    3.2643614101144665E+00    7.4050543754570359E+00    7.7917368150993207E+00
Ga    3.2671249244896150E+00    5.5580429453112732E+00    8.4437692562762408E+00
N    3.2667757324450521E+00    5.5585550491689162E+00    1.0416995764979548E+01
Ga    3.2681361297346356E+00    7.3973371146267786E+00    1.1068723923414234E+01
N    3.2672704702942124E+00    7.3777045147169025E+00    1.3061548026801406E+01
Ga    3.2654997541389044E+00    5.5571599070426680E+00    1.3865077508884077E+01
N    3.2654427682111389E+00    5.5573374972022433E+00    1.6066700022390791E+01
Ga    3.2669148328569935E+00    7.5985446680799340E+00    1.6478530615499881E+01
Ga    3.3001067934975081E+00    9.3216551200863886E+00    1.4195637328415436E+00
N    1.7620895940363359E+00    1.0138948137214214E+01    2.5126045708163374E+00
Ga    1.6380816860788281E+00    8.3226181349723429E+00    3.2968573753570163E+00
N    1.6461058309151910E+00    8.3353782335059314E+00    5.2364269596209514E+00
Ga    1.6324103207900122E+00    1.0217469379681138E+01    5.7993312077803463E+00
N    1.6483190712687878E+00    1.0201642060874020E+01    7.7926892446972076E+00
Ga    1.6712263351009369E+00    8.3499679273155518E+00    8.4442462062336219E+00
N    1.6697910890451237E+00    8.3488692374966149E+00    1.0432657025696475E+01
Ga    1.6441777864215448E+00    1.0208859921599736E+01    1.1068371259515455E+01
N    1.6273523050721619E+00    1.0217684574172328E+01    1.3061261611879653E+01
Ga    1.6702830808210043E+00    8.3489800298435917E+00    1.3618795046697583E+01
N    1.6428440878994914E+00    8.3338734751022319E+00    1.5581010379257171E+01
Ga    1.8187180948353954E+00    1.0107636900920671E+01    1.6478586298040049E+01
N    3.2610779688104756E+00    9.2675999472429353E+00    1.7614882661359577E+01
N    9.7087299658118411E+00    1.8494537178463024E+00    2.6245379653747904E+00
Ga    9.7041118997279199E+00    1.0341600621147803E-01    3.2849584760242094E+00
N    9.6962735645792950E+00   -1.4419008146111962E-02    5.2495871604929238E+00
Ga    9.7041871924380843E+00    1.8453324716735018E+00    5.8706200571579616E+00
N    9.6978594661340818E+00    1.8430402339698564E+00    7.8468002981767935E+00
Ga    9.7004784098313710E+00   -2.4450780534590402E-02    8.4307616842747262E+00
N    9.6983459146868363E+00   -2.7049089584429198E-02    1.0425716393199652E+01
Ga    9.6980574585844188E+00    1.8425204885343807E+00    1.1021878192227556E+01
N    9.6983460263045576E+00    1.8429262761955771E+00    1.2994203575777606E+01
Ga    9.6997522327369143E+00   -2.5971508083734857E-02    1.3617743086058130E+01
N    9.7002795973507805E+00    5.3215324465918958E-03    1.5578933733966560E+01
Ga    9.6997123289316409E+00    1.8437125559558125E+00    1.5858475775927564E+01
N    7.9866612300048034E+00    4.5699404889792916E+00    2.5274579908459107E+00
Ga    8.1995731724545458E+00    2.7167546823821920E+00    3.2945902131294567E+00
N    8.0915525625963038E+00    2.7735293551805698E+00    5.2557587275400559E+00
Ga    8.1170025900164138E+00    4.6463145287550809E+00    5.7983561943851498E+00
N    8.1007840258180863E+00    4.6359955912784399E+00    7.7952215957933513E+00
Ga    8.0817693808470796E+00    2.7777382895908653E+00    8.4340385626319883E+00
N    8.0792553080922200E+00    2.7786076729327092E+00    1.0428128372867052E+01
Ga    8.1046745354919736E+00    4.6374455096668248E+00    1.1065693180010244E+01
N    8.1226886457549519E+00    4.6471150429081884E+00    1.3060347610191901E+01
Ga    8.0804510263860010E+00    2.7781501039880454E+00    1.3616383761589594E+01
N    8.1068341085842182E+00    2.7651549184882462E+00    1.5579915053667561E+01
Ga    7.9322945469631678E+00    4.5373797347574731E+00    1.6473750965040381E+01
N    6.4801236822447539E+00    7.4177750916461429E+00    2.6046691287539283E+00
Ga    6.4835732919226885E+00    5.6790686531979695E+00    3.2882530788052549E+00
N    6.4834163940240588E+00    5.5609963477083184E+00    5.2496923801807593E+00
Ga    6.4808549211014981E+00    7.4199571693427453E+00    5.8628287355585575E+00
N    6.4822571573734997E+00    7.4157742492293428E+00    7.8392850467156965E+00
Ga    6.4827602232151857E+00    5.5484222848308820E+00    8.4322698091783526E+00
N    6.4822966346018021E+00    5.5451736423452935E+00    1.0426706454204774E+01
Ga    6.4818197361645362E+00    7.4140216041528202E+00    1.1021911622715196E+01
N    6.4826836472905720E+00    7.4142019696228356E+00    1.2994168486745741E+01
Ga    6.4832002902230821E+00    5.5450587693722397E+00    1.3616370752005560E+01
N    6.4848512192793883E+00    5.5747282300333918E+00    1.5579800881812883E+01
Ga    6.4830488271008893E+00    7.4146386416372279E+00    1.5859505426275664E+01
N    4.7754078119680097E+00    1.0148470443694720E+01    2.5213495502465895E+00
Ga    4.9595494236587268E+00    8.2873582165751749E+00    3.2626437580083416E+00
N    4.8707902454641401E+00    8.3436161132822129E+00    5.2351606102490305E+00
Ga    4.9043199744926849E+00    1.0216363457794035E+01    5.7879854869665772E+00
N    4.8847632070698266E+00    1.0204670277639842E+01    7.7886815158932503E+00
Ga    4.8659609731988755E+00    8.3500551304584931E+00    8.4306283660148758E+00
N    4.8633420351927636E+00    8.3485984941374145E+00    1.0425167173032136E+01
Ga    4.8894442706719179E+00    1.0207537608298448E+01    1.1065013581466697E+01
N    4.9063116807181775E+00    1.0217304188578622E+01    1.3059167866267957E+01
Ga    4.8642642286500264E+00    8.3493816520220285E+00    1.3618144559827000E+01
N    4.8917407654418259E+00    8.3348204306098594E+00    1.5579478438256709E+01
Ga    4.7113391570192071E+00    1.0105531567535785E+01    1.6478645591431331E+01
O    3.5045438484707966E-02    4.0333007715010023E+00   -4.4668330764733205E-01
H    5.0814430691812400E-02    5.8211085058869507E+00   -3.6330530503314812E-01
C    1.1135544325372013E+00    3.4517722782823248E+00   -1.2045580540739087E+00
H    2.1010365732518879E+00    3.7021493183422276E+00   -7.8317373025660064E-01
H    1.0237249527432901E+00    2.3558831061672056E+00   -1.2519062273425210E+00
H    1.0545840986983659E+00    3.8497472002259849E+00   -2.2276623386793051E+00
Ga    3.2420706011593459E+00    5.5397101235205088E+00    2.8564548999672210E+00
O    1.9724016475304365E-01    6.7950281631802190E+00   -2.2308519871688551E-01
H    2.6362219325285163E-02    7.3271756467240179E+00    1.6472615591428053E+00
C    1.5871555693660384E+00    7.0419155440743308E+00   -4.8285693435604826E-01
H    1.6872222923309601E+00    8.0990459486914439E+00   -7.7751563453240879E-01
H    2.2130700323138703E+00    6.8726969582955366E+00    4.1452567113647198E-01
H    1.9670055238233999E+00    6.4268152983157973E+00   -1.3109748010468618E+00
     &END COORD
     &KIND C
       BASIS_SET DZVP-MOLOPT-SR-GTH-q4
       POTENTIAL GTH-PBE-q4
       &POTENTIAL
2 2
0.3384712400000000E+00 2 -0.8803673979999999E+01  0.1339210850000000E+01
2
0.3025757500000000E+00 1  0.9622486650000001E+01
0.2915069400000000E+00 0
       &END POTENTIAL
     &END KIND
     &KIND O
       BASIS_SET DZVP-MOLOPT-SR-GTH-q6
       POTENTIAL GTH-PBE-q6
       &POTENTIAL
2 4
0.2445543000000000E+00 2 -0.1666721480000000E+02  0.2487311320000000E+01
2
0.2209559200000000E+00 1  0.1833745811000000E+02
0.2113324700000000E+00 0
       &END POTENTIAL
     &END KIND
     &KIND H
       BASIS_SET DZVP-MOLOPT-SR-GTH-q1
       POTENTIAL GTH-PBE-q1
       &POTENTIAL
1
0.2000000000000000E+00 2 -0.4178900440000000E+01  0.7244633100000000E+00
0
       &END POTENTIAL
     &END KIND
     &KIND N
       BASIS_SET DZVP-MOLOPT-SR-GTH
       POTENTIAL GTH-PBE-q5
       &POTENTIAL
2 3
0.2837905100000000E+00 2 -0.1241522559000000E+02  0.1868095920000000E+01
2
0.2554050000000000E+00 1  0.1363026257000000E+02
0.2454945300000000E+00 0
       &END POTENTIAL
     &END KIND
     &KIND Ga
       BASIS_SET DZVP-MOLOPT-SR-GTH
       POTENTIAL GTH-PBE-q13
       &POTENTIAL
2 1 10
0.4900000000000000E+00 0
3
0.4167772300000000E+00 3  0.1047568975000000E+02 -0.4921768140000000E+01  0.8707055900000000E+00
0.7770178090000000E+01 -0.2248152160000000E+01
0.1784415450000000E+01
0.5696265200000000E+00 2  0.1777985340000000E+01  0.1958597600000000E+00
-0.2317443900000000E+00
0.2381265000000000E+00 1 -0.1624868022000000E+02
       &END POTENTIAL
     &END KIND
     &TOPOLOGY
       NUMBER_OF_ATOMS  212
       MULTIPLE_UNIT_CELL  1 1 1
     &END TOPOLOGY
     &COLVAR
       &DISTANCE
         ATOMS  127 211
       &END DISTANCE
       &PRINT
       &END PRINT
     &END COLVAR
   &END SUBSYS
 &END FORCE_EVAL
