 # Version information for this restart file 
 # current date 2019-07-11 13:07:57.485
 # current working dir /lustre04/scratch/rzk/rzk/GaN-carbene/443-adatoms-both-2x2/09-BondBreaking-CH/02-0401-CH-to-NTop-PES
 # Program compiled at                              Sun Apr  7 00:48:11 EDT 2019
 # Program compiled on                          beluga2.int.ets1.calculquebec.ca
 # Program compiled for                        Beluga-Linux-x86-64-intel-openmpi
 # Source code revision number                                         svn:18619
 &GLOBAL
   PRINT_LEVEL  MEDIUM
   PROJECT_NAME TEST
   RUN_TYPE  GEO_OPT
 &END GLOBAL
 &MOTION
   &GEO_OPT
     MAX_ITER  500
     STEP_START_VAL  26
   &END GEO_OPT
   &CONSTRAINT
     &COLLECTIVE
       COLVAR  1
       INTERMOLECULAR  T
       TARGET     3.7794522657712859E+00
       &RESTRAINT
         K     2.0000000000000000E+00
       &END RESTRAINT
     &END COLLECTIVE
     &COLVAR_RESTART
           3.7794522657712859E+00
     &END COLVAR_RESTART
   &END CONSTRAINT
 &END MOTION
 &FORCE_EVAL
   METHOD  QS
   STRESS_TENSOR  ANALYTICAL
   &DFT
     BASIS_SET_FILE_NAME BASIS_MOLOPT
     POTENTIAL_FILE_NAME GTH_POTENTIALS
     UKS  T
     SURFACE_DIPOLE_CORRECTION  T
     SURF_DIP_DIR  Z
     &SCF
       MAX_SCF  80
       EPS_SCF     5.0000000000000004E-06
       &OT  T
         PRECONDITIONER  FULL_ALL
       &END OT
       &OUTER_SCF  T
         OPTIMIZER  NONE
         EPS_SCF     5.0000000000000004E-06
         MAX_SCF  4
       &END OUTER_SCF
       &PRINT
         &RESTART  OFF
           BACKUP_COPIES  1
           &EACH
             JUST_ENERGY  0
             QS_SCF  0
             MD  20
           &END EACH
         &END RESTART
       &END PRINT
     &END SCF
     &QS
       EPS_DEFAULT     1.0000000000000000E-14
       METHOD  GPW
     &END QS
     &MGRID
       NGRIDS  5
       CUTOFF     1.2000000000000000E+03
     &END MGRID
     &XC
       DENSITY_CUTOFF     1.0000000000000000E-10
       GRADIENT_CUTOFF     1.0000000000000000E-10
       TAU_CUTOFF     1.0000000000000000E-10
       &XC_FUNCTIONAL  NO_SHORTCUT
         &PBE  T
         &END PBE
       &END XC_FUNCTIONAL
       &VDW_POTENTIAL
         POTENTIAL_TYPE  PAIR_POTENTIAL
         &PAIR_POTENTIAL
           R_CUTOFF     1.0000000000000009E+01
           TYPE  DFTD3
           PARAMETER_FILE_NAME dftd3.dat
           REFERENCE_FUNCTIONAL PBE
           EPS_CN     9.9999999999999995E-07
           CALCULATE_C9_TERM  T
           REFERENCE_C9_TERM  T
           LONG_RANGE_CORRECTION  F
           VERBOSE_OUTPUT  F
         &END PAIR_POTENTIAL
       &END VDW_POTENTIAL
     &END XC
   &END DFT
   &SUBSYS
     &CELL
       A     1.2864472766435110E+01    0.0000000000000000E+00    0.0000000000000000E+00
       B    -6.4322363581020028E+00    1.1140960178524477E+01    0.0000000000000000E+00
       C     0.0000000000000000E+00    0.0000000000000000E+00    3.2000000000000000E+01
       MULTIPLE_UNIT_CELL  1 1 1
       &CELL_REF
         A     1.2982353780853531E+01    0.0000000000000000E+00    0.0000000000000000E+00
         B    -6.4911768904267628E+00    1.1243048175136114E+01    0.0000000000000000E+00
         C     0.0000000000000000E+00    0.0000000000000000E+00    3.2000000000000000E+01
         MULTIPLE_UNIT_CELL  1 1 1
       &END CELL_REF
     &END CELL
     &COORD
N    3.9110594795890199E-02    1.9920543548586844E+00    2.4860670354236776E+00
Ga    4.3700225963356550E-02    3.0060605091151740E-02    2.8322744166501175E+00
N    4.1093127688781303E-02   -1.1861612753902273E-02    5.0040854043880998E+00
Ga    4.2107480589178813E-02    1.8162203860670723E+00    5.7953258682891162E+00
N    4.1268473104446347E-02    1.8274884261714790E+00    7.7912409612945321E+00
Ga    4.1230324867458479E-02   -1.7321833556948565E-02    8.4406324554183207E+00
N    4.1270251061605784E-02   -1.8872617160749491E-02    1.0410656579004799E+01
Ga    4.1744693042614758E-02    1.8208671310627504E+00    1.1068058483574726E+01
N    4.2029045361983486E-02    1.8006839475032088E+00    1.3056442614570749E+01
Ga    4.2087818811240858E-02   -1.8282320741134245E-02    1.3870896328905443E+01
N    4.2420617798287825E-02   -1.6719244918656395E-02    1.6061642340576391E+01
Ga    4.2459474541556540E-02    2.0370963304471519E+00    1.6482995460520719E+01
Ga    1.4142620116224707E-02    3.6947165921823357E+00    1.3579336688134402E+00
N   -1.4427577843198480E+00    4.5644978885516592E+00    2.5081487309311825E+00
Ga   -1.6385672014342707E+00    2.7270192681825245E+00    3.2738456288623214E+00
N   -1.5686755092164639E+00    2.7693416052021789E+00    5.2487881898026538E+00
Ga   -1.5971825688314365E+00    4.6346075111765774E+00    5.8063282252263209E+00
N   -1.5765155576690513E+00    4.6317018077842329E+00    7.7959936978833264E+00
Ga   -1.5561747468599219E+00    2.7716515466153324E+00    8.4370424249169904E+00
N   -1.5552924730691409E+00    2.7739930928754291E+00    1.0425019464509370E+01
Ga   -1.5827349339860932E+00    4.6321240564325077E+00    1.1071706629299987E+01
N   -1.5986612257277404E+00    4.6418966646237720E+00    1.3059184898075186E+01
Ga   -1.5558682978841121E+00    2.7714571576584501E+00    1.3618105607120309E+01
N   -1.5842864653748943E+00    2.7538138521628537E+00    1.5573378462923962E+01
Ga   -1.3987793952853387E+00    4.5271307060947663E+00    1.6481679134751037E+01
N    4.2393990064483272E-02    3.7007529166872528E+00    1.7610635031170037E+01
N   -3.1741998053242102E+00    7.5348941731119812E+00    2.5083701775829090E+00
Ga   -3.1502989204093619E+00    5.5345252818255686E+00    2.8424715470672846E+00
N   -3.1728490566991501E+00    5.5547457055164990E+00    5.0120002904199543E+00
Ga   -3.1819930347270917E+00    7.3757672282639577E+00    5.7998742705753479E+00
N   -3.1740815757162490E+00    7.3997064256982181E+00    7.7879956731897595E+00
Ga   -3.1754214021971756E+00    5.5529653853993493E+00    8.4465709842726575E+00
N   -3.1748711700525716E+00    5.5535021017982436E+00    1.0414090888915492E+01
Ga   -3.1766449948320248E+00    7.3920160845086960E+00    1.1071031651258924E+01
N   -3.1745860559982328E+00    7.3719588641574312E+00    1.3058169130457676E+01
Ga   -3.1744471063685551E+00    5.5516857899243357E+00    1.3875443102634929E+01
N   -3.1739440235714476E+00    5.5524633026821206E+00    1.6060740291177549E+01
Ga   -3.1740093273971164E+00    7.5980150295732578E+00    1.6480248230037013E+01
Ga   -3.1954516015019658E+00    9.2811759423999085E+00    1.4497715155765767E+00
N   -4.6813873180515992E+00    1.0139931423933563E+01    2.5088480653439142E+00
Ga   -4.8913010471208169E+00    8.2882970389685173E+00    3.2725605944793079E+00
N   -4.7832088412728098E+00    8.3396787301724551E+00    5.2357433135812288E+00
Ga   -4.8110882453073875E+00    1.0213175633360715E+01    5.7904458355409849E+00
N   -4.7929508569590711E+00    1.0200771024703311E+01    7.7842588926709331E+00
Ga   -4.7752475192115185E+00    8.3453440848218463E+00    8.4320272937828111E+00
N   -4.7716842977276084E+00    8.3442473848974554E+00    1.0420467469967793E+01
Ga   -4.7981684450720472E+00    1.0202961385709735E+01    1.1067609787874234E+01
N   -4.8140102447320601E+00    1.0212313594133795E+01    1.3056307196043393E+01
Ga   -4.7712044678432814E+00    8.3436511042238504E+00    1.3618930763284444E+01
N   -4.7961836358844057E+00    8.3289496196587773E+00    1.5576748694200653E+01
Ga   -4.6218924546921674E+00    1.0102145519957947E+01    1.6480397297702552E+01
N   -3.1741764013791647E+00    9.2721633999973054E+00    1.7623960711230421E+01
N    3.2471464514081623E+00    1.8474619081500783E+00    2.6073903846165316E+00
Ga    3.2496509576921522E+00    1.0423791532946242E-01    3.2769551915102073E+00
N    3.2590213269093136E+00   -1.8369695403422970E-02    5.2396756060964620E+00
Ga    3.2506067549650952E+00    1.8420389270839348E+00    5.8690277943449045E+00
N    3.2578443178425274E+00    1.8384199198044389E+00    7.8409653442289207E+00
Ga    3.2552999488915235E+00   -2.7658614792380277E-02    8.4339308577021814E+00
N    3.2574866441601080E+00   -3.1836289303272682E-02    1.0421882079131560E+01
Ga    3.2574980647680558E+00    1.8384804658443792E+00    1.1022543922004431E+01
N    3.2581629154505971E+00    1.8371679235680896E+00    1.2987318560363455E+01
Ga    3.2577878766932629E+00   -3.0761081963617029E-02    1.3618609120199283E+01
N    3.2582667983261300E+00   -2.3120530596190177E-03    1.5577117719283935E+01
Ga    3.2586194369865855E+00    1.8364612160291731E+00    1.5859467701499723E+01
N    1.5318757378855767E+00    4.5655458665739292E+00    2.5186517770050245E+00
Ga    1.7190735119897300E+00    2.7299708762462918E+00    3.2637796748091401E+00
N    1.6510143249721969E+00    2.7681502972304606E+00    5.2440768573502634E+00
Ga    1.6785848970860451E+00    4.6318645522389676E+00    5.8040683755706848E+00
N    1.6595305135359111E+00    4.6313705805663057E+00    7.7939742695637637E+00
Ga    1.6396081720577200E+00    2.7712648886606801E+00    8.4354256588822452E+00
N    1.6384648423270345E+00    2.7739252321131556E+00    1.0423962160065081E+01
Ga    1.6658638443719402E+00    4.6317982021440187E+00    1.1071410521630865E+01
N    1.6826480768009069E+00    4.6418314693026508E+00    1.3058996283253165E+01
Ga    1.6398278465302614E+00    2.7715067272341423E+00    1.3618319365850665E+01
N    1.6691316181239346E+00    2.7538309652102857E+00    1.5573474305628698E+01
Ga    1.4836700752678376E+00    4.5271089341999549E+00    1.6481891364277839E+01
N    3.4187899999684808E-02    7.3957225931804036E+00    2.6850364159238262E+00
Ga    4.6290973737478439E-02    5.5522240213439744E+00    3.3312517920266824E+00
N    4.1065168214310450E-02    5.5679639557533340E+00    5.2654501138080567E+00
Ga    4.1889000278834639E-02    7.4070541844012787E+00    5.9031013869875997E+00
N    4.1506262345947717E-02    7.4122388070074150E+00    7.8566326229428567E+00
Ga    4.1769452540092490E-02    5.5382543637749784E+00    8.4441790870092550E+00
N    4.1606833418029891E-02    5.5398893755810326E+00    1.0429110012253492E+01
Ga    4.1015771317832142E-02    7.4095722645369735E+00    1.1027612719042514E+01
N    4.1806156269396474E-02    7.4101597710559703E+00    1.2992178511519041E+01
Ga    4.2044626641105927E-02    5.5391744582529290E+00    1.3619644392242668E+01
N    4.2469840093559974E-02    5.5760886487041770E+00    1.5575262309263806E+01
Ga    4.2195797285483908E-02    7.4110083251209860E+00    1.5856927860997027E+01
N   -1.6698613103198341E+00    1.0129932508509626E+01    2.5120578940881422E+00
Ga   -1.5410872263352127E+00    8.3175406462020973E+00    3.3169968583916711E+00
N   -1.5550895338126158E+00    8.3324770867236602E+00    5.2465893765657050E+00
Ga   -1.5432806513103758E+00    1.0216415441578155E+01    5.8029477594430716E+00
N   -1.5571707734654108E+00    1.0198829060198650E+01    7.7895101070102468E+00
Ga   -1.5802139493561895E+00    8.3455558238845029E+00    8.4444187925803469E+00
N   -1.5788462952108417E+00    8.3446324498159825E+00    1.0427593250870421E+01
Ga   -1.5521951344657423E+00    1.0204486800464583E+01    1.1070613618769732E+01
N   -1.5342110905431219E+00    1.0212827525870487E+01    1.3058075651056292E+01
Ga   -1.5780304770182934E+00    8.3438190477144190E+00    1.3619689376529491E+01
N   -1.5517089156094377E+00    8.3289229801934006E+00    1.5577276679452019E+01
Ga   -1.7262410805550263E+00    1.0102100860999414E+01    1.6480546524825449E+01
N    6.4730949259649639E+00    1.9668263499661918E+00    2.5272558236600799E+00
Ga    6.4700678480371501E+00   -4.5522554894070781E-03    2.8639075419001321E+00
N    6.4730766985847783E+00   -1.7061302075110092E-02    5.0139114323613310E+00
Ga    6.4730380167771324E+00    1.8160780884718619E+00    5.8007287731957486E+00
N    6.4734946460391534E+00    1.8269534697816574E+00    7.7914352791856576E+00
Ga    6.4732616951361193E+00   -1.7514099588260074E-02    8.4451554958643751E+00
N    6.4737961121910654E+00   -1.8710743896147568E-02    1.0412611354170815E+01
Ga    6.4736125920017962E+00    1.8220609024217791E+00    1.1068647256462771E+01
N    6.4741900304886402E+00    1.8008380912367614E+00    1.3056424601148574E+01
Ga    6.4741903364185083E+00   -1.7707846988361892E-02    1.3872491697720005E+01
N    6.4744903340304942E+00   -1.6473531593393709E-02    1.6061969739646280E+01
Ga    6.4747144868889466E+00    2.0375101423238431E+00    1.6482698755851768E+01
Ga    6.4751385874665779E+00    3.6963666930620995E+00    1.5024858007497455E+00
N    4.9720168186877656E+00    4.5643288154991355E+00    2.5236176348124708E+00
Ga    4.7570290154891595E+00    2.7118453092035288E+00    3.2886362635286361E+00
N    4.8633044844024997E+00    2.7681190063978063E+00    5.2483318206681986E+00
Ga    4.8434464559825452E+00    4.6395543848853054E+00    5.7992826276904514E+00
N    4.8557744799289528E+00    4.6311452152083135E+00    7.7901216532984279E+00
Ga    4.8740531633496413E+00    2.7726464586343984E+00    8.4355079092182628E+00
N    4.8768900422292010E+00    2.7740745971507210E+00    1.0423276842972411E+01
Ga    4.8511079222476727E+00    4.6327936987265455E+00    1.1069485067597611E+01
N    4.8340122178125284E+00    4.6418929590570137E+00    1.3057520696750007E+01
Ga    4.8764795324285464E+00    2.7718226919996627E+00    1.3617858166095530E+01
N    4.8480249983990280E+00    2.7540158073192189E+00    1.5573105390055046E+01
Ga    5.0334553707018532E+00    4.5274182044501767E+00    1.6481347709181772E+01
N    6.4747705254426133E+00    3.7014243093711459E+00    1.7610424029031769E+01
N    3.2326722377170314E+00    7.5324147944178215E+00    2.4402766396846012E+00
N    3.2583975268808816E+00    5.5570038574675324E+00    5.0153843396741600E+00
Ga    3.2612694194243432E+00    7.3784281144148363E+00    5.8024919687393952E+00
N    3.2548824302284505E+00    7.4000479996131032E+00    7.7887339622089096E+00
Ga    3.2578873372916983E+00    5.5523060978592174E+00    8.4458761174663728E+00
N    3.2578702626144045E+00    5.5533923125173290E+00    1.0413476435877405E+01
Ga    3.2594337313906787E+00    7.3915427981691897E+00    1.1071626717342481E+01
N    3.2584332586778446E+00    7.3717311286891434E+00    1.3058559605031215E+01
Ga    3.2585780642777817E+00    5.5514329751447518E+00    1.3875683133599617E+01
N    3.2587158626143746E+00    5.5522452195345098E+00    1.6060893202138868E+01
Ga    3.2587088792843160E+00    7.5977446276443299E+00    1.6480238511568508E+01
Ga    3.2860148969397085E+00    9.3384129025099725E+00    1.4601989302505907E+00
N    1.7514552853890824E+00    1.0137755958244540E+01    2.5159709633183045E+00
Ga    1.6220987158417599E+00    8.3156819733109462E+00    3.3023860015761368E+00
N    1.6373009389665572E+00    8.3307198011065591E+00    5.2348894072620062E+00
Ga    1.6225978758034396E+00    1.0213181851928635E+01    5.8025399944873337E+00
N    1.6386321399468899E+00    1.0197097804953779E+01    7.7889579463866472E+00
Ga    1.6615339608965272E+00    8.3452006557097018E+00    8.4470616441716135E+00
N    1.6614454856244898E+00    8.3446034100461812E+00    1.0429132510311531E+01
Ga    1.6350905476411726E+00    1.0204718612869515E+01    1.1071242387185537E+01
N    1.6181699761205901E+00    1.0212833743021774E+01    1.3058512850621213E+01
Ga    1.6617693064041246E+00    8.3436414727491997E+00    1.3619767716757755E+01
N    1.6363165714082659E+00    8.3288193916843571E+00    1.5577497246105459E+01
Ga    1.8107566714717254E+00    1.0102162327174083E+01    1.6480457918362834E+01
N    3.2589529084086988E+00    9.2721326950463006E+00    1.7624031741174395E+01
N    9.6977632869769810E+00    1.8501147023363069E+00    2.6148244446745816E+00
Ga    9.6935139852735688E+00    1.1450189511297858E-01    3.2961634799663315E+00
N    9.6864374986855548E+00   -1.7200608136195138E-02    5.2502393788233093E+00
Ga    9.6946084238450307E+00    1.8448105741479519E+00    5.8751464465094649E+00
N    9.6888476306256450E+00    1.8391843175557578E+00    7.8447879687297295E+00
Ga    9.6914608859262028E+00   -2.8640315598146011E-02    8.4331744410450060E+00
N    9.6896452826019850E+00   -3.2115327929033009E-02    1.0421454477268696E+01
Ga    9.6898537724081368E+00    1.8383404063357371E+00    1.1022387934284808E+01
N    9.6901837361489207E+00    1.8370315452673525E+00    1.2987185761109073E+01
Ga    9.6907641752370122E+00   -3.0658140603779055E-02    1.3618871951176400E+01
N    9.6909262904287345E+00   -2.2517188266923515E-03    1.5577396823070577E+01
Ga    9.6906142913754074E+00    1.8366281868672092E+00    1.5859476651353932E+01
N    7.9755884614627224E+00    4.5668219930707119E+00    2.5219377343220715E+00
Ga    8.1879489045439158E+00    2.7166718078816903E+00    3.2914284945340442E+00
N    8.0825249437394167E+00    2.7691670916690967E+00    5.2506223261317668E+00
Ga    8.1068678575215962E+00    4.6419120449806623E+00    5.7981481629051528E+00
N    8.0914025374165988E+00    4.6318025009258337E+00    7.7903148579586787E+00
Ga    8.0718937301741089E+00    2.7738346809316323E+00    8.4367531604558827E+00
N    8.0702846967259152E+00    2.7743598964369172E+00    1.0424107544239302E+01
Ga    8.0964450492702902E+00    4.6331028002208035E+00    1.1069935648435163E+01
N    8.1144163442223523E+00    4.6419730783855924E+00    1.3057738116756402E+01
Ga    8.0720414229987068E+00    2.7719066711134315E+00    1.3617762030210971E+01
N    8.1012044470827842E+00    2.7540621641219794E+00    1.5572961169679695E+01
Ga    7.9159222787840804E+00    4.5275035023312666E+00    1.6481147217547885E+01
N    6.4654658546180883E+00    7.4119064085210216E+00    2.5951144205462899E+00
Ga    6.4736929723056820E+00    5.6721312103712380E+00    3.2844656631224294E+00
N    6.4739723948655019E+00    5.5571789163333731E+00    5.2440492334081403E+00
Ga    6.4698036658368903E+00    7.4139159496750215E+00    5.8644898248735950E+00
N    6.4721416174326132E+00    7.4113313989717389E+00    7.8351909054521016E+00
Ga    6.4735459027466735E+00    5.5435218442844558E+00    8.4347079416072130E+00
N    6.4737245726305419E+00    5.5407738544696921E+00    1.0423042939397947E+01
Ga    6.4737190147359991E+00    7.4101652477905748E+00    1.1022887275010961E+01
N    6.4741414705077913E+00    7.4101754805717164E+00    1.2988840711466704E+01
Ga    6.4742925905194610E+00    5.5397956807214559E+00    1.3618202846063213E+01
N    6.4745540646931348E+00    5.5760545836723816E+00    1.5574056934586311E+01
Ga    6.4745656687430460E+00    7.4108512484780569E+00    1.5856825626065957E+01
N    4.7633141779370254E+00    1.0147029911605047E+01    2.5248827041450776E+00
Ga    4.9436274026286071E+00    8.2721486760722414E+00    3.2617178875247643E+00
N    4.8589657779222586E+00    8.3382765385391355E+00    5.2290940254732279E+00
Ga    4.8945952874321090E+00    1.0210602300095747E+01    5.7893046644486059E+00
N    4.8757798643929782E+00    1.0199838192449100E+01    7.7835394094828105E+00
Ga    4.8565552880086260E+00    8.3454350863314026E+00    8.4336374605757793E+00
N    4.8540878766878812E+00    8.3441915103526689E+00    1.0421375818190814E+01
Ga    4.8808993629844100E+00    1.0203079100453081E+01    1.1067878050440381E+01
N    4.8978532429824622E+00    1.0212338361942601E+01    1.3056450092323836E+01
Ga    4.8552105055795147E+00    8.3436819059406648E+00    1.3619042311743033E+01
N    4.8807608714133446E+00    8.3289720325653143E+00    1.5576848425084144E+01
Ga    4.7068155849112774E+00    1.0102266204738886E+01    1.6480368575758867E+01
O    7.8748237824079109E-02    4.0284896284981331E+00   -4.5195343547058014E-01
H    2.0806696444028677E-01    5.8107438226006805E+00   -3.5954932807362450E-01
C    1.1429661522701209E+00    3.3870955437447265E+00   -1.1819513410320674E+00
H    2.1306792518673920E+00    3.5706148251518792E+00   -7.2675119985240977E-01
H    9.8692674486457665E-01    2.2990026594560757E+00   -1.2432914188695734E+00
H    1.1430873535386872E+00    3.7971320411549931E+00   -2.2021335456675635E+00
Ga    3.2344248118725671E+00    5.5209566410298399E+00    2.8691474840365663E+00
O    3.9496080175583920E-01    6.7688574477136285E+00   -1.6927603479666134E-01
H    2.9495925230710398E-02    7.3196339660164123E+00    1.6469481507794890E+00
C    1.8195152443840596E+00    6.9420170197439015E+00   -2.3517613781354790E-01
H    2.0205062209296787E+00    7.9288414762223738E+00   -6.9808807896814185E-01
H    2.2982320698029248E+00    6.9454601463113823E+00    7.6982118068799377E-01
H    2.2976370407175470E+00    6.1799863721395942E+00   -8.6635567060800234E-01
     &END COORD
     &KIND C
       BASIS_SET DZVP-MOLOPT-SR-GTH-q4
       POTENTIAL GTH-PBE-q4
       &POTENTIAL
2 2
0.3384712400000000E+00 2 -0.8803673979999999E+01  0.1339210850000000E+01
2
0.3025757500000000E+00 1  0.9622486650000001E+01
0.2915069400000000E+00 0
       &END POTENTIAL
     &END KIND
     &KIND O
       BASIS_SET DZVP-MOLOPT-SR-GTH-q6
       POTENTIAL GTH-PBE-q6
       &POTENTIAL
2 4
0.2445543000000000E+00 2 -0.1666721480000000E+02  0.2487311320000000E+01
2
0.2209559200000000E+00 1  0.1833745811000000E+02
0.2113324700000000E+00 0
       &END POTENTIAL
     &END KIND
     &KIND H
       BASIS_SET DZVP-MOLOPT-SR-GTH-q1
       POTENTIAL GTH-PBE-q1
       &POTENTIAL
1
0.2000000000000000E+00 2 -0.4178900440000000E+01  0.7244633100000000E+00
0
       &END POTENTIAL
     &END KIND
     &KIND N
       BASIS_SET DZVP-MOLOPT-SR-GTH
       POTENTIAL GTH-PBE-q5
       &POTENTIAL
2 3
0.2837905100000000E+00 2 -0.1241522559000000E+02  0.1868095920000000E+01
2
0.2554050000000000E+00 1  0.1363026257000000E+02
0.2454945300000000E+00 0
       &END POTENTIAL
     &END KIND
     &KIND Ga
       BASIS_SET DZVP-MOLOPT-SR-GTH
       POTENTIAL GTH-PBE-q13
       &POTENTIAL
2 1 10
0.4900000000000000E+00 0
3
0.4167772300000000E+00 3  0.1047568975000000E+02 -0.4921768140000000E+01  0.8707055900000000E+00
0.7770178090000000E+01 -0.2248152160000000E+01
0.1784415450000000E+01
0.5696265200000000E+00 2  0.1777985340000000E+01  0.1958597600000000E+00
-0.2317443900000000E+00
0.2381265000000000E+00 1 -0.1624868022000000E+02
       &END POTENTIAL
     &END KIND
     &TOPOLOGY
       NUMBER_OF_ATOMS  212
       MULTIPLE_UNIT_CELL  1 1 1
     &END TOPOLOGY
     &COLVAR
       &DISTANCE
         ATOMS  127 211
       &END DISTANCE
       &PRINT
       &END PRINT
     &END COLVAR
   &END SUBSYS
 &END FORCE_EVAL
