 # Version information for this restart file 
 # current date 2019-07-11 13:03:38.006
 # current working dir /lustre04/scratch/rzk/rzk/GaN-carbene/443-adatoms-both-2x2/09-BondBreaking-CH/02-0401-CH-to-NTop-PES
 # Program compiled at                              Sun Apr  7 00:48:11 EDT 2019
 # Program compiled on                          beluga2.int.ets1.calculquebec.ca
 # Program compiled for                        Beluga-Linux-x86-64-intel-openmpi
 # Source code revision number                                         svn:18619
 &GLOBAL
   PRINT_LEVEL  MEDIUM
   PROJECT_NAME TEST
   RUN_TYPE  GEO_OPT
 &END GLOBAL
 &MOTION
   &GEO_OPT
     MAX_ITER  500
     STEP_START_VAL  24
   &END GEO_OPT
   &CONSTRAINT
     &COLLECTIVE
       COLVAR  1
       INTERMOLECULAR  T
       TARGET     3.7794522657712859E+00
       &RESTRAINT
         K     2.0000000000000000E+00
       &END RESTRAINT
     &END COLLECTIVE
     &COLVAR_RESTART
           3.7794522657712859E+00
     &END COLVAR_RESTART
   &END CONSTRAINT
 &END MOTION
 &FORCE_EVAL
   METHOD  QS
   STRESS_TENSOR  ANALYTICAL
   &DFT
     BASIS_SET_FILE_NAME BASIS_MOLOPT
     POTENTIAL_FILE_NAME GTH_POTENTIALS
     UKS  T
     SURFACE_DIPOLE_CORRECTION  T
     SURF_DIP_DIR  Z
     &SCF
       MAX_SCF  80
       EPS_SCF     5.0000000000000004E-06
       &OT  T
         PRECONDITIONER  FULL_ALL
       &END OT
       &OUTER_SCF  T
         OPTIMIZER  NONE
         EPS_SCF     5.0000000000000004E-06
         MAX_SCF  4
       &END OUTER_SCF
       &PRINT
         &RESTART  OFF
           BACKUP_COPIES  1
           &EACH
             JUST_ENERGY  0
             QS_SCF  0
             MD  20
           &END EACH
         &END RESTART
       &END PRINT
     &END SCF
     &QS
       EPS_DEFAULT     1.0000000000000000E-14
       METHOD  GPW
     &END QS
     &MGRID
       NGRIDS  5
       CUTOFF     1.2000000000000000E+03
     &END MGRID
     &XC
       DENSITY_CUTOFF     1.0000000000000000E-10
       GRADIENT_CUTOFF     1.0000000000000000E-10
       TAU_CUTOFF     1.0000000000000000E-10
       &XC_FUNCTIONAL  NO_SHORTCUT
         &PBE  T
         &END PBE
       &END XC_FUNCTIONAL
       &VDW_POTENTIAL
         POTENTIAL_TYPE  PAIR_POTENTIAL
         &PAIR_POTENTIAL
           R_CUTOFF     1.0000000000000009E+01
           TYPE  DFTD3
           PARAMETER_FILE_NAME dftd3.dat
           REFERENCE_FUNCTIONAL PBE
           EPS_CN     9.9999999999999995E-07
           CALCULATE_C9_TERM  T
           REFERENCE_C9_TERM  T
           LONG_RANGE_CORRECTION  F
           VERBOSE_OUTPUT  F
         &END PAIR_POTENTIAL
       &END VDW_POTENTIAL
     &END XC
   &END DFT
   &SUBSYS
     &CELL
       A     1.2864472766435110E+01    0.0000000000000000E+00    0.0000000000000000E+00
       B    -6.4322363581020028E+00    1.1140960178524477E+01    0.0000000000000000E+00
       C     0.0000000000000000E+00    0.0000000000000000E+00    3.2000000000000000E+01
       MULTIPLE_UNIT_CELL  1 1 1
       &CELL_REF
         A     1.2982353780853531E+01    0.0000000000000000E+00    0.0000000000000000E+00
         B    -6.4911768904267628E+00    1.1243048175136114E+01    0.0000000000000000E+00
         C     0.0000000000000000E+00    0.0000000000000000E+00    3.2000000000000000E+01
         MULTIPLE_UNIT_CELL  1 1 1
       &END CELL_REF
     &END CELL
     &COORD
N    3.9167486714917370E-02    1.9920209856370190E+00    2.4861188217186818E+00
Ga    4.4354710922173385E-02    2.9654739360539126E-02    2.8326951533040106E+00
N    4.0956529611788958E-02   -1.1955478348338900E-02    5.0038443850605621E+00
Ga    4.1794119571900740E-02    1.8156234433602969E+00    5.7958255529146250E+00
N    4.1052038720956675E-02    1.8273044970566261E+00    7.7913581929306348E+00
Ga    4.1184208495502868E-02   -1.7490555150251812E-02    8.4406790969626933E+00
N    4.1416306406735215E-02   -1.8877567633832262E-02    1.0410690174303786E+01
Ga    4.1779260323255983E-02    1.8210161811512156E+00    1.1068349828761864E+01
N    4.2252851949742931E-02    1.8006909499909092E+00    1.3056853629208176E+01
Ga    4.2313197511558265E-02   -1.8232791138659672E-02    1.3871700461903817E+01
N    4.2617007819554791E-02   -1.6049128639672297E-02    1.6062399079332454E+01
Ga    4.2693416120363883E-02    2.0376826736853961E+00    1.6483120416930351E+01
Ga    1.4865951624624724E-02    3.6954775854119921E+00    1.3582870387191674E+00
N   -1.4427112965601776E+00    4.5644305762332573E+00    2.5081854995238548E+00
Ga   -1.6383678190905555E+00    2.7270260395866046E+00    3.2739366820948526E+00
N   -1.5686957086481910E+00    2.7692115189171123E+00    5.2488031448119958E+00
Ga   -1.5975849001852409E+00    4.6345338305436981E+00    5.8065444652072600E+00
N   -1.5766624786088526E+00    4.6316333058796930E+00    7.7959618879946859E+00
Ga   -1.5563249490770172E+00    2.7715768258253699E+00    8.4369895932448031E+00
N   -1.5553101466479207E+00    2.7740209089450110E+00    1.0424838776160311E+01
Ga   -1.5826138705925228E+00    4.6321303476597748E+00    1.1071936872920320E+01
N   -1.5985652569021565E+00    4.6421858601421384E+00    1.3059496217672548E+01
Ga   -1.5554993528297034E+00    2.7717585999673573E+00    1.3618325146480254E+01
N   -1.5840857847759531E+00    2.7541857908190930E+00    1.5573820086912196E+01
Ga   -1.3983491313809522E+00    4.5274645640328917E+00    1.6481721453639622E+01
N    4.2655933165409533E-02    3.7011387543510068E+00    1.7610498164389604E+01
N   -3.1742900023479375E+00    7.5347175244866511E+00    2.5091295680284835E+00
Ga   -3.1499075240915007E+00    5.5350797334225872E+00    2.8423359100410837E+00
N   -3.1731570455613265E+00    5.5544973612826096E+00    5.0115579464627258E+00
Ga   -3.1819937602773471E+00    7.3755009655121677E+00    5.8000267178094171E+00
N   -3.1740327215998243E+00    7.3995280777179628E+00    7.7879582986667835E+00
Ga   -3.1754662103845628E+00    5.5529448765365954E+00    8.4466360005743528E+00
N   -3.1748068655268726E+00    5.5535537660767247E+00    1.0414075855748131E+01
Ga   -3.1764389106814885E+00    7.3920545766436705E+00    1.1071349152193516E+01
N   -3.1744175886991579E+00    7.3721910243896529E+00    1.3058518111806993E+01
Ga   -3.1742113620118992E+00    5.5520017155703023E+00    1.3876075389576235E+01
N   -3.1736544379226816E+00    5.5525653867564921E+00    1.6061559389403364E+01
Ga   -3.1737352988664611E+00    7.5983318094261989E+00    1.6479914946589066E+01
Ga   -3.1953476901467091E+00    9.2805880059510990E+00    1.4491543641822517E+00
N   -4.6812647787752066E+00    1.0139801608180198E+01    2.5091260936869491E+00
Ga   -4.8907026623526635E+00    8.2888639791942271E+00    3.2722060726130944E+00
N   -4.7830009245369567E+00    8.3396225026808271E+00    5.2354534294990902E+00
Ga   -4.8113889643951833E+00    1.0213182031365667E+01    5.7905268026422823E+00
N   -4.7930243688544714E+00    1.0200634598613028E+01    7.7841943017272301E+00
Ga   -4.7750625619163012E+00    8.3452895799272930E+00    8.4322980889525621E+00
N   -4.7716441033723704E+00    8.3441530637510635E+00    1.0420623814587154E+01
Ga   -4.7980016756570114E+00    1.0202905183145813E+01    1.1068090252372475E+01
N   -4.8137479795646652E+00    1.0212294109970713E+01    1.3056814960953879E+01
Ga   -4.7710631492532309E+00    8.3436666267766739E+00    1.3619475856623112E+01
N   -4.7959321546307194E+00    8.3291745484220510E+00    1.5577274185219277E+01
Ga   -4.6217836887575734E+00    1.0102449599179613E+01    1.6480077518573410E+01
N   -3.1738630840396711E+00    9.2726640462014167E+00    1.7623829190584505E+01
N    3.2467858524502065E+00    1.8471232868770779E+00    2.6075793962623823E+00
Ga    3.2495836388637933E+00    1.0352130696557586E-01    3.2760270900241828E+00
N    3.2589402201241122E+00   -1.8779040419966645E-02    5.2389667044065611E+00
Ga    3.2502774496603912E+00    1.8414896029751571E+00    5.8692146186574465E+00
N    3.2578102071466719E+00    1.8383143986072712E+00    7.8410583357538544E+00
Ga    3.2552224131072385E+00   -2.8013200472425490E-02    8.4342830417138970E+00
N    3.2576288712769870E+00   -3.1746447848298248E-02    1.0422086449661524E+01
Ga    3.2574492608478507E+00    1.8385648967459478E+00    1.1022889495540431E+01
N    3.2583240187902320E+00    1.8373496538264831E+00    1.2987774008070282E+01
Ga    3.2579464945763643E+00   -3.0569798286772330E-02    1.3619132283243225E+01
N    3.2585903719239120E+00   -1.9012378906907218E-03    1.5577756429434137E+01
Ga    3.2588665988863621E+00    1.8368546920479072E+00    1.5859750888032352E+01
N    1.5317178120719996E+00    4.5653375696302714E+00    2.5192461997062225E+00
Ga    1.7190374858022004E+00    2.7294122857527210E+00    3.2645487472875363E+00
N    1.6505539262810798E+00    2.7680410819962451E+00    5.2445585378901303E+00
Ga    1.6784930477226430E+00    4.6318047592043268E+00    5.8044310021561643E+00
N    1.6594176640683596E+00    4.6313941379609025E+00    7.7941535213457982E+00
Ga    1.6392858802610486E+00    2.7710976558716260E+00    8.4355020572822443E+00
N    1.6385601318597958E+00    2.7739972668666879E+00    1.0423901687921726E+01
Ga    1.6658051329263148E+00    4.6318031201870076E+00    1.1071835153056872E+01
N    1.6829222721341546E+00    4.6420462565086913E+00    1.3059354761434403E+01
Ga    1.6398877123800624E+00    2.7718221602776421E+00    1.3618601408982972E+01
N    1.6694135962639589E+00    2.7541679533173022E+00    1.5573949851769161E+01
Ga    1.4837362067894135E+00    4.5274376512998069E+00    1.6481847761360552E+01
N    3.3628028756008642E-02    7.3959338557709380E+00    2.6850396424923915E+00
Ga    4.6040407234612855E-02    5.5526934454389352E+00    3.3314551298972517E+00
N    4.0876131593933558E-02    5.5680183921458042E+00    5.2656081466254623E+00
Ga    4.1635094189563251E-02    7.4072455828776622E+00    5.9036613752680527E+00
N    4.1666167331521627E-02    7.4122497159625551E+00    7.8569312496627326E+00
Ga    4.1482425703441725E-02    5.5382074455533035E+00    8.4444359793152284E+00
N    4.1705639923612134E-02    5.5398716929314711E+00    1.0429114086026104E+01
Ga    4.1151350970768753E-02    7.4094057534094189E+00    1.1027831294016371E+01
N    4.1966130984393023E-02    7.4101789367843356E+00    1.2992422440376432E+01
Ga    4.2293883881924607E-02    5.5392033284332278E+00    1.3619919109405672E+01
N    4.2714592210416812E-02    5.5764805014703853E+00    1.5575678338588745E+01
Ga    4.2485388121295424E-02    7.4113325552598299E+00    1.5857035585708545E+01
N   -1.6697721718766159E+00    1.0130117974498614E+01    2.5122382842888662E+00
Ga   -1.5417301713782925E+00    8.3181655623063513E+00    3.3165375829221730E+00
N   -1.5551820718973981E+00    8.3324790776889124E+00    5.2460701720629297E+00
Ga   -1.5431396289031727E+00    1.0216490980322794E+01    5.8029529793076025E+00
N   -1.5571489630404669E+00    1.0198725847801452E+01    7.7893986900930745E+00
Ga   -1.5803194148248927E+00    8.3454760553575831E+00    8.4446892021424027E+00
N   -1.5785842034120561E+00    8.3445089962516601E+00    1.0427703053834223E+01
Ga   -1.5521880349913471E+00    1.0204264829801380E+01    1.1071010292465109E+01
N   -1.5340987604596905E+00    1.0212792439308378E+01    1.3058551609262535E+01
Ga   -1.5777520854983265E+00    8.3437443491383689E+00    1.3620242841562513E+01
N   -1.5513916582057174E+00    8.3291809062895688E+00    1.5577867922407741E+01
Ga   -1.7256999383085052E+00    1.0102451301242031E+01    1.6480370012150747E+01
N    6.4731372923343127E+00    1.9666099864158950E+00    2.5267475412860909E+00
Ga    6.4699961827995471E+00   -5.4002291907894878E-03    2.8639578051420345E+00
N    6.4732678738844580E+00   -1.7132920659956176E-02    5.0134002287206725E+00
Ga    6.4731381186170820E+00    1.8155241868719341E+00    5.8010786782285102E+00
N    6.4734149597933710E+00    1.8268001263050646E+00    7.7914142239142716E+00
Ga    6.4732361530863036E+00   -1.7704425449891533E-02    8.4451362817688818E+00
N    6.4737676691512318E+00   -1.8820356076123718E-02    1.0412606061804420E+01
Ga    6.4735870829926503E+00    1.8220410682381050E+00    1.1068979342794169E+01
N    6.4742749571939733E+00    1.8007713532790108E+00    1.3056930613032918E+01
Ga    6.4743252453316824E+00   -1.7757570137866233E-02    1.3873470740829035E+01
N    6.4748332856495150E+00   -1.5858551080412252E-02    1.6062778380591133E+01
Ga    6.4749892361825401E+00    2.0378908802705342E+00    1.6482792364070423E+01
Ga    6.4748631523263001E+00    3.6964194690588501E+00    1.5037442546664419E+00
N    4.9722623247336051E+00    4.5640001497108527E+00    2.5238455936977124E+00
Ga    4.7562827818182969E+00    2.7109841715002916E+00    3.2891993312672425E+00
N    4.8634195561839739E+00    2.7679821877443240E+00    5.2486650945149744E+00
Ga    4.8433838687411805E+00    4.6395081172527668E+00    5.7998404571923849E+00
N    4.8555652200910684E+00    4.6310088238958942E+00    7.7903638427814439E+00
Ga    4.8741060806360030E+00    2.7724295504226788E+00    8.4357807211058109E+00
N    4.8768262567181653E+00    2.7740695385718985E+00    1.0423338434977808E+01
Ga    4.8510516731296249E+00    4.6327866878966253E+00    1.1069985025308695E+01
N    4.8341219821527472E+00    4.6421357687107196E+00    1.3057966416736953E+01
Ga    4.8766783443140218E+00    2.7721484065560480E+00    1.3618258819803417E+01
N    4.8482621677539282E+00    2.7543139078624219E+00    1.5573635432127606E+01
Ga    5.0338448127436175E+00    4.5277900251272278E+00    1.6481130464778790E+01
N    6.4750605313236562E+00    3.7017959072021944E+00    1.7610245504835326E+01
N    3.2328518888705347E+00    7.5323000590396685E+00    2.4377355936410203E+00
N    3.2584946175167655E+00    5.5570222776117300E+00    5.0150919077675313E+00
Ga    3.2614645549855266E+00    7.3783228222026622E+00    5.8031867788835889E+00
N    3.2547573905737925E+00    7.3999316794040038E+00    7.7890675300868013E+00
Ga    3.2577286992033438E+00    5.5523204798731358E+00    8.4462205272267443E+00
N    3.2578219341814987E+00    5.5533016154167427E+00    1.0413582583773682E+01
Ga    3.2594205233360118E+00    7.3914279133037519E+00    1.1072122235879771E+01
N    3.2586888843872517E+00    7.3718608220630646E+00    1.3059011292819482E+01
Ga    3.2587400154943302E+00    5.5516794763334172E+00    1.3876313958400262E+01
N    3.2589491698435147E+00    5.5525080070489272E+00    1.6061724470395767E+01
Ga    3.2590164981793590E+00    7.5984075712687211E+00    1.6479856135719675E+01
Ga    3.2867310932060367E+00    9.3382290761398039E+00    1.4586676686340274E+00
N    1.7522187859228431E+00    1.0137207476273179E+01    2.5154338585591582E+00
Ga    1.6217879596412683E+00    8.3150532630780116E+00    3.3023665644998657E+00
N    1.6374927560895267E+00    8.3304874387874168E+00    5.2347336254891674E+00
Ga    1.6225045085802505E+00    1.0213146957090995E+01    5.8027396687727038E+00
N    1.6385155110255838E+00    1.0196930447678858E+01    7.7888323261923693E+00
Ga    1.6616162182364700E+00    8.3452777870428747E+00    8.4474616299287586E+00
N    1.6614780001991085E+00    8.3444297404373486E+00    1.0429234996829980E+01
Ga    1.6351713661966258E+00    1.0204547284828827E+01    1.1071545696904582E+01
N    1.6183408568846425E+00    1.0212874804446157E+01    1.3058993406782431E+01
Ga    1.6619593443676757E+00    8.3435860555250443E+00    1.3620200984377538E+01
N    1.6364577359703578E+00    8.3291139434207295E+00    1.5577986062198258E+01
Ga    1.8109630360274738E+00    1.0102456869727090E+01    1.6480336265907646E+01
N    3.2591938907098714E+00    9.2727140412686104E+00    1.7623742224309936E+01
N    9.6979426909894073E+00    1.8498776615234889E+00    2.6145039260676048E+00
Ga    9.6938036208924316E+00    1.1438288225605238E-01    3.2966457856006302E+00
N    9.6865129164177475E+00   -1.7459231814197177E-02    5.2505098824840806E+00
Ga    9.6946888433950864E+00    1.8445564266065175E+00    5.8755026054094310E+00
N    9.6886401223594625E+00    1.8389117524255389E+00    7.8448094626376861E+00
Ga    9.6914081123192339E+00   -2.8989440314496590E-02    8.4332216190095650E+00
N    9.6896265864821522E+00   -3.2082777190272957E-02    1.0421405408360549E+01
Ga    9.6899094642516275E+00    1.8384501952795456E+00    1.1022584624493902E+01
N    9.6903176848277859E+00    1.8372932010112979E+00    1.2987626171546722E+01
Ga    9.6910045103121885E+00   -3.0499524308693061E-02    1.3619300011445993E+01
N    9.6911434130175795E+00   -1.7438981560084727E-03    1.5577955058152794E+01
Ga    9.6908607655444943E+00    1.8370478803902617E+00    1.5859838972311367E+01
N    7.9755376342149074E+00    4.5666418897558119E+00    2.5215914452474677E+00
Ga    8.1883944970810685E+00    2.7163441993327559E+00    3.2919064149037771E+00
N    8.0824269184844866E+00    2.7691042384479490E+00    5.2508416978348809E+00
Ga    8.1070475527930750E+00    4.6418683726865488E+00    5.7986772541762575E+00
N    8.0914392359927287E+00    4.6315785171750159E+00    7.7903993517122787E+00
Ga    8.0717610097554342E+00    2.7737096263350334E+00    8.4367942562266123E+00
N    8.0702179791229529E+00    2.7742795981513786E+00    1.0423999084055486E+01
Ga    8.0965261074734478E+00    4.6330679630680551E+00    1.1070204114142010E+01
N    8.1146581293613664E+00    4.6422607967950738E+00    1.3058112263115408E+01
Ga    8.0720699579075461E+00    2.7721924673377782E+00    1.3618110374156595E+01
N    8.1014687095213436E+00    2.7543892718187828E+00    1.5573431803189575E+01
Ga    7.9161258986723579E+00    4.5278777395680940E+00    1.6481003893429797E+01
N    6.4662288523161680E+00    7.4118281076406518E+00    2.5954684525481406E+00
Ga    6.4738325734592523E+00    5.6727286083199706E+00    3.2853392855091244E+00
N    6.4739923466307845E+00    5.5569530501146653E+00    5.2444554027129664E+00
Ga    6.4700369987247353E+00    7.4140902787530472E+00    5.8648674532977711E+00
N    6.4720053219086608E+00    7.4112139168846776E+00    7.8354253814639199E+00
Ga    6.4736619303799001E+00    5.5433291264197031E+00    8.4348210901191312E+00
N    6.4736687657588181E+00    5.5406340647506642E+00    1.0423007878142373E+01
Ga    6.4737781126199740E+00    7.4100569551921227E+00    1.1023291154718130E+01
N    6.4744330045713339E+00    7.4102125585648233E+00    1.2989239102486628E+01
Ga    6.4744207219992278E+00    5.5398940172121707E+00    1.3618564878006275E+01
N    6.4748444384867279E+00    5.5764821939034972E+00    1.5574454525818583E+01
Ga    6.4748431325867273E+00    7.4112005336369755E+00    1.5856844040864843E+01
N    4.7632566148539324E+00    1.0146498005241828E+01    2.5246220230705654E+00
Ga    4.9441557479392690E+00    8.2712883278762650E+00    3.2621442281034918E+00
N    4.8588460247725553E+00    8.3382740541645948E+00    5.2293884273370415E+00
Ga    4.8949108172492775E+00    1.0210611954140376E+01    5.7897771442088937E+00
N    4.8757402259152558E+00    1.0199713173964772E+01    7.7836034936981120E+00
Ga    4.8564035637699803E+00    8.3455018843108313E+00    8.4339549607931446E+00
N    4.8540949168992942E+00    8.3439896882682412E+00    1.0421488773682874E+01
Ga    4.8809459987424058E+00    1.0203021754885018E+01    1.1068236359560366E+01
N    4.8980614620251455E+00    1.0212347913948172E+01    1.3056925541949674E+01
Ga    4.8554955640900745E+00    8.3436817179685256E+00    1.3619450414550558E+01
N    4.8811840161538091E+00    8.3292255197587650E+00    1.5577243514032977E+01
Ga    4.7070877561784910E+00    1.0102502234689105E+01    1.6480083926937411E+01
O    7.8443987470819501E-02    4.0297661386811345E+00   -4.5132839371392519E-01
H    2.0641947861895218E-01    5.8128560274224093E+00   -3.6071333376314174E-01
C    1.1427037928557804E+00    3.3892311209472550E+00   -1.1818217576204859E+00
H    2.1306663680232765E+00    3.5737892023633839E+00   -7.2798712802613486E-01
H    9.8750222628371376E-01    2.3010177424429572E+00   -1.2417377602620405E+00
H    1.1403080016471054E+00    3.7982847498246288E+00   -2.2021985600977199E+00
Ga    3.2342402117121218E+00    5.5209763273484276E+00    2.8691462483490793E+00
O    3.9088837694653122E-01    6.7713174835451468E+00   -1.7022541202139915E-01
H    2.8745565392740573E-02    7.3196844333733821E+00    1.6471652192334392E+00
C    1.8149769438216439E+00    6.9483295897773347E+00   -2.3706670807052807E-01
H    2.0120380468738261E+00    7.9373584352670052E+00   -6.9640926034158157E-01
H    2.2957729085440164E+00    6.9485901550701348E+00    7.6741457591850992E-01
H    2.2949213904471177E+00    6.1902401469968229E+00   -8.7187957978386488E-01
     &END COORD
     &KIND C
       BASIS_SET DZVP-MOLOPT-SR-GTH-q4
       POTENTIAL GTH-PBE-q4
       &POTENTIAL
2 2
0.3384712400000000E+00 2 -0.8803673979999999E+01  0.1339210850000000E+01
2
0.3025757500000000E+00 1  0.9622486650000001E+01
0.2915069400000000E+00 0
       &END POTENTIAL
     &END KIND
     &KIND O
       BASIS_SET DZVP-MOLOPT-SR-GTH-q6
       POTENTIAL GTH-PBE-q6
       &POTENTIAL
2 4
0.2445543000000000E+00 2 -0.1666721480000000E+02  0.2487311320000000E+01
2
0.2209559200000000E+00 1  0.1833745811000000E+02
0.2113324700000000E+00 0
       &END POTENTIAL
     &END KIND
     &KIND H
       BASIS_SET DZVP-MOLOPT-SR-GTH-q1
       POTENTIAL GTH-PBE-q1
       &POTENTIAL
1
0.2000000000000000E+00 2 -0.4178900440000000E+01  0.7244633100000000E+00
0
       &END POTENTIAL
     &END KIND
     &KIND N
       BASIS_SET DZVP-MOLOPT-SR-GTH
       POTENTIAL GTH-PBE-q5
       &POTENTIAL
2 3
0.2837905100000000E+00 2 -0.1241522559000000E+02  0.1868095920000000E+01
2
0.2554050000000000E+00 1  0.1363026257000000E+02
0.2454945300000000E+00 0
       &END POTENTIAL
     &END KIND
     &KIND Ga
       BASIS_SET DZVP-MOLOPT-SR-GTH
       POTENTIAL GTH-PBE-q13
       &POTENTIAL
2 1 10
0.4900000000000000E+00 0
3
0.4167772300000000E+00 3  0.1047568975000000E+02 -0.4921768140000000E+01  0.8707055900000000E+00
0.7770178090000000E+01 -0.2248152160000000E+01
0.1784415450000000E+01
0.5696265200000000E+00 2  0.1777985340000000E+01  0.1958597600000000E+00
-0.2317443900000000E+00
0.2381265000000000E+00 1 -0.1624868022000000E+02
       &END POTENTIAL
     &END KIND
     &TOPOLOGY
       NUMBER_OF_ATOMS  212
       MULTIPLE_UNIT_CELL  1 1 1
     &END TOPOLOGY
     &COLVAR
       &DISTANCE
         ATOMS  127 211
       &END DISTANCE
       &PRINT
       &END PRINT
     &END COLVAR
   &END SUBSYS
 &END FORCE_EVAL
