 # Version information for this restart file 
 # current date 2019-07-09 10:46:51.152
 # current working dir /lustre04/scratch/rzk/rzk/GaN-carbene/443-adatoms-both-2x2/09-BondBreaking-CH/02-0401-CH-to-NTop-PES
 # Program compiled at                              Sun Apr  7 00:48:11 EDT 2019
 # Program compiled on                          beluga2.int.ets1.calculquebec.ca
 # Program compiled for                        Beluga-Linux-x86-64-intel-openmpi
 # Source code revision number                                         svn:18619
 &GLOBAL
   PRINT_LEVEL  MEDIUM
   PROJECT_NAME TEST
   RUN_TYPE  GEO_OPT
 &END GLOBAL
 &MOTION
   &GEO_OPT
     MAX_ITER  500
     STEP_START_VAL  122
   &END GEO_OPT
   &CONSTRAINT
     &COLLECTIVE
       COLVAR  1
       INTERMOLECULAR  T
       TARGET     5.6691783986569284E+00
       &RESTRAINT
         K     2.0000000000000000E+00
       &END RESTRAINT
     &END COLLECTIVE
     &COLVAR_RESTART
           5.6691783986569284E+00
     &END COLVAR_RESTART
   &END CONSTRAINT
 &END MOTION
 &FORCE_EVAL
   METHOD  QS
   STRESS_TENSOR  ANALYTICAL
   &DFT
     BASIS_SET_FILE_NAME BASIS_MOLOPT
     POTENTIAL_FILE_NAME GTH_POTENTIALS
     UKS  T
     SURFACE_DIPOLE_CORRECTION  T
     SURF_DIP_DIR  Z
     &SCF
       MAX_SCF  80
       EPS_SCF     5.0000000000000004E-06
       &OT  T
         PRECONDITIONER  FULL_ALL
       &END OT
       &OUTER_SCF  T
         OPTIMIZER  NONE
         EPS_SCF     5.0000000000000004E-06
         MAX_SCF  4
       &END OUTER_SCF
       &PRINT
         &RESTART  OFF
           BACKUP_COPIES  1
           &EACH
             JUST_ENERGY  0
             QS_SCF  0
             MD  20
           &END EACH
         &END RESTART
       &END PRINT
     &END SCF
     &QS
       EPS_DEFAULT     1.0000000000000000E-14
       METHOD  GPW
     &END QS
     &MGRID
       NGRIDS  5
       CUTOFF     1.2000000000000000E+03
     &END MGRID
     &XC
       DENSITY_CUTOFF     1.0000000000000000E-10
       GRADIENT_CUTOFF     1.0000000000000000E-10
       TAU_CUTOFF     1.0000000000000000E-10
       &XC_FUNCTIONAL  NO_SHORTCUT
         &PBE  T
         &END PBE
       &END XC_FUNCTIONAL
       &VDW_POTENTIAL
         POTENTIAL_TYPE  PAIR_POTENTIAL
         &PAIR_POTENTIAL
           R_CUTOFF     1.0000000000000007E+01
           TYPE  DFTD3
           PARAMETER_FILE_NAME dftd3.dat
           REFERENCE_FUNCTIONAL PBE
           EPS_CN     9.9999999999999995E-07
           CALCULATE_C9_TERM  T
           REFERENCE_C9_TERM  T
           LONG_RANGE_CORRECTION  F
           VERBOSE_OUTPUT  F
         &END PAIR_POTENTIAL
       &END VDW_POTENTIAL
     &END XC
   &END DFT
   &SUBSYS
     &CELL
       A     1.2864472766435110E+01    0.0000000000000000E+00    0.0000000000000000E+00
       B    -6.4322363581020028E+00    1.1140960178524477E+01    0.0000000000000000E+00
       C     0.0000000000000000E+00    0.0000000000000000E+00    3.2000000000000000E+01
       MULTIPLE_UNIT_CELL  1 1 1
       &CELL_REF
         A     1.2982353780853531E+01    0.0000000000000000E+00    0.0000000000000000E+00
         B    -6.4911768904267628E+00    1.1243048175136114E+01    0.0000000000000000E+00
         C     0.0000000000000000E+00    0.0000000000000000E+00    3.2000000000000000E+01
         MULTIPLE_UNIT_CELL  1 1 1
       &END CELL_REF
     &END CELL
     &COORD
N    7.6686556996157812E-02    1.9804160021287109E+00    2.4940456229119143E+00
Ga    6.1874907271455115E-02    1.0890907062101643E-02    2.8265952959318468E+00
N    8.0167497683026182E-02   -2.1981390499812733E-02    5.0159066728344701E+00
Ga    7.8929048067044261E-02    1.8033093122157133E+00    5.7994570335172320E+00
N    7.7241017275992613E-02    1.8189010725099848E+00    7.8012433454157142E+00
Ga    7.4866987100123655E-02   -2.6286019908529502E-02    8.4438404099230535E+00
N    7.5903116554869463E-02   -2.7205885373349701E-02    1.0419326463396294E+01
Ga    7.5942880660426662E-02    1.8130596651523829E+00    1.1068569422062559E+01
N    7.5903903546769513E-02    1.7936614897484888E+00    1.3062952625637818E+01
Ga    7.6000674104972410E-02   -2.5712429568706029E-02    1.3866646389306919E+01
N    7.5717600100875943E-02   -2.4745600386712047E-02    1.6068881189287744E+01
Ga    7.5441201732290866E-02    2.0204244169848349E+00    1.6481454189661140E+01
Ga    4.6783543220132146E-02    3.6838110025400979E+00    1.3691763603863589E+00
N   -1.4093153278146981E+00    4.5509897207579035E+00    2.5255056008675907E+00
Ga   -1.6033553274967249E+00    2.7080324921657337E+00    3.2821594332440176E+00
N   -1.5319539874499144E+00    2.7577255846637567E+00    5.2594716651480180E+00
Ga   -1.5602509648374685E+00    4.6230578773207185E+00    5.8089135939347321E+00
N   -1.5415462611289914E+00    4.6225258992345797E+00    7.8039529724140362E+00
Ga   -1.5223188647913051E+00    2.7615482858068292E+00    8.4363905669810624E+00
N   -1.5210179198887324E+00    2.7655063955453101E+00    1.0431712418973035E+01
Ga   -1.5472589814901816E+00    4.6231037272291351E+00    1.1071947723401252E+01
N   -1.5639908107605760E+00    4.6337752160212817E+00    1.3065481639575593E+01
Ga   -1.5211991359316444E+00    2.7641163636239114E+00    1.3620135590862100E+01
N   -1.5476147375270466E+00    2.7483568485835126E+00    1.5581883442455835E+01
Ga   -1.3745021177225190E+00    4.5241406613664461E+00    1.6481097080572781E+01
N    7.5077650757833833E-02    3.6953093621781643E+00    1.7616454107938754E+01
N   -3.1330505736545580E+00    7.5225957719520808E+00    2.5292926071814534E+00
Ga   -3.1122577623596772E+00    5.5184545492305057E+00    2.8531471711629126E+00
N   -3.1381816350383125E+00    5.5446529704092224E+00    5.0222529763914237E+00
Ga   -3.1457660746358438E+00    7.3651274820030546E+00    5.8083139570935600E+00
N   -3.1384893978587227E+00    7.3902717506773250E+00    7.7996640123927490E+00
Ga   -3.1399444775870413E+00    5.5431964226162309E+00    8.4504222421122499E+00
N   -3.1402311933303313E+00    5.5447481589267031E+00    1.0422593293832021E+01
Ga   -3.1415597295944369E+00    7.3838070230772113E+00    1.1072795817760221E+01
N   -3.1405274465523170E+00    7.3645354908706055E+00    1.3065319014481174E+01
Ga   -3.1402775658335451E+00    5.5442645915535795E+00    1.3868494742892373E+01
N   -3.1404825851373976E+00    5.5458075538436375E+00    1.6069453100611828E+01
Ga   -3.1407743236652168E+00    7.5908525289583526E+00    1.6481676876932692E+01
Ga   -3.1521830137527802E+00    9.2601488358641166E+00    1.4989874336030256E+00
N   -4.6411026565826257E+00    1.0126628126226560E+01    2.5175779034231147E+00
Ga   -4.8582223957697961E+00    8.2758184488434452E+00    3.2900449876015756E+00
N   -4.7458282551715021E+00    8.3303056318371294E+00    5.2515797874861327E+00
Ga   -4.7776692589577587E+00    1.0205095813865785E+01    5.7997523966360438E+00
N   -4.7568320081545572E+00    1.0191731866507265E+01    7.7973623040605800E+00
Ga   -4.7403405793492883E+00    8.3360983567276374E+00    8.4371872097547040E+00
N   -4.7367464908953876E+00    8.3359050457303816E+00    1.0430767662402925E+01
Ga   -4.7634508238805564E+00    1.0194975815728426E+01    1.1070097782078353E+01
N   -4.7797084403810750E+00    1.0204161117830878E+01    1.3064328325671664E+01
Ga   -4.7377047803341670E+00    8.3353876493510306E+00    1.3621371793516944E+01
N   -4.7639884265472165E+00    8.3190098334467830E+00    1.5582828089511901E+01
Ga   -4.5910268560697398E+00    1.0095408743171914E+01    1.6480424073456668E+01
N   -3.1412906667916443E+00    9.2665378663955948E+00    1.7615075576536793E+01
N    3.2830324138683582E+00    1.8359717698498055E+00    2.6175106528842282E+00
Ga    3.2853673157430583E+00    9.6474990733641686E-02    3.2895078579840762E+00
N    3.2948118627240413E+00   -2.9159547234092618E-02    5.2519174615386062E+00
Ga    3.2859112065777163E+00    1.8328563410613123E+00    5.8749838093553262E+00
N    3.2931591763278618E+00    1.8292117335767335E+00    7.8512556610930595E+00
Ga    3.2907755404044390E+00   -3.6517012617120065E-02    8.4401862966266279E+00
N    3.2924288080668802E+00   -3.8865666957625312E-02    1.0433245557656235E+01
Ga    3.2924142854714122E+00    1.8313892341433764E+00    1.1027440030576953E+01
N    3.2922518017258047E+00    1.8302696554151883E+00    1.2999123588913742E+01
Ga    3.2917954114962802E+00   -3.9174937972353677E-02    1.3621740019008353E+01
N    3.2917768016427478E+00   -6.9509985984089803E-03    1.5584311953322050E+01
Ga    3.2917078535359643E+00    1.8309765976565477E+00    1.5861738184193882E+01
N    1.5685456466336889E+00    4.5542868622286434E+00    2.5200549641127616E+00
Ga    1.7550359801487987E+00    2.7217260030301569E+00    3.2694858368493791E+00
N    1.6867876342458141E+00    2.7582104371215950E+00    5.2531397766619836E+00
Ga    1.7174049857824474E+00    4.6229569968213369E+00    5.8090958570106306E+00
N    1.6942342909409360E+00    4.6215240682670675E+00    7.8050099169341980E+00
Ga    1.6744717198524433E+00    2.7625705204320621E+00    8.4393545521480160E+00
N    1.6737422717389632E+00    2.7652513095647988E+00    1.0433473445027102E+01
Ga    1.6999768260266921E+00    4.6236687040796376E+00    1.1071562735974638E+01
N    1.7160202675819130E+00    4.6339159128479466E+00    1.3065305047747751E+01
Ga    1.6725795311203262E+00    2.7645483581876844E+00    1.3620659950855275E+01
N    1.6988739438094644E+00    2.7484258877560439E+00    1.5582333255185350E+01
Ga    1.5248858641088452E+00    4.5238462758045843E+00    1.6481234202565066E+01
N    7.8390554831460429E-02    7.3838157116792971E+00    2.6953861850032599E+00
Ga    8.6511099468606703E-02    5.5422846773864354E+00    3.3373457079544266E+00
N    7.7466889320960075E-02    5.5569559006573837E+00    5.2745848221570384E+00
Ga    8.4863149646022873E-02    7.3980341503094413E+00    5.9069833934764553E+00
N    7.7391503449424345E-02    7.4023989079509649E+00    7.8658999405147103E+00
Ga    7.6914230805537387E-02    5.5291125422391918E+00    8.4467026462898112E+00
N    7.6036822546064156E-02    5.5318358741798086E+00    1.0437233436418081E+01
Ga    7.6710544681016332E-02    7.4014914493849870E+00    1.1030026573105459E+01
N    7.5896788024550008E-02    7.4013416836369759E+00    1.3000592132417662E+01
Ga    7.6067954746636329E-02    5.5307920284900538E+00    1.3621859332014591E+01
N    7.5737060193287936E-02    5.5632804296250393E+00    1.5584434633069089E+01
Ga    7.5795864120900280E-02    7.4009866451671629E+00    1.5862447874008613E+01
N   -1.6332067408164701E+00    1.0115005075325065E+01    2.5242200177690886E+00
Ga   -1.4903433131842088E+00    8.3017008438115560E+00    3.3359647390966685E+00
N   -1.5186664417138922E+00    8.3220185140105798E+00    5.2630192680808889E+00
Ga   -1.5053565272511469E+00    1.0207864886645917E+01    5.8110364423249639E+00
N   -1.5224031323165454E+00    1.0189745730013550E+01    7.8016054579431122E+00
Ga   -1.5434603958863085E+00    8.3359548195386477E+00    8.4483873475485822E+00
N   -1.5435996610572615E+00    8.3360565762136982E+00    1.0436905467163763E+01
Ga   -1.5172912812884516E+00    1.0196061535743372E+01    1.1072729452616571E+01
N   -1.5003957780798514E+00    1.0204575843268213E+01    1.3065822761555170E+01
Ga   -1.5436126444782381E+00    8.3355209121109741E+00    1.3622218828533958E+01
N   -1.5169818439480509E+00    8.3190036102939757E+00    1.5583525916730347E+01
Ga   -1.6912200407449023E+00    1.0095003230674767E+01    1.6480814217403530E+01
N    6.5084094271583597E+00    1.9540676514618147E+00    2.5378953306738823E+00
Ga    6.5259925243756101E+00   -2.6276297350333464E-02    2.8642936248738500E+00
N    6.5059254230523882E+00   -2.6780455106862555E-02    5.0254369270845300E+00
Ga    6.5081121303182838E+00    1.8033167886491335E+00    5.8056514954054599E+00
N    6.5082910110861594E+00    1.8182928135493925E+00    7.8014863763507094E+00
Ga    6.5105777521238419E+00   -2.6968219792680947E-02    8.4476656511948249E+00
N    6.5087395321543218E+00   -2.7105965932379874E-02    1.0420730831346654E+01
Ga    6.5090238692968718E+00    1.8139767099466602E+00    1.1069406544569269E+01
N    6.5082936156837281E+00    1.7937169806241331E+00    1.3063428097778397E+01
Ga    6.5082356586858507E+00   -2.5503001737273368E-02    1.3868049889900735E+01
N    6.5075402000993634E+00   -2.4959159694083799E-02    1.6069499554639403E+01
Ga    6.5077895777121677E+00    2.0193412889805691E+00    1.6479933294766774E+01
Ga    6.5132827271539568E+00    3.6859494483440662E+00    1.5333947034196862E+00
N    5.0074272189248026E+00    4.5531663822431492E+00    2.5308045312803329E+00
Ga    4.7906053942731477E+00    2.7018596426624821E+00    3.2981912833340927E+00
N    4.8990080159712344E+00    2.7580376767449257E+00    5.2591011095224278E+00
Ga    4.8748759447021346E+00    4.6309063813885309E+00    5.8052681511757589E+00
N    4.8915539151922998E+00    4.6212938979785516E+00    7.8017972562506461E+00
Ga    4.9095723120643733E+00    2.7638310120087626E+00    8.4396803266769496E+00
N    4.9115510495089669E+00    2.7654713397333177E+00    1.0433036458974534E+01
Ga    4.8862937738225654E+00    4.6247648963459334E+00    1.1070005257006930E+01
N    4.8688304351573706E+00    4.6339134822261041E+00    1.3064411144079051E+01
Ga    4.9114396821905109E+00    2.7647413045017646E+00    1.3620317840652090E+01
N    4.8850011915309164E+00    2.7486068215620212E+00    1.5582472808307598E+01
Ga    5.0566774642325036E+00    4.5250932457857473E+00    1.6479190981609385E+01
N    6.5079509723584925E+00    3.6960436813371480E+00    1.7612820798313358E+01
N    3.2890170675504118E+00    7.5166252780257539E+00    2.4949344596820775E+00
N    3.2935566550454034E+00    5.5429186231093048E+00    5.0297353604440644E+00
Ga    3.2973269295218151E+00    7.3692995002801629E+00    5.7980783057254106E+00
N    3.2905267514231422E+00    7.3914644771187108E+00    7.7954559378217461E+00
Ga    3.2930516479993135E+00    5.5453110766267137E+00    8.4476395529552271E+00
N    3.2926310989793799E+00    5.5451295317024156E+00    1.0421319392754606E+01
Ga    3.2944642059015230E+00    7.3841228289430063E+00    1.1071468459798080E+01
N    3.2925869687780125E+00    7.3644611892227267E+00    1.3064761651205348E+01
Ga    3.2924001779446144E+00    5.5441607511441360E+00    1.3867799586274383E+01
N    3.2915079382617378E+00    5.5454997080325210E+00    1.6069442935241398E+01
Ga    3.2918098686893420E+00    7.5894148290088115E+00    1.6480340354428144E+01
Ga    3.3325311167657810E+00    9.2898112015461187E+00    1.3417028759961473E+00
N    1.7845903414341222E+00    1.0122834662455947E+01    2.5091410859335275E+00
Ga    1.6775302376401497E+00    8.3154183945149498E+00    3.2905955700839606E+00
N    1.6719927659424212E+00    8.3206008518011725E+00    5.2382318646867061E+00
Ga    1.6619368294737851E+00    1.0201521381101918E+01    5.7982664609261834E+00
N    1.6741973040580964E+00    1.0188237338056696E+01    7.7950379016130729E+00
Ga    1.6982440179067868E+00    8.3368625129261211E+00    8.4472157604939468E+00
N    1.6962323348390724E+00    8.3364193168315222E+00    1.0436592557672038E+01
Ga    1.6708226919565747E+00    1.0196347425826049E+01    1.1071861110227065E+01
N    1.6525512338220527E+00    1.0204630663846391E+01    1.3065477690226855E+01
Ga    1.6955679894523146E+00    8.3353530620163916E+00    1.3621321019910452E+01
N    1.6689068024179294E+00    8.3192122132163657E+00    1.5583265957999878E+01
Ga    1.8405791777111871E+00    1.0096022958665550E+01    1.6479324319734573E+01
N    3.2920999633992225E+00    9.2667870217400896E+00    1.7613194105782384E+01
N    9.7357554267563184E+00    1.8294738585825427E+00    2.6298897339498235E+00
Ga    9.7295783968101706E+00    6.9620848222729473E-02    3.2664700493688796E+00
N    9.7223095544282927E+00   -2.9943160728506626E-02    5.2444540185761914E+00
Ga    9.7309682801969490E+00    1.8250387888953989E+00    5.8703708546018571E+00
N    9.7240351254316764E+00    1.8287669577463346E+00    7.8490229731285419E+00
Ga    9.7266525980966900E+00   -3.8356461501280074E-02    8.4328409213622937E+00
N    9.7243385592440461E+00   -3.9320937850428797E-02    1.0429283595435862E+01
Ga    9.7247847322848884E+00    1.8305603906104266E+00    1.1024698795895166E+01
N    9.7239629008079813E+00    1.8301144153730615E+00    1.2997357496802278E+01
Ga    9.7248311033371717E+00   -3.8914671322779072E-02    1.3620855630091619E+01
N    9.7239429173734955E+00   -7.2232348199112928E-03    1.5584067980756185E+01
Ga    9.7242628655114487E+00    1.8310067057975294E+00    1.5861998396311579E+01
N    8.0122958969941145E+00    4.5538547141989163E+00    2.5384755516498112E+00
Ga    8.2289719711390923E+00    2.6949074182781452E+00    3.3010421014060261E+00
N    8.1176690302698411E+00    2.7575747957469270E+00    5.2611882152063334E+00
Ga    8.1413689628431563E+00    4.6299181202387354E+00    5.8027529152270407E+00
N    8.1270869059032780E+00    4.6223470856954316E+00    7.7995257717050652E+00
Ga    8.1086128107841517E+00    2.7635754097596323E+00    8.4368977083717915E+00
N    8.1055207886247178E+00    2.7657453637354177E+00    1.0431320648625711E+01
Ga    8.1303922781558562E+00    4.6240144446447866E+00    1.1070619707395370E+01
N    8.1477387111236368E+00    4.6339053964644492E+00    1.3064737237292061E+01
Ga    8.1051892031718520E+00    2.7646582268647966E+00    1.3620142489060118E+01
N    8.1308967844145474E+00    2.7483526637016524E+00    1.5582438403476527E+01
Ga    7.9589230591686437E+00    4.5251873239257945E+00    1.6479187518810871E+01
N    6.5043420567418186E+00    7.4030308319981293E+00    2.6105580610523078E+00
Ga    6.5045412942475620E+00    5.6661191902128909E+00    3.2961403994537104E+00
N    6.5087446312899937E+00    5.5463342844892223E+00    5.2567037078890149E+00
Ga    6.5021333382312418E+00    7.4056942295507326E+00    5.8700795109439454E+00
N    6.5082067447298400E+00    7.4018740710805080E+00    7.8461377699054387E+00
Ga    6.5089568746331423E+00    5.5344690826423815E+00    8.4378133121869503E+00
N    6.5087426144929195E+00    5.5327278915796647E+00    1.0431825190520547E+01
Ga    6.5080001413079405E+00    7.4022708695411445E+00    1.1025746979083877E+01
N    6.5080331720125022E+00    7.4013372368211643E+00    1.2997874134953006E+01
Ga    6.5082538597415978E+00    5.5315812957908150E+00    1.3620809681716171E+01
N    6.5076760971952039E+00    5.5633067362866830E+00    1.5584060240148839E+01
Ga    6.5080105586582846E+00    7.4012287695050532E+00    1.5862565485121198E+01
N    4.8030219258637086E+00    1.0130785874871256E+01    2.5175588756928815E+00
Ga    4.9780795204705344E+00    8.2823215434682940E+00    3.2574710216967495E+00
N    4.8983930616135138E+00    8.3286842469152660E+00    5.2379388156489295E+00
Ga    4.9277806437662770E+00    1.0201245124099323E+01    5.7863766379980150E+00
N    4.9110573819866286E+00    1.0191560090009208E+01    7.7908781246389056E+00
Ga    4.8908896552838863E+00    8.3374762233821293E+00    8.4334751281411151E+00
N    4.8893139357554052E+00    8.3360215595897706E+00    1.0428947149275258E+01
Ga    4.9146615913755749E+00    1.0194700911430846E+01    1.1068658048266590E+01
N    4.9316308941716862E+00    1.0204228061036426E+01    1.3063653221839241E+01
Ga    4.8893588652669875E+00    8.3356552340538865E+00    1.3620939172445755E+01
N    4.9148988178287896E+00    8.3190971590976215E+00    1.5583067437708392E+01
Ga    4.7432301188234529E+00    1.0096237919921482E+01    1.6479176848674872E+01
O    6.9135374320721935E-02    4.0713707584372658E+00   -4.3066257466573038E-01
H   -1.1341444658650329E-01    5.8592442964827915E+00   -3.3853252353104268E-01
C    1.2455353317308011E+00    3.6549834769481575E+00   -1.1519296508743879E+00
H    2.1742851813480968E+00    3.9957987760447700E+00   -6.6527975508178250E-01
H    1.2862954569004672E+00    2.5596694534329503E+00   -1.2516436081543494E+00
H    1.1941516299734136E+00    4.0940294126570951E+00   -2.1583420195456786E+00
Ga    3.2651268398482651E+00    5.5378583737365625E+00    2.8552675898411937E+00
O   -9.1350499469286167E-02    6.8462328858731034E+00   -2.1011291421412237E-01
H    2.9661614720257200E-02    7.3122458723607249E+00    1.6580934355943970E+00
C    1.1505337309949011E+00    7.3092997785051868E+00   -7.5796926801086550E-01
H    1.1308522598901993E+00    8.4080509812082003E+00   -7.3377117487503329E-01
H    2.0156417339122781E+00    6.9625131254238104E+00   -1.6457390798252630E-01
H    1.2833348197527981E+00    6.9916996974921588E+00   -1.8029897375767094E+00
     &END COORD
     &KIND C
       BASIS_SET DZVP-MOLOPT-SR-GTH-q4
       POTENTIAL GTH-PBE-q4
       &POTENTIAL
2 2
0.3384712400000000E+00 2 -0.8803673979999999E+01  0.1339210850000000E+01
2
0.3025757500000000E+00 1  0.9622486650000001E+01
0.2915069400000000E+00 0
       &END POTENTIAL
     &END KIND
     &KIND O
       BASIS_SET DZVP-MOLOPT-SR-GTH-q6
       POTENTIAL GTH-PBE-q6
       &POTENTIAL
2 4
0.2445543000000000E+00 2 -0.1666721480000000E+02  0.2487311320000000E+01
2
0.2209559200000000E+00 1  0.1833745811000000E+02
0.2113324700000000E+00 0
       &END POTENTIAL
     &END KIND
     &KIND H
       BASIS_SET DZVP-MOLOPT-SR-GTH-q1
       POTENTIAL GTH-PBE-q1
       &POTENTIAL
1
0.2000000000000000E+00 2 -0.4178900440000000E+01  0.7244633100000000E+00
0
       &END POTENTIAL
     &END KIND
     &KIND N
       BASIS_SET DZVP-MOLOPT-SR-GTH
       POTENTIAL GTH-PBE-q5
       &POTENTIAL
2 3
0.2837905100000000E+00 2 -0.1241522559000000E+02  0.1868095920000000E+01
2
0.2554050000000000E+00 1  0.1363026257000000E+02
0.2454945300000000E+00 0
       &END POTENTIAL
     &END KIND
     &KIND Ga
       BASIS_SET DZVP-MOLOPT-SR-GTH
       POTENTIAL GTH-PBE-q13
       &POTENTIAL
2 1 10
0.4900000000000000E+00 0
3
0.4167772300000000E+00 3  0.1047568975000000E+02 -0.4921768140000000E+01  0.8707055900000000E+00
0.7770178090000000E+01 -0.2248152160000000E+01
0.1784415450000000E+01
0.5696265200000000E+00 2  0.1777985340000000E+01  0.1958597600000000E+00
-0.2317443900000000E+00
0.2381265000000000E+00 1 -0.1624868022000000E+02
       &END POTENTIAL
     &END KIND
     &TOPOLOGY
       NUMBER_OF_ATOMS  212
       MULTIPLE_UNIT_CELL  1 1 1
     &END TOPOLOGY
     &COLVAR
       &DISTANCE
         ATOMS  127 211
       &END DISTANCE
       &PRINT
       &END PRINT
     &END COLVAR
   &END SUBSYS
 &END FORCE_EVAL
