 # Version information for this restart file 
 # current date 2019-07-09 10:27:02.957
 # current working dir /lustre04/scratch/rzk/rzk/GaN-carbene/443-adatoms-both-2x2/09-BondBreaking-CH/02-0401-CH-to-NTop-PES
 # Program compiled at                              Sun Apr  7 00:48:11 EDT 2019
 # Program compiled on                          beluga2.int.ets1.calculquebec.ca
 # Program compiled for                        Beluga-Linux-x86-64-intel-openmpi
 # Source code revision number                                         svn:18619
 &GLOBAL
   PRINT_LEVEL  MEDIUM
   PROJECT_NAME TEST
   RUN_TYPE  GEO_OPT
 &END GLOBAL
 &MOTION
   &GEO_OPT
     MAX_ITER  500
     STEP_START_VAL  119
   &END GEO_OPT
   &CONSTRAINT
     &COLLECTIVE
       COLVAR  1
       INTERMOLECULAR  T
       TARGET     5.6691783986569284E+00
       &RESTRAINT
         K     2.0000000000000000E+00
       &END RESTRAINT
     &END COLLECTIVE
     &COLVAR_RESTART
           5.6691783986569284E+00
     &END COLVAR_RESTART
   &END CONSTRAINT
 &END MOTION
 &FORCE_EVAL
   METHOD  QS
   STRESS_TENSOR  ANALYTICAL
   &DFT
     BASIS_SET_FILE_NAME BASIS_MOLOPT
     POTENTIAL_FILE_NAME GTH_POTENTIALS
     UKS  T
     SURFACE_DIPOLE_CORRECTION  T
     SURF_DIP_DIR  Z
     &SCF
       MAX_SCF  80
       EPS_SCF     5.0000000000000004E-06
       &OT  T
         PRECONDITIONER  FULL_ALL
       &END OT
       &OUTER_SCF  T
         OPTIMIZER  NONE
         EPS_SCF     5.0000000000000004E-06
         MAX_SCF  4
       &END OUTER_SCF
       &PRINT
         &RESTART  OFF
           BACKUP_COPIES  1
           &EACH
             JUST_ENERGY  0
             QS_SCF  0
             MD  20
           &END EACH
         &END RESTART
       &END PRINT
     &END SCF
     &QS
       EPS_DEFAULT     1.0000000000000000E-14
       METHOD  GPW
     &END QS
     &MGRID
       NGRIDS  5
       CUTOFF     1.2000000000000000E+03
     &END MGRID
     &XC
       DENSITY_CUTOFF     1.0000000000000000E-10
       GRADIENT_CUTOFF     1.0000000000000000E-10
       TAU_CUTOFF     1.0000000000000000E-10
       &XC_FUNCTIONAL  NO_SHORTCUT
         &PBE  T
         &END PBE
       &END XC_FUNCTIONAL
       &VDW_POTENTIAL
         POTENTIAL_TYPE  PAIR_POTENTIAL
         &PAIR_POTENTIAL
           R_CUTOFF     1.0000000000000007E+01
           TYPE  DFTD3
           PARAMETER_FILE_NAME dftd3.dat
           REFERENCE_FUNCTIONAL PBE
           EPS_CN     9.9999999999999995E-07
           CALCULATE_C9_TERM  T
           REFERENCE_C9_TERM  T
           LONG_RANGE_CORRECTION  F
           VERBOSE_OUTPUT  F
         &END PAIR_POTENTIAL
       &END VDW_POTENTIAL
     &END XC
   &END DFT
   &SUBSYS
     &CELL
       A     1.2864472766435110E+01    0.0000000000000000E+00    0.0000000000000000E+00
       B    -6.4322363581020028E+00    1.1140960178524477E+01    0.0000000000000000E+00
       C     0.0000000000000000E+00    0.0000000000000000E+00    3.2000000000000000E+01
       MULTIPLE_UNIT_CELL  1 1 1
       &CELL_REF
         A     1.2982353780853531E+01    0.0000000000000000E+00    0.0000000000000000E+00
         B    -6.4911768904267628E+00    1.1243048175136114E+01    0.0000000000000000E+00
         C     0.0000000000000000E+00    0.0000000000000000E+00    3.2000000000000000E+01
         MULTIPLE_UNIT_CELL  1 1 1
       &END CELL_REF
     &END CELL
     &COORD
N    7.7876288317310499E-02    1.9798278553846014E+00    2.4929081602617202E+00
Ga    6.1495234860717493E-02    9.7338141677719269E-03    2.8258539831493641E+00
N    8.1613375095133139E-02   -2.2754234598024548E-02    5.0160272157820582E+00
Ga    7.9478062007762140E-02    1.8022865982596601E+00    5.7993567433954958E+00
N    7.7233574033538199E-02    1.8178550410039123E+00    7.8013274120411324E+00
Ga    7.4104409799655060E-02   -2.7745550591324709E-02    8.4429796494555340E+00
N    7.4854290086919267E-02   -2.8251845867761284E-02    1.0418709820086800E+01
Ga    7.4710484151906134E-02    1.8122744380638607E+00    1.1066927144392652E+01
N    7.4116977432948983E-02    1.7933438199859379E+00    1.3061355808688237E+01
Ga    7.3302736062381260E-02   -2.6712861479976237E-02    1.3863322337216099E+01
N    7.2101074865208392E-02   -2.5910583121047458E-02    1.6066637881834296E+01
Ga    7.3208548072113661E-02    2.0170242077220797E+00    1.6476251207849153E+01
Ga    4.7099425960394722E-02    3.6849958825350670E+00    1.3697991199203148E+00
N   -1.4083704221724556E+00    4.5504658949053916E+00    2.5265941518434438E+00
Ga   -1.6024388502371960E+00    2.7067617882941613E+00    3.2823290788919537E+00
N   -1.5315124541405611E+00    2.7565356859518086E+00    5.2597578420313971E+00
Ga   -1.5600645306376972E+00    4.6219063942176071E+00    5.8088224068669527E+00
N   -1.5417420754078781E+00    4.6216335748012556E+00    7.8039334539481091E+00
Ga   -1.5229308598642699E+00    2.7604498440903797E+00    8.4353597988218798E+00
N   -1.5223734445127288E+00    2.7646633192773877E+00    1.0430652690762765E+01
Ga   -1.5480048515246072E+00    4.6223428323879983E+00    1.1070467773736654E+01
N   -1.5652237866696259E+00    4.6328461804191914E+00    1.3063994245187709E+01
Ga   -1.5234916875589140E+00    2.7632362658147955E+00    1.3618296160332335E+01
N   -1.5496016485582580E+00    2.7480488192441115E+00    1.5580826211557840E+01
Ga   -1.3789157473994165E+00    4.5252338560868672E+00    1.6475696711374656E+01
N    7.3600898026946401E-02    3.6951871291635112E+00    1.7608794900563520E+01
N   -3.1318174537743566E+00    7.5218258694711455E+00    2.5299266452338443E+00
Ga   -3.1112004905788364E+00    5.5169988274292807E+00    2.8533283338852922E+00
N   -3.1374676030222566E+00    5.5441292985345489E+00    5.0225370051729863E+00
Ga   -3.1454754165581034E+00    7.3642719370017486E+00    5.8088497454869188E+00
N   -3.1384643220821791E+00    7.3898601575359883E+00    7.7998674487196631E+00
Ga   -3.1402296568668784E+00    5.5426151959132142E+00    8.4497665578816470E+00
N   -3.1411167988298150E+00    5.5442262978583701E+00    1.0422169370170495E+01
Ga   -3.1423245088555172E+00    7.3835536569853506E+00    1.1071466829392500E+01
N   -3.1422131727796789E+00    7.3638941856317173E+00    1.3064138324557915E+01
Ga   -3.1423476470629623E+00    5.5430291861364900E+00    1.3866046955213303E+01
N   -3.1435788421794593E+00    5.5440184615575987E+00    1.6068268055668224E+01
Ga   -3.1426289178525315E+00    7.5867776173260424E+00    1.6477157115204033E+01
Ga   -3.1504636372924559E+00    9.2589151642718655E+00    1.5019632165231269E+00
N   -4.6399108101556648E+00    1.0125860184279146E+01    2.5177363488270195E+00
Ga   -4.8584769835402328E+00    8.2747313184953146E+00    3.2902492277360631E+00
N   -4.7449359436849896E+00    8.3294746956317631E+00    5.2515044508998461E+00
Ga   -4.7771140199627986E+00    1.0204171587834439E+01    5.7998646157692946E+00
N   -4.7568439949665446E+00    1.0190941882143182E+01    7.7974231425944529E+00
Ga   -4.7405884743995452E+00    8.3353740669661569E+00    8.4369431011924974E+00
N   -4.7377955603434145E+00    8.3348841385535017E+00    1.0430246044151215E+01
Ga   -4.7641681141752690E+00    1.0193967941282436E+01    1.1068498583456622E+01
N   -4.7812752608416371E+00    1.0203321563835996E+01    1.3062935687985968E+01
Ga   -4.7398384798234883E+00    8.3342340554507519E+00    1.3619632877889378E+01
N   -4.7654447199763066E+00    8.3185027164506806E+00    1.5582203840058398E+01
Ga   -4.5960743820027776E+00    1.0096198281685652E+01    1.6476354798348101E+01
N   -3.1429582027559717E+00    9.2662256675805459E+00    1.7608411479942653E+01
N    3.2837781081280872E+00    1.8358384958766849E+00    2.6166172416648434E+00
Ga    3.2865692012898329E+00    9.6338016649063413E-02    3.2895560128627759E+00
N    3.2953162023414606E+00   -2.9951677601389965E-02    5.2516021658961023E+00
Ga    3.2863285014937751E+00    1.8319396700184825E+00    5.8752503659110022E+00
N    3.2928633894520458E+00    1.8280987451076594E+00    7.8512697247696810E+00
Ga    3.2906656219618537E+00   -3.7598048604174344E-02    8.4400798700333581E+00
N    3.2917155984408186E+00   -3.9514763187676473E-02    1.0432936977812776E+01
Ga    3.2914805944479650E+00    1.8304940795181084E+00    1.1026469474834917E+01
N    3.2901872655443487E+00    1.8294445605660032E+00    1.2997865681402670E+01
Ga    3.2902035859645640E+00   -3.9749055669255941E-02    1.3619755599264790E+01
N    3.2893251955835283E+00   -8.3468999098437694E-03    1.5583459971201032E+01
Ga    3.2897187546217221E+00    1.8301799613304794E+00    1.5861486240697294E+01
N    1.5697474331758223E+00    4.5541009601899338E+00    2.5191980796554363E+00
Ga    1.7555836426926357E+00    2.7216636301752439E+00    3.2697135657589338E+00
N    1.6875001095247180E+00    2.7572682097421604E+00    5.2533556239853487E+00
Ga    1.7184706152351050E+00    4.6220747687965291E+00    5.8092253854272862E+00
N    1.6943859082087738E+00    4.6206153147462201E+00    7.8053074655512766E+00
Ga    1.6742370876527273E+00    2.7617855776517120E+00    8.4392190749247007E+00
N    1.6729048030387172E+00    2.7644660974835484E+00    1.0433156469203901E+01
Ga    1.6989417456920719E+00    4.6231390177512077E+00    1.1070520904724976E+01
N    1.7143015906485837E+00    4.6331207639850538E+00    1.3064267308730132E+01
Ga    1.6709926562501305E+00    2.7638811612226872E+00    1.3618925261546426E+01
N    1.6964798667384864E+00    2.7473435114962688E+00    1.5581327349770179E+01
Ga    1.5260451981304535E+00    4.5255206074786569E+00    1.6475421413690139E+01
N    7.9434282494053987E-02    7.3823727335071521E+00    2.6969503933415417E+00
Ga    8.8156255351824087E-02    5.5413298536456113E+00    3.3392521724470274E+00
N    7.8044726012049606E-02    5.5559149546570934E+00    5.2764174215783743E+00
Ga    8.6596447341950336E-02    7.3978878196467708E+00    5.9064426953957376E+00
N    7.7625057689956409E-02    7.4020699030085071E+00    7.8655552062804661E+00
Ga    7.6809669804133035E-02    5.5286294840565287E+00    8.4458235572417557E+00
N    7.5115930009950857E-02    5.5315239880490035E+00    1.0436476736730301E+01
Ga    7.6042600813238409E-02    7.4009290765087092E+00    1.1029132181985617E+01
N    7.4353837218142482E-02    7.4002284271418830E+00    1.2999213480540220E+01
Ga    7.4485641362116092E-02    5.5304122152739037E+00    1.3620304489456290E+01
N    7.2979390958772705E-02    5.5628757762592818E+00    1.5583348045112615E+01
Ga    7.3976294585876470E-02    7.4005415082157224E+00    1.5862413929398434E+01
N   -1.6317551514778905E+00    1.0114568943121901E+01    2.5245772804355191E+00
Ga   -1.4879581519261209E+00    8.3010774864145613E+00    3.3372189334612137E+00
N   -1.5183143538161108E+00    8.3214442926239425E+00    5.2640299765869907E+00
Ga   -1.5048126591268451E+00    1.0207659651351683E+01    5.8114318040227033E+00
N   -1.5223725609055321E+00    1.0189334499099081E+01    7.8017902485162729E+00
Ga   -1.5433132585856948E+00    8.3354828197476412E+00    8.4478915484609995E+00
N   -1.5440023214445688E+00    8.3350471640894526E+00    1.0436347198097403E+01
Ga   -1.5180961820303922E+00    1.0194993179087540E+01    1.1071596844890314E+01
N   -1.5020874512624491E+00    1.0203635489081742E+01    1.3064900103042644E+01
Ga   -1.5447334460804389E+00    8.3342512621370233E+00    1.3620229467586698E+01
N   -1.5195607060724621E+00    8.3177752478321061E+00    1.5582482177882646E+01
Ga   -1.6893301430527410E+00    1.0095969905264369E+01    1.6476436433303920E+01
N    6.5093045386126942E+00    1.9533324562913705E+00    2.5375776000269843E+00
Ga    6.5292729999532551E+00   -2.7349888797966099E-02    2.8627443317784689E+00
N    6.5061379429099393E+00   -2.7478234830499763E-02    5.0253489486369034E+00
Ga    6.5084501899932032E+00    1.8026040380726189E+00    5.8048674573081538E+00
N    6.5079490721472908E+00    1.8172091471634242E+00    7.8009195736353441E+00
Ga    6.5111421380329215E+00   -2.8106489748715907E-02    8.4470034189843854E+00
N    6.5080859802567881E+00   -2.8319380126208795E-02    1.0420233981473618E+01
Ga    6.5081600808012157E+00    1.8129584757228645E+00    1.1068022472304529E+01
N    6.5067090640847614E+00    1.7931652641164275E+00    1.3061629814521853E+01
Ga    6.5076483913425456E+00   -2.6132020827324780E-02    1.3866601012987280E+01
N    6.5066831520314627E+00   -2.5253645511437609E-02    1.6067102948866374E+01
Ga    6.5056373941751220E+00    2.0220613764020317E+00    1.6482150978961094E+01
Ga    6.5140025479670660E+00    3.6856329772050560E+00    1.5324717462264985E+00
N    5.0077731392415714E+00    4.5530229610938440E+00    2.5307507792490869E+00
Ga    4.7917834016309309E+00    2.7015689678059611E+00    3.2978694100150689E+00
N    4.8990994683679787E+00    2.7570353564938634E+00    5.2587565209904490E+00
Ga    4.8750225255885642E+00    4.6299376064349707E+00    5.8051498589100605E+00
N    4.8911498846101669E+00    4.6203568259591341E+00    7.8018428200367378E+00
Ga    4.9093917422059121E+00    2.7628337318327083E+00    8.4392712064532187E+00
N    4.9104267714663301E+00    2.7644847815927909E+00    1.0432400566244244E+01
Ga    4.8853799223918468E+00    4.6239889298767913E+00    1.1068840879013774E+01
N    4.8673485936835936E+00    4.6331614370354748E+00    1.3062808176346914E+01
Ga    4.9096608791989302E+00    2.7639791522832953E+00    1.3619471837492112E+01
N    4.8818121850492284E+00    2.7470603292725042E+00    1.5580622706316159E+01
Ga    5.0574429979689270E+00    4.5227966505812986E+00    1.6481003535430702E+01
N    6.5048839107710021E+00    3.6949516528411395E+00    1.7614362375927978E+01
N    3.2910582946184230E+00    7.5159036373993677E+00    2.4930244405836977E+00
N    3.2940916174993804E+00    5.5421064352115348E+00    5.0302319611667929E+00
Ga    3.2982061103956091E+00    7.3682699640937495E+00    5.7969879276566534E+00
N    3.2904033629887026E+00    7.3910892238158779E+00    7.7947323211097963E+00
Ga    3.2929118022520436E+00    5.5453369300782880E+00    8.4473389163951307E+00
N    3.2916420352126150E+00    5.5445126370960178E+00    1.0421014425219612E+01
Ga    3.2934948609070998E+00    7.3836006440887818E+00    1.1070394124245981E+01
N    3.2910854757901888E+00    7.3637473680469894E+00    1.3062896017539902E+01
Ga    3.2912958367546050E+00    5.5439816988034636E+00    1.3867105086631305E+01
N    3.2902506643787794E+00    5.5451898255758119E+00    1.6067923133661541E+01
Ga    3.2893028628751182E+00    7.5913951085180740E+00    1.6480910399039260E+01
Ga    3.3354537592636180E+00    9.2891135174903496E+00    1.3349829960797679E+00
N    1.7867568657894823E+00    1.0121883633413873E+01    2.5071940064934983E+00
Ga    1.6796759957752345E+00    8.3155762254539969E+00    3.2889118656610710E+00
N    1.6736604435437092E+00    8.3202184200069400E+00    5.2379936599574055E+00
Ga    1.6626393529006187E+00    1.0200923244944544E+01    5.7967245012807416E+00
N    1.6743475542068589E+00    1.0187095655234565E+01    7.7938990446969534E+00
Ga    1.6985063211245974E+00    8.3362699632848667E+00    8.4465465755645077E+00
N    1.6952679132150432E+00    8.3353481492883041E+00    1.0435731783415761E+01
Ga    1.6702284727219945E+00    1.0195046776858110E+01    1.1070682721377429E+01
N    1.6515039212294780E+00    1.0203468256497922E+01    1.3063564234488039E+01
Ga    1.6939552975722525E+00    8.3342423847167257E+00    1.3620516182387872E+01
N    1.6655555784493330E+00    8.3177241473269490E+00    1.5581144640130619E+01
Ga    1.8404774153614358E+00    1.0093499342787471E+01    1.6480339723852737E+01
N    3.2890748350216121E+00    9.2656040685904504E+00    1.7615898418795030E+01
N    9.7368024961173330E+00    1.8292829395166275E+00    2.6277653345832364E+00
Ga    9.7305491846602461E+00    6.8811674520110805E-02    3.2644128916284925E+00
N    9.7229547519632984E+00   -3.1424421859485845E-02    5.2437634982721422E+00
Ga    9.7313362557860987E+00    1.8230206027897355E+00    5.8689493943165179E+00
N    9.7238183106326250E+00    1.8274225247206797E+00    7.8479683146326433E+00
Ga    9.7263944214207037E+00   -3.9692011043271767E-02    8.4317228763564351E+00
N    9.7233718018758548E+00   -4.0149848140263761E-02    1.0427874548653449E+01
Ga    9.7236491227359565E+00    1.8294173877751956E+00    1.1023413958230496E+01
N    9.7226637185410762E+00    1.8291788922432253E+00    1.2995256903696450E+01
Ga    9.7232696417080380E+00   -3.9646627202076935E-02    1.3619762873436908E+01
N    9.7220592205200482E+00   -7.4387816982922628E-03    1.5582038722938277E+01
Ga    9.7218523114511211E+00    1.8297990690134447E+00    1.5860971848674314E+01
N    8.0129915685256865E+00    4.5532484420932295E+00    2.5384243476974802E+00
Ga    8.2300891094095956E+00    2.6938601414995893E+00    3.3004852125662398E+00
N    8.1182826766515372E+00    2.7567060416193678E+00    5.2607322481354313E+00
Ga    8.1417685208641721E+00    4.6290204240485116E+00    5.8020801590804867E+00
N    8.1268900667410513E+00    4.6214185213736654E+00    7.7990300563686432E+00
Ga    8.1084296693216835E+00    2.7623634446489884E+00    8.4356512829682853E+00
N    8.1048770139897837E+00    2.7647242608328222E+00    1.0430020663761228E+01
Ga    8.1291684646642128E+00    4.6230075446745742E+00    1.1069213007230811E+01
N    8.1459871858636248E+00    4.6330250721965589E+00    1.3062909340656981E+01
Ga    8.1039744976672203E+00    2.7636849543020108E+00    1.3619119206157974E+01
N    8.1297162282578057E+00    2.7475209309065622E+00    1.5580532581257291E+01
Ga    7.9526409212957443E+00    4.5221291797712366E+00    1.6481380413394380E+01
N    6.5051728053527000E+00    7.4021295841161097E+00    2.6086967762967963E+00
Ga    6.5049531206734166E+00    5.6658111071540800E+00    3.2963376562506301E+00
N    6.5090072614360679E+00    5.5455901671568011E+00    5.2568584863814740E+00
Ga    6.5021107170931103E+00    7.4053402961583892E+00    5.8692421410710338E+00
N    6.5080532079155580E+00    7.4012006199052820E+00    7.8453321447019650E+00
Ga    6.5086991794403746E+00    5.5337572351901478E+00    8.4372624402028897E+00
N    6.5079031521071737E+00    5.5321174890001821E+00    1.0430985726075567E+01
Ga    6.5069159719089154E+00    7.4015551688863965E+00    1.1024535133694760E+01
N    6.5064183566484850E+00    7.4007554871430790E+00    1.2996040932895630E+01
Ga    6.5066464395994403E+00    5.5311640346962143E+00    1.3620227981840964E+01
N    6.5061757324185123E+00    5.5637228061859298E+00    1.5582503889655298E+01
Ga    6.5053772788652360E+00    7.4006398226875989E+00    1.5862262683408913E+01
N    4.8035670758163169E+00    1.0130070439684557E+01    2.5165461957284094E+00
Ga    4.9786825459440394E+00    8.2820850404703226E+00    3.2561980275542175E+00
N    4.8986560540145403E+00    8.3281834324737911E+00    5.2377992947787719E+00
Ga    4.9284742442382754E+00    1.0200392491773437E+01    5.7848204918306729E+00
N    4.9106106095076001E+00    1.0190282150781025E+01    7.7897643989827472E+00
Ga    4.8904836619525724E+00    8.3365537194035415E+00    8.4328247488663362E+00
N    4.8885120030733988E+00    8.3348492028726628E+00    1.0427904419788307E+01
Ga    4.9132015826989734E+00    1.0193374860399320E+01    1.1066873426243433E+01
N    4.9297747834815375E+00    1.0203184293216326E+01    1.3061209875320854E+01
Ga    4.8876750365071304E+00    8.3347339613114357E+00    1.3620164974202535E+01
N    4.9135211806458061E+00    8.3183314934153056E+00    1.5581245848115906E+01
Ga    4.7373757334398610E+00    1.0093286957164372E+01    1.6480517370458188E+01
O    6.5384781323230182E-02    4.0800671439125837E+00   -4.2909198760721717E-01
H   -1.0243180523023793E-01    5.8610374489344395E+00   -3.2629938826424959E-01
C    1.2360317552790088E+00    3.6605817943257879E+00   -1.1573990968558916E+00
H    2.1680871101461041E+00    3.9916567065150486E+00   -6.6933045216348419E-01
H    1.2690721817824133E+00    2.5654258091396471E+00   -1.2653794719795213E+00
H    1.1867733087388246E+00    4.1078394134243563E+00   -2.1604833279703732E+00
Ga    3.2656913522070168E+00    5.5389473626607080E+00    2.8538155741651234E+00
O   -8.9465490680485565E-02    6.8491170199830282E+00   -2.0007268749960763E-01
H    3.2083544028014888E-02    7.3104762318623777E+00    1.6582448186610004E+00
C    1.1391149952321993E+00    7.3271130103202271E+00   -7.6574045401785418E-01
H    1.1006175995899150E+00    8.4262487820242526E+00   -7.5836680574913218E-01
H    2.0175336055044180E+00    7.0050317742198462E+00   -1.7593199831674380E-01
H    1.2660008024889615E+00    6.9942989614502649E+00   -1.8070230153253346E+00
     &END COORD
     &KIND C
       BASIS_SET DZVP-MOLOPT-SR-GTH-q4
       POTENTIAL GTH-PBE-q4
       &POTENTIAL
2 2
0.3384712400000000E+00 2 -0.8803673979999999E+01  0.1339210850000000E+01
2
0.3025757500000000E+00 1  0.9622486650000001E+01
0.2915069400000000E+00 0
       &END POTENTIAL
     &END KIND
     &KIND O
       BASIS_SET DZVP-MOLOPT-SR-GTH-q6
       POTENTIAL GTH-PBE-q6
       &POTENTIAL
2 4
0.2445543000000000E+00 2 -0.1666721480000000E+02  0.2487311320000000E+01
2
0.2209559200000000E+00 1  0.1833745811000000E+02
0.2113324700000000E+00 0
       &END POTENTIAL
     &END KIND
     &KIND H
       BASIS_SET DZVP-MOLOPT-SR-GTH-q1
       POTENTIAL GTH-PBE-q1
       &POTENTIAL
1
0.2000000000000000E+00 2 -0.4178900440000000E+01  0.7244633100000000E+00
0
       &END POTENTIAL
     &END KIND
     &KIND N
       BASIS_SET DZVP-MOLOPT-SR-GTH
       POTENTIAL GTH-PBE-q5
       &POTENTIAL
2 3
0.2837905100000000E+00 2 -0.1241522559000000E+02  0.1868095920000000E+01
2
0.2554050000000000E+00 1  0.1363026257000000E+02
0.2454945300000000E+00 0
       &END POTENTIAL
     &END KIND
     &KIND Ga
       BASIS_SET DZVP-MOLOPT-SR-GTH
       POTENTIAL GTH-PBE-q13
       &POTENTIAL
2 1 10
0.4900000000000000E+00 0
3
0.4167772300000000E+00 3  0.1047568975000000E+02 -0.4921768140000000E+01  0.8707055900000000E+00
0.7770178090000000E+01 -0.2248152160000000E+01
0.1784415450000000E+01
0.5696265200000000E+00 2  0.1777985340000000E+01  0.1958597600000000E+00
-0.2317443900000000E+00
0.2381265000000000E+00 1 -0.1624868022000000E+02
       &END POTENTIAL
     &END KIND
     &TOPOLOGY
       NUMBER_OF_ATOMS  212
       MULTIPLE_UNIT_CELL  1 1 1
     &END TOPOLOGY
     &COLVAR
       &DISTANCE
         ATOMS  127 211
       &END DISTANCE
       &PRINT
       &END PRINT
     &END COLVAR
   &END SUBSYS
 &END FORCE_EVAL
