 # Version information for this restart file 
 # current date 2019-07-11 13:10:48.762
 # current working dir /lustre04/scratch/rzk/rzk/GaN-carbene/443-adatoms-both-2x2/09-BondBreaking-CH/02-0401-CH-to-NTop-PES
 # Program compiled at                              Sun Apr  7 00:48:11 EDT 2019
 # Program compiled on                          beluga2.int.ets1.calculquebec.ca
 # Program compiled for                        Beluga-Linux-x86-64-intel-openmpi
 # Source code revision number                                         svn:18619
 &GLOBAL
   PRINT_LEVEL  MEDIUM
   PROJECT_NAME TEST
   RUN_TYPE  GEO_OPT
 &END GLOBAL
 &MOTION
   &GEO_OPT
     MAX_ITER  500
     STEP_START_VAL  27
   &END GEO_OPT
   &CONSTRAINT
     &COLLECTIVE
       COLVAR  1
       INTERMOLECULAR  T
       TARGET     3.7794522657712859E+00
       &RESTRAINT
         K     2.0000000000000000E+00
       &END RESTRAINT
     &END COLLECTIVE
     &COLVAR_RESTART
           3.7794522657712859E+00
     &END COLVAR_RESTART
   &END CONSTRAINT
 &END MOTION
 &FORCE_EVAL
   METHOD  QS
   STRESS_TENSOR  ANALYTICAL
   &DFT
     BASIS_SET_FILE_NAME BASIS_MOLOPT
     POTENTIAL_FILE_NAME GTH_POTENTIALS
     UKS  T
     SURFACE_DIPOLE_CORRECTION  T
     SURF_DIP_DIR  Z
     &SCF
       MAX_SCF  80
       EPS_SCF     5.0000000000000004E-06
       &OT  T
         PRECONDITIONER  FULL_ALL
       &END OT
       &OUTER_SCF  T
         OPTIMIZER  NONE
         EPS_SCF     5.0000000000000004E-06
         MAX_SCF  4
       &END OUTER_SCF
       &PRINT
         &RESTART  OFF
           BACKUP_COPIES  1
           &EACH
             JUST_ENERGY  0
             QS_SCF  0
             MD  20
           &END EACH
         &END RESTART
       &END PRINT
     &END SCF
     &QS
       EPS_DEFAULT     1.0000000000000000E-14
       METHOD  GPW
     &END QS
     &MGRID
       NGRIDS  5
       CUTOFF     1.2000000000000000E+03
     &END MGRID
     &XC
       DENSITY_CUTOFF     1.0000000000000000E-10
       GRADIENT_CUTOFF     1.0000000000000000E-10
       TAU_CUTOFF     1.0000000000000000E-10
       &XC_FUNCTIONAL  NO_SHORTCUT
         &PBE  T
         &END PBE
       &END XC_FUNCTIONAL
       &VDW_POTENTIAL
         POTENTIAL_TYPE  PAIR_POTENTIAL
         &PAIR_POTENTIAL
           R_CUTOFF     1.0000000000000009E+01
           TYPE  DFTD3
           PARAMETER_FILE_NAME dftd3.dat
           REFERENCE_FUNCTIONAL PBE
           EPS_CN     9.9999999999999995E-07
           CALCULATE_C9_TERM  T
           REFERENCE_C9_TERM  T
           LONG_RANGE_CORRECTION  F
           VERBOSE_OUTPUT  F
         &END PAIR_POTENTIAL
       &END VDW_POTENTIAL
     &END XC
   &END DFT
   &SUBSYS
     &CELL
       A     1.2864472766435110E+01    0.0000000000000000E+00    0.0000000000000000E+00
       B    -6.4322363581020028E+00    1.1140960178524477E+01    0.0000000000000000E+00
       C     0.0000000000000000E+00    0.0000000000000000E+00    3.2000000000000000E+01
       MULTIPLE_UNIT_CELL  1 1 1
       &CELL_REF
         A     1.2982353780853531E+01    0.0000000000000000E+00    0.0000000000000000E+00
         B    -6.4911768904267628E+00    1.1243048175136114E+01    0.0000000000000000E+00
         C     0.0000000000000000E+00    0.0000000000000000E+00    3.2000000000000000E+01
         MULTIPLE_UNIT_CELL  1 1 1
       &END CELL_REF
     &END CELL
     &COORD
N    3.9293205907400756E-02    1.9924017630110846E+00    2.4874491010393345E+00
Ga    4.3885715286812982E-02    3.1199320072259000E-02    2.8317774907562456E+00
N    4.1256276417198083E-02   -1.1350179311338564E-02    5.0054069986261647E+00
Ga    4.2140116804839041E-02    1.8175992816549771E+00    5.7939240561663237E+00
N    4.0819370836615569E-02    1.8280352554089223E+00    7.7911693615062863E+00
Ga    4.0902680810555855E-02   -1.6640618593161832E-02    8.4408380830386136E+00
N    4.0652338222479656E-02   -1.8963580177065266E-02    1.0410956152343884E+01
Ga    4.1195772957016735E-02    1.8206674784002617E+00    1.1067201594921810E+01
N    4.1460129589285195E-02    1.7999930208202570E+00    1.3055244179468756E+01
Ga    4.1406128057086128E-02   -1.8781268385730892E-02    1.3869845058733036E+01
N    4.1835336414919440E-02   -1.8081530517914751E-02    1.6058952367334427E+01
Ga    4.1985766661351079E-02    2.0356410855872320E+00    1.6482786395044670E+01
Ga    1.4933407379354783E-02    3.6944010470930237E+00    1.3588707578601897E+00
N   -1.4426550862690333E+00    4.5649243471340126E+00    2.5084566384285214E+00
Ga   -1.6384877442420995E+00    2.7273609788215256E+00    3.2735178570613499E+00
N   -1.5687129556589290E+00    2.7704862422812200E+00    5.2491181953261528E+00
Ga   -1.5966195336207720E+00    4.6357704989792552E+00    5.8047098926953371E+00
N   -1.5766421582635100E+00    4.6322064535668481E+00    7.7957457997251387E+00
Ga   -1.5564983114661348E+00    2.7722655688977085E+00    8.4365781179261106E+00
N   -1.5557825201191209E+00    2.7739347422117380E+00    1.0425215350120885E+01
Ga   -1.5833456353431687E+00    4.6318611680099595E+00    1.1070870798624988E+01
N   -1.5992913874917194E+00    4.6411164459377465E+00    1.3058038600437653E+01
Ga   -1.5566867145191621E+00    2.7705424733807522E+00    1.3617082639869011E+01
N   -1.5845092177566993E+00    2.7528816838626189E+00    1.5571924233220587E+01
Ga   -1.3998526324178371E+00    4.5263800068363116E+00    1.6481619173576970E+01
N    4.1836912503409311E-02    3.6997228899436614E+00    1.7611316079039437E+01
N   -3.1733330430317572E+00    7.5356043463684745E+00    2.5049116722841567E+00
Ga   -3.1500383899604767E+00    5.5349892767736479E+00    2.8410200618478489E+00
N   -3.1721884043743414E+00    5.5561977599152055E+00    5.0130541420496462E+00
Ga   -3.1815850612444048E+00    7.3776438980930239E+00    5.7983270240187386E+00
N   -3.1743108191795777E+00    7.4005162271039699E+00    7.7877899648998516E+00
Ga   -3.1756127723841545E+00    5.5533392880460353E+00    8.4461022810257234E+00
N   -3.1754638632286456E+00    5.5531347966130644E+00    1.0413998738505557E+01
Ga   -3.1773128146022649E+00    7.3914186675425286E+00    1.1070605899310046E+01
N   -3.1750620141703587E+00    7.3707265283355889E+00    1.3057479846576927E+01
Ga   -3.1751649580426187E+00    5.5505617492788097E+00    1.3874211506738158E+01
N   -3.1745161884937181E+00    5.5516020429608393E+00    1.6058093180083617E+01
Ga   -3.1746505200144148E+00    7.5968585601932839E+00    1.6480860090297433E+01
Ga   -3.1950176110007731E+00    9.2827787963417645E+00    1.4455722607149386E+00
N   -4.6811235410447551E+00    1.0140876312035948E+01    2.5063410628765630E+00
Ga   -4.8903220452152834E+00    8.2891751935660061E+00    3.2710373202128991E+00
N   -4.7832886552836840E+00    8.3406225246900689E+00    5.2356091742784976E+00
Ga   -4.8097917114779491E+00    1.0213786139722787E+01    5.7897009811809959E+00
N   -4.7930746843202288E+00    1.0201504371041322E+01    7.7845115185518194E+00
Ga   -4.7755789751112969E+00    8.3458388180520302E+00    8.4317569956627310E+00
N   -4.7720500370929999E+00    8.3441966161286008E+00    1.0420729745183980E+01
Ga   -4.7989179763092071E+00    1.0202901258529716E+01    1.1067105649088841E+01
N   -4.8149841413600898E+00    1.0212054268997997E+01    1.3055501180060796E+01
Ga   -4.7716114294412533E+00    8.3431124813346056E+00    1.3617856580156053E+01
N   -4.7967202408435883E+00    8.3281684661171873E+00    1.5575583293176162E+01
Ga   -4.6224427671352180E+00    1.0101239649634861E+01    1.6480943849765918E+01
N   -3.1748891650626816E+00    9.2709554086987094E+00    1.7623322866854032E+01
N    3.2475807222749795E+00    1.8490336062342843E+00    2.6089126070316291E+00
Ga    3.2504314411351021E+00    1.0482028688116533E-01    3.2754208966289746E+00
N    3.2594607909453130E+00   -1.6949834372733150E-02    5.2395718287718642E+00
Ga    3.2509267958702619E+00    1.8424439356196030E+00    5.8680680396559390E+00
N    3.2573061201531681E+00    1.8386112183408534E+00    7.8410698365919060E+00
Ga    3.2552044855969777E+00   -2.7016683350679971E-02    8.4335315004076818E+00
N    3.2569454814900154E+00   -3.2238636097301834E-02    1.0421965369164061E+01
Ga    3.2571349207687534E+00    1.8383862350795013E+00    1.1021663864672112E+01
N    3.2576673199008468E+00    1.8364460843471637E+00    1.2986304520876821E+01
Ga    3.2572841288126178E+00   -3.1500918644988149E-02    1.3617364807377740E+01
N    3.2575116891808094E+00   -3.4663741546180405E-03    1.5575648174886069E+01
Ga    3.2579525433711924E+00    1.8355348560595259E+00    1.5860501019139804E+01
N    1.5323717649731583E+00    4.5663710234067274E+00    2.5195424234827959E+00
Ga    1.7187299765105120E+00    2.7309661352056418E+00    3.2638908692441184E+00
N    1.6516379243949355E+00    2.7687595709746242E+00    5.2444861753509331E+00
Ga    1.6784566256946996E+00    4.6327166758149518E+00    5.8024405499967724E+00
N    1.6592651412255395E+00    4.6316330507131793E+00    7.7934880623304776E+00
Ga    1.6394334514325875E+00    2.7717804504406809E+00    8.4346960873832320E+00
N    1.6378604857370804E+00    2.7737128115761536E+00    1.0423925715808270E+01
Ga    1.6656406822969145E+00    4.6315452139586517E+00    1.1070486203855316E+01
N    1.6822790097390834E+00    4.6411919038921834E+00    1.3057858092504024E+01
Ga    1.6395217125148782E+00    2.7706728938911400E+00    1.3617266572256714E+01
N    1.6683380320685928E+00    2.7529861680824572E+00    1.5571973667366766E+01
Ga    1.4836384606516149E+00    4.5263898608100339E+00    1.6481835887971208E+01
N    3.5196915499873388E-02    7.3965197724232699E+00    2.6841950491214606E+00
Ga    4.6212729656523108E-02    5.5526917197000358E+00    3.3300804150383532E+00
N    4.1418517149299047E-02    5.5689633241443941E+00    5.2647512135012322E+00
Ga    4.1968101639430148E-02    7.4077065950352319E+00    5.9011515168123205E+00
N    4.1004173905572504E-02    7.4125440616057556E+00    7.8560662340384422E+00
Ga    4.1849334672458688E-02    5.5385756175396992E+00    8.4433064323089440E+00
N    4.1118301710542690E-02    5.5397259702610322E+00    1.0429106985453361E+01
Ga    4.0629143782769175E-02    7.4094374055977097E+00    1.1027440015091811E+01
N    4.1454424848136238E-02    7.4097262023713331E+00    1.2991985577044426E+01
Ga    4.1494448118529682E-02    5.5384501897384935E+00    1.3618578146054777E+01
N    4.1882739208540763E-02    5.5747401253796216E+00    1.5573728664104410E+01
Ga    4.1763610395916549E-02    7.4098255628833023E+00    1.5857791792077354E+01
N   -1.6688873684153032E+00    1.0130757214741800E+01    2.5089478629335007E+00
Ga   -1.5402360302581395E+00    8.3184439248000004E+00    3.3152049703808757E+00
N   -1.5543694866848798E+00    8.3333168592207478E+00    5.2460985258854178E+00
Ga   -1.5436235167193813E+00    1.0216873918317033E+01    5.8014152822821652E+00
N   -1.5575298586441124E+00    1.0199250494186934E+01    7.7892979942354392E+00
Ga   -1.5802805527009895E+00    8.3459780327639290E+00    8.4438433062064924E+00
N   -1.5795297843855298E+00    8.3445101133459083E+00    1.0427688529589298E+01
Ga   -1.5523657593346034E+00    1.0204635771391914E+01    1.1070121624409063E+01
N   -1.5342786987733326E+00    1.0212555598007830E+01    1.3057254422653720E+01
Ga   -1.5787844289677486E+00    8.3434023459167843E+00    1.3618591368790584E+01
N   -1.5523880899842522E+00    8.3279728075241035E+00    1.5576055885823527E+01
Ga   -1.7270844875948776E+00    1.0101131061112845E+01    1.6481088628967260E+01
N    6.4737172010785224E+00    1.9679915997748911E+00    2.5295451969997034E+00
Ga    6.4706715562610091E+00   -2.5385032637083387E-03    2.8626938625199334E+00
N    6.4734007344542146E+00   -1.6259119160089232E-02    5.0149949136650465E+00
Ga    6.4730777132605128E+00    1.8172958048176731E+00    5.7992235914954922E+00
N    6.4732014389538275E+00    1.8274253151001469E+00    7.7913377185233230E+00
Ga    6.4729834790215444E+00   -1.7030720265579665E-02    8.4448509866818533E+00
N    6.4735444016777794E+00   -1.8674911709715712E-02    1.0412513003103827E+01
Ga    6.4731918403909718E+00    1.8220062747062271E+00    1.1067778631953182E+01
N    6.4737456151523771E+00    1.8002309180222915E+00    1.3055211270438740E+01
Ga    6.4738666139676324E+00   -1.8014699869841673E-02    1.3871266383965098E+01
N    6.4739407474452308E+00   -1.7831090404675107E-02    1.6059630826581792E+01
Ga    6.4741577826235028E+00    2.0367235372962904E+00    1.6483201004192807E+01
Ga    6.4756146933906269E+00    3.6972135471717862E+00    1.5055179014237936E+00
N    4.9723071311996669E+00    4.5657255512177422E+00    2.5250773514329370E+00
Ga    4.7582602667503098E+00    2.7130938593039144E+00    3.2887231718312253E+00
N    4.8629972993711768E+00    2.7688980913607009E+00    5.2487038107087987E+00
Ga    4.8432408153361957E+00    4.6402730293215733E+00    5.7980261175656693E+00
N    4.8557026894255921E+00    4.6316796725735809E+00    7.7900450151140737E+00
Ga    4.8734581359807247E+00    2.7731403526615828E+00    8.4345533563908699E+00
N    4.8765654414536819E+00    2.7739927179098798E+00    1.0423112174597261E+01
Ga    4.8508669488189184E+00    4.6325739345227852E+00    1.1068545316801609E+01
N    4.8334508427249885E+00    4.6411639129928828E+00    1.3056395838553961E+01
Ga    4.8758895652281105E+00    2.7709805100321621E+00    1.3616823421404609E+01
N    4.8474401181642026E+00    2.7531601792798801E+00    1.5571750973801471E+01
Ga    5.0328535780212373E+00    4.5265344244167274E+00    1.6482046865307808E+01
N    6.4742183805515339E+00    3.7004705268599798E+00    1.7611030498772166E+01
N    3.2315088020355289E+00    7.5321298694794026E+00    2.4438448508394588E+00
N    3.2584171171825389E+00    5.5575394559177127E+00    5.0166480445074733E+00
Ga    3.2609926372377429E+00    7.3788866841149501E+00    5.8008637880743690E+00
N    3.2550458576653649E+00    7.4003400055122226E+00    7.7884792446346847E+00
Ga    3.2576666417488962E+00    5.5523284389940688E+00    8.4455134868271955E+00
N    3.2576583623814490E+00    5.5533185903416227E+00    1.0413525396651091E+01
Ga    3.2592299900719675E+00    7.3913321473246159E+00    1.1071123649439910E+01
N    3.2578723431071666E+00    7.3709204804481407E+00    1.3057660973464884E+01
Ga    3.2582345479220565E+00    5.5506755005147745E+00    1.3874279188143980E+01
N    3.2581805480132360E+00    5.5514136987395268E+00    1.6057866236579947E+01
Ga    3.2581835866936459E+00    7.5964662408829220E+00    1.6480924696900125E+01
Ga    3.2856697955058429E+00    9.3359732409436518E+00    1.4668098072208748E+00
N    1.7511047899266381E+00    1.0139270246414338E+01    2.5177242199148067E+00
Ga    1.6227241185208996E+00    8.3171097805522383E+00    3.3022810840203634E+00
N    1.6374241238726119E+00    8.3314353557314078E+00    5.2352488000935713E+00
Ga    1.6229724070392955E+00    1.0213611173033939E+01    5.8014898261893819E+00
N    1.6386719427423497E+00    1.0197539359933604E+01    7.7893401453956210E+00
Ga    1.6612379648158542E+00    8.3451484858808413E+00    8.4465590619436224E+00
N    1.6612010289991508E+00    8.3446137178356565E+00    1.0429381025871686E+01
Ga    1.6346918077188299E+00    1.0204893180360676E+01    1.1070659456645968E+01
N    1.6173897523600453E+00    1.0212481055859515E+01    1.3057397792401083E+01
Ga    1.6615347367139117E+00    8.3433503343951152E+00    1.3618764603077832E+01
N    1.6360640605544370E+00    8.3279982062234499E+00    1.5576139090837636E+01
Ga    1.8103643190016514E+00    1.0101222087835804E+01    1.6481101580144355E+01
N    3.2585430120623649E+00    9.2708657959570679E+00    1.7623692765414727E+01
N    9.6983421663482439E+00    1.8500523060778593E+00    2.6174419234947339E+00
Ga    9.6938796143591190E+00    1.1430230743554097E-01    3.2957654851814264E+00
N    9.6868478984923190E+00   -1.6734158020161472E-02    5.2505527560775027E+00
Ga    9.6946881467986152E+00    1.8456929984710921E+00    5.8739493686267874E+00
N    9.6887103748392747E+00    1.8398835713638821E+00    7.8449783564951865E+00
Ga    9.6912611405303082E+00   -2.7854639877913104E-02    8.4330629935226451E+00
N    9.6893454700747128E+00   -3.2327790929565156E-02    1.0421743029781588E+01
Ga    9.6892965269369835E+00    1.8380901194945414E+00    1.1021472169285019E+01
N    9.6897043870569082E+00    1.8360890326514689E+00    1.2986021868112744E+01
Ga    9.6901664635543785E+00   -3.1438984464577574E-02    1.3617711489476541E+01
N    9.6905365827373302E+00   -3.6094059465541992E-03    1.5575821367320476E+01
Ga    9.6902382745824180E+00    1.8355437235893475E+00    1.5860280956132485E+01
N    7.9766674578102936E+00    4.5673847484767922E+00    2.5237130819979252E+00
Ga    8.1886600519952797E+00    2.7170149462152371E+00    3.2910885625738482E+00
N    8.0828656312559808E+00    2.7698625914333319E+00    5.2507897316230219E+00
Ga    8.1073588121237936E+00    4.6425655814684674E+00    5.7967859698727331E+00
N    8.0911004162042328E+00    4.6323892543897989E+00    7.7903845043262532E+00
Ga    8.0715628077477053E+00    2.7742719616935831E+00    8.4362224201966143E+00
N    8.0697821231635167E+00    2.7743712280708315E+00    1.0424241000381654E+01
Ga    8.0958100921043670E+00    4.6328786409280021E+00    1.1069054148298278E+01
N    8.1139331542293061E+00    4.6411248191567802E+00    1.3056571868006539E+01
Ga    8.0717547422690394E+00    2.7710262918789166E+00    1.3616711659807587E+01
N    8.1007449090951340E+00    2.7531632374153281E+00    1.5571646689017761E+01
Ga    7.9153937559816461E+00    4.5266001245000931E+00    1.6481850700567605E+01
N    6.4649551654231203E+00    7.4123094800390872E+00    2.5975049983597125E+00
Ga    6.4752033634027137E+00    5.6720583291962292E+00    3.2849226416085933E+00
N    6.4741906140450229E+00    5.5580354897074526E+00    5.2450545352908842E+00
Ga    6.4704635737343956E+00    7.4148277084109315E+00    5.8635493550364908E+00
N    6.4723155066815039E+00    7.4120204231068074E+00    7.8353509035888509E+00
Ga    6.4730847655145469E+00    5.5441105329990368E+00    8.4342818512428881E+00
N    6.4733286288261356E+00    5.5409277982372798E+00    1.0423330333894166E+01
Ga    6.4733356778183264E+00    7.4100279437592196E+00    1.1022541442698618E+01
N    6.4734168284076388E+00    7.4097341149775788E+00    1.2988416497946698E+01
Ga    6.4738360875373511E+00    5.5391302212404669E+00    1.3617221699638568E+01
N    6.4740178906673487E+00    5.5749667132574698E+00    1.5572709536617083E+01
Ga    6.4738544488609717E+00    7.4098104375165850E+00    1.5857999638410105E+01
N    4.7644208089771558E+00    1.0147496949143939E+01    2.5255621673765609E+00
Ga    4.9437975907449339E+00    8.2741150192424300E+00    3.2616787792822750E+00
N    4.8591938013106999E+00    8.3383667433786517E+00    5.2292253219945861E+00
Ga    4.8944593909565297E+00    1.0210881572233527E+01    5.7886485342978311E+00
N    4.8756359156700233E+00    1.0200139024655195E+01    7.7841347636943752E+00
Ga    4.8566587852454077E+00    8.3454669176828062E+00    8.4338371065372009E+00
N    4.8538188532818562E+00    8.3442893329812104E+00    1.0422017940357392E+01
Ga    4.8804584008672292E+00    1.0203115125008054E+01    1.1067400194546945E+01
N    4.8975301937568112E+00    1.0212069874555496E+01    1.3055450708567140E+01
Ga    4.8544628781662391E+00    8.3433107286651449E+00    1.3618120336314169E+01
N    4.8799429385483961E+00    8.3283381480896885E+00    1.5575615764580247E+01
Ga    4.7062866754286627E+00    1.0101418432796642E+01    1.6481047708620405E+01
O    8.0694426191706539E-02    4.0241918303411168E+00   -4.5178274548161651E-01
H    2.0742921774016213E-01    5.8069620698902886E+00   -3.6780926529826136E-01
C    1.1447270334805575E+00    3.3822692473986233E+00   -1.1819119628248838E+00
H    2.1319165049614228E+00    3.5609400925049584E+00   -7.2415806635155844E-01
H    9.8489583848663098E-01    2.2952811700235642E+00   -1.2473258295235941E+00
H    1.1492317911095660E+00    3.7950180153072051E+00   -2.2008430641732168E+00
Ga    3.2351642668787788E+00    5.5204620526550858E+00    2.8688872145459263E+00
O    4.0289877396501111E-01    6.7629960943637872E+00   -1.7468152515653862E-01
H    3.0547696174151366E-02    7.3217507710631322E+00    1.6461604415397473E+00
C    1.8299829974532289E+00    6.9212964457383173E+00   -2.3126864957947238E-01
H    2.0452789576194901E+00    7.9032831103415200E+00   -6.9968876206044117E-01
H    2.3005720580410616E+00    6.9297340781297159E+00    7.7676037057804792E-01
H    2.3043379942547570E+00    6.1508500701595237E+00   -8.5444723944631873E-01
     &END COORD
     &KIND C
       BASIS_SET DZVP-MOLOPT-SR-GTH-q4
       POTENTIAL GTH-PBE-q4
       &POTENTIAL
2 2
0.3384712400000000E+00 2 -0.8803673979999999E+01  0.1339210850000000E+01
2
0.3025757500000000E+00 1  0.9622486650000001E+01
0.2915069400000000E+00 0
       &END POTENTIAL
     &END KIND
     &KIND O
       BASIS_SET DZVP-MOLOPT-SR-GTH-q6
       POTENTIAL GTH-PBE-q6
       &POTENTIAL
2 4
0.2445543000000000E+00 2 -0.1666721480000000E+02  0.2487311320000000E+01
2
0.2209559200000000E+00 1  0.1833745811000000E+02
0.2113324700000000E+00 0
       &END POTENTIAL
     &END KIND
     &KIND H
       BASIS_SET DZVP-MOLOPT-SR-GTH-q1
       POTENTIAL GTH-PBE-q1
       &POTENTIAL
1
0.2000000000000000E+00 2 -0.4178900440000000E+01  0.7244633100000000E+00
0
       &END POTENTIAL
     &END KIND
     &KIND N
       BASIS_SET DZVP-MOLOPT-SR-GTH
       POTENTIAL GTH-PBE-q5
       &POTENTIAL
2 3
0.2837905100000000E+00 2 -0.1241522559000000E+02  0.1868095920000000E+01
2
0.2554050000000000E+00 1  0.1363026257000000E+02
0.2454945300000000E+00 0
       &END POTENTIAL
     &END KIND
     &KIND Ga
       BASIS_SET DZVP-MOLOPT-SR-GTH
       POTENTIAL GTH-PBE-q13
       &POTENTIAL
2 1 10
0.4900000000000000E+00 0
3
0.4167772300000000E+00 3  0.1047568975000000E+02 -0.4921768140000000E+01  0.8707055900000000E+00
0.7770178090000000E+01 -0.2248152160000000E+01
0.1784415450000000E+01
0.5696265200000000E+00 2  0.1777985340000000E+01  0.1958597600000000E+00
-0.2317443900000000E+00
0.2381265000000000E+00 1 -0.1624868022000000E+02
       &END POTENTIAL
     &END KIND
     &TOPOLOGY
       NUMBER_OF_ATOMS  212
       MULTIPLE_UNIT_CELL  1 1 1
     &END TOPOLOGY
     &COLVAR
       &DISTANCE
         ATOMS  127 211
       &END DISTANCE
       &PRINT
       &END PRINT
     &END COLVAR
   &END SUBSYS
 &END FORCE_EVAL
