 # Version information for this restart file 
 # current date 2019-07-09 10:34:12.150
 # current working dir /lustre04/scratch/rzk/rzk/GaN-carbene/443-adatoms-both-2x2/09-BondBreaking-CH/02-0401-CH-to-NTop-PES
 # Program compiled at                              Sun Apr  7 00:48:11 EDT 2019
 # Program compiled on                          beluga2.int.ets1.calculquebec.ca
 # Program compiled for                        Beluga-Linux-x86-64-intel-openmpi
 # Source code revision number                                         svn:18619
 &GLOBAL
   PRINT_LEVEL  MEDIUM
   PROJECT_NAME TEST
   RUN_TYPE  GEO_OPT
 &END GLOBAL
 &MOTION
   &GEO_OPT
     MAX_ITER  500
     STEP_START_VAL  120
   &END GEO_OPT
   &CONSTRAINT
     &COLLECTIVE
       COLVAR  1
       INTERMOLECULAR  T
       TARGET     5.6691783986569284E+00
       &RESTRAINT
         K     2.0000000000000000E+00
       &END RESTRAINT
     &END COLLECTIVE
     &COLVAR_RESTART
           5.6691783986569284E+00
     &END COLVAR_RESTART
   &END CONSTRAINT
 &END MOTION
 &FORCE_EVAL
   METHOD  QS
   STRESS_TENSOR  ANALYTICAL
   &DFT
     BASIS_SET_FILE_NAME BASIS_MOLOPT
     POTENTIAL_FILE_NAME GTH_POTENTIALS
     UKS  T
     SURFACE_DIPOLE_CORRECTION  T
     SURF_DIP_DIR  Z
     &SCF
       MAX_SCF  80
       EPS_SCF     5.0000000000000004E-06
       &OT  T
         PRECONDITIONER  FULL_ALL
       &END OT
       &OUTER_SCF  T
         OPTIMIZER  NONE
         EPS_SCF     5.0000000000000004E-06
         MAX_SCF  4
       &END OUTER_SCF
       &PRINT
         &RESTART  OFF
           BACKUP_COPIES  1
           &EACH
             JUST_ENERGY  0
             QS_SCF  0
             MD  20
           &END EACH
         &END RESTART
       &END PRINT
     &END SCF
     &QS
       EPS_DEFAULT     1.0000000000000000E-14
       METHOD  GPW
     &END QS
     &MGRID
       NGRIDS  5
       CUTOFF     1.2000000000000000E+03
     &END MGRID
     &XC
       DENSITY_CUTOFF     1.0000000000000000E-10
       GRADIENT_CUTOFF     1.0000000000000000E-10
       TAU_CUTOFF     1.0000000000000000E-10
       &XC_FUNCTIONAL  NO_SHORTCUT
         &PBE  T
         &END PBE
       &END XC_FUNCTIONAL
       &VDW_POTENTIAL
         POTENTIAL_TYPE  PAIR_POTENTIAL
         &PAIR_POTENTIAL
           R_CUTOFF     1.0000000000000007E+01
           TYPE  DFTD3
           PARAMETER_FILE_NAME dftd3.dat
           REFERENCE_FUNCTIONAL PBE
           EPS_CN     9.9999999999999995E-07
           CALCULATE_C9_TERM  T
           REFERENCE_C9_TERM  T
           LONG_RANGE_CORRECTION  F
           VERBOSE_OUTPUT  F
         &END PAIR_POTENTIAL
       &END VDW_POTENTIAL
     &END XC
   &END DFT
   &SUBSYS
     &CELL
       A     1.2864472766435110E+01    0.0000000000000000E+00    0.0000000000000000E+00
       B    -6.4322363581020028E+00    1.1140960178524477E+01    0.0000000000000000E+00
       C     0.0000000000000000E+00    0.0000000000000000E+00    3.2000000000000000E+01
       MULTIPLE_UNIT_CELL  1 1 1
       &CELL_REF
         A     1.2982353780853531E+01    0.0000000000000000E+00    0.0000000000000000E+00
         B    -6.4911768904267628E+00    1.1243048175136114E+01    0.0000000000000000E+00
         C     0.0000000000000000E+00    0.0000000000000000E+00    3.2000000000000000E+01
         MULTIPLE_UNIT_CELL  1 1 1
       &END CELL_REF
     &END CELL
     &COORD
N    7.6424366813593533E-02    1.9804868645218612E+00    2.4933274122045219E+00
Ga    6.1356639946714357E-02    1.1101049235521070E-02    2.8262527286425532E+00
N    8.0324951950106249E-02   -2.1898979437857905E-02    5.0155471122997568E+00
Ga    7.8912948423342580E-02    1.8034045927737232E+00    5.7991965600723390E+00
N    7.7455714213229818E-02    1.8189328083730900E+00    7.8009339691215631E+00
Ga    7.5070636397373922E-02   -2.6265023762365749E-02    8.4438751045668106E+00
N    7.6290541131253081E-02   -2.7054418241051922E-02    1.0419277601491364E+01
Ga    7.6380312733634451E-02    1.8131401704864480E+00    1.1069018065936319E+01
N    7.6309593298150707E-02    1.7938355367383794E+00    1.3063297637535731E+01
Ga    7.6578859758536816E-02   -2.5611801467733442E-02    1.3867604280943274E+01
N    7.6125489253570072E-02   -2.4586404370505639E-02    1.6069335446962732E+01
Ga    7.5842186664705130E-02    2.0208757668169173E+00    1.6482459947365204E+01
Ga    4.6312847109504382E-02    3.6843203998675631E+00    1.3686678825100012E+00
N   -1.4096182458614339E+00    4.5510152408691624E+00    2.5250165238891897E+00
Ga   -1.6035752784686774E+00    2.7079969352868867E+00    3.2816820363527901E+00
N   -1.5319765681448558E+00    2.7577141309484179E+00    5.2590825307802191E+00
Ga   -1.5602782244774649E+00    4.6229784551604549E+00    5.8087775931740477E+00
N   -1.5412891995927840E+00    4.6225872839256414E+00    7.8037051590211748E+00
Ga   -1.5220814040212742E+00    2.7615864153631460E+00    8.4364157186618236E+00
N   -1.5206284701592654E+00    2.7656335975317665E+00    1.0431681537044273E+01
Ga   -1.5468367137669077E+00    4.6232956704450174E+00    1.1072404822188409E+01
N   -1.5635336561569437E+00    4.6339062266235249E+00    1.3065871098751703E+01
Ga   -1.5208312764597030E+00    2.7642257871850875E+00    1.3620933058735046E+01
N   -1.5474294271830944E+00    2.7483609147553119E+00    1.5582570262489151E+01
Ga   -1.3738528332499980E+00    4.5243017265107470E+00    1.6481894768459867E+01
N    7.5077230031666650E-02    3.6952664818335372E+00    1.7616986547958096E+01
N   -3.1334470628710478E+00    7.5225813220938091E+00    2.5292203407037217E+00
Ga   -3.1126066778839787E+00    5.5182945850355978E+00    2.8528608741157182E+00
N   -3.1381563772485546E+00    5.5447329036406048E+00    5.0219767630029466E+00
Ga   -3.1458651474607686E+00    7.3650496779957590E+00    5.8084393113586303E+00
N   -3.1382734840489697E+00    7.3903588787687795E+00    7.7995305867115166E+00
Ga   -3.1396581026471875E+00    5.5432811976443306E+00    8.4505005649755365E+00
N   -3.1397693482182705E+00    5.5448819655903385E+00    1.0422554573937706E+01
Ga   -3.1411179561293352E+00    7.3840229371579564E+00    1.1073032495750324E+01
N   -3.1401214380698046E+00    7.3646191581407825E+00    1.3065340884261714E+01
Ga   -3.1397544890602900E+00    5.5446008245918748E+00    1.3869679377060411E+01
N   -3.1401715097841389E+00    5.5458921089582587E+00    1.6069854250535769E+01
Ga   -3.1404130363114868E+00    7.5920347623687654E+00    1.6483871804231068E+01
Ga   -3.1523851650876558E+00    9.2601779595135412E+00    1.4997307920664136E+00
N   -4.6415773499356368E+00    1.0126653632084981E+01    2.5174450401711956E+00
Ga   -4.8588977878743060E+00    8.2755940898966340E+00    3.2899403888912118E+00
N   -4.7458270929979918E+00    8.3302970787628237E+00    5.2513661636466509E+00
Ga   -4.7777647248937649E+00    1.0205100052998084E+01    5.7996772316577081E+00
N   -4.7566346230574723E+00    1.0191780007021354E+01    7.7971172373294886E+00
Ga   -4.7401087388307950E+00    8.3361959285139928E+00    8.4373172967390833E+00
N   -4.7364092663726520E+00    8.3360041576516686E+00    1.0430634694578103E+01
Ga   -4.7629878223244626E+00    1.0195058946623558E+01    1.1070318913999875E+01
N   -4.7793538926489383E+00    1.0204346344746600E+01    1.3064284091816980E+01
Ga   -4.7373433344340619E+00    8.3355142518855310E+00    1.3621976245680278E+01
N   -4.7637700267175651E+00    8.3191177078254626E+00    1.5583151832091724E+01
Ga   -4.5895526201553993E+00    1.0094818547098525E+01    1.6482739570941934E+01
N   -3.1411868833490613E+00    9.2662877104400962E+00    1.7618433637310069E+01
N    3.2826711724063546E+00    1.8360943801752561E+00    2.6175240176106129E+00
Ga    3.2851183210008861E+00    9.6674817832650181E-02    3.2893459410498433E+00
N    3.2947291247309565E+00   -2.9202026188484345E-02    5.2516590017262317E+00
Ga    3.2857449520120294E+00    1.8329040566241710E+00    5.8748613856800622E+00
N    3.2933206770120527E+00    1.8292249501795370E+00    7.8509688720692017E+00
Ga    3.2910183008437364E+00   -3.6525267839475656E-02    8.4402335890289688E+00
N    3.2928325750106340E+00   -3.8738086720793007E-02    1.0433044643609199E+01
Ga    3.2927752987530559E+00    1.8314187819992982E+00    1.1027613698008533E+01
N    3.2925891772734954E+00    1.8305817618116658E+00    1.2999126058486976E+01
Ga    3.2921960240355164E+00   -3.8929878542084191E-02    1.3622324937197410E+01
N    3.2921024365225278E+00   -6.8166734882914954E-03    1.5584581764562850E+01
Ga    3.2920579685543614E+00    1.8309610455791581E+00    1.5862914379914471E+01
N    1.5683238352167816E+00    4.5546589629033942E+00    2.5193721503300104E+00
Ga    1.7545599411861481E+00    2.7219223068411496E+00    3.2689344334246928E+00
N    1.6867231391611572E+00    2.7582596629599232E+00    5.2526218482925344E+00
Ga    1.7174324104610184E+00    4.6229320794280904E+00    5.8088703063509817E+00
N    1.6945269448018516E+00    4.6215928528026291E+00    7.8047188224779820E+00
Ga    1.6746845395892629E+00    2.7626411407739933E+00    8.4393847932348649E+00
N    1.6741062784347684E+00    2.7653964242306266E+00    1.0433396510262318E+01
Ga    1.7003948769870858E+00    4.6238295400419256E+00    1.1071935896142177E+01
N    1.7163813066687752E+00    4.6340525482995316E+00    1.3065544847111926E+01
Ga    1.6730310839958318E+00    2.7646863165807436E+00    1.3621379134179646E+01
N    1.6993484973570001E+00    2.7486741725984647E+00    1.5582908411252097E+01
Ga    1.5244904152421515E+00    4.5237431894530635E+00    1.6482138895872001E+01
N    7.7646806384092992E-02    7.3836489926443107E+00    2.6952517803155560E+00
Ga    8.6200470138036833E-02    5.5420771471150356E+00    3.3372520909106793E+00
N    7.7434436228322912E-02    5.5569844228079299E+00    5.2744010704350739E+00
Ga    8.4910963634543049E-02    7.3980458496611181E+00    5.9069980646600575E+00
N    7.7663349107533960E-02    7.4024941962516690E+00    7.8657582450624330E+00
Ga    7.7213223897826935E-02    5.5291853884195099E+00    8.4467346756579822E+00
N    7.6460582188958862E-02    5.5319906804765644E+00    1.0437174392767298E+01
Ga    7.7129235449509531E-02    7.4016324608218227E+00    1.1030304115096312E+01
N    7.6437361929701658E-02    7.4014002798449212E+00    1.3000715569161667E+01
Ga    7.6491742741475147E-02    5.5310274626834772E+00    1.3622569691369693E+01
N    7.6211818332872022E-02    5.5636756144209993E+00    1.5584908658826706E+01
Ga    7.5999293980815216E-02    7.4013181039099223E+00    1.5863512122690880E+01
N   -1.6333703996352829E+00    1.0115048615246634E+01    2.5243722056998110E+00
Ga   -1.4907400945267753E+00    8.3017245643119697E+00    3.3363106533652997E+00
N   -1.5188172621357456E+00    8.3220979932936050E+00    5.2631491993450474E+00
Ga   -1.5053683020729973E+00    1.0207995138671404E+01    5.8111006559283531E+00
N   -1.5221001281451283E+00    1.0189834029162782E+01    7.8014455957001339E+00
Ga   -1.5431996336742702E+00    8.3360537934177170E+00    8.4484631988533092E+00
N   -1.5430804148405750E+00    8.3360738391253548E+00    1.0436746313548923E+01
Ga   -1.5169464251464368E+00    1.0196060267426448E+01    1.1072938457071725E+01
N   -1.5000337145237650E+00    1.0204691870511697E+01    1.3065741020113849E+01
Ga   -1.5431686463565804E+00    8.3356276295151126E+00    1.3622819474984590E+01
N   -1.5166059292014507E+00    8.3191778999721500E+00    1.5583818667546769E+01
Ga   -1.6922183485707638E+00    1.0094314035448326E+01    1.6483194902635994E+01
N    6.5080909582760595E+00    1.9539948058905225E+00    2.5378558244278571E+00
Ga    6.5258945425670083E+00   -2.6248821224575981E-02    2.8641937321305071E+00
N    6.5057149930109750E+00   -2.6739080093333121E-02    5.0252250957800664E+00
Ga    6.5080878853189903E+00    1.8033206232552548E+00    5.8054921714077432E+00
N    6.5085032690367406E+00    1.8182748896202623E+00    7.8012301784006102E+00
Ga    6.5109232986109946E+00   -2.6991038653117715E-02    8.4477678725953318E+00
N    6.5091520928932418E+00   -2.7077182991183165E-02    1.0420703510722529E+01
Ga    6.5093904390983681E+00    1.8139857060201776E+00    1.1069673168800865E+01
N    6.5086576330645949E+00    1.7938106921567962E+00    1.3063590260720966E+01
Ga    6.5084064086732409E+00   -2.5527245077667224E-02    1.3868807193800546E+01
N    6.5076818936674465E+00   -2.4714300580690612E-02    1.6069912465414316E+01
Ga    6.5079606548281337E+00    2.0195290788896352E+00    1.6480887990273647E+01
Ga    6.5128343384254599E+00    3.6858803456405904E+00    1.5336060532945708E+00
N    5.0069687790732296E+00    4.5532608739547449E+00    2.5305875027559730E+00
Ga    4.7901966572530501E+00    2.7019464679115157E+00    3.2980486956409125E+00
N    4.8989037931676958E+00    2.7579941189061574E+00    5.2588453887056943E+00
Ga    4.8748034707628545E+00    4.6308698958133725E+00    5.8051725351848713E+00
N    4.8917531047530751E+00    4.6213462242971612E+00    7.8015989501956131E+00
Ga    4.9097967498779607E+00    2.7638277503380246E+00    8.4397295486010062E+00
N    4.9119047682846126E+00    2.7655718891524916E+00    1.0432934257173102E+01
Ga    4.8866431755873370E+00    4.6249358103506326E+00    1.1070192151512236E+01
N    4.8690952146591160E+00    4.6341121671649113E+00    1.3064500255689513E+01
Ga    4.9117371685122482E+00    2.7648679623493457E+00    1.3620839732535037E+01
N    4.8852078613437415E+00    2.7489081735013130E+00    1.5582895173630378E+01
Ga    5.0571067188729133E+00    4.5251813014008944E+00    1.6480057695353636E+01
N    6.5084970119973393E+00    3.6962528221571311E+00    1.7613381900790991E+01
N    3.2888820381771917E+00    7.5170418038377003E+00    2.4950803798360996E+00
N    3.2935473922403244E+00    5.5428495533243911E+00    5.0294137918476380E+00
Ga    3.2972684774958210E+00    7.3692369350295870E+00    5.7977734130012157E+00
N    3.2907112284988402E+00    7.3916089366762199E+00    7.7951173942283658E+00
Ga    3.2933055172252148E+00    5.5455174746851092E+00    8.4476867735267263E+00
N    3.2929687774023417E+00    5.5452984428570176E+00    1.0421279231559673E+01
Ga    3.2948313087929977E+00    7.3843030025041561E+00    1.1071696537382882E+01
N    3.2929093288139906E+00    7.3645872047261216E+00    1.3064846197907839E+01
Ga    3.2926484632923487E+00    5.5443308206841690E+00    1.3868490429496589E+01
N    3.2917749709065922E+00    5.5455523614554885E+00    1.6069994369741689E+01
Ga    3.2919843883310596E+00    7.5891295176985247E+00    1.6480648201649590E+01
Ga    3.3318710642710019E+00    9.2897919944735499E+00    1.3427108935496435E+00
N    1.7845131350798553E+00    1.0122636546750330E+01    2.5090435438456242E+00
Ga    1.6768301704710060E+00    8.3153467924901037E+00    3.2904468122870991E+00
N    1.6718720458679777E+00    8.3206332269186234E+00    5.2380104813757766E+00
Ga    1.6618753374072757E+00    1.0201580376313672E+01    5.7980889743867596E+00
N    1.6744758696977473E+00    1.0188245423027780E+01    7.7947394238622607E+00
Ga    1.6985576269633604E+00    8.3369689933324906E+00    8.4472838070920915E+00
N    1.6965964174336861E+00    8.3365074613875461E+00    1.0436487860906247E+01
Ga    1.6712013439566831E+00    1.0196382896885842E+01    1.1072144382037768E+01
N    1.6529240240659093E+00    1.0204772028230989E+01    1.3065617947749580E+01
Ga    1.6959116384391837E+00    8.3355170777994640E+00    1.3621865797437012E+01
N    1.6693258722980842E+00    8.3194116188735183E+00    1.5583822965517614E+01
Ga    1.8402510583663458E+00    1.0096271646866722E+01    1.6479813267337260E+01
N    3.2924771288490189E+00    9.2669915767203719E+00    1.7613627556865037E+01
N    9.7354146504006955E+00    1.8294971452054558E+00    2.6295879815614249E+00
Ga    9.7293051100392294E+00    6.9936728565955342E-02    3.2665721793146245E+00
N    9.7222829579626087E+00   -3.0069859952525941E-02    5.2444350341516115E+00
Ga    9.7310047155348194E+00    1.8249841602912704E+00    5.8701913467414961E+00
N    9.7243013000758634E+00    1.8287659385545449E+00    7.8487894287195230E+00
Ga    9.7269161934794006E+00   -3.8365567303027891E-02    8.4329019258050337E+00
N    9.7247247164172244E+00   -3.9221360400158549E-02    1.0429203215850118E+01
Ga    9.7252264221038285E+00    1.8306100961893441E+00    1.1024983064391289E+01
N    9.7243913473313164E+00    1.8302222616860444E+00    1.2997529740129275E+01
Ga    9.7251999556444932E+00   -3.8805732291880640E-02    1.3621433258891473E+01
N    9.7241774752074317E+00   -7.3779077787345928E-03    1.5584797355574139E+01
Ga    9.7244974864380715E+00    1.8310152017378714E+00    1.5863205433347938E+01
N    8.0117781322724397E+00    4.5538567403360588E+00    2.5382994686672435E+00
Ga    8.2287926069600132E+00    2.6948946003793171E+00    3.3009323008055826E+00
N    8.1176217535100523E+00    2.7575299714054555E+00    5.2610220391662583E+00
Ga    8.1414261450493619E+00    4.6298708464001548E+00    5.8025775731909830E+00
N    8.1273585922493865E+00    4.6223791896209914E+00    7.7992398435762524E+00
Ga    8.1088892791477338E+00    2.7635545594159341E+00    8.4369217718136174E+00
N    8.1059684410230126E+00    2.7658144685524508E+00    1.0431257661565908E+01
Ga    8.1308848428209437E+00    4.6241818662290237E+00    1.1070929912313973E+01
N    8.1482415466596603E+00    4.6340795141922122E+00    1.3065010171253888E+01
Ga    8.1056045232571066E+00    2.7647544877115782E+00    1.3620746173278443E+01
N    8.1312120286826222E+00    2.7484128444022771E+00    1.5583002189226994E+01
Ga    7.9593516913061508E+00    4.5255182696628919E+00    1.6479975008992948E+01
N    6.5037697793487910E+00    7.4029853602247435E+00    2.6102052869749217E+00
Ga    6.5040709364342897E+00    5.6662252997412370E+00    3.2961123408353865E+00
N    6.5086973494275711E+00    5.5462748813686398E+00    5.2565840925444487E+00
Ga    6.5020119154432576E+00    7.4057063375473087E+00    5.8700563851266736E+00
N    6.5084326028813919E+00    7.4019310853804079E+00    7.8459582567621169E+00
Ga    6.5092360084955612E+00    5.5345257540462143E+00    8.4378945147402149E+00
N    6.5091745135693611E+00    5.5328407380917284E+00    1.0431755438544270E+01
Ga    6.5083985433708103E+00    7.4024445603511255E+00    1.1025833640732985E+01
N    6.5082313988851359E+00    7.4014368794340584E+00    1.2997842822352677E+01
Ga    6.5086113901731002E+00    5.5317287305477372E+00    1.3621316266443555E+01
N    6.5077848997765306E+00    5.5634872783821283E+00    1.5584496374093185E+01
Ga    6.5083150081930121E+00    7.4014682293429921E+00    1.5863672752050467E+01
N    4.8024563788597465E+00    1.0130818043161890E+01    2.5173352125339981E+00
Ga    4.9780237790595070E+00    8.2825484579151620E+00    3.2576001271423469E+00
N    4.8982976565256795E+00    8.3287839921226112E+00    5.2379697734893806E+00
Ga    4.9278911457373038E+00    1.0201350007394737E+01    5.7862735881979868E+00
N    4.9112835815596858E+00    1.0191591589868171E+01    7.7906392002046809E+00
Ga    4.8910804194366388E+00    8.3375469455920701E+00    8.4335467341317489E+00
N    4.8896810576274738E+00    8.3361298134833177E+00    1.0428837492218214E+01
Ga    4.9150910722019407E+00    1.0194783453432477E+01    1.1068902663751333E+01
N    4.9320744137657488E+00    1.0204434085028057E+01    1.3063799131576351E+01
Ga    4.8896503504156614E+00    8.3358477771300254E+00    1.3621446123125541E+01
N    4.9149408064993700E+00    8.3192478203857423E+00    1.5583640536691506E+01
Ga    4.7441200300999729E+00    1.0096562177646307E+01    1.6479644884734100E+01
O    6.8888187338261353E-02    4.0700863437594483E+00   -4.3145095570291758E-01
H   -1.1492430699820283E-01    5.8586575109124901E+00   -3.4152796074447789E-01
C    1.2458936031126928E+00    3.6536943197255849E+00   -1.1517462599458288E+00
H    2.1738668842959106E+00    3.9960203270488028E+00   -6.6492058346828087E-01
H    1.2879573596230935E+00    2.5583531075184975E+00   -1.2496409920403970E+00
H    1.1949613394303842E+00    4.0912315149986211E+00   -2.1587035871390201E+00
Ga    3.2648422889747706E+00    5.5379769363473823E+00    2.8548437811332170E+00
O   -9.3843950548316221E-02    6.8457781523334544E+00   -2.1483278807784692E-01
H    2.8256535540070519E-02    7.3125433585187825E+00    1.6582231229016511E+00
C    1.1510420652656950E+00    7.3075502317612377E+00   -7.5704075783561009E-01
H    1.1337645790442958E+00    8.4060920709492883E+00   -7.2993281171663471E-01
H    2.0133987796602639E+00    6.9577624230609132E+00   -1.6219310604452500E-01
H    1.2866107418630379E+00    6.9922696489521492E+00   -1.8022926585489194E+00
     &END COORD
     &KIND C
       BASIS_SET DZVP-MOLOPT-SR-GTH-q4
       POTENTIAL GTH-PBE-q4
       &POTENTIAL
2 2
0.3384712400000000E+00 2 -0.8803673979999999E+01  0.1339210850000000E+01
2
0.3025757500000000E+00 1  0.9622486650000001E+01
0.2915069400000000E+00 0
       &END POTENTIAL
     &END KIND
     &KIND O
       BASIS_SET DZVP-MOLOPT-SR-GTH-q6
       POTENTIAL GTH-PBE-q6
       &POTENTIAL
2 4
0.2445543000000000E+00 2 -0.1666721480000000E+02  0.2487311320000000E+01
2
0.2209559200000000E+00 1  0.1833745811000000E+02
0.2113324700000000E+00 0
       &END POTENTIAL
     &END KIND
     &KIND H
       BASIS_SET DZVP-MOLOPT-SR-GTH-q1
       POTENTIAL GTH-PBE-q1
       &POTENTIAL
1
0.2000000000000000E+00 2 -0.4178900440000000E+01  0.7244633100000000E+00
0
       &END POTENTIAL
     &END KIND
     &KIND N
       BASIS_SET DZVP-MOLOPT-SR-GTH
       POTENTIAL GTH-PBE-q5
       &POTENTIAL
2 3
0.2837905100000000E+00 2 -0.1241522559000000E+02  0.1868095920000000E+01
2
0.2554050000000000E+00 1  0.1363026257000000E+02
0.2454945300000000E+00 0
       &END POTENTIAL
     &END KIND
     &KIND Ga
       BASIS_SET DZVP-MOLOPT-SR-GTH
       POTENTIAL GTH-PBE-q13
       &POTENTIAL
2 1 10
0.4900000000000000E+00 0
3
0.4167772300000000E+00 3  0.1047568975000000E+02 -0.4921768140000000E+01  0.8707055900000000E+00
0.7770178090000000E+01 -0.2248152160000000E+01
0.1784415450000000E+01
0.5696265200000000E+00 2  0.1777985340000000E+01  0.1958597600000000E+00
-0.2317443900000000E+00
0.2381265000000000E+00 1 -0.1624868022000000E+02
       &END POTENTIAL
     &END KIND
     &TOPOLOGY
       NUMBER_OF_ATOMS  212
       MULTIPLE_UNIT_CELL  1 1 1
     &END TOPOLOGY
     &COLVAR
       &DISTANCE
         ATOMS  127 211
       &END DISTANCE
       &PRINT
       &END PRINT
     &END COLVAR
   &END SUBSYS
 &END FORCE_EVAL
