 # Version information for this restart file 
 # current date 2019-07-10 14:47:50.927
 # current working dir /lustre04/scratch/rzk/rzk/GaN-carbene/443-adatoms-both-2x2/09-BondBreaking-CH/02-0401-CH-to-NTop-PES
 # Program compiled at                              Sun Apr  7 00:48:11 EDT 2019
 # Program compiled on                          beluga2.int.ets1.calculquebec.ca
 # Program compiled for                        Beluga-Linux-x86-64-intel-openmpi
 # Source code revision number                                         svn:18619
 &GLOBAL
   PRINT_LEVEL  MEDIUM
   PROJECT_NAME TEST
   RUN_TYPE  GEO_OPT
 &END GLOBAL
 &MOTION
   &GEO_OPT
     MAX_ITER  500
     STEP_START_VAL  67
   &END GEO_OPT
   &CONSTRAINT
     &COLLECTIVE
       COLVAR  1
       INTERMOLECULAR  T
       TARGET     4.5353427189255431E+00
       &RESTRAINT
         K     2.0000000000000000E+00
       &END RESTRAINT
     &END COLLECTIVE
     &COLVAR_RESTART
           4.5353427189255431E+00
     &END COLVAR_RESTART
   &END CONSTRAINT
 &END MOTION
 &FORCE_EVAL
   METHOD  QS
   STRESS_TENSOR  ANALYTICAL
   &DFT
     BASIS_SET_FILE_NAME BASIS_MOLOPT
     POTENTIAL_FILE_NAME GTH_POTENTIALS
     UKS  T
     SURFACE_DIPOLE_CORRECTION  T
     SURF_DIP_DIR  Z
     &SCF
       MAX_SCF  80
       EPS_SCF     5.0000000000000004E-06
       &OT  T
         PRECONDITIONER  FULL_ALL
       &END OT
       &OUTER_SCF  T
         OPTIMIZER  NONE
         EPS_SCF     5.0000000000000004E-06
         MAX_SCF  4
       &END OUTER_SCF
       &PRINT
         &RESTART  OFF
           BACKUP_COPIES  1
           &EACH
             JUST_ENERGY  0
             QS_SCF  0
             MD  20
           &END EACH
         &END RESTART
       &END PRINT
     &END SCF
     &QS
       EPS_DEFAULT     1.0000000000000000E-14
       METHOD  GPW
     &END QS
     &MGRID
       NGRIDS  5
       CUTOFF     1.2000000000000000E+03
     &END MGRID
     &XC
       DENSITY_CUTOFF     1.0000000000000000E-10
       GRADIENT_CUTOFF     1.0000000000000000E-10
       TAU_CUTOFF     1.0000000000000000E-10
       &XC_FUNCTIONAL  NO_SHORTCUT
         &PBE  T
         &END PBE
       &END XC_FUNCTIONAL
       &VDW_POTENTIAL
         POTENTIAL_TYPE  PAIR_POTENTIAL
         &PAIR_POTENTIAL
           R_CUTOFF     1.0000000000000009E+01
           TYPE  DFTD3
           PARAMETER_FILE_NAME dftd3.dat
           REFERENCE_FUNCTIONAL PBE
           EPS_CN     9.9999999999999995E-07
           CALCULATE_C9_TERM  T
           REFERENCE_C9_TERM  T
           LONG_RANGE_CORRECTION  F
           VERBOSE_OUTPUT  F
         &END PAIR_POTENTIAL
       &END VDW_POTENTIAL
     &END XC
   &END DFT
   &SUBSYS
     &CELL
       A     1.2864472766435110E+01    0.0000000000000000E+00    0.0000000000000000E+00
       B    -6.4322363581020028E+00    1.1140960178524477E+01    0.0000000000000000E+00
       C     0.0000000000000000E+00    0.0000000000000000E+00    3.2000000000000000E+01
       MULTIPLE_UNIT_CELL  1 1 1
       &CELL_REF
         A     1.2982353780853531E+01    0.0000000000000000E+00    0.0000000000000000E+00
         B    -6.4911768904267628E+00    1.1243048175136114E+01    0.0000000000000000E+00
         C     0.0000000000000000E+00    0.0000000000000000E+00    3.2000000000000000E+01
         MULTIPLE_UNIT_CELL  1 1 1
       &END CELL_REF
     &END CELL
     &COORD
N    4.9349618590184989E-02    1.9946630952345628E+00    2.4912094663531561E+00
Ga    5.2274590373897083E-02    2.7879308599334181E-02    2.8258051354105787E+00
N    5.1392472873414551E-02   -6.9719703449731421E-03    5.0113199600574401E+00
Ga    5.2162687765813481E-02    1.8188519917778829E+00    5.7953872202620520E+00
N    5.0773374219035786E-02    1.8325560096044486E+00    7.7964002346728734E+00
Ga    5.0533355775678614E-02   -1.2959208342566969E-02    8.4391378212808714E+00
N    5.0296761990138265E-02   -1.3867134902992262E-02    1.0414405561094846E+01
Ga    5.0345513393580822E-02    1.8261594961881618E+00    1.1065620573789120E+01
N    5.0884817276434478E-02    1.8066811190967766E+00    1.3059907080476124E+01
Ga    5.0392230186996595E-02   -1.3366665212038045E-02    1.3865169231594370E+01
N    4.9964523079397673E-02   -1.2874114700038224E-02    1.6065192600047162E+01
Ga    5.0694067629591943E-02    2.0295753251835071E+00    1.6479101318887089E+01
Ga    1.9548599093708218E-02    3.6941081707032044E+00    1.3620765196064057E+00
N   -1.4344627915473085E+00    4.5664064393127006E+00    2.5156923632413735E+00
Ga   -1.6289249609198146E+00    2.7276691352120186E+00    3.2780928719735454E+00
N   -1.5586835569493815E+00    2.7734020626077012E+00    5.2550015192905546E+00
Ga   -1.5878743046840065E+00    4.6394413204908069E+00    5.8049681380381966E+00
N   -1.5671259348625819E+00    4.6361161034087743E+00    7.7997752670349287E+00
Ga   -1.5476306445194117E+00    2.7757132008486813E+00    8.4339058822665667E+00
N   -1.5475366951700571E+00    2.7779334573689498E+00    1.0428719079517075E+01
Ga   -1.5734126883707238E+00    4.6361448398885612E+00    1.1067946454046586E+01
N   -1.5890729412926226E+00    4.6469558111214981E+00    1.3060967181481516E+01
Ga   -1.5462473961862391E+00    2.7777585507687954E+00    1.3617226748902857E+01
N   -1.5753288216824968E+00    2.7624973626612324E+00    1.5578656146381284E+01
Ga   -1.3954570970284299E+00    4.5354149495845357E+00    1.6479701302409740E+01
N    4.4465576002431888E-02    3.6959725725214643E+00    1.7612506927199686E+01
N   -3.1610612378853471E+00    7.5372083311883449E+00    2.5118437452368720E+00
Ga   -3.1387918687414018E+00    5.5416605289575012E+00    2.8404301882799379E+00
N   -3.1637779667950507E+00    5.5587758305911663E+00    5.0177942873302435E+00
Ga   -3.1712741994694271E+00    7.3808937499957334E+00    5.7985083709816294E+00
N   -3.1643214208679904E+00    7.4044818243962780E+00    7.7921384243875549E+00
Ga   -3.1658616199886898E+00    5.5578882008644923E+00    8.4449274713944575E+00
N   -3.1660032967323524E+00    5.5584170980004481E+00    1.0417585664120828E+01
Ga   -3.1677287268805765E+00    7.3975065106035212E+00    1.1068538422042090E+01
N   -3.1656004677770087E+00    7.3777459042408955E+00    1.3061400363463894E+01
Ga   -3.1647243130502947E+00    5.5569650561536434E+00    1.3865180818639390E+01
N   -3.1652709040749016E+00    5.5573906472487531E+00    1.6066043760775273E+01
Ga   -3.1653177848045484E+00    7.5988562988641188E+00    1.6477899674671246E+01
Ga   -3.1823918008157550E+00    9.2818808200648206E+00    1.4307646577676614E+00
N   -4.6693798525772445E+00    1.0143337018582423E+01    2.5085396519269105E+00
Ga   -4.8734093121420221E+00    8.2953986069854402E+00    3.2705488131156297E+00
N   -4.7719389738404612E+00    8.3447258787849474E+00    5.2393499865661859E+00
Ga   -4.8016781225602472E+00    1.0218414919071048E+01    5.7895437618631735E+00
N   -4.7830311131039842E+00    1.0205170330854601E+01    7.7891948566753131E+00
Ga   -4.7655921216683410E+00    8.3500067115930943E+00    8.4308588278483150E+00
N   -4.7635478592459917E+00    8.3485582496759321E+00    1.0425581354093550E+01
Ga   -4.7892997718098522E+00    1.0207649842753085E+01    1.1065726692855034E+01
N   -4.8049202013663610E+00    1.0217458481594401E+01    1.3059926288524794E+01
Ga   -4.7625824381039026E+00    8.3491504755257342E+00    1.3617774853435330E+01
N   -4.7904676963157424E+00    8.3324270019422926E+00    1.5579889399484466E+01
Ga   -4.6155446943365419E+00    1.0108908879327737E+01    1.6477205239184634E+01
N   -3.1731190746660185E+00    9.2684664865066502E+00    1.7609215697909427E+01
N    3.2571649103162725E+00    1.8502472429650059E+00    2.6139123219807092E+00
Ga    3.2607540625774734E+00    1.0224263748433143E-01    3.2720818478535398E+00
N    3.2690832301900796E+00   -1.4430569688435970E-02    5.2411670516865225E+00
Ga    3.2599739629356117E+00    1.8449325759610473E+00    5.8657671565926561E+00
N    3.2671685023836257E+00    1.8426931324368405E+00    7.8435176518534258E+00
Ga    3.2646813912704351E+00   -2.3418349396588208E-02    8.4323988200251989E+00
N    3.2663820656596410E+00   -2.6548583083666994E-02    1.0426425743626535E+01
Ga    3.2661103595934939E+00    1.8430569424486649E+00    1.1022483416610370E+01
N    3.2676203491177533E+00    1.8434971447421160E+00    1.2994129388552222E+01
Ga    3.2670209575124729E+00   -2.5621946496809947E-02    1.3617364068760562E+01
N    3.2693472702935460E+00    6.6774962783248733E-03    1.5578619267013337E+01
Ga    3.2675621231027359E+00    1.8444713919437166E+00    1.5859598831472862E+01
N    1.5414892337874664E+00    4.5698213338256419E+00    2.5152251555430913E+00
Ga    1.7295110301652297E+00    2.7349225936555479E+00    3.2639268793254557E+00
N    1.6601753960971035E+00    2.7732207333569114E+00    5.2475246874024917E+00
Ga    1.6894704107131775E+00    4.6372239460773059E+00    5.8031778153828588E+00
N    1.6685339762214342E+00    4.6357461219864318E+00    7.7984920305402099E+00
Ga    1.6491554251992520E+00    2.7756198891638908E+00    8.4333040989415355E+00
N    1.6479274812386169E+00    2.7782069990607314E+00    1.0427874696730726E+01
Ga    1.6742101199490202E+00    4.6362761584726728E+00    1.1067293193297907E+01
N    1.6907882094299100E+00    4.6469777148355131E+00    1.3060063253061564E+01
Ga    1.6482238837320744E+00    2.7780900088235407E+00    1.3617449260396976E+01
N    1.6775126566411347E+00    2.7641507348898471E+00    1.5578139156014336E+01
Ga    1.4915558801274380E+00    4.5324569273518804E+00    1.6480523878562025E+01
N    4.6672284799110800E-02    7.3997192339018101E+00    2.6851774772047419E+00
Ga    5.6985265891723334E-02    5.5575106493126025E+00    3.3301299669199769E+00
N    5.0955596353541827E-02    5.5721940181905838E+00    5.2675823327768141E+00
Ga    5.2575959231520863E-02    7.4126461433553859E+00    5.9010543340550479E+00
N    5.0967914053960367E-02    7.4165620652108801E+00    7.8595992149793412E+00
Ga    5.0858444544579946E-02    5.5431445638416674E+00    8.4418064912879842E+00
N    5.0380926216357896E-02    5.5443163104663560E+00    1.0431866279148238E+01
Ga    4.9936538094386293E-02    7.4134950292887147E+00    1.1026084457498337E+01
N    5.0798182347861549E-02    7.4146056492929215E+00    1.2995789404855747E+01
Ga    5.1229222745386271E-02    5.5445321365810152E+00    1.3618177471101536E+01
N    5.2410032208245409E-02    5.5772219361908810E+00    1.5578555683615935E+01
Ga    5.1660890153566716E-02    7.4145137745020016E+00    1.5860068644172312E+01
N   -1.6575613427193379E+00    1.0133866201530640E+01    2.5124228754530247E+00
Ga   -1.5303746354249381E+00    8.3238305272413751E+00    3.3145069060424479E+00
N   -1.5446212798237400E+00    8.3370629046242808E+00    5.2485156892966431E+00
Ga   -1.5327732200193325E+00    1.0221237277014334E+01    5.8012960319705416E+00
N   -1.5480974920495341E+00    1.0203117523128348E+01    7.7937387001184284E+00
Ga   -1.5704824414304357E+00    8.3499802336733531E+00    8.4426612437820410E+00
N   -1.5694699650330017E+00    8.3490519368848677E+00    1.0431357300257011E+01
Ga   -1.5435055348353894E+00    1.0208973547200777E+01    1.1067625347607745E+01
N   -1.5256494199021231E+00    1.0217690231263513E+01    1.3060205638402159E+01
Ga   -1.5681657973975822E+00    8.3492082872552942E+00    1.3618464140390216E+01
N   -1.5396423398882062E+00    8.3349277642263768E+00    1.5579607835137239E+01
Ga   -1.7225728517053913E+00    1.0104645415042015E+01    1.6478589051738805E+01
N    6.4833677708145618E+00    1.9702042266750053E+00    2.5306098527029217E+00
Ga    6.4846726906502159E+00   -7.4007644591720717E-03    2.8586125471081703E+00
N    6.4827460271952697E+00   -1.1488195450738344E-02    5.0200047659092721E+00
Ga    6.4822469518139219E+00    1.8187498064776171E+00    5.8009782915165209E+00
N    6.4826059844504735E+00    1.8320412711195995E+00    7.7965209969284084E+00
Ga    6.4829857139855012E+00   -1.3431474342332651E-02    8.4430938798435200E+00
N    6.4827803631520702E+00   -1.3692845350754993E-02    1.0416103797101339E+01
Ga    6.4822914420448310E+00    1.8272007459419355E+00    1.1065963855393756E+01
N    6.4830817231073983E+00    1.8066646794516057E+00    1.3060734613154315E+01
Ga    6.4828221558338583E+00   -1.4331295834951661E-02    1.3864226925874675E+01
N    6.4823396997999607E+00   -1.3713072863221832E-02    1.6066415843478136E+01
Ga    6.4835991489425950E+00    2.0213363763761047E+00    1.6472862793502124E+01
Ga    6.4860020977782664E+00    3.7011437694811615E+00    1.5146998853187710E+00
N    4.9821023213742004E+00    4.5692341646893366E+00    2.5261025653378320E+00
Ga    4.7658295063050105E+00    2.7157495123575615E+00    3.2910321761952583E+00
N    4.8733544241795972E+00    2.7730129707380837E+00    5.2527094565840269E+00
Ga    4.8506340424480872E+00    4.6450746208598988E+00    5.7987852059573664E+00
N    4.8650584211421490E+00    4.6354795271440397E+00    7.7949282340399311E+00
Ga    4.8829296012942027E+00    2.7770942895302229E+00    8.4335682874108073E+00
N    4.8851019688990807E+00    2.7784327813673797E+00    1.0427804952354400E+01
Ga    4.8600668669896079E+00    4.6372976607715000E+00    1.1066069016623082E+01
N    4.8434386706052370E+00    4.6471832457483897E+00    1.3060808494428645E+01
Ga    4.8862113046304838E+00    2.7783077490672743E+00    1.3616738605467994E+01
N    4.8609394478194172E+00    2.7639527345204327E+00    1.5581468129916248E+01
Ga    5.0276478389590729E+00    4.5413393564452651E+00    1.6472809758915155E+01
N    6.4759774661740579E+00    3.6973957028684246E+00    1.7606717034220161E+01
N    3.2562334729787401E+00    7.5365817104513084E+00    2.4723811307386896E+00
N    3.2674805445157911E+00    5.5601927717845818E+00    5.0207583259610393E+00
Ga    3.2708830133730142E+00    7.3830677243744747E+00    5.7983540250576580E+00
N    3.2643792710766384E+00    7.4050783666799678E+00    7.7917832388582475E+00
Ga    3.2670699499776528E+00    5.5579694318735298E+00    8.4438083248561817E+00
N    3.2668430981037062E+00    5.5584920806738207E+00    1.0416867741429202E+01
Ga    3.2682365290578019E+00    7.3973219222053590E+00    1.1068676169450976E+01
N    3.2673457098175294E+00    7.3778012198769884E+00    1.3061421718620000E+01
Ga    3.2657802475975086E+00    5.5570380949367069E+00    1.3864835402799551E+01
N    3.2653555191827528E+00    5.5574754091834375E+00    1.6066434645905176E+01
Ga    3.2672986461283107E+00    7.5983187089892272E+00    1.6478537582382859E+01
Ga    3.2999909098396771E+00    9.3212831091929136E+00    1.4210950582862067E+00
N    1.7618423764337015E+00    1.0138903849194875E+01    2.5126438491835317E+00
Ga    1.6378304490152815E+00    8.3224091822160204E+00    3.2971494848600784E+00
N    1.6462049178847702E+00    8.3353074919181989E+00    5.2365604133161323E+00
Ga    1.6323905633510136E+00    1.0217445195426263E+01    5.7995220642050151E+00
N    1.6483437475492371E+00    1.0201590468540234E+01    7.7926189293629129E+00
Ga    1.6711797074151029E+00    8.3498991818191524E+00    8.4444285536742054E+00
N    1.6698510612047843E+00    8.3489311643259025E+00    1.0432607769984884E+01
Ga    1.6442674871453538E+00    1.0208977594855821E+01    1.1068322495809866E+01
N    1.6274789790824467E+00    1.0217733878910273E+01    1.3061090421055866E+01
Ga    1.6703287420910975E+00    8.3490452514118516E+00    1.3618703680671192E+01
N    1.6434380662250674E+00    8.3342721488619418E+00    1.5581089383519325E+01
Ga    1.8185815243191972E+00    1.0108236514604400E+01    1.6478491798730040E+01
N    3.2612712229127867E+00    9.2679062623359183E+00    1.7615083913365538E+01
N    9.7085728384811603E+00    1.8493675476623654E+00    2.6243808603201639E+00
Ga    9.7040237662666904E+00    1.0354458909987450E-01    3.2851790283581850E+00
N    9.6962776787653997E+00   -1.4539889800444279E-02    5.2496003683717394E+00
Ga    9.7040847570766466E+00    1.8453347349856293E+00    5.8707557775827812E+00
N    9.6979371621745454E+00    1.8429855099876051E+00    7.8467684959224639E+00
Ga    9.7005263032285693E+00   -2.4482950957702296E-02    8.4309641598298928E+00
N    9.6984494359911793E+00   -2.6949342979618512E-02    1.0425675372226351E+01
Ga    9.6981760156490679E+00    1.8425886927602220E+00    1.1022057355227503E+01
N    9.6981679558196099E+00    1.8431292137986883E+00    1.2994247901369137E+01
Ga    9.6998903207671763E+00   -2.5813346653225797E-02    1.3617591572085630E+01
N    9.7003829901699561E+00    5.2562191623616679E-03    1.5578845497285643E+01
Ga    9.6994324247876982E+00    1.8438227235528601E+00    1.5858128417124885E+01
N    7.9864404144575287E+00    4.5697776860902035E+00    2.5275070043236942E+00
Ga    8.1994650675044074E+00    2.7167115612909942E+00    3.2947558443101794E+00
N    8.0915764592667081E+00    2.7734224223357931E+00    5.2557401164023112E+00
Ga    8.1168585862075471E+00    4.6462063318040672E+00    5.7982841413856265E+00
N    8.1008337869279483E+00    4.6359613176350392E+00    7.7950976211785674E+00
Ga    8.0817875079691515E+00    2.7776810265954417E+00    8.4341529023439232E+00
N    8.0793774146026500E+00    2.7786520948282982E+00    1.0428082688758602E+01
Ga    8.1048781556363441E+00    4.6374753406671720E+00    1.1065963517961736E+01
N    8.1226857558266197E+00    4.6471190752370761E+00    1.3060274470417150E+01
Ga    8.0803190947387158E+00    2.7784042881915951E+00    1.3616489599328027E+01
N    8.1065231042334407E+00    2.7654389760191465E+00    1.5580040128013374E+01
Ga    7.9333200388303551E+00    4.5378968650601408E+00    1.6473156910014428E+01
N    6.4800501253211049E+00    7.4175950394636052E+00    2.6045756066531927E+00
Ga    6.4835680583076423E+00    5.6789009296846826E+00    3.2885157298742915E+00
N    6.4833482229732562E+00    5.5610324482142133E+00    5.2497780695449974E+00
Ga    6.4809188734871599E+00    7.4198101661757070E+00    5.8630259407115215E+00
N    6.4822703762774658E+00    7.4157791127533130E+00    7.8392780296674855E+00
Ga    6.4827800852984687E+00    5.5483898075246456E+00    8.4324089208584532E+00
N    6.4824416763657569E+00    5.5451430585121537E+00    1.0426708699121585E+01
Ga    6.4819483259280934E+00    7.4140588903241742E+00    1.1021988915568585E+01
N    6.4826999754917489E+00    7.4139576267082976E+00    1.2994158677801483E+01
Ga    6.4833794179518351E+00    5.5448171295465070E+00    1.3616566267258479E+01
N    6.4849347617121200E+00    5.5743600130773219E+00    1.5580107044890108E+01
Ga    6.4829657882512279E+00    7.4144311012342019E+00    1.5859294741306936E+01
N    4.7755001649521169E+00    1.0148406434742784E+01    2.5214064080804968E+00
Ga    4.9597326942198547E+00    8.2870787907927674E+00    3.2631016284463437E+00
N    4.8707287306612024E+00    8.3435495316315773E+00    5.2352960973586082E+00
Ga    4.9043060776884015E+00    1.0216275704768178E+01    5.7882750456379126E+00
N    4.8848170174223826E+00    1.0204681968465488E+01    7.7886669695047992E+00
Ga    4.8660028464085805E+00    8.3500643578961089E+00    8.4308319424330378E+00
N    4.8634618914157066E+00    8.3486825542236680E+00    1.0425162330741747E+01
Ga    4.8896059094729862E+00    1.0207690178371346E+01    1.1065063876833266E+01
N    4.9064032628309526E+00    1.0217390197272390E+01    1.3059019687729776E+01
Ga    4.8644007486214829E+00    8.3494994347038745E+00    1.3617976933349293E+01
N    4.8916895088123455E+00    8.3350194251465091E+00    1.5579372150706741E+01
Ga    4.7120596947226252E+00    1.0106019674475956E+01    1.6478396866902987E+01
O    3.5364547651455344E-02    4.0337960030505764E+00   -4.4640198272078413E-01
H    5.1328410019771349E-02    5.8211996869612115E+00   -3.6348901420517210E-01
C    1.1130338792751511E+00    3.4511703130771920E+00   -1.2045765690388914E+00
H    2.1009208413909413E+00    3.7012506906092320E+00   -7.8392658512257696E-01
H    1.0226433743262513E+00    2.3552269224527826E+00   -1.2513084517911344E+00
H    1.0538245558050938E+00    3.8487474380375826E+00   -2.2278337713525262E+00
Ga    3.2421210243101832E+00    5.5391676369387515E+00    2.8568123969359767E+00
O    1.9686508953755658E-01    6.7953118992969852E+00   -2.2351839761490574E-01
H    2.6267107227453217E-02    7.3271463186608035E+00    1.6472332934952409E+00
C    1.5866038155528472E+00    7.0434458669315996E+00   -4.8283868679370123E-01
H    1.6859654060484934E+00    8.1008424335095306E+00   -7.7759187886805636E-01
H    2.2124671031924215E+00    6.8740200431500078E+00    4.1446839584890444E-01
H    1.9673310668539437E+00    6.4287537766229468E+00   -1.3109759335304496E+00
     &END COORD
     &KIND C
       BASIS_SET DZVP-MOLOPT-SR-GTH-q4
       POTENTIAL GTH-PBE-q4
       &POTENTIAL
2 2
0.3384712400000000E+00 2 -0.8803673979999999E+01  0.1339210850000000E+01
2
0.3025757500000000E+00 1  0.9622486650000001E+01
0.2915069400000000E+00 0
       &END POTENTIAL
     &END KIND
     &KIND O
       BASIS_SET DZVP-MOLOPT-SR-GTH-q6
       POTENTIAL GTH-PBE-q6
       &POTENTIAL
2 4
0.2445543000000000E+00 2 -0.1666721480000000E+02  0.2487311320000000E+01
2
0.2209559200000000E+00 1  0.1833745811000000E+02
0.2113324700000000E+00 0
       &END POTENTIAL
     &END KIND
     &KIND H
       BASIS_SET DZVP-MOLOPT-SR-GTH-q1
       POTENTIAL GTH-PBE-q1
       &POTENTIAL
1
0.2000000000000000E+00 2 -0.4178900440000000E+01  0.7244633100000000E+00
0
       &END POTENTIAL
     &END KIND
     &KIND N
       BASIS_SET DZVP-MOLOPT-SR-GTH
       POTENTIAL GTH-PBE-q5
       &POTENTIAL
2 3
0.2837905100000000E+00 2 -0.1241522559000000E+02  0.1868095920000000E+01
2
0.2554050000000000E+00 1  0.1363026257000000E+02
0.2454945300000000E+00 0
       &END POTENTIAL
     &END KIND
     &KIND Ga
       BASIS_SET DZVP-MOLOPT-SR-GTH
       POTENTIAL GTH-PBE-q13
       &POTENTIAL
2 1 10
0.4900000000000000E+00 0
3
0.4167772300000000E+00 3  0.1047568975000000E+02 -0.4921768140000000E+01  0.8707055900000000E+00
0.7770178090000000E+01 -0.2248152160000000E+01
0.1784415450000000E+01
0.5696265200000000E+00 2  0.1777985340000000E+01  0.1958597600000000E+00
-0.2317443900000000E+00
0.2381265000000000E+00 1 -0.1624868022000000E+02
       &END POTENTIAL
     &END KIND
     &TOPOLOGY
       NUMBER_OF_ATOMS  212
       MULTIPLE_UNIT_CELL  1 1 1
     &END TOPOLOGY
     &COLVAR
       &DISTANCE
         ATOMS  127 211
       &END DISTANCE
       &PRINT
       &END PRINT
     &END COLVAR
   &END SUBSYS
 &END FORCE_EVAL
