 # Version information for this restart file 
 # current date 2019-06-10 16:17:49.662
 # current working dir /lustre03/project/6037349/rzk/GaN-carbene/444-addat/00-Surface/RKS
 # Program compiled at                              Sun Apr  7 00:48:11 EDT 2019
 # Program compiled on                          beluga2.int.ets1.calculquebec.ca
 # Program compiled for                        Beluga-Linux-x86-64-intel-openmpi
 # Source code revision number                                         svn:18619
 &GLOBAL
   PRINT_LEVEL  MEDIUM
   PROJECT_NAME TEST
   RUN_TYPE  CELL_OPT
 &END GLOBAL
 &MOTION
   &CELL_OPT
     MAX_ITER  300
     STEP_START_VAL  59
     EXTERNAL_PRESSURE     1.0000000000000000E+00
     KEEP_ANGLES  T
     KEEP_SYMMETRY  T
     CONSTRAINT  Z
     PRESSURE_TOLERANCE     5.0000000000000000E+02
   &END CELL_OPT
 &END MOTION
 &FORCE_EVAL
   METHOD  QS
   STRESS_TENSOR  ANALYTICAL
   &DFT
     BASIS_SET_FILE_NAME BASIS_MOLOPT
     POTENTIAL_FILE_NAME GTH_POTENTIALS
     SURFACE_DIPOLE_CORRECTION  T
     SURF_DIP_DIR  Z
     &SCF
       MAX_SCF  100
       EPS_SCF     5.0000000000000004E-06
       &OT  T
         PRECONDITIONER  FULL_ALL
       &END OT
       &OUTER_SCF  T
         OPTIMIZER  NONE
         EPS_SCF     5.0000000000000004E-06
         MAX_SCF  4
       &END OUTER_SCF
       &PRINT
         &RESTART  OFF
           BACKUP_COPIES  1
           &EACH
             JUST_ENERGY  0
             QS_SCF  0
             MD  20
           &END EACH
         &END RESTART
       &END PRINT
     &END SCF
     &QS
       EPS_DEFAULT     1.0000000000000000E-14
       METHOD  GPW
     &END QS
     &MGRID
       NGRIDS  5
       CUTOFF     1.2000000000000000E+03
     &END MGRID
     &XC
       DENSITY_CUTOFF     1.0000000000000000E-10
       GRADIENT_CUTOFF     1.0000000000000000E-10
       TAU_CUTOFF     1.0000000000000000E-10
       &XC_FUNCTIONAL  NO_SHORTCUT
         &PBE  T
         &END PBE
       &END XC_FUNCTIONAL
       &VDW_POTENTIAL
         POTENTIAL_TYPE  PAIR_POTENTIAL
         &PAIR_POTENTIAL
           R_CUTOFF     1.0000000000000004E+01
           TYPE  DFTD3
           PARAMETER_FILE_NAME dftd3.dat
           REFERENCE_FUNCTIONAL PBE
           EPS_CN     9.9999999999999995E-07
           CALCULATE_C9_TERM  T
           REFERENCE_C9_TERM  T
           LONG_RANGE_CORRECTION  F
           VERBOSE_OUTPUT  F
         &END PAIR_POTENTIAL
       &END VDW_POTENTIAL
     &END XC
   &END DFT
   &SUBSYS
     &CELL
       A     1.3016435677396727E+01    0.0000000000000000E+00    0.0000000000000000E+00
       B    -6.4545798042693114E+00    1.1179660162502397E+01    0.0000000000000000E+00
       C     0.0000000000000000E+00    0.0000000000000000E+00    3.2000000000000000E+01
       MULTIPLE_UNIT_CELL  1 1 1
       &CELL_REF
         A     1.2982353780853531E+01    0.0000000000000000E+00    0.0000000000000000E+00
         B    -6.4911768904267628E+00    1.1243048175136114E+01    0.0000000000000000E+00
         C     0.0000000000000000E+00    0.0000000000000000E+00    3.2000000000000000E+01
         MULTIPLE_UNIT_CELL  1 1 1
       &END CELL_REF
     &END CELL
     &COORD
N    1.7839471794471137E-02   -3.2799578581086432E-03   -1.4518016503815670E-01
Ga    3.2300416426368390E-02    1.8657557098325062E+00    5.2526882047472712E-01
N    5.6930275701303858E-02    1.8781327656983353E+00    2.4474955845794155E+00
Ga    5.1164960372959124E-02    1.5779379421136785E-02    3.1566680220717114E+00
N    9.4934891932698537E-02    3.8354835972131532E-02    5.0849104423583178E+00
Ga    1.1383923499890659E-01    1.9124738201609737E+00    5.7783622214570025E+00
N    2.0567693576213208E-01    1.9802670414369763E+00    7.7129875961454220E+00
Ga    2.0683471144784990E-01    1.2008951073864529E-01    8.3834214978744548E+00
N    3.3164493542257045E-01    1.9424397575412644E-01    1.0315733231970547E+01
Ga    3.5030994200722326E-01    2.0642355972776021E+00    1.1007663828662851E+01
N    4.4148156186893422E-01    2.1188424368706094E+00    1.2943448618971747E+01
Ga    4.2484227680392089E-01    2.7080037490061531E-01    1.3607811454298313E+01
N   -1.4208835445013943E-01   -6.7203717752303896E-02    1.5342487725407192E+01
Ga   -8.7780832354094729E-01    1.0895512298037748E+00    1.6700234831943845E+01
N    5.2368871442165321E-01    3.0340050635714988E-01    1.7866956504858795E+01
N   -1.5957641874208905E+00    2.7916213724339549E+00   -1.4432017766503644E-01
Ga   -1.5819947944556174E+00    4.6615151481896477E+00    5.2425902499654231E-01
N   -1.5580276919118274E+00    4.6750777649280399E+00    2.4461853782412963E+00
Ga   -1.5620656969122180E+00    2.8120958979642907E+00    3.1518898554473562E+00
N   -1.5176106404608642E+00    2.8350760954516532E+00    5.0788719272125702E+00
Ga   -1.4989081383114022E+00    4.7059135941124719E+00    5.7801578365131219E+00
N   -1.4083576448003789E+00    4.7727735437256422E+00    7.7117534550223485E+00
Ga   -1.4077318862005466E+00    2.9166892558234276E+00    8.3958714686386955E+00
N   -1.2819375383394045E+00    2.9994473266229620E+00    1.0332735089551994E+01
Ga   -1.2749025993488121E+00    4.8682021562685280E+00    1.1042450104290859E+01
N   -1.1882933110019334E+00    4.9271920632521979E+00    1.2981720085924202E+01
Ga   -1.1637922482445673E+00    3.0561265345018440E+00    1.3625881732916010E+01
N   -1.6212506916519682E+00    2.6235791071880952E+00    1.5454222392735163E+01
Ga   -2.6566240453262684E+00    4.3969408481361176E+00    1.6774187332056361E+01
N   -1.1830724572602602E+00    3.0795569987980609E+00    1.6753853528035510E+01
N   -3.2095104587237304E+00    5.5865020585550331E+00   -1.4596323256569393E-01
Ga   -3.1949938377502640E+00    7.4556352416372595E+00    5.2439681030810847E-01
N   -3.1704990200320848E+00    7.4685481398037377E+00    2.4468391993179193E+00
Ga   -3.1765206143606668E+00    5.6060070925876797E+00    3.1559822670859736E+00
N   -3.1332548850686570E+00    5.6283428067344321E+00    5.0835068817872369E+00
Ga   -3.1135901554641290E+00    7.5033140773975626E+00    5.7743153248252357E+00
N   -3.0220067948733149E+00    7.5688938821192782E+00    7.7087918973321399E+00
Ga   -3.0205212304092992E+00    5.7099865849615163E+00    8.3864896339079493E+00
N   -2.8937276815642337E+00    5.7862352649919817E+00    1.0322285093609022E+01
Ga   -2.8800464405394051E+00    7.6474515887504042E+00    1.1038083671762923E+01
N   -2.7985075082931465E+00    7.7129731817676168E+00    1.2977768627007499E+01
Ga   -2.8136950535682206E+00    5.8515520415911881E+00    1.3674645536992942E+01
N   -3.3680977455354579E+00    5.5074565902645354E+00    1.5406515300902941E+01
Ga   -3.9837731440954123E+00    6.6779119668076508E+00    1.6782359519132672E+01
N   -2.6878822172920795E+00    5.8930801362078231E+00    1.8078818165084002E+01
N   -4.8231122228058281E+00    8.3816450737907520E+00   -1.4439971427458606E-01
Ga   -4.8090905607466290E+00    1.0251545288621015E+01    5.2455528376845673E-01
N   -4.7849893331583706E+00    1.0265451458851794E+01    2.4464389490054419E+00
Ga   -4.7890262747941792E+00    8.4030739091721518E+00    3.1518291385432438E+00
N   -4.7455809242417804E+00    8.4276309091664956E+00    5.0791195624590113E+00
Ga   -4.7268024235403345E+00    1.0296966074296677E+01    5.7850419620099123E+00
N   -4.6346610725568018E+00    1.0363544800280547E+01    7.7160344022791580E+00
Ga   -4.6336917567633842E+00    8.5035516694991440E+00    8.3936790791399893E+00
N   -4.5030028437170717E+00    8.5827910015893742E+00    1.0331938356635565E+01
Ga   -4.4940879022775171E+00    1.0457059023786265E+01    1.1018592965824606E+01
N   -4.4119539359996889E+00    1.0531939799976271E+01    1.2952338301874519E+01
Ga   -4.4064549062989249E+00    8.6684948591501811E+00    1.3625722916745742E+01
N   -5.0077370546602129E+00    8.4876460546652641E+00    1.5458650345699469E+01
Ga   -5.9758311054091537E+00    9.8869057372735973E+00    1.6689968570118676E+01
N   -4.3896101691049783E+00    8.6156941722993956E+00    1.6753005575875122E+01
N    3.2719737988005786E+00   -3.0936728233254924E-03   -1.4552219151189513E-01
Ga    3.2854571966631432E+00    1.8658612449902354E+00    5.2524553079808167E-01
N    3.3094129659524913E+00    1.8785881520494245E+00    2.4479786729427957E+00
Ga    3.3046647972796892E+00    1.6701071017318634E-02    3.1573990236770113E+00
N    3.3499544254485043E+00    4.0150116216483844E-02    5.0866523264711736E+00
Ga    3.3645944209753695E+00    1.9103504655847208E+00    5.7875515913914581E+00
N    3.4519808855643275E+00    1.9749708310836542E+00    7.7244801791412954E+00
Ga    3.4640618100912244E+00    1.1943031058863041E-01    8.4161560557116086E+00
N    3.5891657549960838E+00    1.9389148678118015E-01    1.0354493512327572E+01
Ga    3.6060997448936334E+00    2.0618905941603551E+00    1.1052568988362246E+01
N    3.6965194129719392E+00    2.1357291769358269E+00    1.2998454360531555E+01
Ga    3.6715271108857270E+00    2.8433563438865467E-01    1.3698437644549140E+01
N    3.1054425952929363E+00   -4.7534243710197226E-04    1.5559790928176705E+01
Ga    2.0406315613886190E+00    1.1663515092758350E+00    1.7266291691200379E+01
N    3.7530070956842270E+00    3.4084712115634486E-01    1.6933700976971114E+01
N    1.6583476502776380E+00    2.7917272666513946E+00   -1.4547969528329779E-01
Ga    1.6716891045210054E+00    4.6606252599335694E+00    5.2530342990470158E-01
N    1.6954432653593341E+00    4.6736066961946268E+00    2.4474882977806738E+00
Ga    1.6919463477805619E+00    2.8118650186330250E+00    3.1567297462764552E+00
N    1.7373648320013695E+00    2.8361962318873544E+00    5.0852893570354682E+00
Ga    1.7513335303283752E+00    4.7051640181955978E+00    5.7895841138858701E+00
N    1.8390980197777269E+00    4.7681766250992119E+00    7.7258043499812450E+00
Ga    1.8499497629022017E+00    2.9162318638289366E+00    8.4243514548051088E+00
N    1.9806541671551869E+00    2.9933812436035274E+00    1.0361403192754969E+01
Ga    1.9754917126127614E+00    4.8587867576078336E+00    1.1067879530709751E+01
N    2.0554268807022624E+00    4.9145471889911523E+00    1.3009901874400406E+01
Ga    2.0773966257785084E+00    3.0423108014581839E+00    1.3687657174074870E+01
N    1.5755401511757343E+00    2.6837717354319199E+00    1.5553627432730387E+01
Ga    4.5939279800410354E-01    3.9608290942525373E+00    1.6520275248218908E+01
N    2.1852920683689288E+00    3.0573202321572279E+00    1.6930210756457832E+01
N    4.4708102488334872E-02    5.5867046568762095E+00   -1.4539004596315117E-01
Ga    5.8122061503615416E-02    7.4559311518080733E+00    5.2506084466227254E-01
N    8.1958101091368502E-02    7.4689798765347062E+00    2.4474292286809902E+00
Ga    7.7654434701438790E-02    5.6069032469384812E+00    3.1556603028773362E+00
N    1.2381538849297090E-01    5.6308258434158915E+00    5.0848770844799098E+00
Ga    1.3753127520014402E-01    7.5001021534549119E+00    5.7905076084751528E+00
N    2.2580496999523897E-01    7.5646435075223746E+00    7.7282021442996323E+00
Ga    2.3177148942391634E-01    5.7072215653758436E+00    8.4195096317488165E+00
N    3.5126791198121143E-01    5.7838046040898812E+00    1.0360563035637082E+01
Ga    3.7667550559696766E-01    7.6531935512724463E+00    1.1046548619448640E+01
N    4.6839868928681549E-01    7.7261931433008595E+00    1.2990370312896490E+01
Ga    4.4058297007251662E-01    5.8751915923800055E+00    1.3690284889568620E+01
N   -9.3777934194448839E-02    5.5662394511561741E+00    1.5563992332608571E+01
Ga   -1.1438420712482646E+00    6.7793141667329504E+00    1.7687080018741327E+01
N    4.5028963821350149E-01    5.9628744063965495E+00    1.6850253537089525E+01
N   -1.5689202219708698E+00    8.3816500177420057E+00   -1.4598800857693095E-01
Ga   -1.5556566136174639E+00    1.0250608073094348E+01    5.2524155873209011E-01
N   -1.5320588899400154E+00    1.0263912412334934E+01    2.4478230659772460E+00
Ga   -1.5351891616144049E+00    8.4019258718824528E+00    3.1565962508897760E+00
N   -1.4885750822949639E+00    8.4260959148258099E+00    5.0846927332224858E+00
Ga   -1.4755429073840411E+00    1.0294309770474662E+01    5.7881639836143730E+00
N   -1.3873712551744766E+00    1.0355566502227797E+01    7.7249895214106283E+00
Ga   -1.3809810381498715E+00    8.5026223896294457E+00    8.4291125219819545E+00
N   -1.2539331250799308E+00    8.5762404984277065E+00    1.0369497490333968E+01
Ga   -1.2496190692125702E+00    1.0443232968057293E+01    1.1066669775692302E+01
N   -1.1716609813328491E+00    1.0502052952956653E+01    1.3010489301891344E+01
Ga   -1.1489734448243625E+00    8.6264523544508229E+00    1.3683511844363425E+01
N   -1.6609431388471247E+00    8.2962213112245244E+00    1.5554684860173547E+01
Ga   -2.7855684821649032E+00    9.5857156223946305E+00    1.6519763816020816E+01
N   -1.0569075489204383E+00    8.5734243921954167E+00    1.6850025978086506E+01
N    6.5257220248573544E+00   -3.5200560785746790E-03   -1.4517754207362596E-01
Ga    6.5395514916804434E+00    1.8656893135422568E+00    5.2361618600283777E-01
N    6.5619466639707049E+00    1.8777292086322788E+00    2.4462977564483519E+00
Ga    6.5576125215879060E+00    1.5887957695431613E-02    3.1559627233745040E+00
N    6.6000976355104095E+00    3.8463027699811775E-02    5.0855849885249143E+00
Ga    6.6145185167262568E+00    1.9067864741127494E+00    5.7863542779669288E+00
N    6.6986630648087004E+00    1.9684512711116120E+00    7.7220417203437748E+00
Ga    6.7023466965879113E+00    1.1412470396743321E-01    8.4223184949267758E+00
N    6.8247420996172172E+00    1.8853621855401614E-01    1.0368433044082394E+01
Ga    6.8622306638345627E+00    2.0687187777936811E+00    1.1035327982290001E+01
N    6.9622237745651496E+00    2.1335242790639910E+00    1.2987039467488666E+01
Ga    6.9444985346326762E+00    2.7538048256467412E-01    1.3671678690018497E+01
N    6.3868966292245517E+00   -5.3478891367192492E-02    1.5491512783669785E+01
Ga    5.3932783010707341E+00    1.2425936774681385E+00    1.6600663290523528E+01
N    7.0414407331309610E+00    3.1498845072657278E-01    1.7080918227371200E+01
N    4.9121821528011607E+00    2.7914353068348956E+00   -1.4567661110209468E-01
Ga    4.9259352503854625E+00    4.6605820249015659E+00    5.2344058174572894E-01
N    4.9481979817219388E+00    4.6726614377254041E+00    2.4457098490587024E+00
Ga    4.9442719099749937E+00    2.8111770340400311E+00    3.1569441862589072E+00
N    4.9870195061605003E+00    2.8349705734504380E+00    5.0879727665561747E+00
Ga    4.9990849299611497E+00    4.7042006207843450E+00    5.7917132690392013E+00
N    5.0814459298437074E+00    4.7686738475452293E+00    7.7254205178350848E+00
Ga    5.0936827767321349E+00    2.9121397654195391E+00    8.4180048725901813E+00
N    5.2248872397914923E+00    2.9903109366846730E+00    1.0363852300570693E+01
Ga    5.2418163505461495E+00    4.8658275049034563E+00    1.1038373967693305E+01
N    5.3315581987079064E+00    4.9418365172850285E+00    1.2986975178674808E+01
Ga    5.3644498495028117E+00    3.0845578933107101E+00    1.3654817155010415E+01
N    4.8194151819077939E+00    2.7583438264094480E+00    1.5478320077823531E+01
Ga    3.7877067547166461E+00    4.0093699987698024E+00    1.6605302047575112E+01
N    5.4732588833411508E+00    3.1383913867076942E+00    1.7075478773605813E+01
N    3.2984755294624666E+00    5.5862881929506907E+00   -1.4483047828804740E-01
Ga    3.3122753367915481E+00    7.4556689686772701E+00    5.2429577893012624E-01
N    3.3349124792462193E+00    7.4677828432537927E+00    2.4469966656353468E+00
Ga    3.3306098627957601E+00    5.6050531089715498E+00    3.1553924577083037E+00
N    3.3729664898295808E+00    5.6272238814105684E+00    5.0854116876058368E+00
Ga    3.3872214520503996E+00    7.4955140307513659E+00    5.7842831408909356E+00
N    3.4708881730670673E+00    7.5558454919677676E+00    7.7189547613859224E+00
Ga    3.4741484604292725E+00    5.7038484565066385E+00    8.4217582466081033E+00
N    3.5981608791328199E+00    5.7779556721886856E+00    1.0367070360153818E+01
Ga    3.6350142683224891E+00    7.6535025362982285E+00    1.1032734188747330E+01
N    3.7296502652549770E+00    7.7183051010141801E+00    1.2980445319502802E+01
Ga    3.7185782545115429E+00    5.8667033310747625E+00    1.3677698595809554E+01
N    3.1589229739959537E+00    5.5313404849223815E+00    1.5503244032779822E+01
Ga    2.1370484146222344E+00    6.8157158392920110E+00    1.6556870546861980E+01
N    3.8188436109590795E+00    5.9178649300800732E+00    1.7080060412895790E+01
N    1.6849251612403093E+00    8.3813089357628456E+00   -1.4510291792361385E-01
Ga    1.6985991184123646E+00    1.0250539308029643E+01    5.2395463896452021E-01
N    1.7210026020045928E+00    1.0263060290581858E+01    2.4465305693113795E+00
Ga    1.7166227143655530E+00    8.4010064275142824E+00    3.1574788027791554E+00
N    1.7596600975768883E+00    8.4237965032289761E+00    5.0878500303164316E+00
Ga    1.7720458341107135E+00    1.0293338351067506E+01    5.7873535014928619E+00
N    1.8540284826436910E+00    1.0356562867640582E+01    7.7209057907592937E+00
Ga    1.8694971447548461E+00    8.5013932105944523E+00    8.4173128318673012E+00
N    1.9970777778450650E+00    8.5793453915366236E+00    1.0362722842286159E+01
Ga    2.0143252837953809E+00    1.0457679611696806E+01    1.1034547196845660E+01
N    2.1038401103071869E+00    1.0532423563282006E+01    1.2980961724067308E+01
Ga    2.1412623983380166E+00    8.6786441708810678E+00    1.3635356341580479E+01
N    1.5819538634262569E+00    8.3394418945173161E+00    1.5448230298325647E+01
Ga    5.3543300387163084E-01    9.5953685616282858E+00    1.6556724569484810E+01
N    2.1793022666725892E+00    8.6981549625926853E+00    1.7078192605759469E+01
N    9.7800942145081660E+00   -3.2401699175718221E-03   -1.4468354382457355E-01
Ga    9.7938888352747373E+00    1.8660712926394725E+00    5.2509196354899212E-01
N    9.8171685237524073E+00    1.8784240775310839E+00    2.4474610919106587E+00
Ga    9.8104098045272803E+00    1.4249001547137020E-02    3.1528986408880897E+00
N    9.8509120059154203E+00    3.4846879622036746E-02    5.0819472401596766E+00
Ga    9.8733302805898138E+00    1.9106047721039401E+00    5.7674440183539772E+00
N    9.9618358348524687E+00    1.9775461744457290E+00    7.6988561654706702E+00
Ga    9.9556489247521593E+00    1.1803408690107282E-01    8.3759273859380485E+00
N    1.0074115574640205E+01    1.9431715649278480E-01    1.0310589767889690E+01
Ga    1.0113009928920789E+01    2.0647728214161565E+00    1.0994432649824954E+01
N    1.0202112057041903E+01    2.1278711250315903E+00    1.2933659751229165E+01
Ga    1.0238698482582542E+01    2.8715353701333562E-01    1.3643571458900004E+01
N    9.7406884573315669E+00   -1.8079542244608195E-02    1.5518476274042440E+01
Ga    8.6423496601536467E+00    1.2308910006695422E+00    1.6725398205437926E+01
N    1.0366682829295694E+01    3.3300537249246065E-01    1.6892559429343471E+01
N    8.1664127408145522E+00    2.7915776875876235E+00   -1.4536826307850695E-01
Ga    8.1807434985137863E+00    4.6610558301784737E+00    5.2469092357452962E-01
N    8.2042642538173798E+00    4.6735230054635704E+00    2.4471751113925664E+00
Ga    8.1960464633058940E+00    2.8097911460182567E+00    3.1530576626919142E+00
N    8.2365648312381605E+00    2.8302704926311679E+00    5.0814116188515115E+00
Ga    8.2568835803661589E+00    4.7031331832898058E+00    5.7733124251643559E+00
N    8.3442734961638223E+00    4.7672688325302550E+00    7.7056362375714338E+00
Ga    8.3485930040459753E+00    2.9071601823956259E+00    8.3918076293171264E+00
N    8.4749459147008981E+00    2.9829851013716229E+00    1.0324247079144833E+01
Ga    8.4922791068304413E+00    4.8616402085224726E+00    1.0977600786780650E+01
N    8.5618951716996605E+00    4.9154844145498817E+00    1.2892732809022359E+01
Ga    8.6261776762902773E+00    3.1030059474076879E+00    1.3637728743239288E+01
N    8.1898318320082488E+00    2.7909040362778668E+00    1.5522833876605803E+01
Ga    7.0570402261728731E+00    4.0302373986603879E+00    1.6686672175755522E+01
N    8.8082377011577240E+00    3.1821612254073748E+00    1.6891167633610667E+01
N    6.5527434766282644E+00    5.5865913515762600E+00   -1.4507221705932685E-01
Ga    6.5667088436777012E+00    7.4558757276828693E+00    5.2538661283476740E-01
N    6.5902537806257735E+00    7.4683814360808940E+00    2.4478550287742018E+00
Ga    6.5825129414226353E+00    5.6033532049054564E+00    3.1520111804169630E+00
N    6.6218275324352360E+00    5.6238147074546694E+00    5.0810124430726393E+00
Ga    6.6467770661820191E+00    7.4986820840442432E+00    5.7662009766135611E+00
N    6.7354925646728798E+00    7.5631790976341247E+00    7.6978265099831473E+00
Ga    6.7312121496243043E+00    5.7064650267893162E+00    8.3856028959229754E+00
N    6.8523175896878890E+00    5.7818700915833032E+00    1.0319812200167195E+01
Ga    6.8865561308548928E+00    7.6575343948623784E+00    1.0993483692024082E+01
N    6.9678725330190758E+00    7.7249033278302282E+00    1.2932578759995778E+01
Ga    7.0167220885664170E+00    5.8773894958899069E+00    1.3633163390917527E+01
N    6.5461782988206680E+00    5.6261770322004541E+00    1.5512442662099128E+01
Ga    5.4313315160150859E+00    6.8050816714682929E+00    1.6723339041850924E+01
N    7.1912964492237910E+00    5.9760683580088632E+00    1.6879362396976394E+01
N    4.9391775314059947E+00    8.3814367400340348E+00   -1.4487392609883146E-01
Ga    4.9534414445399433E+00    1.0250992096735049E+01    5.2503970553428592E-01
N    4.9770922878503461E+00    1.0263794371110659E+01    2.4474873388936831E+00
Ga    4.9691208061463774E+00    8.4003456846463642E+00    3.1528281559227431E+00
N    5.0095448501794069E+00    8.4211611942506455E+00    5.0815915506525924E+00
Ga    5.0311523378468577E+00    1.0293621133302915E+01    5.7757445421976623E+00
N    5.1186558368096158E+00    1.0356967519191267E+01    7.7063883716005357E+00
Ga    5.1203556223417497E+00    8.4926440203863933E+00    8.3815661706801006E+00
N    5.2445748699310517E+00    8.5685357335765957E+00    1.0316471222365502E+01
Ga    5.2576606104721773E+00    1.0449272718914999E+01    1.0964385821763743E+01
N    5.3310437614036603E+00    1.0501413998123708E+01    1.2888600410548692E+01
Ga    5.3939850603586086E+00    8.6880726959279340E+00    1.3631766846310629E+01
N    4.8935779810069047E+00    8.3614899794926618E+00    1.5513928016710707E+01
Ga    3.7676304664853997E+00    9.5767855922273597E+00    1.6716114499474308E+01
N    5.5107030800875201E+00    8.7450777994761140E+00    1.6898604216782118E+01
H    1.4990516704203352E-02   -4.6644359123295251E-03   -1.1728492071602306E+00
H   -1.5987053565085170E+00    2.7904410010155898E+00   -1.1720453075916988E+00
H   -3.2118097982607807E+00    5.5852518111591634E+00   -1.1736339318659339E+00
H   -4.8262864158551277E+00    8.3807139717352985E+00   -1.1721222212069966E+00
H    3.2691782612742650E+00   -4.2527862676064567E-03   -1.1732280780590190E+00
H    1.6557075091035238E+00    2.7910194605331635E+00   -1.1732243942338580E+00
H    4.2335734800883512E-02    5.5855093384729297E+00   -1.1730858182289099E+00
H   -1.5712623898627593E+00    8.3805292583552760E+00   -1.1737354580026049E+00
H    6.5233099644937340E+00   -5.0026532245747721E-03   -1.1728031923153022E+00
H    4.9092620709728321E+00    2.7905896706233282E+00   -1.1733266622972249E+00
H    3.2956563738052678E+00    5.5850179827631417E+00   -1.1724306956227100E+00
H    1.6822356182448959E+00    8.3802001923142804E+00   -1.1727590387431939E+00
H    9.7777491780922965E+00   -4.0642902029602744E-03   -1.1723790792517699E+00
H    8.1643979500561681E+00    2.7901770588583625E+00   -1.1730785380114641E+00
H    6.5498518549991926E+00    5.5859913396309402E+00   -1.1727695651430623E+00
H    4.9368367794513031E+00    8.3805706174438619E+00   -1.1726108684632426E+00
     &END COORD
     &KIND H
       BASIS_SET DZVP-MOLOPT-SR-GTH-q1
       POTENTIAL GTH-PBE-q1
       &POTENTIAL
 1
  0.2000000000000000E+00 2 -0.4178900440000000E+01  0.7244633100000000E+00
 0
         # Potential name:  GTH-PBE-Q1  for symbol:  H
         # Potential read from the potential filename: GTH_POTENTIALS
       &END POTENTIAL
     &END KIND
     &KIND N
       BASIS_SET DZVP-MOLOPT-SR-GTH
       POTENTIAL GTH-PBE-q5
       &POTENTIAL
 2 3
  0.2837905100000000E+00 2 -0.1241522559000000E+02  0.1868095920000000E+01
 2
  0.2554050000000000E+00 1  0.1363026257000000E+02
  0.2454945300000000E+00 0
         # Potential name:  GTH-PBE-Q5  for symbol:  N
         # Potential read from the potential filename: GTH_POTENTIALS
       &END POTENTIAL
     &END KIND
     &KIND Ga
       BASIS_SET DZVP-MOLOPT-SR-GTH
       POTENTIAL GTH-PBE-q13
       &POTENTIAL
 2 1 10
  0.4900000000000000E+00 0
 3
  0.4167772300000000E+00 3  0.1047568975000000E+02 -0.4921768140000000E+01  0.8707055900000000E+00
  0.7770178090000000E+01 -0.2248152160000000E+01
  0.1784415450000000E+01
  0.5696265200000000E+00 2  0.1777985340000000E+01  0.1958597600000000E+00
 -0.2317443900000000E+00
  0.2381265000000000E+00 1 -0.1624868022000000E+02
         # Potential name:  GTH-PBE-Q13  for symbol:  GA
         # Potential read from the potential filename: GTH_POTENTIALS
       &END POTENTIAL
     &END KIND
     &TOPOLOGY
       NUMBER_OF_ATOMS  256
       MULTIPLE_UNIT_CELL  1 1 1
     &END TOPOLOGY
   &END SUBSYS
 &END FORCE_EVAL
