 # Version information for this restart file 
 # current date 2019-06-10 15:44:34.235
 # current working dir /lustre03/project/6037349/rzk/GaN-carbene/444-addat/00-Surface/RKS
 # Program compiled at                              Sun Apr  7 00:48:11 EDT 2019
 # Program compiled on                          beluga2.int.ets1.calculquebec.ca
 # Program compiled for                        Beluga-Linux-x86-64-intel-openmpi
 # Source code revision number                                         svn:18619
 &GLOBAL
   PRINT_LEVEL  MEDIUM
   PROJECT_NAME TEST
   RUN_TYPE  CELL_OPT
 &END GLOBAL
 &MOTION
   &CELL_OPT
     MAX_ITER  300
     STEP_START_VAL  46
     EXTERNAL_PRESSURE     1.0000000000000000E+00
     KEEP_ANGLES  T
     KEEP_SYMMETRY  T
     CONSTRAINT  Z
     PRESSURE_TOLERANCE     5.0000000000000000E+02
   &END CELL_OPT
 &END MOTION
 &FORCE_EVAL
   METHOD  QS
   STRESS_TENSOR  ANALYTICAL
   &DFT
     BASIS_SET_FILE_NAME BASIS_MOLOPT
     POTENTIAL_FILE_NAME GTH_POTENTIALS
     SURFACE_DIPOLE_CORRECTION  T
     SURF_DIP_DIR  Z
     &SCF
       MAX_SCF  100
       EPS_SCF     5.0000000000000004E-06
       &OT  T
         PRECONDITIONER  FULL_ALL
       &END OT
       &OUTER_SCF  T
         OPTIMIZER  NONE
         EPS_SCF     5.0000000000000004E-06
         MAX_SCF  4
       &END OUTER_SCF
       &PRINT
         &RESTART  OFF
           BACKUP_COPIES  1
           &EACH
             JUST_ENERGY  0
             QS_SCF  0
             MD  20
           &END EACH
         &END RESTART
       &END PRINT
     &END SCF
     &QS
       EPS_DEFAULT     1.0000000000000000E-14
       METHOD  GPW
     &END QS
     &MGRID
       NGRIDS  5
       CUTOFF     1.2000000000000000E+03
     &END MGRID
     &XC
       DENSITY_CUTOFF     1.0000000000000000E-10
       GRADIENT_CUTOFF     1.0000000000000000E-10
       TAU_CUTOFF     1.0000000000000000E-10
       &XC_FUNCTIONAL  NO_SHORTCUT
         &PBE  T
         &END PBE
       &END XC_FUNCTIONAL
       &VDW_POTENTIAL
         POTENTIAL_TYPE  PAIR_POTENTIAL
         &PAIR_POTENTIAL
           R_CUTOFF     1.0000000000000004E+01
           TYPE  DFTD3
           PARAMETER_FILE_NAME dftd3.dat
           REFERENCE_FUNCTIONAL PBE
           EPS_CN     9.9999999999999995E-07
           CALCULATE_C9_TERM  T
           REFERENCE_C9_TERM  T
           LONG_RANGE_CORRECTION  F
           VERBOSE_OUTPUT  F
         &END PAIR_POTENTIAL
       &END VDW_POTENTIAL
     &END XC
   &END DFT
   &SUBSYS
     &CELL
       A     1.3028335208754656E+01    0.0000000000000000E+00    0.0000000000000000E+00
       B    -6.4609130327712014E+00    1.1190629636043624E+01    0.0000000000000000E+00
       C     0.0000000000000000E+00    0.0000000000000000E+00    3.2000000000000000E+01
       MULTIPLE_UNIT_CELL  1 1 1
       &CELL_REF
         A     1.2982353780853531E+01    0.0000000000000000E+00    0.0000000000000000E+00
         B    -6.4911768904267628E+00    1.1243048175136114E+01    0.0000000000000000E+00
         C     0.0000000000000000E+00    0.0000000000000000E+00    3.2000000000000000E+01
         MULTIPLE_UNIT_CELL  1 1 1
       &END CELL_REF
     &END CELL
     &COORD
N    4.7090158762155623E-03   -3.4149723578377278E-03   -1.2037308869585697E-01
Ga    1.7963013194134059E-02    1.8673700824016650E+00    5.3895850023575342E-01
N    3.0313304878163704E-02    1.8672125163700017E+00    2.4576720808721260E+00
Ga    2.3400556524740792E-02    2.2887358930392399E-03    3.1614323263600150E+00
N    4.6123151914958402E-02    1.9461109827611355E-03    5.0837359572917231E+00
Ga    6.1251049727774010E-02    1.8708755516461333E+00    5.7665164079499371E+00
N    1.1657205661073400E-01    1.9101144356493132E+00    7.6997570268363278E+00
Ga    1.2114569134262915E-01    4.9580658161584572E-02    8.3963185184189992E+00
N    2.1665382796154292E-01    1.2614249542606823E-01    1.0332013015028954E+01
Ga    2.3815397009795103E-01    2.0093538148080072E+00    1.1017357096183011E+01
N    4.5549430540442626E-01    2.1486934965824984E+00    1.2949612346441585E+01
Ga    4.3379129693390589E-01    2.7260006906304302E-01    1.3549509369691789E+01
N   -1.1260761414414233E-01   -5.4407105686746580E-02    1.5285088337259097E+01
Ga   -6.8592689621697289E-01    1.1672048490855660E+00    1.6656075122738873E+01
N    7.4025198043930174E-01    4.1316329227437387E-01    1.7817221919242311E+01
N   -1.6105354962451579E+00    2.7941913468306185E+00   -1.2027754743444719E-01
Ga   -1.5973416331892851E+00    4.6652224503138298E+00    5.3909336526783858E-01
N   -1.5849506131400544E+00    4.6657029562012395E+00    2.4578999141030562E+00
Ga   -1.5907121180245136E+00    2.7998656936257205E+00    3.1602429161957333E+00
N   -1.5665977180624879E+00    2.7997127567689124E+00    5.0818825554085256E+00
Ga   -1.5542776927238464E+00    4.6687138372175525E+00    5.7622796439032813E+00
N   -1.4978702344726167E+00    4.7088410469374162E+00    7.6939842364150826E+00
Ga   -1.4994760537074048E+00    2.8482443328732763E+00    8.3948258508507632E+00
N   -1.4024999452361822E+00    2.9287388785122772E+00    1.0332553241512926E+01
Ga   -1.3714684250742379E+00    4.8071169344009119E+00    1.1022975278937302E+01
N   -1.1623630740153752E+00    4.9624901256841314E+00    1.2936703689448411E+01
Ga   -1.1286805042797650E+00    3.1214297435984690E+00    1.3646945983462592E+01
N   -1.4559153381539274E+00    2.8565885243050571E+00    1.5535813299408916E+01
Ga   -2.5473032592960707E+00    4.5032964116691208E+00    1.6719268688708222E+01
N   -1.0192609057165540E+00    3.1982604921262121E+00    1.6839104414730603E+01
N   -3.2257601978837687E+00    5.5917266268712655E+00   -1.2068545419150564E-01
Ga   -3.2125756867647199E+00    7.4624966595953319E+00    5.3901299031576999E-01
N   -3.2003941798339297E+00    7.4625476015268033E+00    2.4576650627463166E+00
Ga   -3.2068204348187055E+00    5.5972124762850859E+00    3.1608196084506939E+00
N   -3.1837514687024551E+00    5.5967045144677687E+00    5.0829526586318901E+00
Ga   -3.1693847251381944E+00    7.4659535504039223E+00    5.7635283333087637E+00
N   -3.1138125785695197E+00    7.5062720621978833E+00    7.6959229171171666E+00
Ga   -3.1091092200215855E+00    5.6461529965973050E+00    8.3952204981010539E+00
N   -3.0165839916402963E+00    5.7211732052854263E+00    1.0326403242245306E+01
Ga   -2.9892691581241229E+00    7.6049672732635942E+00    1.1008619464795249E+01
N   -2.7686391300456279E+00    7.7413856185206704E+00    1.2932580966973019E+01
Ga   -2.8289439084897099E+00    5.8536118337596212E+00    1.3539753583422767E+01
N   -3.2755697100700019E+00    5.5762381003108841E+00    1.5290872634845114E+01
Ga   -3.8414604074670740E+00    6.7430123845243308E+00    1.6710779029743680E+01
N   -2.5195932106851084E+00    6.0044911061740072E+00    1.8019467572959375E+01
N   -4.8409955365903485E+00    8.3893496456412233E+00   -1.2002836937517755E-01
Ga   -4.8279170067204182E+00    1.0260507675050585E+01    5.3916367633324902E-01
N   -4.8159709869141434E+00    1.0261098907322987E+01    2.4580151298423667E+00
Ga   -4.8214851489916262E+00    8.3952134719781260E+00    3.1600737608135732E+00
N   -4.7976121372063538E+00    8.3953564025477494E+00    5.0814062804050959E+00
Ga   -4.7846749250422089E+00    1.0264693791036713E+01    5.7612814445239593E+00
N   -4.7290395901825422E+00    1.0305805003953315E+01    7.6936668546122338E+00
Ga   -4.7281069412391714E+00    8.4454711705180845E+00    8.3939307813045367E+00
N   -4.6293418594938949E+00    8.5262078805643338E+00    1.0331807897583193E+01
Ga   -4.6013917841228373E+00    1.0403128785601195E+01    1.1031094586419082E+01
N   -4.3856518333740340E+00    1.0554005326703535E+01    1.2947977639737951E+01
Ga   -4.3450234256687894E+00    8.6998843864921600E+00    1.3646437036265491E+01
N   -4.7230302041336811E+00    8.5224314294393722E+00    1.5536575048011855E+01
Ga   -5.8041397738269414E+00    1.0005625388084686E+01    1.6644033487297566E+01
N   -4.1968972998891001E+00    8.7292431780426352E+00    1.6837999863465242E+01
N    3.2619535326835543E+00   -3.4428141919825334E-03   -1.1999243127385345E-01
Ga    3.2749771212196039E+00    1.8674937232675370E+00    5.3948952477885281E-01
N    3.2865538502212668E+00    1.8675534294589651E+00    2.4580993002006939E+00
Ga    3.2812037378166248E+00    2.4175132879835060E-03    3.1611945896546643E+00
N    3.3034728689205273E+00    2.4643184149359403E-03    5.0834432457807930E+00
Ga    3.3166165446746727E+00    1.8719768497962406E+00    5.7674601081453742E+00
N    3.3703309724793407E+00    1.9134776069190771E+00    7.7013073722486718E+00
Ga    3.3716172071166532E+00    5.2218020834149101E-02    8.3941716227891430E+00
N    3.4734020272909043E+00    1.3674779153868016E-01    1.0336683307888036E+01
Ga    3.4949922051320006E+00    2.0195860509233299E+00    1.1031672013124222E+01
N    3.7048900945623706E+00    2.1742551927710028E+00    1.2971166144623417E+01
Ga    3.7293592303780523E+00    3.2192988105997533E-01    1.3659345353075175E+01
N    3.2762051143427513E+00    1.0041579114554672E-01    1.5579296014213760E+01
Ga    2.1790737623830938E+00    1.2372824163546554E+00    1.6941481786570332E+01
N    3.9693534233109204E+00    4.6547623414245648E-01    1.6951710670651117E+01
N    1.6466882099354452E+00    2.7942151988121706E+00   -1.2028052293720123E-01
Ga    1.6597579217552219E+00    4.6651142250837241E+00    5.3947628936563619E-01
N    1.6714175996929488E+00    4.6652849806869332E+00    2.4582411088877398E+00
Ga    1.6655126905326172E+00    2.7998705212214223E+00    3.1614624092215302E+00
N    1.6872446300520991E+00    2.7992982339230474E+00    5.0841134908569590E+00
Ga    1.7021871872750263E+00    4.6683871207791556E+00    5.7658013045327179E+00
N    1.7552477338055421E+00    4.7094167239624891E+00    7.6984347589341020E+00
Ga    1.7570939314748704E+00    2.8508160002986709E+00    8.3978504521066917E+00
N    1.8550511266710370E+00    2.9345076462759372E+00    1.0337007668625395E+01
Ga    1.8766489976306242E+00    4.8094411191768573E+00    1.1043819956827637E+01
N    2.0814389408920149E+00    4.9436191801525364E+00    1.2992978306410604E+01
Ga    2.1045987071301049E+00    3.0898709859340463E+00    1.3713736991715187E+01
N    1.7346698227874804E+00    2.8103480038351214E+00    1.5605107523310172E+01
Ga    6.3742479170091160E-01    4.1189820632579774E+00    1.6694520699691996E+01
N    2.3370321395817832E+00    3.2293926609773669E+00    1.6959134158273141E+01
N    3.1440112633160225E-02    5.5917959083557456E+00   -1.2023624461062878E-01
Ga    4.4580559729353854E-02    7.4625185633029059E+00    5.3929217271804819E-01
N    5.6318485987473417E-02    7.4623220159247898E+00    2.4579393413576005E+00
Ga    5.0780582151000300E-02    5.5976617075733257E+00    3.1621378491466494E+00
N    7.2980904713599026E-02    5.5976474545751884E+00    5.0843790816967873E+00
Ga    8.7221900922006490E-02    7.4674392404706378E+00    5.7653442904049763E+00
N    1.4060771104443398E-01    7.5086102649266433E+00    7.6975857737143398E+00
Ga    1.4173983296912554E-01    5.6484032463354232E+00    8.3903425977230253E+00
N    2.4215017842196604E-01    5.7348799833334398E+00    1.0331603952239337E+01
Ga    2.6338756021987003E-01    7.6137511702584906E+00    1.1030384753413722E+01
N    4.8072602124016284E-01    7.7661520377041828E+00    1.2965274013138847E+01
Ga    4.8240056220959593E-01    5.9202618853460809E+00    1.3661615290228607E+01
N    1.7679176693315209E-02    5.7356049784776504E+00    1.5591125268478201E+01
Ga   -1.0594720124047503E+00    6.8198376730163721E+00    1.7200731372251081E+01
N    6.8894399519729643E-01    6.0883548367962099E+00    1.6900552086346384E+01
N   -1.5837457689641625E+00    8.3893055605299445E+00   -1.2014545141060944E-01
Ga   -1.5706366410714507E+00    1.0260307627286466E+01    5.3932302861450754E-01
N   -1.5587930740161242E+00    1.0260270530541586E+01    2.4579524464327527E+00
Ga   -1.5646293952378478E+00    8.3948367122607159E+00    3.1610529985749030E+00
N   -1.5423759691889145E+00    8.3943886528286544E+00    5.0833994333811008E+00
Ga   -1.5284892098479161E+00    1.0264116545593966E+01    5.7646863349062896E+00
N   -1.4755155287294930E+00    1.0306067464495023E+01    7.6978145641943394E+00
Ga   -1.4723823116704540E+00    8.4462246239400489E+00    8.3943853868541716E+00
N   -1.3717406457636798E+00    8.5313477655495831E+00    1.0332873823335854E+01
Ga   -1.3498724937950191E+00    1.0405295538432570E+01    1.1041510352663323E+01
N   -1.1384097154758239E+00    1.0541721206843134E+01    1.2987848038641605E+01
Ga   -1.1209058035986565E+00    8.6767315221628607E+00    1.3688756543660112E+01
N   -1.5147011320673305E+00    8.4052085549183833E+00    1.5584359986731865E+01
Ga   -2.5834237767269159E+00    9.7197421894445561E+00    1.6718906667036610E+01
N   -8.7509466142672365E-01    8.7457508944805316E+00    1.6872780017409930E+01
N    6.5187826623915877E+00   -3.4634460040331139E-03   -1.2059162511179014E-01
Ga    6.5319582032790624E+00    1.8674013343389915E+00    5.3889425098149790E-01
N    6.5437429353278862E+00    1.8669744562075505E+00    2.4575292004169458E+00
Ga    6.5378804237205914E+00    1.5769575530277813E-03    3.1607102120066384E+00
N    6.5594225764379672E+00   -7.8094749947099455E-04    5.0819861979794787E+00
Ga    6.5731832405448882E+00    1.8681918829317821E+00    5.7614274657530160E+00
N    6.6256319432138255E+00    1.9045879733277133E+00    7.6928213456110770E+00
Ga    6.6296858888228281E+00    4.7907718748204139E-02    8.3986578031056585E+00
N    6.7259431444336952E+00    1.2660925419636393E-01    1.0342314775239037E+01
Ga    6.7583681759542351E+00    2.0024855444076621E+00    1.1042316768077400E+01
N    6.9810789276519563E+00    2.1471413971040141E+00    1.2970661874963684E+01
Ga    7.0161052300555937E+00    3.1071944935683837E-01    1.3658710973545858E+01
N    6.6119918976866927E+00    7.8351848968478410E-02    1.5531297775608357E+01
Ga    5.5976878971408768E+00    1.3560056435897168E+00    1.6609087610741238E+01
N    7.2610384760366822E+00    3.8687226625833160E-01    1.7119496790394237E+01
N    4.9035987306319049E+00    2.7941480218804506E+00   -1.2070873620045157E-01
Ga    4.9167250334611792E+00    4.6651125493112051E+00    5.3916989333697074E-01
N    4.9284663388569427E+00    4.6650813350479829E+00    2.4579349615866790E+00
Ga    4.9225136709472901E+00    2.7992890298669404E+00    3.1609465156135275E+00
N    4.9439573351581672E+00    2.7974741144858197E+00    5.0826247535704612E+00
Ga    4.9575873633323413E+00    4.6670948100967324E+00    5.7602164240061473E+00
N    5.0090329167228251E+00    4.7058736098449385E+00    7.6910147640335547E+00
Ga    5.0186142442076491E+00    2.8483742927865334E+00    8.3988946634776962E+00
N    5.1187884540944530E+00    2.9310469723962091E+00    1.0343713892696183E+01
Ga    5.1405830778056121E+00    4.8140752190390890E+00    1.1045899724541112E+01
N    5.3628327367397333E+00    4.9667355136326412E+00    1.2969683804046948E+01
Ga    5.4044329390149635E+00    3.1192752184779917E+00    1.3642804219092039E+01
N    5.0042462442098632E+00    2.8824994066000782E+00    1.5512442889342186E+01
Ga    3.9798418987093198E+00    4.1211344083654140E+00    1.6592660839207941E+01
N    5.6735547888125675E+00    3.2260576693042680E+00    1.7147559259954207E+01
N    3.2883405317020515E+00    5.5918001279947802E+00   -1.2069642464749228E-01
Ga    3.3016194487838844E+00    7.4626092092566916E+00    5.3904918088217657E-01
N    3.3136094511098886E+00    7.4622696407530702E+00    2.4577452976353320E+00
Ga    3.3071630624757891E+00    5.5971452022059909E+00    3.1613164816519399E+00
N    3.3283571021578457E+00    5.5956647629616540E+00    5.0827133794921115E+00
Ga    3.3427459482081945E+00    7.4641065033050715E+00    5.7651583227731029E+00
N    3.3960138710609429E+00    7.5006631623379452E+00    7.6975521170474011E+00
Ga    3.3992391821261299E+00    5.6410592187867161E+00    8.3958242127943219E+00
N    3.4939528732853558E+00    5.7189295877838839E+00    1.0339559376398057E+01
Ga    3.5271060791647812E+00    7.6009199863666597E+00    1.1032958161229185E+01
N    3.7477564624201647E+00    7.7425126295366020E+00    1.2963133170764863E+01
Ga    3.7829411381967271E+00    5.9055957749077628E+00    1.3644484757050671E+01
N    3.3627617249148338E+00    5.6846963057602347E+00    1.5516214022916193E+01
Ga    2.3547923583284280E+00    6.9435758461570787E+00    1.6598909906925492E+01
N    4.0282465750972527E+00    5.9785597193591480E+00    1.7107801904466811E+01
N    1.6731383994336859E+00    8.3893917513095211E+00   -1.2048880164891385E-01
Ga    1.6863819556058230E+00    1.0260508120313743E+01    5.3896672235593235E-01
N    1.6984792184650859E+00    1.0260456619952990E+01    2.4577401687538556E+00
Ga    1.6921844579472964E+00    8.3945568225865124E+00    3.1607952347429760E+00
N    1.7142180625162622E+00    8.3927381056440264E+00    5.0828323275766794E+00
Ga    1.7274876233530438E+00    1.0262062897770436E+01    5.7626917419392321E+00
N    1.7803203086744654E+00    1.0302347286404681E+01    7.6946344206366017E+00
Ga    1.7854600481394396E+00    8.4438346907207471E+00    8.3980896294000331E+00
N    1.8830778850422976E+00    8.5274346575101294E+00    1.0341577341516563E+01
Ga    1.9111854953311396E+00    1.0409494612520792E+01    1.1047487153288357E+01
N    2.1310030198961849E+00    1.0561103704522823E+01    1.2972603307240362E+01
Ga    2.1757192369235034E+00    8.7130342434966082E+00    1.3635315701572051E+01
N    1.7846168589159326E+00    8.4770128255957786E+00    1.5502273626620051E+01
Ga    7.5570430690984303E-01    9.7061205632707086E+00    1.6597614410468825E+01
N    2.4147609698744454E+00    8.8060403090452120E+00    1.7160484029386019E+01
N    9.7760239109746188E+00   -3.2920268014767985E-03   -1.2043053394734211E-01
Ga    9.7889601324036466E+00    1.8672919448869227E+00    5.3962316801657351E-01
N    9.8010809267832304E+00    1.8672718859479045E+00    2.4584351098392641E+00
Ga    9.7950297898626673E+00    1.6385180753620684E-03    3.1618868486525931E+00
N    9.8174826799582657E+00    4.7999011713052703E-04    5.0838137935944969E+00
Ga    9.8334341575538140E+00    1.8720004917644595E+00    5.7593118493599835E+00
N    9.8906826016818989E+00    1.9123008372255048E+00    7.6875668346699024E+00
Ga    9.8807336953613891E+00    5.3479627172241480E-02    8.3825996135355485E+00
N    9.9725908613967515E+00    1.3775733803444379E-01    1.0317401763556528E+01
Ga    1.0008727091853194E+01    2.0110429151055480E+00    1.1034515146781978E+01
N    1.0233631980275113E+01    2.1674817622107097E+00    1.2961040266759694E+01
Ga    1.0280220033223523E+01    3.1333635600224308E-01    1.3644579071621751E+01
N    9.8820192030142255E+00    1.2600386788630788E-01    1.5547868856911013E+01
Ga    8.8379833029695121E+00    1.3314748352482830E+00    1.6787073632468672E+01
N    1.0566215697209019E+01    4.6795349734345887E-01    1.6912358083148124E+01
N    8.1608501072576640E+00    2.7941847411224523E+00   -1.2042958622539660E-01
Ga    8.1737479362085335E+00    4.6650429285586794E+00    5.3920102009899828E-01
N    8.1860334002563224E+00    4.6653331079772453E+00    2.4577685868261332E+00
Ga    8.1792142381900419E+00    2.7999205361683961E+00    3.1609150210488077E+00
N    8.2014011708710903E+00    2.7992529172323763E+00    5.0828354094490402E+00
Ga    8.2175065055967647E+00    4.6687767204261030E+00    5.7660847544023159E+00
N    8.2713873090515229E+00    4.7077614374091388E+00    7.6981805007992499E+00
Ga    8.2701620750834035E+00    2.8360253012957135E+00    8.3778296219345130E+00
N    8.3654458273722607E+00    2.9010864110201466E+00    1.0308077704385051E+01
Ga    8.3578654631893468E+00    4.7831036396646232E+00    1.0949265801339733E+01
N    8.5402333315671601E+00    4.9072779613874005E+00    1.2829369296572965E+01
Ga    8.6428515339697594E+00    3.1274035217719249E+00    1.3656757993865163E+01
N    8.3131929428339433E+00    2.8488877640128796E+00    1.5547649030068291E+01
Ga    7.2453005973373488E+00    4.1474475945136113E+00    1.6725165152852714E+01
N    8.9860132292306574E+00    3.2665411827881612E+00    1.6854770754995332E+01
N    6.5455869105747624E+00    5.5919008083192674E+00   -1.2046114631846569E-01
Ga    6.5583878499037489E+00    7.4625827349350127E+00    5.3957694452865790E-01
N    6.5703470000696997E+00    7.4627941426579154E+00    2.4584097935682836E+00
Ga    6.5646130957178110E+00    5.5969648032721748E+00    3.1615922239536292E+00
N    6.5871199170801944E+00    5.5965006866612343E+00    5.0834447325010723E+00
Ga    6.6022213197932258E+00    7.4683110218036335E+00    5.7600034500543122E+00
N    6.6591923635425418E+00    7.5108882534586217E+00    7.6879346294523012E+00
Ga    6.6463719538726211E+00    5.6496922551416233E+00    8.3723701759598406E+00
N    6.7327411238060906E+00    5.7339868320369343E+00    1.0302445044675331E+01
Ga    6.7814107178345004E+00    7.6047196284033971E+00    1.1033849135400990E+01
N    7.0044781701698682E+00    7.7597509343560080E+00    1.2961900317192152E+01
Ga    7.0605787327827336E+00    5.9019728724164784E+00    1.3625929448527927E+01
N    6.6774600262173109E+00    5.7264054378648046E+00    1.5530270528053892E+01
Ga    5.6132475685154768E+00    6.8964290723958968E+00    1.6754152249533924E+01
N    7.3740533865615374E+00    6.0774011245440676E+00    1.6862962674177329E+01
N    4.9303650835514174E+00    8.3894588943948101E+00   -1.2048305779342865E-01
Ga    4.9432672923899315E+00    1.0260385250556542E+01    5.3941037079528631E-01
N    4.9553863303389587E+00    1.0260597216662372E+01    2.4581695070232961E+00
Ga    4.9486062542654432E+00    8.3951165445262088E+00    3.1613534139106503E+00
N    4.9700389444425790E+00    8.3947257575098959E+00    5.0834145782242581E+00
Ga    4.9868920279696374E+00    1.0263928397240939E+01    5.7674957785143928E+00
N    5.0416644115316052E+00    1.0304612912110205E+01    7.6997564785423309E+00
Ga    5.0411854352415393E+00    8.4364916669330690E+00    8.3842954217966863E+00
N    5.1389496523409424E+00    8.5077467367237034E+00    1.0316579029139485E+01
Ga    5.1411884733406819E+00    1.0385035730092833E+01    1.0986382572641299E+01
N    5.3265672986981691E+00    1.0505967882507061E+01    1.2874436226937702E+01
Ga    5.4142353339854745E+00    8.7056841009193704E+00    1.3677367737888495E+01
N    5.0788147463758584E+00    8.4529452946904495E+00    1.5561154450520041E+01
Ga    3.9748572566898650E+00    9.7210246313495254E+00    1.6687861669061672E+01
N    5.7137689195921206E+00    8.8273860394544297E+00    1.6916829668265152E+01
H    1.9237761374521272E-03   -5.2677790326487416E-03   -1.1469008399538729E+00
H   -1.6132453038259493E+00    2.7919765018342582E+00   -1.1468676423386150E+00
H   -3.2285668905914515E+00    5.5900145868398790E+00   -1.1472289073846571E+00
H   -4.8438784078724977E+00    8.3873985509217164E+00   -1.1466202821954419E+00
H    3.2593769957419911E+00   -5.2390081341240373E-03   -1.1465439534878628E+00
H    1.6441765709509859E+00    2.7921311768048924E+00   -1.1468432354609912E+00
H    2.8938425154318381E-02    5.5902161329003119E+00   -1.1467380431889040E+00
H   -1.5862357609486719E+00    8.3875303429101802E+00   -1.1466537291982950E+00
H    6.5155768337104663E+00   -5.7466055043752257E-03   -1.1471612256041512E+00
H    4.9002610892107512E+00    2.7918767908665205E+00   -1.1473074792501405E+00
H    3.2851027855596708E+00    5.5899774976795662E+00   -1.1473003425967863E+00
H    1.6699833224932084E+00    8.3872481511699259E+00   -1.1471029246843190E+00
H    9.7734390682162218E+00   -5.0263243066091491E-03   -1.1469804292470775E+00
H    8.1584261608053783E+00    2.7922071143385550E+00   -1.1469950942747069E+00
H    6.5429522104372984E+00    5.5904588570602467E+00   -1.1470216867155232E+00
H    4.9279283630881485E+00    8.3875840638725325E+00   -1.1470605772781417E+00
     &END COORD
     &KIND H
       BASIS_SET DZVP-MOLOPT-SR-GTH-q1
       POTENTIAL GTH-PBE-q1
       &POTENTIAL
 1
  0.2000000000000000E+00 2 -0.4178900440000000E+01  0.7244633100000000E+00
 0
         # Potential name:  GTH-PBE-Q1  for symbol:  H
         # Potential read from the potential filename: GTH_POTENTIALS
       &END POTENTIAL
     &END KIND
     &KIND N
       BASIS_SET DZVP-MOLOPT-SR-GTH
       POTENTIAL GTH-PBE-q5
       &POTENTIAL
 2 3
  0.2837905100000000E+00 2 -0.1241522559000000E+02  0.1868095920000000E+01
 2
  0.2554050000000000E+00 1  0.1363026257000000E+02
  0.2454945300000000E+00 0
         # Potential name:  GTH-PBE-Q5  for symbol:  N
         # Potential read from the potential filename: GTH_POTENTIALS
       &END POTENTIAL
     &END KIND
     &KIND Ga
       BASIS_SET DZVP-MOLOPT-SR-GTH
       POTENTIAL GTH-PBE-q13
       &POTENTIAL
 2 1 10
  0.4900000000000000E+00 0
 3
  0.4167772300000000E+00 3  0.1047568975000000E+02 -0.4921768140000000E+01  0.8707055900000000E+00
  0.7770178090000000E+01 -0.2248152160000000E+01
  0.1784415450000000E+01
  0.5696265200000000E+00 2  0.1777985340000000E+01  0.1958597600000000E+00
 -0.2317443900000000E+00
  0.2381265000000000E+00 1 -0.1624868022000000E+02
         # Potential name:  GTH-PBE-Q13  for symbol:  GA
         # Potential read from the potential filename: GTH_POTENTIALS
       &END POTENTIAL
     &END KIND
     &TOPOLOGY
       NUMBER_OF_ATOMS  256
       MULTIPLE_UNIT_CELL  1 1 1
     &END TOPOLOGY
   &END SUBSYS
 &END FORCE_EVAL
