 # Version information for this restart file 
 # current date 2019-06-10 16:09:29.664
 # current working dir /lustre03/project/6037349/rzk/GaN-carbene/444-addat/00-Surface/RKS
 # Program compiled at                              Sun Apr  7 00:48:11 EDT 2019
 # Program compiled on                          beluga2.int.ets1.calculquebec.ca
 # Program compiled for                        Beluga-Linux-x86-64-intel-openmpi
 # Source code revision number                                         svn:18619
 &GLOBAL
   PRINT_LEVEL  MEDIUM
   PROJECT_NAME TEST
   RUN_TYPE  CELL_OPT
 &END GLOBAL
 &MOTION
   &CELL_OPT
     MAX_ITER  300
     STEP_START_VAL  55
     EXTERNAL_PRESSURE     1.0000000000000000E+00
     KEEP_ANGLES  T
     KEEP_SYMMETRY  T
     CONSTRAINT  Z
     PRESSURE_TOLERANCE     5.0000000000000000E+02
   &END CELL_OPT
 &END MOTION
 &FORCE_EVAL
   METHOD  QS
   STRESS_TENSOR  ANALYTICAL
   &DFT
     BASIS_SET_FILE_NAME BASIS_MOLOPT
     POTENTIAL_FILE_NAME GTH_POTENTIALS
     SURFACE_DIPOLE_CORRECTION  T
     SURF_DIP_DIR  Z
     &SCF
       MAX_SCF  100
       EPS_SCF     5.0000000000000004E-06
       &OT  T
         PRECONDITIONER  FULL_ALL
       &END OT
       &OUTER_SCF  T
         OPTIMIZER  NONE
         EPS_SCF     5.0000000000000004E-06
         MAX_SCF  4
       &END OUTER_SCF
       &PRINT
         &RESTART  OFF
           BACKUP_COPIES  1
           &EACH
             JUST_ENERGY  0
             QS_SCF  0
             MD  20
           &END EACH
         &END RESTART
       &END PRINT
     &END SCF
     &QS
       EPS_DEFAULT     1.0000000000000000E-14
       METHOD  GPW
     &END QS
     &MGRID
       NGRIDS  5
       CUTOFF     1.2000000000000000E+03
     &END MGRID
     &XC
       DENSITY_CUTOFF     1.0000000000000000E-10
       GRADIENT_CUTOFF     1.0000000000000000E-10
       TAU_CUTOFF     1.0000000000000000E-10
       &XC_FUNCTIONAL  NO_SHORTCUT
         &PBE  T
         &END PBE
       &END XC_FUNCTIONAL
       &VDW_POTENTIAL
         POTENTIAL_TYPE  PAIR_POTENTIAL
         &PAIR_POTENTIAL
           R_CUTOFF     1.0000000000000004E+01
           TYPE  DFTD3
           PARAMETER_FILE_NAME dftd3.dat
           REFERENCE_FUNCTIONAL PBE
           EPS_CN     9.9999999999999995E-07
           CALCULATE_C9_TERM  T
           REFERENCE_C9_TERM  T
           LONG_RANGE_CORRECTION  F
           VERBOSE_OUTPUT  F
         &END PAIR_POTENTIAL
       &END VDW_POTENTIAL
     &END XC
   &END DFT
   &SUBSYS
     &CELL
       A     1.3017647061997096E+01    0.0000000000000000E+00    0.0000000000000000E+00
       B    -6.4473104100615659E+00    1.1167069202394345E+01    0.0000000000000000E+00
       C     0.0000000000000000E+00    0.0000000000000000E+00    3.2000000000000000E+01
       MULTIPLE_UNIT_CELL  1 1 1
       &CELL_REF
         A     1.2982353780853531E+01    0.0000000000000000E+00    0.0000000000000000E+00
         B    -6.4911768904267628E+00    1.1243048175136114E+01    0.0000000000000000E+00
         C     0.0000000000000000E+00    0.0000000000000000E+00    3.2000000000000000E+01
         MULTIPLE_UNIT_CELL  1 1 1
       &END CELL_REF
     &END CELL
     &COORD
N    1.1956000247292396E-02   -4.7688310555403287E-03   -1.4755919866938810E-01
Ga    2.8070892605236267E-02    1.8635947423981862E+00    5.1220328973899754E-01
N    4.9489965230494343E-02    1.8723203216211399E+00    2.4365497753594063E+00
Ga    3.9528681935551827E-02    7.7126603477814396E-03    3.1621186404070665E+00
N    7.5071124415201709E-02    2.1706948663405688E-02    5.0977689875619987E+00
Ga    9.6270925635810065E-02    1.8941081584577868E+00    5.7802724207999070E+00
N    1.7815760298430741E-01    1.9564287441937462E+00    7.7106947284083498E+00
Ga    1.7492843935821722E-01    9.7096034829126029E-02    8.3998313410236083E+00
N    3.0406174371248884E-01    1.8099909940562114E-01    1.0325667474481522E+01
Ga    3.3550849488747359E-01    2.0544996165623459E+00    1.1016764144745942E+01
N    4.8051725747115881E-01    2.1466548599592001E+00    1.2944789142664213E+01
Ga    4.3835787271877258E-01    2.7937866268749989E-01    1.3599216557164342E+01
N   -1.1907720198076223E-01   -5.7014725481961445E-02    1.5333078761515036E+01
Ga   -8.3975503023990516E-01    1.0998813469943858E+00    1.6701551221190478E+01
N    5.6141658842182207E-01    3.2269292340795169E-01    1.7872506595341321E+01
N   -1.5998267444320136E+00    2.7869233507441495E+00   -1.4686545371977680E-01
Ga   -1.5841638000765421E+00    4.6558476610248283E+00    5.1195636608458783E-01
N   -1.5633524095182381E+00    4.6653384879197217E+00    2.4360349731904396E+00
Ga   -1.5713456339803453E+00    2.8001070215195210E+00    3.1575460427984576E+00
N   -1.5352529586817336E+00    2.8146715507125717E+00    5.0914085454443629E+00
Ga   -1.5138682748636689E+00    4.6846739924208629E+00    5.7806768730967226E+00
N   -1.4301595455880083E+00    4.7464007679428741E+00    7.7110273429298726E+00
Ga   -1.4390098215647322E+00    2.8836197174329317E+00    8.4006423245495405E+00
N   -1.3046924969179696E+00    2.9712334463382257E+00    1.0334069559750114E+01
Ga   -1.2869268917576382E+00    4.8555467887001704E+00    1.1027499123180588E+01
N   -1.1588207003123459E+00    4.9614144811483127E+00    1.2962937934209048E+01
Ga   -1.1211139036366997E+00    3.0970227837590891E+00    1.3631272900218413E+01
N   -1.6016045383716604E+00    2.6465212066643171E+00    1.5466863302257813E+01
Ga   -2.6456759846651785E+00    4.3751793590577135E+00    1.6761815712396000E+01
N   -1.1389955088613346E+00    3.0935707341368937E+00    1.6759249445857211E+01
N   -3.2116118313088946E+00    5.5787031452443694E+00   -1.4814097791881203E-01
Ga   -3.1956530531528187E+00    7.4471002559697004E+00    5.1164782465877623E-01
N   -3.1743460372799337E+00    7.4560617066519770E+00    2.4358203625658668E+00
Ga   -3.1843487851423076E+00    5.5914809827175693E+00    3.1613800623046475E+00
N   -3.1486889307606143E+00    5.6059859072619229E+00    5.0969438482893166E+00
Ga   -3.1281610669593376E+00    7.4793922317802419E+00    5.7786232681404348E+00
N   -3.0467679642508227E+00    7.5427533711572368E+00    7.7067670084012523E+00
Ga   -3.0497047401877735E+00    5.6790808909312345E+00    8.3881780470666989E+00
N   -2.9181905893194893E+00    5.7659357686961190E+00    1.0316036521263330E+01
Ga   -2.8915162114231743E+00    7.6290440339331402E+00    1.1028354522789632E+01
N   -2.7509480997156741E+00    7.7234844421865985E+00    1.2966818029521956E+01
Ga   -2.7862636465104997E+00    5.8608388122349346E+00    1.3661552684949189E+01
N   -3.3090593071253891E+00    5.5419243883041629E+00    1.5390996930840126E+01
Ga   -3.9792709641160520E+00    6.6931194082107375E+00    1.6762326707900584E+01
N   -2.6660953970661039E+00    5.9022250931900793E+00    1.8045433586647295E+01
N   -4.8235749684288081E+00    8.3705329986879455E+00   -1.4687184355476221E-01
Ga   -4.8077528279444754E+00    1.0239484790785983E+01    5.1231413893296429E-01
N   -4.7868559878446302E+00    1.0249392325872023E+01    2.4364292085127568E+00
Ga   -4.7947575883398805E+00    8.3843355093825966E+00    3.1572924171126981E+00
N   -4.7585578689007662E+00    8.4001454607590826E+00    5.0909863957120285E+00
Ga   -4.7381252037978658E+00    1.0269674435926694E+01    5.7855936137750135E+00
N   -4.6558520642608174E+00    1.0332609728238594E+01    7.7168672091862209E+00
Ga   -4.6636098700954891E+00    8.4669074604572696E+00    8.3988933815507387E+00
N   -4.5276039158612420E+00    8.5529416029854772E+00    1.0331270066465159E+01
Ga   -4.5010990091426715E+00    1.0436694459810196E+01    1.1011917823815285E+01
N   -4.3728767816635692E+00    1.0549044680247643E+01    1.2941327847380524E+01
Ga   -4.3518895735263365E+00    8.6966874362252042E+00    1.3631055426821982E+01
N   -4.9715953638138046E+00    8.4963882652801068E+00    1.5470626522123480E+01
Ga   -5.9243725776818037E+00    9.9021479254791149E+00    1.6695905860086565E+01
N   -4.3531231059160760E+00    8.6516393508491412E+00    1.6766251541115235E+01
N    3.2662846156980252E+00   -4.7006071559125978E-03   -1.4758962485704372E-01
Ga    3.2818847709705792E+00    1.8637324103324096E+00    5.1218095312717526E-01
N    3.3019527829620321E+00    1.8726040905613253E+00    2.4362355415104888E+00
Ga    3.2934071761787411E+00    8.4493833339519125E-03    3.1621978700473337E+00
N    3.3291936569636493E+00    2.3463349095720461E-02    5.0977618704757370E+00
Ga    3.3499510250290090E+00    1.8931778845637555E+00    5.7869913415193999E+00
N    3.4284454646570102E+00    1.9539899001607308E+00    7.7199104356618919E+00
Ga    3.4369932540237742E+00    9.9008578576495837E-02    8.4218493652054693E+00
N    3.5723976503006374E+00    1.8452311463277105E-01    1.0358836016950347E+01
Ga    3.5906566110001630E+00    2.0516758836354545E+00    1.1069457868174123E+01
N    3.7333651729686546E+00    2.1465217076564831E+00    1.3005562765516224E+01
Ga    3.6995203500797347E+00    3.0063004522057263E-01    1.3708587514169423E+01
N    3.1434481988690415E+00    1.3287560053184292E-02    1.5565594128828877E+01
Ga    2.0498981989150873E+00    1.1731129098163884E+00    1.7162589738943296E+01
N    3.7796868483615906E+00    3.7452485812529568E-01    1.6932947770004265E+01
N    1.6545074047023469E+00    2.7869201479691408E+00   -1.4755302776943643E-01
Ga    1.6699052543583353E+00    4.6553126526027624E+00    5.1245841650146673E-01
N    1.6899195787248227E+00    4.6639454595642649E+00    2.4366431499753518E+00
Ga    1.6820968569140302E+00    2.7993385560333919E+00    3.1625097137214535E+00
N    1.7184244383784990E+00    2.8140053219143955E+00    5.0980039637414887E+00
Ga    1.7371900602747419E+00    4.6858067399094452E+00    5.7836453292517094E+00
N    1.8159784880856589E+00    4.7457264813090854E+00    7.7184174307553839E+00
Ga    1.8214097639899796E+00    2.8890715211982818E+00    8.4214391411936749E+00
N    1.9574809733045300E+00    2.9747996262899958E+00    1.0361668141811103E+01
Ga    1.9658426743827404E+00    4.8471323389527061E+00    1.1077853795877587E+01
N    2.0820202281123974E+00    4.9481861058485697E+00    1.3031071540052826E+01
Ga    2.1075186188398756E+00    3.0641625005841466E+00    1.3698600522915680E+01
N    1.5707799128524615E+00    2.6987277385066193E+00    1.5552684404762466E+01
Ga    5.3108944754156406E-01    3.9943068168293396E+00    1.6610163887658199E+01
N    2.2121205255768097E+00    3.0771109210132468E+00    1.6942565013307522E+01
N    4.2602239908556237E-02    5.5788300998477363E+00   -1.4775865215729220E-01
Ga    5.8143684249465429E-02    7.4472612261393341E+00    5.1241672717494013E-01
N    7.8412341615583858E-02    7.4564555600735041E+00    2.4364625335569357E+00
Ga    6.9651524956292205E-02    5.5919290928737393E+00    3.1605187413521953E+00
N    1.0550007381348563E-01    5.6071308566762195E+00    5.0957008235164079E+00
Ga    1.2642799843461577E-01    7.4768733425914888E+00    5.7862422624842065E+00
N    2.0681905848842150E-01    7.5370087834778383E+00    7.7200848617385622E+00
Ga    2.1171937484001974E-01    5.6798154585953737E+00    8.4202187240062329E+00
N    3.4258625378025964E-01    5.7638674085572710E+00    1.0359518051501896E+01
Ga    3.7190053327214773E-01    7.6365883291195766E+00    1.1059410219908246E+01
N    5.0742931041364170E-01    7.7331604504920506E+00    1.2995623614532605E+01
Ga    4.6634890467406936E-01    5.8950970431711838E+00    1.3704703782165350E+01
N   -8.7553001256880994E-02    5.5938812338389194E+00    1.5566988366257169E+01
Ga   -1.1303927405673873E+00    6.7847104891142296E+00    1.7577014365920455E+01
N    4.9015079879731199E-01    5.9806475178867169E+00    1.6858072330780114E+01
N   -1.5691196594726247E+00    8.3703135583467958E+00   -1.4799808718168861E-01
Ga   -1.5537551961474669E+00    1.0238868546249025E+01    5.1214629912200460E-01
N   -1.5338386515419442E+00    1.0247828113230087E+01    2.4363918687660839E+00
Ga   -1.5419012073762925E+00    8.3834315853464361E+00    3.1617670949007457E+00
N   -1.5055072951355846E+00    8.3988036129696635E+00    5.0974105443324360E+00
Ga   -1.4864560212677727E+00    1.0270107949593237E+01    5.7841552869221227E+00
N   -1.4073798556428680E+00    1.0330846639666849E+01    7.7178247322771982E+00
Ga   -1.4036962224201250E+00    8.4728961629968964E+00    8.4191811358583788E+00
N   -1.2715990568744104E+00    8.5550627876636458E+00    1.0362060744007101E+01
Ga   -1.2528178734431537E+00    1.0427299242541617E+01    1.1079119117029192E+01
N   -1.1333103383600265E+00    1.0521581800360662E+01    1.3030370087426874E+01
Ga   -1.1140666957319802E+00    8.6403040307796051E+00    1.3686831930472506E+01
N   -1.6427123647050847E+00    8.2806012910480771E+00    1.5553209878607937E+01
Ga   -2.7165978013402370E+00    9.5961314684553809E+00    1.6617792722699122E+01
N   -1.0251577625648920E+00    8.5917363878968320E+00    1.6844163364595037E+01
N    6.5205151183172614E+00   -5.1038009247088498E-03   -1.4746138959160471E-01
Ga    6.5362961617955690E+00    1.8636311593921167E+00    5.1166978263405805E-01
N    6.5564169839993207E+00    1.8721593827969631E+00    2.4352662044957838E+00
Ga    6.5471800542741878E+00    7.1117259547052733E-03    3.1596914847564066E+00
N    6.5811790308169646E+00    2.0950895389494451E-02    5.0944666507161358E+00
Ga    6.5985556491713542E+00    1.8894093476922746E+00    5.7834855635305980E+00
N    6.6733086909755839E+00    1.9452589071063391E+00    7.7159220986188926E+00
Ga    6.6743814252861906E+00    9.0761065602467023E-02    8.4278961822400689E+00
N    6.7985600337364804E+00    1.7171386279892245E-01    1.0365058010889831E+01
Ga    6.8474110955339107E+00    2.0527060615068833E+00    1.1043648010939902E+01
N    7.0033768363920910E+00    2.1529706904572499E+00    1.2979573896485222E+01
Ga    6.9975886752161376E+00    3.0633431211333240E-01    1.3669387246258635E+01
N    6.4390572186813460E+00   -3.2967457986791522E-02    1.5502759249749655E+01
Ga    5.4151653563728770E+00    1.2600522051426493E+00    1.6606902516455907E+01
N    7.0875788669431445E+00    3.4087729404481770E-01    1.7103645218119070E+01
N    4.9085775662379003E+00    2.7867337686759854E+00   -1.4764155906353302E-01
Ga    4.9245911707707819E+00    4.6552538037890647E+00    5.1204013786888702E-01
N    4.9447109805719647E+00    4.6637984471677321E+00    2.4354721096046257E+00
Ga    4.9352578060564580E+00    2.7986814000572533E+00    3.1590684287125548E+00
N    4.9694634608113235E+00    2.8125653854532850E+00    5.0944565787637082E+00
Ga    4.9862108918665617E+00    4.6828438814774174E+00    5.7850008235699253E+00
N    5.0582470436442932E+00    4.7441789331354443E+00    7.7194397880888328E+00
Ga    5.0673184801155369E+00    2.8848190461951315E+00    8.4227006109152960E+00
N    5.1967656445329506E+00    2.9675601285239246E+00    1.0360448986869665E+01
Ga    5.2297066831394856E+00    4.8563961703520349E+00    1.1034960113885457E+01
N    5.3681041439255086E+00    4.9671963317356553E+00    1.2973298360308450E+01
Ga    5.4054790048143211E+00    3.1144413981463002E+00    1.3659232155011358E+01
N    4.8803547539660279E+00    2.7936812673049132E+00    1.5486026833201379E+01
Ga    3.8202906755311998E+00    4.0309917242345099E+00    1.6617532865644076E+01
N    5.4964968481614367E+00    3.1548192885273321E+00    1.7074515624946699E+01
N    3.2968225224464063E+00    5.5784793451195762E+00   -1.4712146784041208E-01
Ga    3.3127782461280457E+00    7.4471892611255752E+00    5.1192565730068507E-01
N    3.3332045769376872E+00    7.4560805033554933E+00    2.4357422209675796E+00
Ga    3.3236666207252581E+00    5.5907903689155294E+00    3.1593830492174853E+00
N    3.3574969391371665E+00    5.6045037825587194E+00    5.0938673214185144E+00
Ga    3.3760952391173622E+00    7.4726298574680090E+00    5.7838887517047706E+00
N    3.4525749055442092E+00    7.5289024462839027E+00    7.7164123088560581E+00
Ga    3.4491225309843037E+00    5.6750335527248756E+00    8.4316542942501851E+00
N    3.5723998640675210E+00    5.7558155929060506E+00    1.0366894725325327E+01
Ga    3.6265216667080207E+00    7.6353657781445943E+00    1.1044773639979532E+01
N    3.7810268206384574E+00    7.7367656346720590E+00    1.2975423310678641E+01
Ga    3.7701717109851542E+00    5.8923242242249003E+00    1.3669457978822066E+01
N    3.2140643901705737E+00    5.5364784211517160E+00    1.5499179078435182E+01
Ga    2.1881517099908594E+00    6.8389529674990515E+00    1.6566197605121342E+01
N    3.8673224774498052E+00    5.9242933145875130E+00    1.7103719721885540E+01
N    1.6850158952064320E+00    8.3702061071781060E+00   -1.4716102913631016E-01
Ga    1.7009071804214277E+00    1.0238917892732937E+01    5.1187446328237740E-01
N    1.7214000025561542E+00    1.0247641958593176E+01    2.4356956171259432E+00
Ga    1.7119297454410904E+00    8.3826360319138988E+00    3.1602254808256562E+00
N    1.7463961996884134E+00    8.3972129105136251E+00    5.0958769826237900E+00
Ga    1.7632815920842235E+00    1.0267539797466000E+01    5.7849393272226477E+00
N    1.8379436810888614E+00    1.0328561275076936E+01    7.7184772399763659E+00
Ga    1.8480584004754981E+00    8.4700670985140842E+00    8.4199653581389491E+00
N    1.9806027784173361E+00    8.5531738460212932E+00    1.0357602154971914E+01
Ga    2.0078623473838033E+00    1.0440357106958711E+01    1.1039336003121813E+01
N    2.1484368874462501E+00    1.0552461036804319E+01    1.2974564792609010E+01
Ga    2.1896910561393681E+00    8.6995827166196946E+00    1.3644874383367565E+01
N    1.6501361268708334E+00    8.3719765945950044E+00    1.5462401419702202E+01
Ga    5.8405684380136758E-01    9.6044034839183041E+00    1.6567941139573644E+01
N    2.2442069339325976E+00    8.7254743946424007E+00    1.7091724615720782E+01
N    9.7752543240549929E+00   -4.6203049836425142E-03   -1.4719822362729301E-01
Ga    9.7907452049636507E+00    1.8637722831929562E+00    5.1308155612090300E-01
N    9.8116304830258088E+00    1.8725894661657412E+00    2.4368887074054388E+00
Ga    9.8014345501300486E+00    6.6013844131740801E-03    3.1588797698939288E+00
N    9.8345998115215565E+00    1.9415521306523340E-02    5.0930786570316089E+00
Ga    9.8588927869266652E+00    1.8919688686150489E+00    5.7693764628516275E+00
N    9.9394991344575647E+00    1.9509066728493756E+00    7.6963607925130244E+00
Ga    9.9268854161081279E+00    9.5680091264959188E-02    8.3917278962784092E+00
N    1.0052382573947892E+01    1.8562962541256708E-01    1.0314951961122835E+01
Ga    1.0099895314971571E+01    2.0507900895853717E+00    1.1020679894892652E+01
N    1.0253387541291225E+01    2.1541070120446921E+00    1.2943533704505279E+01
Ga    1.0277094578492866E+01    3.0916549628300694E-01    1.3660887970079640E+01
N    9.7684309354221259E+00    7.0290318105751667E-03    1.5517651681032714E+01
Ga    8.6952237967189490E+00    1.2440269485369073E+00    1.6774319480223930E+01
N    1.0410646258301060E+01    3.6300178785672427E-01    1.6876911781843610E+01
N    8.1634609216430043E+00    2.7868977944802875E+00   -1.4747369091230869E-01
Ga    8.1791664990599493E+00    4.6555890212074500E+00    5.1181903741560286E-01
N    8.2002366383605789E+00    4.6646694503934265E+00    2.4359796611933677E+00
Ga    8.1889257068255628E+00    2.7991005741082451E+00    3.1596264506259319E+00
N    8.2222550452396135E+00    2.8109914136525931E+00    5.0938937334453511E+00
Ga    8.2429119031093823E+00    4.6830660613966106E+00    5.7760655193983661E+00
N    8.3180077836932274E+00    4.7417332432325283E+00    7.7062665926117724E+00
Ga    8.3214554871745818E+00    2.8735284578470841E+00    8.3894113005725846E+00
N    8.4539904626981777E+00    2.9500433039788203E+00    1.0317159334271985E+01
Ga    8.4696881181486461E+00    4.8395454199249848E+00    1.0973418633387441E+01
N    8.5951909737511265E+00    4.9426813476691862E+00    1.2865870875107923E+01
Ga    8.6664172512338009E+00    3.1229011483072964E+00    1.3628892787849136E+01
N    8.1966080295919390E+00    2.8112460375145112E+00    1.5516947150331625E+01
Ga    7.0911084405624578E+00    4.0358803284905891E+00    1.6706339973048181E+01
N    8.8426827260162977E+00    3.1693942439198648E+00    1.6879325898258568E+01
N    6.5515452133964578E+00    5.5788950739404912E+00   -1.4745304236743811E-01
Ga    6.5671192620315155E+00    7.4472661999570171E+00    5.1303065710500362E-01
N    6.5878122993569210E+00    7.4565687984445397E+00    2.4369836721305687E+00
Ga    6.5777219011568153E+00    5.5898776425912891E+00    3.1591272420333674E+00
N    6.6101946678170957E+00    5.6030206867236076E+00    5.0927349824012200E+00
Ga    6.6352792405316325E+00    7.4766238872542674E+00    5.7665115239389175E+00
N    6.7141473079215448E+00    7.5370855967296384E+00    7.6937480973999914E+00
Ga    6.7024119600922090E+00    5.6804878556227880E+00    8.3927466020679447E+00
N    6.8288979484235988E+00    5.7697724453548824E+00    1.0315579317786719E+01
Ga    6.8736296708478024E+00    7.6377889300655362E+00    1.1019748119836569E+01
N    7.0313236845519462E+00    7.7432063904687860E+00    1.2943502275501947E+01
Ga    7.0548649440918965E+00    5.8888599376555302E+00    1.3636220557779549E+01
N    6.5794461285783239E+00    5.6151291264685472E+00    1.5515415927405279E+01
Ga    5.4722219480413621E+00    6.8241715170439061E+00    1.6758890589560771E+01
N    7.2254545500043834E+00    5.9870594550236715E+00    1.6856245512683852E+01
N    4.9397863699705695E+00    8.3704841448913392E+00   -1.4712595905655171E-01
Ga    4.9555183456482235E+00    1.0239065584866564E+01    5.1235590279529042E-01
N    4.9763401185182747E+00    1.0248178480092987E+01    2.4365336624927130E+00
Ga    4.9653426589036247E+00    8.3829289819490764E+00    3.1596746104904514E+00
N    4.9985791277177203E+00    8.3963539371396241E+00    5.0936707887738804E+00
Ga    5.0204026264481021E+00    1.0267620318517995E+01    5.7788892556439295E+00
N    5.0966190497624373E+00    1.0325856180746085E+01    7.7103756872403375E+00
Ga    5.0982204632546813E+00    8.4569323486621766E+00    8.3884651841156774E+00
N    5.2296309558141791E+00    8.5335279444098759E+00    1.0314797636419430E+01
Ga    5.2391159572550299E+00    1.0418471105690699E+01    1.0962228228282180E+01
N    5.3606474002333568E+00    1.0524101051340006E+01    1.2863397048944945E+01
Ga    5.4425747632222086E+00    8.7063919719246421E+00    1.3656573193893587E+01
N    4.9289740465984746E+00    8.3585491185361906E+00    1.5499814662839288E+01
Ga    3.8378988286536035E+00    9.5958220339761322E+00    1.6719471384620753E+01
N    5.5581070306945177E+00    8.7428500638890352E+00    1.6885199142299886E+01
H    9.1758207999683306E-03   -5.7627239647231147E-03   -1.1735745448748092E+00
H   -1.6027156120801687E+00    2.7861617159680812E+00   -1.1729195381790767E+00
H   -3.2140415376429305E+00    5.5778013531552926E+00   -1.1741386102227740E+00
H   -4.8265451232927035E+00    8.3698168428798958E+00   -1.1729296288577764E+00
H    3.2640102506305686E+00   -5.2630152206574110E-03   -1.1735921537687755E+00
H    1.6523685093869778E+00    2.7866123077288441E+00   -1.1735499906595044E+00
H    4.0605707269177747E-02    5.5780663715229917E+00   -1.1737730131903046E+00
H   -1.5711890383625400E+00    8.3698384135649047E+00   -1.1739982568196896E+00
H    6.5182332353229988E+00   -5.9449630501300721E-03   -1.1734620629107262E+00
H    4.9059986848867023E+00    2.7862512031753051E+00   -1.1736154740061697E+00
H    3.2942966777309732E+00    5.5777833138995385E+00   -1.1731178655910044E+00
H    1.6826487208950567E+00    8.3696595640802549E+00   -1.1731575700734074E+00
H    9.7728966134466067E+00   -5.1878203684431962E-03   -1.1732208616575430E+00
H    8.1613355301696391E+00    2.7859925566188548E+00   -1.1734887900820030E+00
H    6.5488049026213888E+00    5.5785169581168885E+00   -1.1734789040849458E+00
H    4.9374627961704816E+00    8.3699163301519892E+00   -1.1731305126189406E+00
     &END COORD
     &KIND H
       BASIS_SET DZVP-MOLOPT-SR-GTH-q1
       POTENTIAL GTH-PBE-q1
       &POTENTIAL
 1
  0.2000000000000000E+00 2 -0.4178900440000000E+01  0.7244633100000000E+00
 0
         # Potential name:  GTH-PBE-Q1  for symbol:  H
         # Potential read from the potential filename: GTH_POTENTIALS
       &END POTENTIAL
     &END KIND
     &KIND N
       BASIS_SET DZVP-MOLOPT-SR-GTH
       POTENTIAL GTH-PBE-q5
       &POTENTIAL
 2 3
  0.2837905100000000E+00 2 -0.1241522559000000E+02  0.1868095920000000E+01
 2
  0.2554050000000000E+00 1  0.1363026257000000E+02
  0.2454945300000000E+00 0
         # Potential name:  GTH-PBE-Q5  for symbol:  N
         # Potential read from the potential filename: GTH_POTENTIALS
       &END POTENTIAL
     &END KIND
     &KIND Ga
       BASIS_SET DZVP-MOLOPT-SR-GTH
       POTENTIAL GTH-PBE-q13
       &POTENTIAL
 2 1 10
  0.4900000000000000E+00 0
 3
  0.4167772300000000E+00 3  0.1047568975000000E+02 -0.4921768140000000E+01  0.8707055900000000E+00
  0.7770178090000000E+01 -0.2248152160000000E+01
  0.1784415450000000E+01
  0.5696265200000000E+00 2  0.1777985340000000E+01  0.1958597600000000E+00
 -0.2317443900000000E+00
  0.2381265000000000E+00 1 -0.1624868022000000E+02
         # Potential name:  GTH-PBE-Q13  for symbol:  GA
         # Potential read from the potential filename: GTH_POTENTIALS
       &END POTENTIAL
     &END KIND
     &TOPOLOGY
       NUMBER_OF_ATOMS  256
       MULTIPLE_UNIT_CELL  1 1 1
     &END TOPOLOGY
   &END SUBSYS
 &END FORCE_EVAL
