 # Version information for this restart file 
 # current date 2019-06-10 23:15:02.091
 # current working dir /lustre03/project/6037349/rzk/GaN-carbene/444-addat/00-Surface/RKS
 # Program compiled at                              Sun Apr  7 00:48:11 EDT 2019
 # Program compiled on                          beluga2.int.ets1.calculquebec.ca
 # Program compiled for                        Beluga-Linux-x86-64-intel-openmpi
 # Source code revision number                                         svn:18619
 &GLOBAL
   PRINT_LEVEL  MEDIUM
   PROJECT_NAME TEST
   RUN_TYPE  CELL_OPT
 &END GLOBAL
 &MOTION
   &CELL_OPT
     MAX_ITER  300
     STEP_START_VAL  68
     EXTERNAL_PRESSURE     1.0000000000000000E+00
     KEEP_ANGLES  T
     KEEP_SYMMETRY  T
     CONSTRAINT  Z
     PRESSURE_TOLERANCE     5.0000000000000000E+02
   &END CELL_OPT
 &END MOTION
 &FORCE_EVAL
   METHOD  QS
   STRESS_TENSOR  ANALYTICAL
   &DFT
     BASIS_SET_FILE_NAME BASIS_MOLOPT
     POTENTIAL_FILE_NAME GTH_POTENTIALS
     SURFACE_DIPOLE_CORRECTION  T
     SURF_DIP_DIR  Z
     &SCF
       MAX_SCF  100
       EPS_SCF     5.0000000000000004E-06
       &OT  T
         PRECONDITIONER  FULL_ALL
       &END OT
       &OUTER_SCF  T
         OPTIMIZER  NONE
         EPS_SCF     5.0000000000000004E-06
         MAX_SCF  4
       &END OUTER_SCF
       &PRINT
         &RESTART  OFF
           BACKUP_COPIES  1
           &EACH
             JUST_ENERGY  0
             QS_SCF  0
             MD  20
           &END EACH
         &END RESTART
       &END PRINT
     &END SCF
     &QS
       EPS_DEFAULT     1.0000000000000000E-14
       METHOD  GPW
     &END QS
     &MGRID
       NGRIDS  5
       CUTOFF     1.2000000000000000E+03
     &END MGRID
     &XC
       DENSITY_CUTOFF     1.0000000000000000E-10
       GRADIENT_CUTOFF     1.0000000000000000E-10
       TAU_CUTOFF     1.0000000000000000E-10
       &XC_FUNCTIONAL  NO_SHORTCUT
         &PBE  T
         &END PBE
       &END XC_FUNCTIONAL
       &VDW_POTENTIAL
         POTENTIAL_TYPE  PAIR_POTENTIAL
         &PAIR_POTENTIAL
           R_CUTOFF     1.0000000000000005E+01
           TYPE  DFTD3
           PARAMETER_FILE_NAME dftd3.dat
           REFERENCE_FUNCTIONAL PBE
           EPS_CN     9.9999999999999995E-07
           CALCULATE_C9_TERM  T
           REFERENCE_C9_TERM  T
           LONG_RANGE_CORRECTION  F
           VERBOSE_OUTPUT  F
         &END PAIR_POTENTIAL
       &END VDW_POTENTIAL
     &END XC
   &END DFT
   &SUBSYS
     &CELL
       A     1.3030381407960094E+01    0.0000000000000000E+00    0.0000000000000000E+00
       B    -6.4471625913246671E+00    1.1166813172831747E+01    0.0000000000000000E+00
       C     0.0000000000000000E+00    0.0000000000000000E+00    3.2000000000000000E+01
       MULTIPLE_UNIT_CELL  1 1 1
       &CELL_REF
         A     1.2982353780853531E+01    0.0000000000000000E+00    0.0000000000000000E+00
         B    -6.4911768904267628E+00    1.1243048175136114E+01    0.0000000000000000E+00
         C     0.0000000000000000E+00    0.0000000000000000E+00    3.2000000000000000E+01
         MULTIPLE_UNIT_CELL  1 1 1
       &END CELL_REF
     &END CELL
     &COORD
N    2.8081450700976410E-02    8.5921013163274649E-04   -1.4434773294928477E-01
Ga    4.7228633730809308E-02    1.8724403017040974E+00    5.2277213085342300E-01
N    7.8454578063705274E-02    1.8928349281966839E+00    2.4449759973627105E+00
Ga    6.9091829969932336E-02    2.9616297780191921E-02    3.1498660708056185E+00
N    1.2118388255068029E-01    5.9411205705205902E-02    5.0797729342749633E+00
Ga    1.4196447657234554E-01    1.9316670980375090E+00    5.7765380403404318E+00
N    2.2489253688549724E-01    1.9863321803404421E+00    7.7127917961639820E+00
Ga    2.2472060111386793E-01    1.2673012097132577E-01    8.3943002882158506E+00
N    2.9926565643855024E-01    1.7503050089112981E-01    1.0325727041058114E+01
Ga    3.2722255585957327E-01    2.0509725402379293E+00    1.1018967080448446E+01
N    4.1407218184472289E-01    2.0970486553976611E+00    1.2951945831584373E+01
Ga    3.4969086446611625E-01    2.1838923227284587E-01    1.3584768320141480E+01
N   -2.2210973882392268E-01   -1.1702180687865396E-01    1.5312788074191641E+01
Ga   -8.4038683213936127E-01    1.0492146657751686E+00    1.6718290422433906E+01
N    4.9730730693140157E-01    2.7759631664983292E-01    1.7991597176504303E+01
N   -1.5836214795680710E+00    2.7925616031193354E+00   -1.4411976838294974E-01
Ga   -1.5642959557771674E+00    4.6642976765903228E+00    5.2387371037262875E-01
N   -1.5332748032991019E+00    4.6846432806206524E+00    2.4459678601709411E+00
Ga   -1.5426998436329238E+00    2.8207644588528642E+00    3.1508252782864443E+00
N   -1.4903156990105979E+00    2.8518174002229588E+00    5.0804544859778797E+00
Ga   -1.4704409592423864E+00    4.7238733531698358E+00    5.7786592374783936E+00
N   -1.3873486785903186E+00    4.7792793469764225E+00    7.7145720862839369E+00
Ga   -1.3913904904893373E+00    2.9188025342464941E+00    8.4013073404316465E+00
N   -1.3110331363500025E+00    2.9683679263462968E+00    1.0336005762082010E+01
Ga   -1.2913779554909315E+00    4.8390722245794224E+00    1.1030222120513146E+01
N   -1.2147845076053017E+00    4.9004899108331159E+00    1.2969123418445056E+01
Ga   -1.1929108579636842E+00    3.0337656583514314E+00    1.3646750987611627E+01
N   -1.6545498493017097E+00    2.5924542701809132E+00    1.5466000566795669E+01
Ga   -2.6853596502224537E+00    4.3553890828561599E+00    1.6809423868580424E+01
N   -1.1959280200288152E+00    3.0398838138567066E+00    1.6746374995069253E+01
N   -3.1954414621146436E+00    5.5842771314709108E+00   -1.4378413026197653E-01
Ga   -3.1763733191880998E+00    7.4560862069624143E+00    5.2268284600232473E-01
N   -3.1449904466685044E+00    7.4757304169721319E+00    2.4447514905077061E+00
Ga   -3.1550858915988726E+00    5.6123848987635432E+00    3.1504628976877340E+00
N   -3.1029043936781671E+00    5.6427181324924724E+00    5.0806841614873663E+00
Ga   -3.0807354937758928E+00    7.5128052509102226E+00    5.7795509309750965E+00
N   -2.9984659026531384E+00    7.5683676864177496E+00    7.7157673619869822E+00
Ga   -3.0004208108839898E+00    5.7094925843326063E+00    8.4043224719749592E+00
N   -2.9243230910954896E+00    5.7579157400708709E+00    1.0336581397013669E+01
Ga   -2.9028766544091913E+00    7.6319761123653409E+00    1.1036229924907447E+01
N   -2.8232323846187031E+00    7.6823609715375616E+00    1.2973126410173624E+01
Ga   -2.8578427574493621E+00    5.8088512185488694E+00    1.3659777911815258E+01
N   -3.3364091433969021E+00    5.5195302845303367E+00    1.5424282863647063E+01
Ga   -4.0221676019568244E+00    6.6696502749244013E+00    1.6818255077869406E+01
N   -2.6926565995685210E+00    5.8849812269415862E+00    1.8065299797726883E+01
N   -4.8073896453776435E+00    8.3761391465457358E+00   -1.4412295898939476E-01
Ga   -4.7882784328589167E+00    1.0247793250162768E+01    5.2402204383720696E-01
N   -4.7569058043902466E+00    1.0267489001294868E+01    2.4464139521599133E+00
Ga   -4.7658517680729036E+00    8.4026237780128632E+00    3.1505830663306660E+00
N   -4.7124715431675268E+00    8.4323594580704082E+00    5.0803951509998280E+00
Ga   -4.6916013647455506E+00    1.0305035533164817E+01    5.7745679325138468E+00
N   -4.6097033111770402E+00    1.0361541982928653E+01    7.7109234363861807E+00
Ga   -4.6137005913926146E+00    8.5014320427840087E+00    8.4012462871228006E+00
N   -4.5359093377790396E+00    8.5530808892883652E+00    1.0336849502253134E+01
Ga   -4.5102693649653141E+00    1.0427135309879780E+01    1.1015012921575495E+01
N   -4.4347590591614470E+00    1.0495162110776052E+01    1.2946545983057238E+01
Ga   -4.4292851962938888E+00    8.6329703451213984E+00    1.3644280550910247E+01
N   -5.0399388162238079E+00    8.4541552112561007E+00    1.5467565805834772E+01
Ga   -5.9637426199693291E+00    9.9136103726337765E+00    1.6693465389131990E+01
N   -4.4139025416353821E+00    8.6081872317788566E+00    1.6752657229895668E+01
N    3.2861795044571798E+00    1.4268999478379487E-03   -1.4370460723203643E-01
Ga    3.3040939822343196E+00    1.8721410824973237E+00    5.2488252600903962E-01
N    3.3341875261937304E+00    1.8917374548371841E+00    2.4471178826518605E+00
Ga    3.3280262759007533E+00    2.9191009102832240E-02    3.1547461658673281E+00
N    3.3808771493269245E+00    5.9689657976605082E-02    5.0855586317819226E+00
Ga    3.4008384383079124E+00    1.9301962303274949E+00    5.7856028566910469E+00
N    3.4858447551891851E+00    1.9871771463897046E+00    7.7226341081100367E+00
Ga    3.4787781548184351E+00    1.2578108991594589E-01    8.4069402219955158E+00
N    3.5654003875752238E+00    1.8275552255338617E-01    1.0343949323755432E+01
Ga    3.5808974069080803E+00    2.0549439862570513E+00    1.1030352906450783E+01
N    3.6759689610817476E+00    2.1188683942990134E+00    1.2982182800875867E+01
Ga    3.6410489330848224E+00    2.6213661251836362E-01    1.3675992807338927E+01
N    3.1021398528615038E+00    3.6742457843138791E-03    1.5552473524097662E+01
Ga    2.0064122969721145E+00    1.1473156471917660E+00    1.7403712230028393E+01
N    3.7116870114228004E+00    3.5734576989789169E-01    1.6892533309177708E+01
N    1.6745964471144523E+00    2.7928584582162590E+00   -1.4332514629660392E-01
Ga    1.6924506541644966E+00    4.6639038723995085E+00    5.2509763182261748E-01
N    1.7225879890782758E+00    4.6833294121633902E+00    2.4474603017650374E+00
Ga    1.7152646293573510E+00    2.8207328151361666E+00    3.1559676309769902E+00
N    1.7684908808331821E+00    2.8511709154045253E+00    5.0871878125277474E+00
Ga    1.7864385584787936E+00    4.7233686708309159E+00    5.7859929035006514E+00
N    1.8708901245115419E+00    4.7800602613086074E+00    7.7211587393493524E+00
Ga    1.8678852499144787E+00    2.9192820112826285E+00    8.4027067876558661E+00
N    1.9539392810955674E+00    2.9736887914525321E+00    1.0339820578567267E+01
Ga    1.9656893591064275E+00    4.8366793931114564E+00    1.1053458146987580E+01
N    2.0380743380722390E+00    4.8906966877112685E+00    1.2998782591233148E+01
Ga    2.0581895067409612E+00    3.0148460272111781E+00    1.3680061217784878E+01
N    1.5659063925245211E+00    2.6666670965256225E+00    1.5552795035432364E+01
Ga    4.3765129132410330E-01    3.9560849715700446E+00    1.6495875044465244E+01
N    2.1723521988086820E+00    3.0034079936729148E+00    1.6876440770234495E+01
N    6.2937252082449324E-02    5.5846605064178183E+00   -1.4379938549495247E-01
Ga    8.1057513364109185E-02    7.4556157848653726E+00    5.2438913724792335E-01
N    1.1087234964688511E-01    7.4747602397151756E+00    2.4466726657940319E+00
Ga    1.0373124036151656E-01    5.6127749516269700E+00    3.1553492659646536E+00
N    1.5521000878203095E-01    5.6434687724062282E+00    5.0863673299039149E+00
Ga    1.7534062787795773E-01    7.5133889734626571E+00    5.7874288156132607E+00
N    2.5896065194432139E-01    7.5690764238049058E+00    7.7243740690645497E+00
Ga    2.5409245560877314E-01    5.7069326362982933E+00    8.4118665167897042E+00
N    3.3730701594931806E-01    5.7603137380290583E+00    1.0350079174363744E+01
Ga    3.5357973313797209E-01    7.6356454296298564E+00    1.1030078195306691E+01
N    4.4258908638841243E-01    7.6985747288870892E+00    1.2980476362915235E+01
Ga    4.1050012792122109E-01    5.8444011171248480E+00    1.3686555255633648E+01
N   -1.4713225902501895E-01    5.5786795982810355E+00    1.5553052024572652E+01
Ga   -1.1669338186300795E+00    6.7533087848785778E+00    1.7531154424215838E+01
N    4.5811803005737228E-01    5.9277063361069633E+00    1.6876125035314860E+01
N   -1.5487915910423140E+00    8.3763892646593963E+00   -1.4321803346391268E-01
Ga   -1.5311005634676838E+00    1.0247454573082543E+01    5.2436023060796066E-01
N   -1.5006158226675219E+00    1.0266534122141364E+01    2.4469637181538881E+00
Ga   -1.5082906601016659E+00    8.4036121131003725E+00    3.1567050813789241E+00
N   -1.4560518612988393E+00    8.4335606390317164E+00    5.0880687006099112E+00
Ga   -1.4360009674011778E+00    1.0305175545750698E+01    5.7859973542854020E+00
N   -1.3523572510955919E+00    1.0362707261248065E+01    7.7216899393991358E+00
Ga   -1.3584030677262164E+00    8.5025546270074805E+00    8.4088878343932141E+00
N   -1.2766765861528508E+00    8.5558936379307173E+00    1.0347415476060037E+01
Ga   -1.2589750557564381E+00    1.0422168761351561E+01    1.1053464268263916E+01
N   -1.1834260551810616E+00    1.0469727062645754E+01    1.3001707234552653E+01
Ga   -1.1748522384501399E+00    8.5898134257300072E+00    1.3686946875528562E+01
N   -1.6790588516156304E+00    8.2341579002596443E+00    1.5550925847257856E+01
Ga   -2.7941473778113211E+00    9.5492938796301718E+00    1.6496452183623251E+01
N   -1.0796282781193036E+00    8.5804284550402237E+00    1.6868599761676059E+01
N    6.5433077401960364E+00    7.8545436780743261E-04   -1.4376508862945053E-01
Ga    6.5612353960116607E+00    1.8716436788874662E+00    5.2486247135473152E-01
N    6.5911833026754261E+00    1.8908228799591373E+00    2.4471307906112605E+00
Ga    6.5818265239548079E+00    2.8129075848465381E-02    3.1553774863822399E+00
N    6.6334133855643298E+00    5.7890186646273406E-02    5.0861363589978001E+00
Ga    6.6548312275902424E+00    1.9291129445040973E+00    5.7807353507299979E+00
N    6.7359295047482703E+00    1.9820878630928547E+00    7.7169199290836028E+00
Ga    6.7347850942856820E+00    1.2492784348453831E-01    8.4139518313848765E+00
N    6.8125789942426414E+00    1.7653767690106012E-01    1.0359489684126556E+01
Ga    6.8448311143844842E+00    2.0510638290596259E+00    1.1038472362744796E+01
N    6.9413619748870454E+00    2.1103355357096554E+00    1.2988802548421573E+01
Ga    6.9294206434199657E+00    2.4521834984545723E-01    1.3657510276813687E+01
N    6.3999256116632717E+00   -3.8516704003259954E-02    1.5503455912712836E+01
Ga    5.3801050408182505E+00    1.2266840715876712E+00    1.6608232448525051E+01
N    7.0549863446592544E+00    3.0372191029430740E-01    1.7071017966559005E+01
N    4.9312996700312164E+00    2.7925338615366653E+00   -1.4389406371517258E-01
Ga    4.9492956175945455E+00    4.6638804744430713E+00    5.2569817151540621E-01
N    4.9790643696405859E+00    4.6836857895859438E+00    2.4482222764502728E+00
Ga    4.9707826355386464E+00    2.8194903898405981E+00    3.1537040780171064E+00
N    5.0230121205850988E+00    2.8488432062303608E+00    5.0850539538837936E+00
Ga    5.0435086389631616E+00    4.7210245301737546E+00    5.7791430360934930E+00
N    5.1230659535392080E+00    4.7764475486756170E+00    7.7154976616209785E+00
Ga    5.1283066197870788E+00    2.9195223910017805E+00    8.4151611112226945E+00
N    5.2129214555942669E+00    2.9756128198665079E+00    1.0360290872489594E+01
Ga    5.2320342801852533E+00    4.8483505840020946E+00    1.1034555947040740E+01
N    5.3235253560374236E+00    4.9143925377770454E+00    1.2981939392078312E+01
Ga    5.3395536454871833E+00    3.0540441148080726E+00    1.3646319913840065E+01
N    4.8602471667494331E+00    2.7802942948560720E+00    1.5501424494121967E+01
Ga    3.7778041855373359E+00    3.9872779655299984E+00    1.6605194562086055E+01
N    5.4873645076879836E+00    3.1201483119481028E+00    1.7066767837517947E+01
N    3.3195299300317913E+00    5.5843412460126345E+00   -1.4403280441119423E-01
Ga    3.3375199174770946E+00    7.4552750451671459E+00    5.2486117502076579E-01
N    3.3673180207049982E+00    7.4742977413367369E+00    2.4471606553913383E+00
Ga    3.3582080614012453E+00    5.6113671298329946E+00    3.1548500121025689E+00
N    3.4099262832250781E+00    5.6414959392022439E+00    5.0858398760709003E+00
Ga    3.4306532471383786E+00    7.5123746645456677E+00    5.7815353657177653E+00
N    3.5119877193927040E+00    7.5653396946096407E+00    7.7162131582118132E+00
Ga    3.5118528287426032E+00    5.7071570173524790E+00    8.4116318984465792E+00
N    3.5912540587697355E+00    5.7577245323857271E+00    1.0358323922548708E+01
Ga    3.6193206957768207E+00    7.6351336045235572E+00    1.1029474597598872E+01
N    3.7091687449598778E+00    7.6933822130133205E+00    1.2977217315770481E+01
Ga    3.7038439051366314E+00    5.8385112908833845E+00    1.3644493969854553E+01
N    3.1754376849882604E+00    5.5369422024050898E+00    1.5502814386953027E+01
Ga    2.1321211166555378E+00    6.7845100117702444E+00    1.6574469780427421E+01
N    3.8264460793111441E+00    5.8833361854746338E+00    1.7082599579055938E+01
N    1.7080024302687504E+00    8.3760164588387447E+00   -1.4451616621935867E-01
Ga    1.7259288721858905E+00    1.0246891922062622E+01    5.2539397713886604E-01
N    1.7552084875384286E+00    1.0266555186870516E+01    2.4478982355898862E+00
Ga    1.7466052517296007E+00    8.4025836041216007E+00    3.1548863826042899E+00
N    1.7980396629725943E+00    8.4325123395701205E+00    5.0867519540885686E+00
Ga    1.8185471415903232E+00    1.0305157968005846E+01    5.7799445530979758E+00
N    1.8988675363290395E+00    1.0360940168843781E+01    7.7150917237681558E+00
Ga    1.9015135636211746E+00    8.5024012319600430E+00    8.4094552045379025E+00
N    1.9847054917287870E+00    8.5565709715927856E+00    1.0352234818988492E+01
Ga    2.0070779720964151E+00    1.0431217929649861E+01    1.1030203044165551E+01
N    2.0931109436188722E+00    1.0491915508556167E+01    1.2975960020693458E+01
Ga    2.1093839030827004E+00    8.6339213423997077E+00    1.3633615025001767E+01
N    1.5894677752897544E+00    8.3355583036581500E+00    1.5484538780439618E+01
Ga    5.2781476078888456E-01    9.5687918456845615E+00    1.6576694361324176E+01
N    2.1943863897257754E+00    8.6651094647276405E+00    1.7097879602358212E+01
N    9.8001797252658669E+00    3.0458352931096868E-04   -1.4363703950743228E-01
Ga    9.8194101653173096E+00    1.8718084339748509E+00    5.2334143390141974E-01
N    9.8493823316143860E+00    1.8915786141353319E+00    2.4456579329865646E+00
Ga    9.8397178238255307E+00    2.8175104649108700E-02    3.1517748251642228E+00
N    9.8904369771076102E+00    5.8259228186042934E-02    5.0826079920581888E+00
Ga    9.9167487174745101E+00    1.9325068872193025E+00    5.7728521676147047E+00
N    9.9994971055683788E+00    1.9880868829806710E+00    7.7051664032098532E+00
Ga    9.9847324111067355E+00    1.3022407070616138E-01    8.3828321368329117E+00
N    1.0055319417922599E+01    1.8575392408675764E-01    1.0311078792328763E+01
Ga    1.0096672066854568E+01    2.0482223611243482E+00    1.1018049616652027E+01
N    1.0187718576731537E+01    2.1013807847307473E+00    1.2951851670157593E+01
Ga    1.0228825772852513E+01    2.5346391601978718E-01    1.3650854896703853E+01
N    9.7229014936671021E+00   -1.3540134245783065E-02    1.5519894266178953E+01
Ga    8.6531899499763867E+00    1.2140351501253417E+00    1.6721185737371840E+01
N    1.0389093000943927E+01    3.3005585948896998E-01    1.6880285120003851E+01
N    8.1884974604619103E+00    2.7919057297903795E+00   -1.4357732232824963E-01
Ga    8.2071509696447862E+00    4.6637600973223110E+00    5.2313369562423606E-01
N    8.2370900663524385E+00    4.6835119976200446E+00    2.4454361273272491E+00
Ga    8.2282441857252131E+00    2.8200369272855004E+00    3.1534748406163664E+00
N    8.2793320264244539E+00    2.8498200960543545E+00    5.0849755604208209E+00
Ga    8.3049506683293153E+00    4.7245321464793992E+00    5.7787907937160590E+00
N    8.3836569947699271E+00    4.7791578870228362E+00    7.7146888783875402E+00
Ga    8.3812695088895062E+00    2.9112994968980925E+00    8.3887467083050762E+00
N    8.4597035270081129E+00    2.9558070086212820E+00    1.0322413169614837E+01
Ga    8.4663343121173398E+00    4.8311204452890379E+00    1.0977949181728992E+01
N    8.5337117187046978E+00    4.8800022026931993E+00    1.2897777471923307E+01
Ga    8.6060243593047261E+00    3.0666124170548863E+00    1.3640222761685571E+01
N    8.1764286616628628E+00    2.7932893765729072E+00    1.5521087374291870E+01
Ga    7.0749928427560143E+00    4.0199430653531181E+00    1.6702688637414997E+01
N    8.8106625519493882E+00    3.1512019715790882E+00    1.6902362152509404E+01
N    6.5763272766941974E+00    5.5840429954639852E+00   -1.4384400554679513E-01
Ga    6.5955652220480356E+00    7.4555033991934732E+00    5.2314075419063044E-01
N    6.6255683784983814E+00    7.4748771549724751E+00    2.4453681019540059E+00
Ga    6.6170474482597834E+00    5.6118332531888733E+00    3.1533767109829323E+00
N    6.6684301234470800E+00    5.6418521315844776E+00    5.0845512225095879E+00
Ga    6.6941949466111366E+00    7.5152804248247875E+00    5.7747363125186277E+00
N    6.7770658083589961E+00    7.5705930730915707E+00    7.7064975965797098E+00
Ga    6.7626664935648266E+00    5.7123723834854685E+00    8.3900353562989913E+00
N    6.8379138837751228E+00    5.7672590387989979E+00    1.0324026463545216E+01
Ga    6.8682557184459947E+00    7.6388143890197018E+00    1.1019627090191541E+01
N    6.9469016131678663E+00    7.7039787528036747E+00    1.2953193385705665E+01
Ga    6.9980258380542004E+00    5.8546938422728871E+00    1.3643461276322908E+01
N    6.5466435646656187E+00    5.6230198434028429E+00    1.5526552489466878E+01
Ga    5.4268398863958458E+00    6.7976449601090163E+00    1.6716262450653314E+01
N    7.1858291234516347E+00    5.9579315474026648E+00    1.6901372639362886E+01
N    4.9647138527018626E+00    8.3755398736609639E+00   -1.4322359641916349E-01
Ga    4.9838426565763960E+00    1.0247284239575160E+01    5.2410098480714040E-01
N    5.0139091296732419E+00    1.0266686588374826E+01    2.4462210960765765E+00
Ga    5.0046235238030601E+00    8.4023834954628747E+00    3.1517081776594491E+00
N    5.0559849450275696E+00    8.4319909144939178E+00    5.0835237401451856E+00
Ga    5.0800501139773759E+00    1.0307389183939607E+01    5.7736450134195403E+00
N    5.1596344044917375E+00    1.0362495098726519E+01    7.7096826344851150E+00
Ga    5.1575914440440034E+00    8.4934049246807319E+00    8.3777516842714110E+00
N    5.2333083589771823E+00    8.5326391249935671E+00    1.0307305879238784E+01
Ga    5.2332742771336953E+00    1.0407800928534021E+01    1.0942354188313599E+01
N    5.2879595320483608E+00    1.0445106300778008E+01    1.2848360899580706E+01
Ga    5.3738535125142537E+00    8.6674338077601156E+00    1.3652604063697030E+01
N    4.8834336682535122E+00    8.3561262991802092E+00    1.5527414579356675E+01
Ga    3.7703856460274503E+00    9.5705259570898118E+00    1.6716750469491259E+01
N    5.5299153458170105E+00    8.7436647528320925E+00    1.6866820218830505E+01
H    2.6172358979977536E-02    7.3836109299182809E-04   -1.1713140603141319E+00
H   -1.5851125170526696E+00    2.7917248596802189E+00   -1.1711370778698353E+00
H   -3.1974612357545036E+00    5.5840226689440522E+00   -1.1710257360103697E+00
H   -4.8090427668154021E+00    8.3755409177814286E+00   -1.1712404611233744E+00
H    3.2849080051617423E+00    1.4871339414787657E-03   -1.1706666708636961E+00
H    1.6731394635774728E+00    2.7921726771323860E+00   -1.1701209083856705E+00
H    6.1338739788697375E-02    5.5846737086340852E+00   -1.1709622282841523E+00
H   -1.5504873585887506E+00    8.3761702586671944E+00   -1.1702857351707294E+00
H    6.5409176028076494E+00   -2.6750443506309209E-05   -1.1709613151529030E+00
H    4.9287913384468309E+00    2.7912605996254269E+00   -1.1711613093328272E+00
H    3.3170853461539744E+00    5.5839277951129862E+00   -1.1713304001377267E+00
H    1.7059088432111018E+00    8.3752797214118306E+00   -1.1718731359083030E+00
H    9.7986333496650921E+00    1.6123076614317383E-05   -1.1707649798639346E+00
H    8.1869088311342804E+00    2.7916521071293725E+00   -1.1707564677913624E+00
H    6.5752312294043698E+00    5.5839243613189460E+00   -1.1710556965442094E+00
H    4.9631512488652998E+00    8.3751678530140605E+00   -1.1703811025312112E+00
     &END COORD
     &KIND H
       BASIS_SET DZVP-MOLOPT-SR-GTH-q1
       POTENTIAL GTH-PBE-q1
       &POTENTIAL
1
0.2000000000000000E+00 2 -0.4178900440000000E+01  0.7244633100000000E+00
0
       &END POTENTIAL
     &END KIND
     &KIND N
       BASIS_SET DZVP-MOLOPT-SR-GTH
       POTENTIAL GTH-PBE-q5
       &POTENTIAL
2 3
0.2837905100000000E+00 2 -0.1241522559000000E+02  0.1868095920000000E+01
2
0.2554050000000000E+00 1  0.1363026257000000E+02
0.2454945300000000E+00 0
       &END POTENTIAL
     &END KIND
     &KIND Ga
       BASIS_SET DZVP-MOLOPT-SR-GTH
       POTENTIAL GTH-PBE-q13
       &POTENTIAL
2 1 10
0.4900000000000000E+00 0
3
0.4167772300000000E+00 3  0.1047568975000000E+02 -0.4921768140000000E+01  0.8707055900000000E+00
0.7770178090000000E+01 -0.2248152160000000E+01
0.1784415450000000E+01
0.5696265200000000E+00 2  0.1777985340000000E+01  0.1958597600000000E+00
-0.2317443900000000E+00
0.2381265000000000E+00 1 -0.1624868022000000E+02
       &END POTENTIAL
     &END KIND
     &TOPOLOGY
       NUMBER_OF_ATOMS  256
       MULTIPLE_UNIT_CELL  1 1 1
     &END TOPOLOGY
   &END SUBSYS
 &END FORCE_EVAL
