 # Version information for this restart file 
 # current date 2019-06-10 23:23:28.621
 # current working dir /lustre03/project/6037349/rzk/GaN-carbene/444-addat/00-Surface/RKS
 # Program compiled at                              Sun Apr  7 00:48:11 EDT 2019
 # Program compiled on                          beluga2.int.ets1.calculquebec.ca
 # Program compiled for                        Beluga-Linux-x86-64-intel-openmpi
 # Source code revision number                                         svn:18619
 &GLOBAL
   PRINT_LEVEL  MEDIUM
   PROJECT_NAME TEST
   RUN_TYPE  CELL_OPT
 &END GLOBAL
 &MOTION
   &CELL_OPT
     MAX_ITER  300
     STEP_START_VAL  73
     EXTERNAL_PRESSURE     1.0000000000000000E+00
     KEEP_ANGLES  T
     KEEP_SYMMETRY  T
     CONSTRAINT  Z
     PRESSURE_TOLERANCE     5.0000000000000000E+02
   &END CELL_OPT
 &END MOTION
 &FORCE_EVAL
   METHOD  QS
   STRESS_TENSOR  ANALYTICAL
   &DFT
     BASIS_SET_FILE_NAME BASIS_MOLOPT
     POTENTIAL_FILE_NAME GTH_POTENTIALS
     SURFACE_DIPOLE_CORRECTION  T
     SURF_DIP_DIR  Z
     &SCF
       MAX_SCF  100
       EPS_SCF     5.0000000000000004E-06
       &OT  T
         PRECONDITIONER  FULL_ALL
       &END OT
       &OUTER_SCF  T
         OPTIMIZER  NONE
         EPS_SCF     5.0000000000000004E-06
         MAX_SCF  4
       &END OUTER_SCF
       &PRINT
         &RESTART  OFF
           BACKUP_COPIES  1
           &EACH
             JUST_ENERGY  0
             QS_SCF  0
             MD  20
           &END EACH
         &END RESTART
       &END PRINT
     &END SCF
     &QS
       EPS_DEFAULT     1.0000000000000000E-14
       METHOD  GPW
     &END QS
     &MGRID
       NGRIDS  5
       CUTOFF     1.2000000000000000E+03
     &END MGRID
     &XC
       DENSITY_CUTOFF     1.0000000000000000E-10
       GRADIENT_CUTOFF     1.0000000000000000E-10
       TAU_CUTOFF     1.0000000000000000E-10
       &XC_FUNCTIONAL  NO_SHORTCUT
         &PBE  T
         &END PBE
       &END XC_FUNCTIONAL
       &VDW_POTENTIAL
         POTENTIAL_TYPE  PAIR_POTENTIAL
         &PAIR_POTENTIAL
           R_CUTOFF     1.0000000000000005E+01
           TYPE  DFTD3
           PARAMETER_FILE_NAME dftd3.dat
           REFERENCE_FUNCTIONAL PBE
           EPS_CN     9.9999999999999995E-07
           CALCULATE_C9_TERM  T
           REFERENCE_C9_TERM  T
           LONG_RANGE_CORRECTION  F
           VERBOSE_OUTPUT  F
         &END PAIR_POTENTIAL
       &END VDW_POTENTIAL
     &END XC
   &END DFT
   &SUBSYS
     &CELL
       A     1.3021278157269622E+01    0.0000000000000000E+00    0.0000000000000000E+00
       B    -6.4509337721133440E+00    1.1173345049562288E+01    0.0000000000000000E+00
       C     0.0000000000000000E+00    0.0000000000000000E+00    3.2000000000000000E+01
       MULTIPLE_UNIT_CELL  1 1 1
       &CELL_REF
         A     1.2982353780853531E+01    0.0000000000000000E+00    0.0000000000000000E+00
         B    -6.4911768904267628E+00    1.1243048175136114E+01    0.0000000000000000E+00
         C     0.0000000000000000E+00    0.0000000000000000E+00    3.2000000000000000E+01
         MULTIPLE_UNIT_CELL  1 1 1
       &END CELL_REF
     &END CELL
     &COORD
N    4.3312326853753212E-02    1.1039581767978032E-02   -1.4351750565040569E-01
Ga    5.9082422321416944E-02    1.8803824184665190E+00    5.2094522454688930E-01
N    9.7200674748345622E-02    1.9086062645502662E+00    2.4428083005436712E+00
Ga    9.0457254596440953E-02    4.4136147304135502E-02    3.1524105679434364E+00
N    1.4865612194853095E-01    7.8216075938703153E-02    5.0801159054302012E+00
Ga    1.6654846873884821E-01    1.9495263153351883E+00    5.7752932183817505E+00
N    2.3899058505057089E-01    2.0004033289995036E+00    7.7068287297473175E+00
Ga    2.3711288477320558E-01    1.3687080270965665E-01    8.3905984040484842E+00
N    2.7932668634220481E-01    1.6419925096679056E-01    1.0319512777501895E+01
Ga    2.9862259532578556E-01    2.0292485929101072E+00    1.1016481160840314E+01
N    3.7655960095044838E-01    2.0696333923742842E+00    1.2948022272924694E+01
Ga    3.1829319596910954E-01    1.9643153420692391E-01    1.3604138941881320E+01
N   -2.2929594996378475E-01   -1.1607491017915272E-01    1.5337615788431116E+01
Ga   -8.5065848771761832E-01    1.0462820840353917E+00    1.6720521798175572E+01
N    4.6550389910663531E-01    2.5102571586975425E-01    1.7997265997072294E+01
N   -1.5694027844852836E+00    2.8046338444089645E+00   -1.4431571331152857E-01
Ga   -1.5535927191161256E+00    4.6734403928101349E+00    5.2164486616552219E-01
N   -1.5161755080447055E+00    4.7016245757271067E+00    2.4432991193099718E+00
Ga   -1.5220150900723588E+00    2.8387541801970677E+00    3.1539229619606841E+00
N   -1.4640528737228240E+00    2.8744244296972070E+00    5.0806001801067158E+00
Ga   -1.4461142794114634E+00    4.7430354539544233E+00    5.7819137657057942E+00
N   -1.3736543009011646E+00    4.7891193789715629E+00    7.7153537749768448E+00
Ga   -1.3789219082922752E+00    2.9259010123994207E+00    8.4015921750268401E+00
N   -1.3310422477867363E+00    2.9603036928415745E+00    1.0338550806929772E+01
Ga   -1.3178507646966968E+00    4.8285109587473229E+00    1.1035448061721707E+01
N   -1.2549196116382004E+00    4.8757329130623814E+00    1.2975193467880075E+01
Ga   -1.2233414589395857E+00    3.0108106145477684E+00    1.3628436682244409E+01
N   -1.6936331789835273E+00    2.5786167992233566E+00    1.5465309646513923E+01
Ga   -2.7068858422730999E+00    4.3397478711391164E+00    1.6820033053844039E+01
N   -1.2202641402573366E+00    3.0315724745989581E+00    1.6755462253912739E+01
N   -3.1821694095059461E+00    5.5975811872009062E+00   -1.4301677607220512E-01
Ga   -3.1661409698672722E+00    7.4666983505033926E+00    5.2109227836534799E-01
N   -3.1276731191102862E+00    7.4938676696448550E+00    2.4432574737315691E+00
Ga   -3.1350353149091932E+00    5.6308909154188580E+00    3.1551706482745030E+00
N   -3.0778966827049308E+00    5.6646248797422452E+00    5.0840219546682786E+00
Ga   -3.0590003750587522E+00    7.5352454170642753E+00    5.7805249190597952E+00
N   -2.9878194556483315E+00    7.5836337535391865E+00    7.7140469855782330E+00
Ga   -2.9918519640374996E+00    5.7213470436680129E+00    8.4050060909954496E+00
N   -2.9460565671276284E+00    5.7509862989713412E+00    1.0341892265513566E+01
Ga   -2.9319825719788892E+00    7.6177414803710493E+00    1.1031618355691476E+01
N   -2.8643582882932601E+00    7.6586142672976711E+00    1.2974213019514144E+01
Ga   -2.8849240363863431E+00    5.7922726455399616E+00    1.3657475890608032E+01
N   -3.3440743922082903E+00    5.5235642013364119E+00    1.5440147859543803E+01
Ga   -4.0456469871767933E+00    6.6526645312350876E+00    1.6825264910936955E+01
N   -2.7051962547757387E+00    5.8795983788469375E+00    1.8074570814045504E+01
N   -4.7948478872987632E+00    8.3912032002683006E+00   -1.4431805384591964E-01
Ga   -4.7789893292765857E+00    1.0259753039965066E+01    5.2187136909486032E-01
N   -4.7405154326935666E+00    1.0287063200375265E+01    2.4431188182739438E+00
Ga   -4.7467374571121823E+00    8.4238555646495161E+00    3.1538541965487283E+00
N   -4.6882769081480093E+00    8.4595360242197088E+00    5.0804225813293931E+00
Ga   -4.6706733233072217E+00    1.0328965585299450E+01    5.7767267809977172E+00
N   -4.5959519852213617E+00    1.0375672681378694E+01    7.7084371344568874E+00
Ga   -4.6058769916818711E+00    8.5141884580635914E+00    8.4027914785973419E+00
N   -4.5567626961258823E+00    8.5458447685851571E+00    1.0339790203348691E+01
Ga   -4.5431252597377698E+00    1.0420655101371242E+01    1.1019347864076773E+01
N   -4.4786885170009256E+00    1.0476067160173617E+01    1.2952943710335786E+01
Ga   -4.4699019995281901E+00    8.6251979158822074E+00    1.3629099435104928E+01
N   -5.0680231464267740E+00    8.4295797649712974E+00    1.5468687139320282E+01
Ga   -5.9734836489885943E+00    9.9078812734172228E+00    1.6696613673893772E+01
N   -4.4319276350777423E+00    8.5951796460322409E+00    1.6759554464987993E+01
N    3.2993566500140310E+00    1.1290264954187852E-02   -1.4260352326659032E-01
Ga    3.3138863201178177E+00    1.8798766851899771E+00    5.2342283471379358E-01
N    3.3512828983262692E+00    1.9071803761228263E+00    2.4450590107514478E+00
Ga    3.3459682066106371E+00    4.3676519529195781E-02    3.1565437932006581E+00
N    3.4029318335443648E+00    7.8378465440527623E-02    5.0846302921840065E+00
Ga    3.4248720320849060E+00    1.9501853052862428E+00    5.7800860304101196E+00
N    3.4960212433376125E+00    1.9994799774012295E+00    7.7147161192528921E+00
Ga    3.4912566323523682E+00    1.3619345888011891E-01    8.4028091870252801E+00
N    3.5403859897288017E+00    1.6922017955452892E-01    1.0344488637784778E+01
Ga    3.5591096050330218E+00    2.0416443081592033E+00    1.1028147997952859E+01
N    3.6494610404802312E+00    2.0976945454069282E+00    1.2976672300616011E+01
Ga    3.5973608257625131E+00    2.4590936914534431E-01    1.3664683932258335E+01
N    3.0823582626746373E+00   -1.3333356055497318E-02    1.5545752375701062E+01
Ga    2.0023127256891704E+00    1.1366453513607429E+00    1.7564684327635149E+01
N    3.6494882553867805E+00    3.5720878263194750E-01    1.6854862528612980E+01
N    1.6866147111953731E+00    2.8049704082794551E+00   -1.4287709985820299E-01
Ga    1.7014678460073953E+00    4.6731451467992473E+00    5.2405470303455792E-01
N    1.7386951694149577E+00    4.7003552664908979E+00    2.4459624014723818E+00
Ga    1.7329898481011508E+00    2.8373997975441192E+00    3.1589896670780750E+00
N    1.7910469661728383E+00    2.8725687446013586E+00    5.0868133826668762E+00
Ga    1.8102184331018651E+00    4.7446557983503563E+00    5.7787172172320895E+00
N    1.8819353707182560E+00    4.7916659000286375E+00    7.7136481484764117E+00
Ga    1.8766318195996889E+00    2.9298070434592236E+00    8.4025218123181773E+00
N    1.9245112982532315E+00    2.9631987150566856E+00    1.0343573650052106E+01
Ga    1.9363636309080576E+00    4.8312129771442427E+00    1.1040995887813011E+01
N    1.9971392535128865E+00    4.8697336656930270E+00    1.3000474705459990E+01
Ga    2.0132470986777191E+00    2.9845456515505728E+00    1.3663819447169669E+01
N    1.5292546893478507E+00    2.6623395263367424E+00    1.5536753905666394E+01
Ga    4.0125655841366592E-01    3.9491246782289551E+00    1.6463917001518105E+01
N    2.1404434487365300E+00    2.9671685204428844E+00    1.6855558480522525E+01
N    7.3948605779262697E-02    5.5980237582450174E+00   -1.4291189327207612E-01
Ga    8.8678187333150540E-02    7.4665462375601761E+00    5.2384514558997664E-01
N    1.2541752391998007E-01    7.4941266771044148E+00    2.4461180479023321E+00
Ga    1.1916520582911316E-01    5.6305527928934236E+00    3.1578035841667487E+00
N    1.7590132888391719E-01    5.6649442952334912E+00    5.0862456140814265E+00
Ga    1.9718909355817971E-01    7.5362354693244331E+00    5.7817409444892709E+00
N    2.6739309061771149E-01    7.5843632403633121E+00    7.7172343675905486E+00
Ga    2.6466590144275209E-01    5.7210821127052283E+00    8.4066223292716646E+00
N    3.0852047972401697E-01    5.7535850687052363E+00    1.0349732213949119E+01
Ga    3.2745901275101791E-01    7.6248777792896805E+00    1.1031422821696992E+01
N    4.0414071728534479E-01    7.6731046106231560E+00    1.2977212234090768E+01
Ga    3.7514387512012526E-01    5.8263166061365244E+00    1.3670133396219068E+01
N   -1.5609693406524983E-01    5.5585879025569129E+00    1.5536840088674451E+01
Ga   -1.2069021667314637E+00    6.7437919859913613E+00    1.7461197265906524E+01
N    4.4449040762914210E-01    5.9057220571453772E+00    1.6877828975957410E+01
N   -1.5387179012540984E+00    8.3915334103033334E+00   -1.4280673621254295E-01
Ga   -1.5237894593157320E+00    1.0259541854999290E+01    5.2425345463588258E-01
N   -1.4860674755455283E+00    1.0286006644008937E+01    2.4459838822097915E+00
Ga   -1.4932814405793546E+00    8.4234006194119413E+00    3.1598657896142770E+00
N   -1.4359510506263127E+00    8.4583760241453785E+00    5.0881115060643953E+00
Ga   -1.4150338528423156E+00    1.0330258962118162E+01    5.7790800879638802E+00
N   -1.3437681752694051E+00    1.0377242531498705E+01    7.7138674872458886E+00
Ga   -1.3511213686239780E+00    8.5162900979551477E+00    8.4083227678667534E+00
N   -1.3070746049528770E+00    8.5469303086033523E+00    1.0351535480494194E+01
Ga   -1.2881432457447930E+00    1.0415251389593136E+01    1.1045268926011738E+01
N   -1.2275459467088543E+00    1.0455443455587671E+01    1.3002904916291444E+01
Ga   -1.2174672012617698E+00    8.5772649164423704E+00    1.3672454691421535E+01
N   -1.7059451823110976E+00    8.2463146699005705E+00    1.5535822223854826E+01
Ga   -2.8245182270582445E+00    9.5376042876530995E+00    1.6465944676637744E+01
N   -1.1045740461171807E+00    8.5873271836740752E+00    1.6877074996832924E+01
N    6.5537603672349682E+00    1.0910269477202120E-02   -1.4215637321811805E-01
Ga    6.5691701610620319E+00    1.8794969761271014E+00    5.2352818763750453E-01
N    6.6077268541222125E+00    1.9073025152299732E+00    2.4455081450219116E+00
Ga    6.6003326411501728E+00    4.3755234781932204E-02    3.1568060440055739E+00
N    6.6576290822395592E+00    7.8576446331643846E-02    5.0833849898502530E+00
Ga    6.6773528475585060E+00    1.9490673198683255E+00    5.7771828704101820E+00
N    6.7474814446078426E+00    1.9937891339727469E+00    7.7121765752064091E+00
Ga    6.7417723876851054E+00    1.3435263413194209E-01    8.4121034956954812E+00
N    6.7841547362770305E+00    1.6274912868613386E-01    1.0353654162354935E+01
Ga    6.8176593069586868E+00    2.0346800466120101E+00    1.1034732241659192E+01
N    6.9052212969190530E+00    2.0774022788332833E+00    1.2980739191329507E+01
Ga    6.8927705235833825E+00    2.2507920772246864E-01    1.3656467280606815E+01
N    6.3735942556533747E+00   -5.6638495106814596E-02    1.5511189706732679E+01
Ga    5.3431212697921362E+00    1.2136643950678896E+00    1.6606164547256888E+01
N    7.0380032259591614E+00    2.8881462601669400E-01    1.7061117490444872E+01
N    4.9409713124641375E+00    2.8045664364544773E+00   -1.4125172048712745E-01
Ga    4.9560116273118853E+00    4.6733389396058067E+00    5.2419076077082294E-01
N    4.9944546912279844E+00    4.7014459104049093E+00    2.4458364127472385E+00
Ga    4.9879641984866048E+00    2.8374070021715880E+00    3.1557039316545055E+00
N    5.0461745698510354E+00    2.8727395731203482E+00    5.0830118636998947E+00
Ga    5.0644015679022143E+00    4.7429696283257918E+00    5.7777228688117219E+00
N    5.1337516779641073E+00    4.7898608569563610E+00    7.7124421195921515E+00
Ga    5.1359031086982787E+00    2.9298216634243395E+00    8.4072992159563551E+00
N    5.1849327769358071E+00    2.9635679441182239E+00    1.0348195732421527E+01
Ga    5.2036310388923219E+00    4.8406000604074606E+00    1.1034135179898946E+01
N    5.2823074424402678E+00    4.8992874057991189E+00    1.2983264483401744E+01
Ga    5.3150170172473779E+00    3.0434038272304003E+00    1.3643650230040921E+01
N    4.8453078470238298E+00    2.7814095127161771E+00    1.5488299945123361E+01
Ga    3.7486785318433906E+00    3.9680352244386929E+00    1.6592377091280618E+01
N    5.4624211157190858E+00    3.1069980050472616E+00    1.7064771999453093E+01
N    3.3280947048487133E+00    5.5975717081242937E+00   -1.4216829824536412E-01
Ga    3.3430487013946890E+00    7.4661250536360555E+00    5.2298743450070162E-01
N    3.3806745899503676E+00    7.4941889345327315E+00    2.4449254720841460E+00
Ga    3.3746857294754555E+00    5.6310710733688163E+00    3.1570941767348559E+00
N    3.4328285634860842E+00    5.6647971877472063E+00    5.0834585745657535E+00
Ga    3.4505019395604908E+00    7.5347807480517748E+00    5.7744044440118669E+00
N    3.5164662637316226E+00    7.5770192793421387E+00    7.7061847517120325E+00
Ga    3.5180162188512978E+00    5.7193754420201017E+00    8.4113165050473224E+00
N    3.5602940701596166E+00    5.7483480275169301E+00    1.0351302210821922E+01
Ga    3.5858843993057530E+00    7.6225220252063854E+00    1.1030500713596968E+01
N    3.6670985294177765E+00    7.6714186018177219E+00    1.2975970980645853E+01
Ga    3.6635923340548895E+00    5.8181521769560796E+00    1.3654575345619653E+01
N    3.1531770088049793E+00    5.5184295885053762E+00    1.5498010879920855E+01
Ga    2.1104155531272171E+00    6.7778329298092173E+00    1.6584789891024059E+01
N    3.8042737765284995E+00    5.8649713586203145E+00    1.7066863107927635E+01
N    1.7155349234815191E+00    8.3911747245773309E+00   -1.4286596794502213E-01
Ga    1.7303116430111991E+00    1.0259361839860674E+01    5.2365283115572814E-01
N    1.7678820130613953E+00    1.0286922300815876E+01    2.4450881062490546E+00
Ga    1.7619089632968294E+00    8.4240492459207292E+00    3.1577850265489897E+00
N    1.8189592464541029E+00    8.4589338019740090E+00    5.0843595243162234E+00
Ga    1.8372324732060807E+00    1.0329563082357328E+01    5.7755356046615942E+00
N    1.9026242201898766E+00    1.0374371322364917E+01    7.7072702997214586E+00
Ga    1.9073363282397848E+00    8.5152387192647030E+00    8.4051262470212649E+00
N    1.9493907297020379E+00    8.5471692806397606E+00    1.0346382005216642E+01
Ga    1.9725192163929164E+00    1.0421534335712794E+01    1.1034815559886178E+01
N    2.0493375290974294E+00    1.0473763386049026E+01    1.2982490082793506E+01
Ga    2.0687246929571987E+00    8.6192232645724101E+00    1.3644561283534108E+01
N    1.5654562025095908E+00    8.3383022483995273E+00    1.5481803481302428E+01
Ga    5.0071681672117851E-01    9.5600246464511525E+00    1.6588443129352008E+01
N    2.1749714757029279E+00    8.6584448048413876E+00    1.7094158941494431E+01
N    9.8084476058848136E+00    1.0548156559298865E-02   -1.4288042138369408E-01
Ga    9.8241230269674560E+00    1.8799050981270096E+00    5.2149574585298064E-01
N    9.8618613782396292E+00    1.9086634693057094E+00    2.4438004345021413E+00
Ga    9.8557489987086520E+00    4.4286193967145768E-02    3.1549480395180201E+00
N    9.9122728159859754E+00    7.8714895409817950E-02    5.0819954029215175E+00
Ga    9.9341651125671877E+00    1.9522802411781510E+00    5.7689976040352962E+00
N    1.0005438934209289E+01    2.0036675880854395E+00    7.6982079228154872E+00
Ga    9.9886135371554605E+00    1.4016789123902371E-01    8.3758721397339091E+00
N    1.0020843698164331E+01    1.7426770490078131E-01    1.0303766535029288E+01
Ga    1.0066710972763252E+01    2.0313353184664646E+00    1.1015917832699156E+01
N    1.0147196668299472E+01    2.0790237184664289E+00    1.2949543615890867E+01
Ga    1.0186555470442210E+01    2.2407610142921006E-01    1.3645855819138005E+01
N    9.7124465600005419E+00   -3.0354919369426244E-02    1.5530608123809877E+01
Ga    8.6373354038481622E+00    1.2176090120641732E+00    1.6716758985632993E+01
N    1.0365568108869491E+01    3.2210351768928297E-01    1.6886307065505939E+01
N    8.1958014224565439E+00    2.8040911970991353E+00   -1.4293543549202375E-01
Ga    8.2112463310475565E+00    4.6727934312089703E+00    5.2203797160223564E-01
N    8.2498966268400977E+00    4.7009688917104082E+00    2.4441173613974869E+00
Ga    8.2433036626016474E+00    2.8389257073642860E+00    3.1578851424494778E+00
N    8.2998031993894976E+00    2.8747041797529951E+00    5.0847256209829350E+00
Ga    8.3207656653711712E+00    4.7445266554795715E+00    5.7808107593069575E+00
N    8.3896216549162101E+00    4.7894174417865152E+00    7.7139664292644854E+00
Ga    8.3863631096165925E+00    2.9234237738975923E+00    8.3958892481417351E+00
N    8.4330659268232999E+00    2.9499239773578969E+00    1.0331090833023621E+01
Ga    8.4393320566586034E+00    4.8251595300369621E+00    1.0992609331666998E+01
N    8.4935001333417901E+00    4.8646624211011913E+00    1.2911564255412340E+01
Ga    8.5659924833058376E+00    3.0365995857187649E+00    1.3645684830444077E+01
N    8.1417676324390058E+00    2.7771940145767218E+00    1.5538604252700704E+01
Ga    7.0470132019008442E+00    4.0192262724411707E+00    1.6713433585783051E+01
N    8.7847825019332095E+00    3.1475898262653224E+00    1.6916409770666885E+01
N    6.5829830504164644E+00    5.5972131236432237E+00   -1.4325585092118326E-01
Ga    6.5988101615664494E+00    7.4660678183962661E+00    5.2109738879627643E-01
N    6.6372117496761973E+00    7.4940993486055145E+00    2.4435415003668606E+00
Ga    6.6315100319842095E+00    5.6310389643774164E+00    3.1566775807415390E+00
N    6.6886287327093941E+00    5.6643472673598048E+00    5.0836208631273125E+00
Ga    6.7101810348107094E+00    7.5371094527113724E+00    5.7687128092968596E+00
N    6.7835848255057698E+00    7.5833191198966379E+00    7.6976996684085606E+00
Ga    6.7696992376191183E+00    5.7254679038644474E+00    8.3946592387375247E+00
N    6.8148218106157374E+00    5.7607805168526065E+00    1.0327776164390924E+01
Ga    6.8322177085555715E+00    7.6287053761093686E+00    1.1017493400219028E+01
N    6.9088695422389117E+00    7.6833328480150493E+00    1.2951864184888183E+01
Ga    6.9477522665660247E+00    5.8399227456263949E+00    1.3650977302780607E+01
N    6.5075185864290166E+00    5.6068749344921587E+00    1.5543222329944140E+01
Ga    5.4025090870180712E+00    6.7960875173383437E+00    1.6722928412404070E+01
N    7.1672496618726482E+00    5.9504000098363523E+00    1.6916301318332561E+01
N    4.9702332299075227E+00    8.3907638368402022E+00   -1.4288589949769620E-01
Ga    4.9859080068666382E+00    1.0259418030315294E+01    5.2139057479356099E-01
N    5.0240092586921046E+00    1.0287402407942102E+01    2.4430974604589717E+00
Ga    5.0177157337302685E+00    8.4246069524475384E+00    3.1573946128591333E+00
N    5.0744561450690702E+00    8.4597937802999699E+00    5.0840679494334271E+00
Ga    5.0955800843500771E+00    1.0332030674511724E+01    5.7753968418193375E+00
N    5.1647346391109901E+00    1.0377678137725830E+01    7.7055236594632754E+00
Ga    5.1585972104122586E+00    8.5043158929203972E+00    8.3754146661374325E+00
N    5.2001261552645879E+00    8.5209894502794512E+00    1.0302431133500081E+01
Ga    5.1988424994909357E+00    1.0401317524320838E+01    1.0939790902532584E+01
N    5.2503901186469362E+00    1.0442017798654934E+01    1.2837942810510505E+01
Ga    5.3186274586920197E+00    8.6511052023782788E+00    1.3650557089364309E+01
N    4.8572386895171009E+00    8.3515159735179374E+00    1.5520984179777246E+01
Ga    3.7521049128449078E+00    9.5707806028492932E+00    1.6739703517860363E+01
N    5.4959108244432020E+00    8.7336366587228564E+00    1.6882462915783609E+01
H    3.9509889427524453E-02    6.8890612445463122E-03   -1.1704560738167491E+00
H   -1.5730023432669440E+00    2.8003075624897935E+00   -1.1712889278000984E+00
H   -3.1861222254998305E+00    5.5935273701980766E+00   -1.1698295489209760E+00
H   -4.7985641361648375E+00    8.3871949709206746E+00   -1.1712825220132579E+00
H    3.2964042092368371E+00    8.4376347208441095E-03   -1.1695394221432340E+00
H    1.6842764651916140E+00    2.8007893724725688E+00   -1.1697482997639272E+00
H    7.1093834613306012E-02    5.5946155601760008E+00   -1.1698502267674511E+00
H   -1.5415034736315567E+00    8.3880304289560605E+00   -1.1696618165102939E+00
H    6.5499166333157799E+00    6.8492222335228446E-03   -1.1690424430874760E+00
H    4.9367217476299459E+00    2.7998383638175435E+00   -1.1681100111535980E+00
H    3.3242346979181656E+00    5.5936864644360202E+00   -1.1690455471194254E+00
H    1.7119385646490670E+00    8.3871559651666843E+00   -1.1697782240304171E+00
H    9.8036004416198175E+00    5.3980131959755640E-03   -1.1697799463822391E+00
H    8.1908649481362534E+00    2.7991602729274963E+00   -1.1697405434440065E+00
H    6.5781833853819549E+00    5.5924977774039428E+00   -1.1701261331146853E+00
H    4.9652335961964571E+00    8.3860302851897970E+00   -1.1697013731916395E+00
     &END COORD
     &KIND H
       BASIS_SET DZVP-MOLOPT-SR-GTH-q1
       POTENTIAL GTH-PBE-q1
       &POTENTIAL
1
0.2000000000000000E+00 2 -0.4178900440000000E+01  0.7244633100000000E+00
0
       &END POTENTIAL
     &END KIND
     &KIND N
       BASIS_SET DZVP-MOLOPT-SR-GTH
       POTENTIAL GTH-PBE-q5
       &POTENTIAL
2 3
0.2837905100000000E+00 2 -0.1241522559000000E+02  0.1868095920000000E+01
2
0.2554050000000000E+00 1  0.1363026257000000E+02
0.2454945300000000E+00 0
       &END POTENTIAL
     &END KIND
     &KIND Ga
       BASIS_SET DZVP-MOLOPT-SR-GTH
       POTENTIAL GTH-PBE-q13
       &POTENTIAL
2 1 10
0.4900000000000000E+00 0
3
0.4167772300000000E+00 3  0.1047568975000000E+02 -0.4921768140000000E+01  0.8707055900000000E+00
0.7770178090000000E+01 -0.2248152160000000E+01
0.1784415450000000E+01
0.5696265200000000E+00 2  0.1777985340000000E+01  0.1958597600000000E+00
-0.2317443900000000E+00
0.2381265000000000E+00 1 -0.1624868022000000E+02
       &END POTENTIAL
     &END KIND
     &TOPOLOGY
       NUMBER_OF_ATOMS  256
       MULTIPLE_UNIT_CELL  1 1 1
     &END TOPOLOGY
   &END SUBSYS
 &END FORCE_EVAL
