 # Version information for this restart file 
 # current date 2019-06-10 15:56:44.907
 # current working dir /lustre03/project/6037349/rzk/GaN-carbene/444-addat/00-Surface/RKS
 # Program compiled at                              Sun Apr  7 00:48:11 EDT 2019
 # Program compiled on                          beluga2.int.ets1.calculquebec.ca
 # Program compiled for                        Beluga-Linux-x86-64-intel-openmpi
 # Source code revision number                                         svn:18619
 &GLOBAL
   PRINT_LEVEL  MEDIUM
   PROJECT_NAME TEST
   RUN_TYPE  CELL_OPT
 &END GLOBAL
 &MOTION
   &CELL_OPT
     MAX_ITER  300
     STEP_START_VAL  50
     EXTERNAL_PRESSURE     1.0000000000000000E+00
     KEEP_ANGLES  T
     KEEP_SYMMETRY  T
     CONSTRAINT  Z
     PRESSURE_TOLERANCE     5.0000000000000000E+02
   &END CELL_OPT
 &END MOTION
 &FORCE_EVAL
   METHOD  QS
   STRESS_TENSOR  ANALYTICAL
   &DFT
     BASIS_SET_FILE_NAME BASIS_MOLOPT
     POTENTIAL_FILE_NAME GTH_POTENTIALS
     SURFACE_DIPOLE_CORRECTION  T
     SURF_DIP_DIR  Z
     &SCF
       MAX_SCF  100
       EPS_SCF     5.0000000000000004E-06
       &OT  T
         PRECONDITIONER  FULL_ALL
       &END OT
       &OUTER_SCF  T
         OPTIMIZER  NONE
         EPS_SCF     5.0000000000000004E-06
         MAX_SCF  4
       &END OUTER_SCF
       &PRINT
         &RESTART  OFF
           BACKUP_COPIES  1
           &EACH
             JUST_ENERGY  0
             QS_SCF  0
             MD  20
           &END EACH
         &END RESTART
       &END PRINT
     &END SCF
     &QS
       EPS_DEFAULT     1.0000000000000000E-14
       METHOD  GPW
     &END QS
     &MGRID
       NGRIDS  5
       CUTOFF     1.2000000000000000E+03
     &END MGRID
     &XC
       DENSITY_CUTOFF     1.0000000000000000E-10
       GRADIENT_CUTOFF     1.0000000000000000E-10
       TAU_CUTOFF     1.0000000000000000E-10
       &XC_FUNCTIONAL  NO_SHORTCUT
         &PBE  T
         &END PBE
       &END XC_FUNCTIONAL
       &VDW_POTENTIAL
         POTENTIAL_TYPE  PAIR_POTENTIAL
         &PAIR_POTENTIAL
           R_CUTOFF     1.0000000000000004E+01
           TYPE  DFTD3
           PARAMETER_FILE_NAME dftd3.dat
           REFERENCE_FUNCTIONAL PBE
           EPS_CN     9.9999999999999995E-07
           CALCULATE_C9_TERM  T
           REFERENCE_C9_TERM  T
           LONG_RANGE_CORRECTION  F
           VERBOSE_OUTPUT  F
         &END PAIR_POTENTIAL
       &END VDW_POTENTIAL
     &END XC
   &END DFT
   &SUBSYS
     &CELL
       A     1.3039801841800839E+01    0.0000000000000000E+00    0.0000000000000000E+00
       B    -6.4414966683919435E+00    1.1156999506440483E+01    0.0000000000000000E+00
       C     0.0000000000000000E+00    0.0000000000000000E+00    3.2000000000000000E+01
       MULTIPLE_UNIT_CELL  1 1 1
       &CELL_REF
         A     1.2982353780853531E+01    0.0000000000000000E+00    0.0000000000000000E+00
         B    -6.4911768904267628E+00    1.1243048175136114E+01    0.0000000000000000E+00
         C     0.0000000000000000E+00    0.0000000000000000E+00    3.2000000000000000E+01
         MULTIPLE_UNIT_CELL  1 1 1
       &END CELL_REF
     &END CELL
     &COORD
N    5.5568696896311246E-03   -6.6301576702578338E-03   -1.4491086766884853E-01
Ga    2.6809890033282109E-02    1.8634956679669925E+00    5.2936448813848624E-01
N    4.5077643596344072E-02    1.8693483583759745E+00    2.4522734996787130E+00
Ga    2.6511203474743172E-02   -3.0506040729290503E-04    3.1563184216624491E+00
N    5.4801042324926004E-02    5.1008972520045224E-03    5.0865957925224974E+00
Ga    8.0220174552977669E-02    1.8795332652680523E+00    5.7925841211988836E+00
N    1.4612525938992332E-01    1.9301249358554080E+00    7.7302569582462546E+00
Ga    1.4010270735055919E-01    6.6487130091389401E-02    8.4029628829072216E+00
N    2.5495941213329604E-01    1.4897472520974120E-01    1.0336945822712073E+01
Ga    2.9304863980563328E-01    2.0385749681010199E+00    1.1026781484523111E+01
N    4.8517244244134894E-01    2.1717109706523718E+00    1.2957418318414073E+01
Ga    4.4058498728010992E-01    2.8772734178442011E-01    1.3544689969753938E+01
N   -1.2543607865965561E-01   -6.5889680109793028E-02    1.5286409559657169E+01
Ga   -7.4316125128526600E-01    1.1349072093549455E+00    1.6681797509643268E+01
N    6.4095096707887966E-01    3.7065039168584796E-01    1.7873106001628358E+01
N   -1.6047975706891915E+00    2.7828069078143671E+00   -1.4441933274691252E-01
Ga   -1.5837202433081683E+00    4.6530899201454021E+00    5.2977973432140157E-01
N   -1.5656346833685713E+00    4.6592570399814948E+00    2.4526794239406389E+00
Ga   -1.5823068143946826E+00    2.7888690357783950E+00    3.1544313498834380E+00
N   -1.5526761100818711E+00    2.7945049189448703E+00    5.0829151173212725E+00
Ga   -1.5294262095920743E+00    4.6673100836711088E+00    5.7885166536173225E+00
N   -1.4616284310758856E+00    4.7148483179950551E+00    7.7260084813324497E+00
Ga   -1.4733828249980467E+00    2.8539688358498596E+00    8.4066542449573074E+00
N   -1.3492128045120615E+00    2.9382602821209920E+00    1.0337033865538036E+01
Ga   -1.3191495207724477E+00    4.8186114024451534E+00    1.1004560825154037E+01
N   -1.1351466971491346E+00    4.9595467019799369E+00    1.2942074490036100E+01
Ga   -1.1001491186113008E+00    3.1238707211759467E+00    1.3640158065778484E+01
N   -1.5349249051106562E+00    2.7280805363461003E+00    1.5479943404469134E+01
Ga   -2.5969525525286192E+00    4.4103444167481465E+00    1.6742368696026162E+01
N   -1.0596489415213659E+00    3.1251263694637066E+00    1.6781003116472949E+01
N   -3.2151378351441928E+00    5.5718271558829962E+00   -1.4536900519145168E-01
Ga   -3.1939758769651569E+00    7.4419119673535583E+00    5.2936282372075461E-01
N   -3.1756700071764192E+00    7.4479765847087593E+00    2.4521818625433331E+00
Ga   -3.1939649729859920E+00    5.5780191590857218E+00    3.1551624752266116E+00
N   -3.1657972590495262E+00    5.5834977116775786E+00    5.0853060904559531E+00
Ga   -3.1406604914600340E+00    7.4583659890591623E+00    5.7907982103586502E+00
N   -3.0744719901125972E+00    7.5100343517368140E+00    7.7283868114549081E+00
Ga   -3.0790948402170786E+00    5.6452223146920106E+00    8.3940733073188536E+00
N   -2.9656130073397717E+00    5.7254211380200681E+00    1.0322620575820256E+01
Ga   -2.9301050230189616E+00    7.6127388904982416E+00    1.1014875607895075E+01
N   -2.7415194618015675E+00    7.7423095216275044E+00    1.2946045845887166E+01
Ga   -2.7938855997369152E+00    5.8600793089990972E+00    1.3585026740933211E+01
N   -3.2639406998781642E+00    5.5583131900197893E+00    1.5360552739312388E+01
Ga   -3.9079739430744231E+00    6.7303145110776379E+00    1.6736988675650224E+01
N   -2.6062882535400438E+00    5.9465327545322015E+00    1.8011855663107781E+01
N   -4.8255380097998470E+00    8.3611893305393359E+00   -1.4434308408352986E-01
Ga   -4.8046103866449741E+00    1.0231678254742416E+01    5.2989257474589169E-01
N   -4.7866824077241095E+00    1.0238050302273011E+01    2.4528901826535412E+00
Ga   -4.8033799227060410E+00    8.3675063529777933E+00    3.1539558262359844E+00
N   -4.7737600694884872E+00    8.3737134347063034E+00    5.0824864281911371E+00
Ga   -4.7497206320244594E+00    1.0246439120535975E+01    5.7894356071993451E+00
N   -4.6820886405869508E+00    1.0294703394492810E+01    7.7284982741147754E+00
Ga   -4.6947121093409327E+00    8.4333181343652424E+00    8.4070217403541552E+00
N   -4.5737170878756883E+00    8.5175006664050876E+00    1.0337003993229001E+01
Ga   -4.5344913866837988E+00    1.0395905956532758E+01    1.1007942140670432E+01
N   -4.3476990884988664E+00    1.0537502545580145E+01    1.2941042960456251E+01
Ga   -4.3106137244605920E+00    8.6933082815465230E+00    1.3642502442112180E+01
N   -4.8578980815242359E+00    8.4987550826294989E+00    1.5481396035415919E+01
Ga   -5.8439686371903683E+00    9.9396233871323521E+00    1.6681483964174543E+01
N   -4.2614564916454949E+00    8.6691503280022797E+00    1.6786026878550949E+01
N    3.2657171416560486E+00   -6.5243107299895941E-03   -1.4457779858722578E-01
Ga    3.2863135064952695E+00    1.8635986773324409E+00    5.2948609031137794E-01
N    3.3037291204275738E+00    1.8696824680546669E+00    2.4524213964232082E+00
Ga    3.2869129367702299E+00    2.4180673756697200E-04    3.1562399237184944E+00
N    3.3156116175980510E+00    7.1876012941664491E-03    5.0864941556326677E+00
Ga    3.3395740978713473E+00    1.8794653303112749E+00    5.7951660304511705E+00
N    3.4080525366613648E+00    1.9307693152144179E+00    7.7347224878615624E+00
Ga    3.4021062248883323E+00    7.0470055181152860E-02    8.4169072710598769E+00
N    3.5342519331370523E+00    1.6111508638898284E-01    1.0353435825819799E+01
Ga    3.5480796276324384E+00    2.0400706125589627E+00    1.1054275837583353E+01
N    3.7443097726917944E+00    2.1780344186098231E+00    1.3007663940750033E+01
Ga    3.7233131524839616E+00    3.1957142087641915E-01    1.3691695018935297E+01
N    3.2054187270971601E+00    4.6494324811534614E-02    1.5567950853129988E+01
Ga    2.0795972515320953E+00    1.1952165536352983E+00    1.7017832005848625E+01
N    3.8785862517587284E+00    4.0856641034261493E-01    1.6928196487446410E+01
N    1.6553660391860316E+00    2.7828916027298329E+00   -1.4454962362949728E-01
Ga    1.6758547835649871E+00    4.6527973611825564E+00    5.3002090173059946E-01
N    1.6931867436784092E+00    4.6585471342866471E+00    2.4530243612299492E+00
Ga    1.6763338965846890E+00    2.7884446861131726E+00    3.1569910330381452E+00
N    1.7053612528552753E+00    2.7941358711514317E+00    5.0873581575102476E+00
Ga    1.7279269158722035E+00    4.6677030347380333E+00    5.7910295486171171E+00
N    1.7937984497117789E+00    4.7168558666133000E+00    7.7287194792858598E+00
Ga    1.7899995114286296E+00    2.8586907692138621E+00    8.4108068171508457E+00
N    1.9179745692101089E+00    2.9458810249285663E+00    1.0347466126295606E+01
Ga    1.9358176681976513E+00    4.8126610228842832E+00    1.1072096778314300E+01
N    2.1128739462449802E+00    4.9445342338333313E+00    1.3024272834884973E+01
Ga    2.1371439432069148E+00    3.0826484602368729E+00    1.3703192884984800E+01
N    1.6395661049470573E+00    2.7217904533691910E+00    1.5572864699925358E+01
Ga    5.7345039388048691E-01    4.0614326202712006E+00    1.6670964478844471E+01
N    2.2966389885561909E+00    3.1313894540331155E+00    1.6927249076584680E+01
N    4.4946211910236671E-02    5.5718871421289053E+00   -1.4493003688386630E-01
Ga    6.5566506289576679E-02    7.4419005269080314E+00    5.2959790172394738E-01
N    8.3106307959416523E-02    7.4480449934038520E+00    2.4526563313906440E+00
Ga    6.5977777244167535E-02    5.5785202495119028E+00    3.1563757655618221E+00
N    9.4913360598957164E-02    5.5848322193901998E+00    5.0861678585213710E+00
Ga    1.1876088889311015E-01    7.4582714890406310E+00    5.7916305760096760E+00
N    1.8607330441757008E-01    7.5094313884736801E+00    7.7312180597857116E+00
Ga    1.8162559235091860E-01    5.6478102259194278E+00    8.4140777551293802E+00
N    3.1295981249846488E-01    5.7359339859982184E+00    1.0349953396279982E+01
Ga    3.3094292662577979E-01    7.6161346115183353E+00    1.1039766970474469E+01
N    5.3144511747424961E-01    7.7575608344551927E+00    1.2993001502945898E+01
Ga    4.8414545068049991E-01    5.9063379834639038E+00    1.3698996858254359E+01
N   -6.1047379559344479E-02    5.6606257630073662E+00    1.5570874062639220E+01
Ga   -1.1069973507291089E+00    6.7864703976150285E+00    1.7360694675483355E+01
N    6.1142432628697407E-01    6.0194850900875556E+00    1.6862169984098635E+01
N   -1.5654551552392924E+00    8.3611441075709561E+00   -1.4469283396034166E-01
Ga   -1.5448138137236151E+00    1.0231042569115488E+01    5.2959102784049417E-01
N   -1.5274813857376879E+00    1.0236679119059835E+01    2.4525811798454766E+00
Ga   -1.5444091187273108E+00    8.3670050340779714E+00    3.1563487775676489E+00
N   -1.5157376384804424E+00    8.3733500449826970E+00    5.0863767657285672E+00
Ga   -1.4928231963749059E+00    1.0246956626796253E+01    5.7919984518607022E+00
N   -1.4266641254342733E+00    1.0297510600862530E+01    7.7302603821972831E+00
Ga   -1.4297989467677128E+00    8.4390633339947083E+00    8.4078563397092498E+00
N   -1.3005777563629211E+00    8.5263951087670584E+00    1.0342439686939999E+01
Ga   -1.2813157007567315E+00    1.0394970671565661E+01    1.1066395654990419E+01
N   -1.0971792201371220E+00    1.0522872013049142E+01    1.3020481534100499E+01
Ga   -1.0882353414529329E+00    8.6488678017850287E+00    1.3692399961172738E+01
N   -1.5969176489896637E+00    8.2838685787102744E+00    1.5555243278212608E+01
Ga   -2.6407357698418679E+00    9.6362307050266338E+00    1.6683723059732742E+01
N   -9.3212017775128986E-01    8.6456140527559953E+00    1.6839839465752593E+01
N    6.5254623582270552E+00   -6.5741977172968343E-03   -1.4505792112985758E-01
Ga    6.5464046280048160E+00    1.8636408924028456E+00    5.2910796122834813E-01
N    6.5639951752546271E+00    1.8693466028444135E+00    2.4523525766643739E+00
Ga    6.5460277066942112E+00   -1.4819215391357228E-03    3.1534704248036505E+00
N    6.5737625420496864E+00    3.4512707147833928E-03    5.0832637285821329E+00
Ga    6.5963583889863218E+00    1.8761513717720768E+00    5.7864198918445018E+00
N    6.6575068378710194E+00    1.9226628467535682E+00    7.7263542168496135E+00
Ga    6.6553999751171231E+00    6.3829195104774583E-02    8.4193930752841304E+00
N    6.7784431521364636E+00    1.4767967838081475E-01    1.0363216240415859E+01
Ga    6.8136643819619360E+00    2.0294664740221209E+00    1.1036796918292829E+01
N    7.0136565545890948E+00    2.1703185314279723E+00    1.2977649709645267E+01
Ga    7.0311538353935870E+00    3.2121573553592453E-01    1.3661270810763776E+01
N    6.5425344074603480E+00    2.5171357971243081E-02    1.5510889071915766E+01
Ga    5.5256964781464832E+00    1.3019415408115069E+00    1.6594362833939879E+01
N    7.1737674838567420E+00    3.7367532455902408E-01    1.7112827930403995E+01
N    4.9151463187206357E+00    2.7828138424834239E+00   -1.4490705981080468E-01
Ga    4.9361411249566087E+00    4.6528459166491229E+00    5.2962222727474972E-01
N    4.9538412866153356E+00    4.6583357962107481E+00    2.4529958561219152E+00
Ga    4.9352559900365947E+00    2.7874899603550847E+00    3.1544343039476086E+00
N    4.9631199185628354E+00    2.7921633746547596E+00    5.0840121326171293E+00
Ga    4.9864055831640837E+00    4.6649124068866170E+00    5.7839045777711080E+00
N    5.0472085234400188E+00    4.7110479190858063E+00    7.7237702978723890E+00
Ga    5.0493691691586422E+00    2.8556167373444681E+00    8.4219522337495611E+00
N    5.1752962759190781E+00    2.9435562178901709E+00    1.0362822007813177E+01
Ga    5.2010771786033896E+00    4.8243221247711272E+00    1.1029254878683416E+01
N    5.4049316115526294E+00    4.9641697401632090E+00    1.2968571390025474E+01
Ga    5.4277158431686576E+00    3.1169753511428606E+00    1.3642242672908333E+01
N    4.9645524115558501E+00    2.8402828907549504E+00    1.5497785149895712E+01
Ga    3.9082790190143957E+00    4.0597732086877203E+00    1.6601656762929700E+01
N    5.6052618433207000E+00    3.1919336662877678E+00    1.7088649515955101E+01
N    3.3047783957125905E+00    5.5717620682104965E+00   -1.4490896854664739E-01
Ga    3.3258225429967982E+00    7.4420407803474955E+00    5.2921899354736490E-01
N    3.3435226811365713E+00    7.4479156493746572E+00    2.4524769544801606E+00
Ga    3.3250166167991542E+00    5.5775654801193459E+00    3.1540855314665839E+00
N    3.3527202152826798E+00    5.5824950539703702E+00    5.0838880986120953E+00
Ga    3.3765856501133209E+00    7.4552347237025556E+00    5.7892914425962161E+00
N    3.4395953058244770E+00    7.5024637510869701E+00    7.7291422468218629E+00
Ga    3.4331432563325444E+00    5.6413068888885496E+00    8.4185657066740323E+00
N    3.5527099863739382E+00    5.7268368664796094E+00    1.0365591319432012E+01
Ga    3.5972963672533131E+00    7.6122131821873609E+00    1.1034728123169135E+01
N    3.8051332150397936E+00    7.7512747286749519E+00    1.2975072345249933E+01
Ga    3.8008846520329076E+00    5.9008432042179040E+00    1.3645363800571708E+01
N    3.3109990244789080E+00    5.5964133647593908E+00    1.5496248168441031E+01
Ga    2.2985502394770490E+00    6.8728715781574543E+00    1.6574598169267066E+01
N    3.9433418561561280E+00    5.9561838466419923E+00    1.7112650962499508E+01
N    1.6943665451645504E+00    8.3611648071351432E+00   -1.4455426893817952E-01
Ga    1.7155408086525565E+00    1.0231368234637458E+01    5.2947434559373063E-01
N    1.7333805697709863E+00    1.0236784351014922E+01    2.4527497979634907E+00
Ga    1.7151042277610697E+00    8.3662512437288434E+00    3.1548685584302483E+00
N    1.7436804543758553E+00    8.3716072127639354E+00    5.0846564677844537E+00
Ga    1.7663113853222274E+00    1.0244933269195956E+01    5.7872963849764929E+00
N    1.8282084328514381E+00    1.0293422217084141E+01    7.7270872870794465E+00
Ga    1.8286073880488383E+00    8.4360169019705928E+00    8.4179994681739352E+00
N    1.9586715643738832E+00    8.5258934441376333E+00    1.0357909498222734E+01
Ga    1.9832603562566704E+00    1.0405376196916540E+01    1.1032361796618122E+01
N    2.1871489314320836E+00    1.0544725582884066E+01    1.2971202948219352E+01
Ga    2.2147687479447269E+00    8.6958511650697741E+00    1.3632922830410367E+01
N    1.7480310055997970E+00    8.4158595821190829E+00    1.5487804653469036E+01
Ga    6.8947832541958343E-01    9.6374119827504376E+00    1.6576269240719302E+01
N    2.3644271661780012E+00    8.7458235814332532E+00    1.7110767502136824E+01
N    9.7855144078897638E+00   -6.4643017744234928E-03   -1.4477292857091278E-01
Ga    9.8064843493541449E+00    1.8636284745797831E+00    5.2998764369958717E-01
N    9.8243621945377910E+00    1.8696378107210851E+00    2.4533617657451816E+00
Ga    9.8068393932261397E+00   -1.1343519899706281E-03    3.1556430035296628E+00
N    9.8345116140415687E+00    3.4526223727173989E-03    5.0854185880465836E+00
Ga    9.8624714083231613E+00    1.8793263238412208E+00    5.7817098736806045E+00
N    9.9292184380377524E+00    1.9272912743829640E+00    7.7162080814941483E+00
Ga    9.9111039503419480E+00    6.9340676911476412E-02    8.4006372165792644E+00
N    1.0028894744662246E+01    1.5783852396700115E-01    1.0329742364113537E+01
Ga    1.0072641801084362E+01    2.0324438666259352E+00    1.1032272437839845E+01
N    1.0274114064935938E+01    2.1741600917514705E+00    1.2967256873320713E+01
Ga    1.0314390147210942E+01    3.2985673716967978E-01    1.3659759546438572E+01
N    9.8055442304267260E+00    6.2790541695864621E-02    1.5517521582345045E+01
Ga    8.7820288460588252E+00    1.2695638713213060E+00    1.6781283614576509E+01
N    1.0517269802468700E+01    4.0673862355792517E-01    1.6872163309111261E+01
N    8.1751125946952392E+00    2.7827583671318865E+00   -1.4463996877530291E-01
Ga    8.1961930264427121E+00    4.6529871309068778E+00    5.2924099744967767E-01
N    8.2140778014495659E+00    4.6589539997809961E+00    2.4522996583518211E+00
Ga    8.1957485725607420E+00    2.7889838408419050E+00    3.1553469489666570E+00
N    8.2228981366585749E+00    2.7935271263399439E+00    5.0855019256280656E+00
Ga    8.2497859984084911E+00    4.6677399212666648E+00    5.7895042513511825E+00
N    8.3109483286985508E+00    4.7127706411780101E+00    7.7266170536608954E+00
Ga    8.3066161324083652E+00    2.8405936524960800E+00    8.3878982636640202E+00
N    8.4282195156036703E+00    2.9111014340020414E+00    1.0315438952198116E+01
Ga    8.4281836028488506E+00    4.7954884892074565E+00    1.0939256519620530E+01
N    8.6014430599458418E+00    4.9139967019272435E+00    1.2848843560697466E+01
Ga    8.6971931735706978E+00    3.1388527045657852E+00    1.3648792894570075E+01
N    8.2574727254026872E+00    2.8283276495651886E+00    1.5505226258431524E+01
Ga    7.1838528527614498E+00    4.0663002204558829E+00    1.6713007575724550E+01
N    8.9160438170629419E+00    3.2035402550543961E+00    1.6839056131481311E+01
N    6.5646470857826591E+00    5.5719170563662246E+00   -1.4486273762047383E-01
Ga    6.5855819211277007E+00    7.4420815543944663E+00    5.2992892687293902E-01
N    6.6032648901616096E+00    7.4482745272298985E+00    2.4532451608809591E+00
Ga    6.5862417815646817E+00    5.5776387049954108E+00    3.1551651078637977E+00
N    6.6134971673675427E+00    5.5827830446322544E+00    5.0854282700194222E+00
Ga    6.6411767082983131E+00    7.4599756506780226E+00    5.7812754340328310E+00
N    6.7079548349287643E+00    7.5101355485214158E+00    7.7145781778842144E+00
Ga    6.6855374262475618E+00    5.6506202615850185E+00    8.3875793749601026E+00
N    6.7981517453865292E+00    5.7428302085826246E+00    1.0317974055920958E+01
Ga    6.8501874187344240E+00    7.6148306076505996E+00    1.1035398873605530E+01
N    7.0529844228222087E+00    7.7571058911868009E+00    1.2968960893906605E+01
Ga    7.0972638773048500E+00    5.9023421623962342E+00    1.3632697579942560E+01
N    6.6407010331630030E+00    5.6418228537712594E+00    1.5500824223148332E+01
Ga    5.5579900948505578E+00    6.8323218449270318E+00    1.6753088934647518E+01
N    7.3202185641142155E+00    6.0004400561277622E+00    1.6841743697057900E+01
N    4.9544211454658909E+00    8.3612397026155953E+00   -1.4449318909174833E-01
Ga    4.9753813970283094E+00    1.0231511187026664E+01    5.2971459551174660E-01
N    4.9932882792413507E+00    1.0237259292944515E+01    2.4529118620600956E+00
Ga    4.9748188019066983E+00    8.3674329007183026E+00    3.1558412183692521E+00
N    5.0019125452591942E+00    8.3726469147168956E+00    5.0859613298110986E+00
Ga    5.0284608547496692E+00    1.0246707867840962E+01    5.7908311697409838E+00
N    5.0911594693894315E+00    1.0292974381410549E+01    7.7281448693832990E+00
Ga    5.0880860018362126E+00    8.4246155815916932E+00    8.3949464981214348E+00
N    5.2120474501397336E+00    8.4972930555201138E+00    1.0323515394862884E+01
Ga    5.2119111352736782E+00    1.0373411071308563E+01    1.0964153232767313E+01
N    5.3766438575854707E+00    1.0490658601357868E+01    1.2871027468744648E+01
Ga    5.4858939005296046E+00    8.7128137802449732E+00    1.3666471478251591E+01
N    5.0087715852349017E+00    8.3764921731250013E+00    1.5526245661994610E+01
Ga    3.9252511567893924E+00    9.6403269111989047E+00    1.6689851020550883E+01
N    5.6733399744890498E+00    8.7809572351112166E+00    1.6857943687652647E+01
H    4.4039804045504193E-03   -5.6687302045702144E-03   -1.1732196508056112E+00
H   -1.6059419938912056E+00    2.7832831043111153E+00   -1.1727257772678781E+00
H   -3.2161655488026213E+00    5.5727432851609988E+00   -1.1736599710513451E+00
H   -4.8268870127512482E+00    8.3618063668966638E+00   -1.1726336197349227E+00
H    3.2650153618957520E+00   -5.2985681067449922E-03   -1.1728276610327353E+00
H    1.6547240165611028E+00    2.7835657469064077E+00   -1.1727815759771556E+00
H    4.4292537054471059E-02    5.5730846470264384E+00   -1.1732172667772971E+00
H   -1.5660147155216906E+00    8.3620515714700101E+00   -1.1729196741294479E+00
H    6.5242534164914661E+00   -6.0074875313446121E-03   -1.1733776090289649E+00
H    4.9135721691687655E+00    2.7832436555916007E+00   -1.1731665382939747E+00
H    3.3033685275807825E+00    5.5728858543677102E+00   -1.1732232634147866E+00
H    1.6931634423970787E+00    8.3618052528982787E+00   -1.1728242838348082E+00
H    9.7847459733143829E+00   -5.2654874563598944E-03   -1.1730937612715917E+00
H    8.1746151396581954E+00    2.7834398233783713E+00   -1.1728960798324937E+00
H    6.5638795019339549E+00    5.5734243486977055E+00   -1.1731595108205612E+00
H    4.9537371719735992E+00    8.3620746024327079E+00   -1.1727716057563227E+00
     &END COORD
     &KIND H
       BASIS_SET DZVP-MOLOPT-SR-GTH-q1
       POTENTIAL GTH-PBE-q1
       &POTENTIAL
 1
  0.2000000000000000E+00 2 -0.4178900440000000E+01  0.7244633100000000E+00
 0
         # Potential name:  GTH-PBE-Q1  for symbol:  H
         # Potential read from the potential filename: GTH_POTENTIALS
       &END POTENTIAL
     &END KIND
     &KIND N
       BASIS_SET DZVP-MOLOPT-SR-GTH
       POTENTIAL GTH-PBE-q5
       &POTENTIAL
 2 3
  0.2837905100000000E+00 2 -0.1241522559000000E+02  0.1868095920000000E+01
 2
  0.2554050000000000E+00 1  0.1363026257000000E+02
  0.2454945300000000E+00 0
         # Potential name:  GTH-PBE-Q5  for symbol:  N
         # Potential read from the potential filename: GTH_POTENTIALS
       &END POTENTIAL
     &END KIND
     &KIND Ga
       BASIS_SET DZVP-MOLOPT-SR-GTH
       POTENTIAL GTH-PBE-q13
       &POTENTIAL
 2 1 10
  0.4900000000000000E+00 0
 3
  0.4167772300000000E+00 3  0.1047568975000000E+02 -0.4921768140000000E+01  0.8707055900000000E+00
  0.7770178090000000E+01 -0.2248152160000000E+01
  0.1784415450000000E+01
  0.5696265200000000E+00 2  0.1777985340000000E+01  0.1958597600000000E+00
 -0.2317443900000000E+00
  0.2381265000000000E+00 1 -0.1624868022000000E+02
         # Potential name:  GTH-PBE-Q13  for symbol:  GA
         # Potential read from the potential filename: GTH_POTENTIALS
       &END POTENTIAL
     &END KIND
     &TOPOLOGY
       NUMBER_OF_ATOMS  256
       MULTIPLE_UNIT_CELL  1 1 1
     &END TOPOLOGY
   &END SUBSYS
 &END FORCE_EVAL
