 # Version information for this restart file 
 # current date 2019-06-10 23:50:42.148
 # current working dir /lustre03/project/6037349/rzk/GaN-carbene/444-addat/00-Surface/RKS
 # Program compiled at                              Sun Apr  7 00:48:11 EDT 2019
 # Program compiled on                          beluga2.int.ets1.calculquebec.ca
 # Program compiled for                        Beluga-Linux-x86-64-intel-openmpi
 # Source code revision number                                         svn:18619
 &GLOBAL
   PRINT_LEVEL  MEDIUM
   PROJECT_NAME TEST
   RUN_TYPE  CELL_OPT
 &END GLOBAL
 &MOTION
   &CELL_OPT
     MAX_ITER  300
     STEP_START_VAL  87
     EXTERNAL_PRESSURE     1.0000000000000000E+00
     KEEP_ANGLES  T
     KEEP_SYMMETRY  T
     CONSTRAINT  Z
     PRESSURE_TOLERANCE     5.0000000000000000E+02
   &END CELL_OPT
 &END MOTION
 &FORCE_EVAL
   METHOD  QS
   STRESS_TENSOR  ANALYTICAL
   &DFT
     BASIS_SET_FILE_NAME BASIS_MOLOPT
     POTENTIAL_FILE_NAME GTH_POTENTIALS
     SURFACE_DIPOLE_CORRECTION  T
     SURF_DIP_DIR  Z
     &SCF
       MAX_SCF  100
       EPS_SCF     5.0000000000000004E-06
       &OT  T
         PRECONDITIONER  FULL_ALL
       &END OT
       &OUTER_SCF  T
         OPTIMIZER  NONE
         EPS_SCF     5.0000000000000004E-06
         MAX_SCF  4
       &END OUTER_SCF
       &PRINT
         &RESTART  OFF
           BACKUP_COPIES  1
           &EACH
             JUST_ENERGY  0
             QS_SCF  0
             MD  20
           &END EACH
         &END RESTART
       &END PRINT
     &END SCF
     &QS
       EPS_DEFAULT     1.0000000000000000E-14
       METHOD  GPW
     &END QS
     &MGRID
       NGRIDS  5
       CUTOFF     1.2000000000000000E+03
     &END MGRID
     &XC
       DENSITY_CUTOFF     1.0000000000000000E-10
       GRADIENT_CUTOFF     1.0000000000000000E-10
       TAU_CUTOFF     1.0000000000000000E-10
       &XC_FUNCTIONAL  NO_SHORTCUT
         &PBE  T
         &END PBE
       &END XC_FUNCTIONAL
       &VDW_POTENTIAL
         POTENTIAL_TYPE  PAIR_POTENTIAL
         &PAIR_POTENTIAL
           R_CUTOFF     1.0000000000000005E+01
           TYPE  DFTD3
           PARAMETER_FILE_NAME dftd3.dat
           REFERENCE_FUNCTIONAL PBE
           EPS_CN     9.9999999999999995E-07
           CALCULATE_C9_TERM  T
           REFERENCE_C9_TERM  T
           LONG_RANGE_CORRECTION  F
           VERBOSE_OUTPUT  F
         &END PAIR_POTENTIAL
       &END VDW_POTENTIAL
     &END XC
   &END DFT
   &SUBSYS
     &CELL
       A     1.3015424996113969E+01    0.0000000000000000E+00    0.0000000000000000E+00
       B    -6.4498017443249118E+00    1.1171384319917282E+01    0.0000000000000000E+00
       C     0.0000000000000000E+00    0.0000000000000000E+00    3.2000000000000000E+01
       MULTIPLE_UNIT_CELL  1 1 1
       &CELL_REF
         A     1.2982353780853531E+01    0.0000000000000000E+00    0.0000000000000000E+00
         B    -6.4911768904267628E+00    1.1243048175136114E+01    0.0000000000000000E+00
         C     0.0000000000000000E+00    0.0000000000000000E+00    3.2000000000000000E+01
         MULTIPLE_UNIT_CELL  1 1 1
       &END CELL_REF
     &END CELL
     &COORD
N    1.2535603915282265E-01    6.0982070211331271E-02   -1.5157001527153852E-01
Ga    1.4105696404872128E-01    1.9298745230850640E+00    5.1484731128882133E-01
N    1.8625333233823271E-01    1.9667359871277685E+00    2.4383532446746057E+00
Ga    1.7954028443750111E-01    1.0399172339497263E-01    3.1489239576481700E+00
N    2.1420397595148302E-01    1.2380971896553090E-01    5.0814931635213920E+00
Ga    2.3181985534941366E-01    1.9939679577171445E+00    5.7695411465948157E+00
N    2.4704566049987642E-01    2.0067529831915594E+00    7.7047021095196415E+00
Ga    2.2844565535584418E-01    1.3988711371003199E-01    8.3878440642805590E+00
N    2.4047609249028135E-01    1.4237870275808365E-01    1.0323406104747265E+01
Ga    2.6289434665867656E-01    2.0098134357337325E+00    1.1014198997072718E+01
N    2.9447939162607634E-01    2.0256266344940665E+00    1.2942158484497034E+01
Ga    2.4650165674980337E-01    1.5020215672443885E-01    1.3606032882320452E+01
N   -2.5321587611109558E-01   -1.3676054968484502E-01    1.5363291801398239E+01
Ga   -9.4025611112743568E-01    9.9859835666602559E-01    1.6747109158410527E+01
N    3.5650824759829614E-01    1.9079093475327480E-01    1.8043409337143103E+01
N   -1.4871997851490908E+00    2.8548351392316684E+00   -1.4726260197348018E-01
Ga   -1.4718667510005319E+00    4.7233072328167918E+00    5.1970081682257707E-01
N   -1.4264253322132829E+00    4.7588473010130654E+00    2.4421989072106962E+00
Ga   -1.4339547417200924E+00    2.8952091344714348E+00    3.1506670740274214E+00
N   -1.3975709812360244E+00    2.9178327700328275E+00    5.0828702015039040E+00
Ga   -1.3809770423388457E+00    4.7876116472881360E+00    5.7726641048761405E+00
N   -1.3674469733384611E+00    4.8012130518741438E+00    7.7092477216423454E+00
Ga   -1.3775134710120607E+00    2.9336287672687136E+00    8.3902122694410952E+00
N   -1.3642493676347260E+00    2.9345192421596042E+00    1.0326293809911169E+01
Ga   -1.3603412717374481E+00    4.8005862497485792E+00    1.1027104616584760E+01
N   -1.3357896121302317E+00    4.8314714019081846E+00    1.2961418739931750E+01
Ga   -1.3259787268117429E+00    2.9577758905159204E+00    1.3614513096565430E+01
N   -1.8274906309025236E+00    2.5290358550526961E+00    1.5436326422510932E+01
Ga   -2.8150676265955368E+00    4.2776363879167674E+00    1.6853807851168401E+01
N   -1.3375433011479578E+00    2.9633956389053382E+00    1.6717277082626659E+01
N   -3.0995875002800486E+00    5.6465675194465819E+00   -1.4957508635259817E-01
Ga   -3.0841018608372459E+00    7.5153057496744617E+00    5.1798396731019614E-01
N   -3.0385730303040028E+00    7.5515182627116655E+00    2.4406202632966658E+00
Ga   -3.0465349749932389E+00    5.6888596796778312E+00    3.1497604656851950E+00
N   -3.0097178817287564E+00    5.7104985443709007E+00    5.0817816847714585E+00
Ga   -2.9923657868328872E+00    7.5782662193012174E+00    5.7735380293591732E+00
N   -2.9778414652447904E+00    7.5945766351454358E+00    7.7094610926752507E+00
Ga   -2.9917109697890751E+00    5.7285309437526921E+00    8.3977614915530570E+00
N   -2.9806892921747736E+00    5.7301037669916290E+00    1.0330092983445256E+01
Ga   -2.9678546277857243E+00    7.5927641263752559E+00    1.1033037456436910E+01
N   -2.9341446413613785E+00    7.6058245716437360E+00    1.2965378254046810E+01
Ga   -2.9600967788897417E+00    5.7454738967387273E+00    1.3674685148400425E+01
N   -3.4127467281144295E+00    5.4801702461288144E+00    1.5456681134097844E+01
Ga   -4.1479073276209988E+00    6.5850991113030117E+00    1.6860550304617853E+01
N   -2.8052472639032624E+00    5.8155657708400481E+00    1.8109618831132764E+01
N   -4.7116284028651094E+00    8.4396937983839120E+00   -1.4732947108109951E-01
Ga   -4.6963944397921367E+00    1.0309161158227029E+01    5.1706929620331210E-01
N   -4.6502390224139400E+00    1.0343941046969155E+01    2.4405060750743766E+00
Ga   -4.6586275271536159E+00    8.4800655783128427E+00    3.1510082839540492E+00
N   -4.6220362047778982E+00    8.5017612810623682E+00    5.0832271013997588E+00
Ga   -4.6046024486815931E+00    1.0371480265164463E+01    5.7676730310814968E+00
N   -4.5935956138937000E+00    1.0388513446173365E+01    7.7040029641926253E+00
Ga   -4.6027894467642012E+00    8.5216513242749183E+00    8.3915167662597909E+00
N   -4.5903938423015891E+00    8.5225712670180176E+00    1.0328014967531525E+01
Ga   -4.5780307746716833E+00    1.0391873063921468E+01    1.1012182442160006E+01
N   -4.5520789870533811E+00    1.0418167842343893E+01    1.2943611248545661E+01
Ga   -4.5556566218213481E+00    8.5532077170528211E+00    1.3617388428180885E+01
N   -5.1732305339705533E+00    8.3423842334984641E+00    1.5445418830077498E+01
Ga   -6.0516137818523497E+00    9.8491298916121917E+00    1.6729809772470720E+01
N   -4.5395467318404279E+00    8.5137259251252253E+00    1.6728333210006298E+01
N    3.3792977698047433E+00    6.1477772239017799E-02   -1.4804715767777604E-01
Ga    3.3951668207958292E+00    1.9302659086537841E+00    5.1753166394884287E-01
N    3.4395926325500534E+00    1.9658317191988193E+00    2.4404697618099660E+00
Ga    3.4341985610433774E+00    1.0389686686303112E-01    3.1525844621858932E+00
N    3.4720588215789059E+00    1.2616883953455146E-01    5.0866443391739393E+00
Ga    3.4865894943761440E+00    1.9932117676809038E+00    5.7831012655194991E+00
N    3.5056885952268138E+00    2.0101527175349587E+00    7.7196241743236067E+00
Ga    3.4858811454022898E+00    1.4312846415652644E-01    8.4030129410000445E+00
N    3.5009400576494851E+00    1.4722542084285525E-01    1.0339590310539498E+01
Ga    3.5177827742703807E+00    2.0097103440403843E+00    1.1033759313188655E+01
N    3.5470801268941847E+00    2.0314768423645035E+00    1.2977916505295122E+01
Ga    3.5049683766702153E+00    1.8737589900206109E-01    1.3690821513103273E+01
N    2.9225334085409869E+00   -6.2187863436311393E-02    1.5565321604074640E+01
Ga    1.8969058828120593E+00    1.0725425815308751E+00    1.7594578191715506E+01
N    3.5378557290934962E+00    2.5651296237504473E-01    1.6897381171831828E+01
N    1.7672526003008162E+00    2.8543056041437742E+00   -1.4661807468417312E-01
Ga    1.7815604059807246E+00    4.7230737361180246E+00    5.1693854196122491E-01
N    1.8257636722841017E+00    4.7577767461918015E+00    2.4397004668296782E+00
Ga    1.8209452898855942E+00    2.8961390746321705E+00    3.1531935012847172E+00
N    1.8595556250314369E+00    2.9183872791136984E+00    5.0878716526361556E+00
Ga    1.8705741743294508E+00    4.7855382875899739E+00    5.7825487219513967E+00
N    1.8868123058343036E+00    4.8001384368308724E+00    7.7192130376865320E+00
Ga    1.8771926560100218E+00    2.9312952378128077E+00    8.4008076152237852E+00
N    1.8931042974935146E+00    2.9304672219389993E+00    1.0336478646771797E+01
Ga    1.9007298311928191E+00    4.7906522585092191E+00    1.1044337967215489E+01
N    1.9139192252867054E+00    4.8043117803031592E+00    1.2990781390694757E+01
Ga    1.9221947433038631E+00    2.9260072058213229E+00    1.3682520878236318E+01
N    1.4140525419886405E+00    2.5292920543511106E+00    1.5560448831008983E+01
Ga    3.0013750218980595E-01    3.8674561564245153E+00    1.6425389356839261E+01
N    2.0037835803608868E+00    2.8891995604631178E+00    1.6880340346418553E+01
N    1.5367377556718487E-01    5.6463483477437935E+00   -1.4705681758723718E-01
Ga    1.6890955416745576E-01    7.5152142016724115E+00    5.1779049908652308E-01
N    2.1198672280164696E-01    7.5503839523987679E+00    2.4401659004061518E+00
Ga    2.0858481835633871E-01    5.6891474065496030E+00    3.1535720673220369E+00
N    2.4601263533107995E-01    5.7111718365618493E+00    5.0877074736724079E+00
Ga    2.5767177889685955E-01    7.5771021496331405E+00    5.7855827119556098E+00
N    2.7327059481601512E-01    7.5919494374419658E+00    7.7236180909118080E+00
Ga    2.6215041986475440E-01    5.7239227452051731E+00    8.4128063734399898E+00
N    2.7669968151391178E-01    5.7250248568868960E+00    1.0351107448095561E+01
Ga    2.9616367635955682E-01    7.5966402604211005E+00    1.1026553787420299E+01
N    3.3225569582010134E-01    7.6222107555055372E+00    1.2969159164247916E+01
Ga    2.9466696631978478E-01    5.7712492409907359E+00    1.3657487761855466E+01
N   -2.3697623235571080E-01    5.4944044249775681E+00    1.5519851967260049E+01
Ga   -1.2733273870114792E+00    6.7000341810315041E+00    1.7573284719713357E+01
N    3.2847501007014407E-01    5.8415583110538405E+00    1.6844984822801468E+01
N   -1.4587230823880846E+00    8.4396886842456134E+00   -1.4620796101431077E-01
Ga   -1.4433580483199440E+00    1.0308538519753878E+01    5.1760086016896856E-01
N   -1.3991754818118418E+00    1.0342970321957420E+01    2.4402352211512754E+00
Ga   -1.4045904632555997E+00    8.4814686569518223E+00    3.1545555155568739E+00
N   -1.3667823047553402E+00    8.5033904501487658E+00    5.0886095880593700E+00
Ga   -1.3539880054959241E+00    1.0369596162385429E+01    5.7834020114049602E+00
N   -1.3387672796129797E+00    1.0386012181794477E+01    7.7206641942971661E+00
Ga   -1.3511778527883844E+00    8.5204968600834867E+00    8.4128678592917083E+00
N   -1.3365533217656091E+00    8.5226763750419110E+00    1.0351144311411460E+01
Ga   -1.3314559178711658E+00    1.0391271799145297E+01    1.1047847684060166E+01
N   -1.3157544701787580E+00    1.0409829462968924E+01    1.2996541003678484E+01
Ga   -1.2908742475186696E+00    8.5268743048566282E+00    1.3658695798041334E+01
N   -1.7931334235474199E+00    8.1962923126054985E+00    1.5522313366631908E+01
Ga   -2.9313540314012583E+00    9.4648522430669715E+00    1.6432014344417173E+01
N   -1.1939431027935385E+00    8.5035884215643769E+00    1.6845019178339271E+01
N    6.6317988737803564E+00    6.1277012887622426E-02   -1.4731419513617608E-01
Ga    6.6475048784067097E+00    1.9303896866327479E+00    5.1775109151098164E-01
N    6.6906125293877112E+00    1.9641924522930323E+00    2.4407306005481213E+00
Ga    6.6820323187623059E+00    1.0170827208077099E-01    3.1535456022490922E+00
N    6.7178746742480211E+00    1.2241367067344634E-01    5.0873949752367302E+00
Ga    6.7329045762045583E+00    1.9890859903420082E+00    5.7794715844323807E+00
N    6.7466972884031673E+00    2.0033865523683243E+00    7.7157483892274996E+00
Ga    6.7386162199425668E+00    1.4148063112088002E-01    8.4157247610587529E+00
N    6.7521523513671138E+00    1.4512915849621438E-01    1.0359780708296542E+01
Ga    6.7817571497713676E+00    2.0136041247499818E+00    1.1037775723137205E+01
N    6.8141973971505951E+00    2.0384382174079985E+00    1.2985546586784713E+01
Ga    6.7956327445216536E+00    1.7634249549464348E-01    1.3647293342510810E+01
N    6.2531107555759409E+00   -1.4245207085741668E-01    1.5482795639031664E+01
Ga    5.2062632049247028E+00    1.1222746307843763E+00    1.6576764530130561E+01
N    6.9036309181378623E+00    2.4256227203394432E-01    1.7072021696683194E+01
N    5.0200461169848900E+00    2.8541076699811967E+00   -1.4891602935755921E-01
Ga    5.0356062857683153E+00    4.7222668186151084E+00    5.1892425533958331E-01
N    5.0786755292296641E+00    4.7564890404989004E+00    2.4418363699734544E+00
Ga    5.0724561653088109E+00    2.8941943150397011E+00    3.1545205784805845E+00
N    5.1087680523702375E+00    2.9163632257968715E+00    5.0885830220169952E+00
Ga    5.1204462224200711E+00    4.7829568736458832E+00    5.7790114438411644E+00
N    5.1319934779082850E+00    4.7972476720222854E+00    7.7159860528938422E+00
Ga    5.1331358649640269E+00    2.9365422374557797E+00    8.4170562320669458E+00
N    5.1516009258543516E+00    2.9383761934982524E+00    1.0360011274290599E+01
Ga    5.1632596892955878E+00    4.8098838991816519E+00    1.1035039636444750E+01
N    5.1950190934894920E+00    4.8396763989070983E+00    1.2981747058329962E+01
Ga    5.2072193473663422E+00    2.9796681331176105E+00    1.3633711341010587E+01
N    4.6729468753282015E+00    2.6600267163330309E+00    1.5459802751363576E+01
Ga    3.5986630464431362E+00    3.8888551573025496E+00    1.6561599856150540E+01
N    5.2859324699582908E+00    3.0158579198140818E+00    1.7061537917272016E+01
N    3.4076444765507019E+00    5.6457689087472982E+00   -1.4753243545527428E-01
Ga    3.4228876064534903E+00    7.5149513821482827E+00    5.1513973059390727E-01
N    3.4646993772625021E+00    7.5478361916982504E+00    2.4382661322027204E+00
Ga    3.4584804374081219E+00    5.6858063137620265E+00    3.1533585342213333E+00
N    3.4942152510091131E+00    5.7073717963319783E+00    5.0875928628937741E+00
Ga    3.5062792955309310E+00    7.5738954908378862E+00    5.7743465084114396E+00
N    3.5201342724114757E+00    7.5880513281450019E+00    7.7106731055507360E+00
Ga    3.5138976483287658E+00    5.7269797248675980E+00    8.4124458977193584E+00
N    3.5282507071002502E+00    5.7274209820717443E+00    1.0357110965570401E+01
Ga    3.5511406356786659E+00    7.5973899182164546E+00    1.1037006331616025E+01
N    3.5864907165612938E+00    7.6152091526775827E+00    1.2982451491854965E+01
Ga    3.5719143795463322E+00    5.7581423012546171E+00    1.3643084201281194E+01
N    3.0210715363487841E+00    5.4217303170105966E+00    1.5474387823640718E+01
Ga    2.0091693636166954E+00    6.7199880664392309E+00    1.6574458919828103E+01
N    3.6723593496235951E+00    5.7937451462422871E+00    1.7072132330174323E+01
N    1.7944787824451256E+00    8.4395377276239341E+00   -1.4722074437518431E-01
Ga    1.8100680419363353E+00    1.0308996354344577E+01    5.1728085848486094E-01
N    1.8513207484478116E+00    1.0342610787302293E+01    2.4401244036108691E+00
Ga    1.8456744650111414E+00    8.4788584948267722E+00    3.1511057157489537E+00
N    1.8809414924142784E+00    8.4997229751753949E+00    5.0859176685256058E+00
Ga    1.8931561928594249E+00    1.0367386629696021E+01    5.7739021580119729E+00
N    1.9050941737273686E+00    1.0382088660410467E+01    7.7105682697691664E+00
Ga    1.9042480200718237E+00    8.5205678903867952E+00    8.4089916536329881E+00
N    1.9243981019516241E+00    8.5253812783455931E+00    1.0349911581610021E+01
Ga    1.9345441865610893E+00    1.0393053555318852E+01    1.1036359876809193E+01
N    1.9662186850042733E+00    1.0423693976152071E+01    1.2981112140193513E+01
Ga    1.9898056860315756E+00    8.5693882373649011E+00    1.3643484139669152E+01
N    1.4792014919959335E+00    8.2667614286163573E+00    1.5479286405443121E+01
Ga    4.0954299624528340E-01    9.5057270343536349E+00    1.6571229163478975E+01
N    2.0786627012610470E+00    8.6103081702179374E+00    1.7088764035300535E+01
N    9.8860571368213428E+00    6.1093132564884127E-02   -1.4989624648831168E-01
Ga    9.9022726808719401E+00    1.9305087054511152E+00    5.1451420671727544E-01
N    9.9460476765548513E+00    1.9659847244533255E+00    2.4376936850259501E+00
Ga    9.9363957143545054E+00    1.0206644440231673E-01    3.1470563750892571E+00
N    9.9700299614202681E+00    1.2054571494021797E-01    5.0804702640894783E+00
Ga    9.9921156699800271E+00    1.9903667566039716E+00    5.7669345910931256E+00
N    1.0007201830973660E+01    2.0043918372270069E+00    7.7008044843747756E+00
Ga    9.9877274027501812E+00    1.3813660377616482E-01    8.3835236063283922E+00
N    9.9942304662089541E+00    1.4228454084962305E-01    1.0313060006577112E+01
Ga    1.0022345162284939E+01    2.0049430208517882E+00    1.1004340472720425E+01
N    1.0049493695775904E+01    2.0246668817821116E+00    1.2934935270583351E+01
Ga    1.0086907449828209E+01    1.8025915706265827E-01    1.3657572630987993E+01
N    9.6136045743679031E+00   -9.1623353546020470E-02    1.5537422623270443E+01
Ga    8.5093278778938544E+00    1.1362342700609254E+00    1.6705237078703934E+01
N    1.0269773577963230E+01    2.6836374702125831E-01    1.6888540497751805E+01
N    8.2733840864357475E+00    2.8543815248446225E+00   -1.4784074315089885E-01
Ga    8.2902806216557838E+00    4.7234276677958515E+00    5.1759128116789388E-01
N    8.3337728333662096E+00    4.7571815196735061E+00    2.4405159977622279E+00
Ga    8.3256412232105905E+00    2.8932217417334876E+00    3.1516487067036323E+00
N    8.3600769203190701E+00    2.9130443490683531E+00    5.0851501816978582E+00
Ga    8.3792336689207279E+00    4.7845332055899927E+00    5.7655246807646492E+00
N    8.3912758972626893E+00    4.7990833597297895E+00    7.7021699844621843E+00
Ga    8.3810313754991697E+00    2.9292819098472629E+00    8.3861818221583029E+00
N    8.3947483398959761E+00    2.9275073392410396E+00    1.0318759156875396E+01
Ga    8.4022006681237542E+00    4.7989862016650315E+00    1.0986890676641822E+01
N    8.4211770928752543E+00    4.8166106466947634E+00    1.2912083310973410E+01
Ga    8.4748323503260945E+00    2.9922232696715931E+00    1.3647496473339460E+01
N    8.0321000427343208E+00    2.7285572925321380E+00    1.5534537890962673E+01
Ga    6.8833922096873073E+00    3.9084942291750466E+00    1.6718567383337280E+01
N    8.6510900211373265E+00    3.0879503234699652E+00    1.6920089368395736E+01
N    6.6612928306990593E+00    5.6461122922519165E+00   -1.4797439802336523E-01
Ga    6.6777152171111060E+00    7.5157734299560763E+00    5.1409233701049750E-01
N    6.7225340464436192E+00    7.5497934650707954E+00    2.4373247198548960E+00
Ga    6.7130815724895827E+00    5.6874283274204469E+00    3.1511126847708284E+00
N    6.7471743950875434E+00    5.7079478642772079E+00    5.0847414954991930E+00
Ga    6.7662403796976927E+00    7.5781101767222943E+00    5.7688386340374045E+00
N    6.7801137739356170E+00    7.5942164568002530E+00    7.7023595817649042E+00
Ga    6.7640812019020773E+00    5.7274880691400947E+00    8.3858645776821970E+00
N    6.7746467807312474E+00    5.7336867854309164E+00    1.0320546023678753E+01
Ga    6.7933039802853665E+00    7.5996237462694314E+00    1.1006042390674285E+01
N    6.8211826691902298E+00    7.6219728302032124E+00    1.2935591699852665E+01
Ga    6.8610764410628517E+00    5.7758706117305563E+00    1.3641303360226674E+01
N    6.4190516060328457E+00    5.5186017992231022E+00    1.5532231867090820E+01
Ga    5.2794252833536746E+00    6.7000059672205277E+00    1.6700364714061955E+01
N    7.0503532380062968E+00    5.8499857896935454E+00    1.6907667388493529E+01
N    5.0489222036451107E+00    8.4398468404132139E+00   -1.4897205811450712E-01
Ga    5.0653985796249179E+00    1.0309564328199555E+01    5.1491987023781360E-01
N    5.1092886252205103E+00    1.0343379762206471E+01    2.4383333506420013E+00
Ga    5.1004383298708653E+00    8.4774243903676130E+00    3.1471341276642613E+00
N    5.1336025488036583E+00    8.4966009752707219E+00    5.0812880633856690E+00
Ga    5.1509057942475733E+00    1.0367342439860318E+01    5.7580918943848687E+00
N    5.1635862400541006E+00    1.0382399200067615E+01    7.6951127816614093E+00
Ga    5.1524665448757734E+00    8.5153483067932676E+00    8.3821677466776094E+00
N    5.1659114065249403E+00    8.5086080535210371E+00    1.0312504194565165E+01
Ga    5.1659575937944986E+00    1.0376622409504810E+01    1.0981192604724578E+01
N    5.1718762637912077E+00    1.0383898863693954E+01    1.2885008255742918E+01
Ga    5.2432555299405816E+00    8.5777296523306035E+00    1.3657514905017294E+01
N    4.7727768704139359E+00    8.2758021774601946E+00    1.5540387796588092E+01
Ga    3.6731955024765246E+00    9.5078248636045650E+00    1.6772247558545111E+01
N    5.4183580343927922E+00    8.6616206518107113E+00    1.6883352385619197E+01
H    1.1877416679277519E-01    5.7512103929025470E-02   -1.1790966377685630E+00
H   -1.4942683061052808E+00    2.8513133800065997E+00   -1.1744347075278612E+00
H   -3.1066696411876036E+00    5.6429442118867277E+00   -1.1770588480024911E+00
H   -4.7171552644601782E+00    8.4332078561602284E+00   -1.1744385388067351E+00
H    3.3757878453657777E+00    5.8018631716580872E-02   -1.1753920487371701E+00
H    1.7622218311422311E+00    2.8514273429713066E+00   -1.1737990255104607E+00
H    1.4834899219955203E-01    5.6435684553884116E+00   -1.1742400562826809E+00
H   -1.4641779347300956E+00    8.4353816888533828E+00   -1.1732764878331488E+00
H    6.6242881538394087E+00    5.7742258989845842E-02   -1.1744825050185059E+00
H    5.0138784903239282E+00    2.8495850950632313E+00   -1.1763052607609767E+00
H    3.4007647467532491E+00    5.6417506878152199E+00   -1.1746329348776063E+00
H    1.7864624020337225E+00    8.4338707517692537E+00   -1.1742470476861544E+00
H    9.8794301806132481E+00    5.8652664640977084E-02   -1.1772580190597672E+00
H    8.2668658867623659E+00    2.8513584379624706E+00   -1.1750711411314290E+00
H    6.6562241557682240E+00    5.6422443235008153E+00   -1.1752318952124923E+00
H    5.0429921632245263E+00    8.4344365507400791E+00   -1.1761301103805870E+00
     &END COORD
     &KIND H
       BASIS_SET DZVP-MOLOPT-SR-GTH-q1
       POTENTIAL GTH-PBE-q1
       &POTENTIAL
1
0.2000000000000000E+00 2 -0.4178900440000000E+01  0.7244633100000000E+00
0
       &END POTENTIAL
     &END KIND
     &KIND N
       BASIS_SET DZVP-MOLOPT-SR-GTH
       POTENTIAL GTH-PBE-q5
       &POTENTIAL
2 3
0.2837905100000000E+00 2 -0.1241522559000000E+02  0.1868095920000000E+01
2
0.2554050000000000E+00 1  0.1363026257000000E+02
0.2454945300000000E+00 0
       &END POTENTIAL
     &END KIND
     &KIND Ga
       BASIS_SET DZVP-MOLOPT-SR-GTH
       POTENTIAL GTH-PBE-q13
       &POTENTIAL
2 1 10
0.4900000000000000E+00 0
3
0.4167772300000000E+00 3  0.1047568975000000E+02 -0.4921768140000000E+01  0.8707055900000000E+00
0.7770178090000000E+01 -0.2248152160000000E+01
0.1784415450000000E+01
0.5696265200000000E+00 2  0.1777985340000000E+01  0.1958597600000000E+00
-0.2317443900000000E+00
0.2381265000000000E+00 1 -0.1624868022000000E+02
       &END POTENTIAL
     &END KIND
     &TOPOLOGY
       NUMBER_OF_ATOMS  256
       MULTIPLE_UNIT_CELL  1 1 1
     &END TOPOLOGY
   &END SUBSYS
 &END FORCE_EVAL
