 # Version information for this restart file 
 # current date 2019-06-10 15:03:28.091
 # current working dir /lustre03/project/6037349/rzk/GaN-carbene/444-addat/00-Surface/RKS
 # Program compiled at                              Sun Apr  7 00:48:11 EDT 2019
 # Program compiled on                          beluga2.int.ets1.calculquebec.ca
 # Program compiled for                        Beluga-Linux-x86-64-intel-openmpi
 # Source code revision number                                         svn:18619
 &GLOBAL
   PRINT_LEVEL  MEDIUM
   PROJECT_NAME TEST
   RUN_TYPE  CELL_OPT
 &END GLOBAL
 &MOTION
   &CELL_OPT
     MAX_ITER  300
     STEP_START_VAL  39
     EXTERNAL_PRESSURE     1.0000000000000000E+00
     KEEP_ANGLES  T
     KEEP_SYMMETRY  T
     CONSTRAINT  Z
     PRESSURE_TOLERANCE     5.0000000000000000E+02
   &END CELL_OPT
 &END MOTION
 &FORCE_EVAL
   METHOD  QS
   STRESS_TENSOR  ANALYTICAL
   &DFT
     BASIS_SET_FILE_NAME BASIS_MOLOPT
     POTENTIAL_FILE_NAME GTH_POTENTIALS
     SURFACE_DIPOLE_CORRECTION  T
     SURF_DIP_DIR  Z
     &SCF
       MAX_SCF  100
       EPS_SCF     5.0000000000000004E-06
       &OT  T
         PRECONDITIONER  FULL_ALL
       &END OT
       &OUTER_SCF  T
         OPTIMIZER  NONE
         EPS_SCF     5.0000000000000004E-06
         MAX_SCF  4
       &END OUTER_SCF
       &PRINT
         &RESTART  OFF
           BACKUP_COPIES  1
           &EACH
             JUST_ENERGY  0
             QS_SCF  0
             MD  20
           &END EACH
         &END RESTART
       &END PRINT
     &END SCF
     &QS
       EPS_DEFAULT     1.0000000000000000E-14
       METHOD  GPW
     &END QS
     &MGRID
       NGRIDS  5
       CUTOFF     1.2000000000000000E+03
     &END MGRID
     &XC
       DENSITY_CUTOFF     1.0000000000000000E-10
       GRADIENT_CUTOFF     1.0000000000000000E-10
       TAU_CUTOFF     1.0000000000000000E-10
       &XC_FUNCTIONAL  NO_SHORTCUT
         &PBE  T
         &END PBE
       &END XC_FUNCTIONAL
       &VDW_POTENTIAL
         POTENTIAL_TYPE  PAIR_POTENTIAL
         &PAIR_POTENTIAL
           R_CUTOFF     1.0000000000000004E+01
           TYPE  DFTD3
           PARAMETER_FILE_NAME dftd3.dat
           REFERENCE_FUNCTIONAL PBE
           EPS_CN     9.9999999999999995E-07
           CALCULATE_C9_TERM  T
           REFERENCE_C9_TERM  T
           LONG_RANGE_CORRECTION  F
           VERBOSE_OUTPUT  F
         &END PAIR_POTENTIAL
       &END VDW_POTENTIAL
     &END XC
   &END DFT
   &SUBSYS
     &CELL
       A     1.3072911558686950E+01    0.0000000000000000E+00    0.0000000000000000E+00
       B    -6.4654340064329077E+00    1.1198460192125379E+01    0.0000000000000000E+00
       C     0.0000000000000000E+00    0.0000000000000000E+00    3.2000000000000000E+01
       MULTIPLE_UNIT_CELL  1 1 1
       &CELL_REF
         A     1.2982353780853531E+01    0.0000000000000000E+00    0.0000000000000000E+00
         B    -6.4911768904267628E+00    1.1243048175136114E+01    0.0000000000000000E+00
         C     0.0000000000000000E+00    0.0000000000000000E+00    3.2000000000000000E+01
         MULTIPLE_UNIT_CELL  1 1 1
       &END CELL_REF
     &END CELL
     &COORD
N   -2.8851575810712846E-03   -1.0628013928726138E-02   -1.3488394820793589E-01
Ga    2.1072163696111972E-02    1.8753174785037467E+00    5.0930111022653402E-01
N    2.8519497003833771E-02    1.8755392980725760E+00    2.4236221742311996E+00
Ga    6.3743480788601651E-03   -1.0856885196814532E-02    3.1123469026545161E+00
N    2.5131037795006032E-02   -1.2468061600347571E-02    5.0535202164313624E+00
Ga    5.1102462399917566E-02    1.8738005638468971E+00    5.7456772678858874E+00
N    9.2606227221273762E-02    1.8919357863705255E+00    7.7085122647952824E+00
Ga    7.9365363162089642E-02    1.2430272365999237E-02    8.3773326061550257E+00
N    1.4367740963838418E-01    7.1704551552435936E-02    1.0343396821939882E+01
Ga    1.6793645303659765E-01    1.9696156980702335E+00    1.1038513824837269E+01
N    3.7127741796635610E-01    2.0853969362414286E+00    1.2989868685043199E+01
Ga    3.5760935521378912E-01    2.0124746574211247E-01    1.3594452828459060E+01
N    1.8830605082606894E-02    3.3944374891860599E-02    1.5446453845317635E+01
Ga   -6.5141880703874400E-01    1.3891757610231599E+00    1.6723838156903010E+01
N    9.1106565790363192E-01    5.2506691188419208E-01    1.7514960442626030E+01
N   -1.6192199063186052E+00    2.7890605890275357E+00   -1.3521963614681409E-01
Ga   -1.5955406427234016E+00    4.6747736180481416E+00    5.0895946163570749E-01
N   -1.5879908721466294E+00    4.6748119775038974E+00    2.4231310034139275E+00
Ga   -1.6092447668678309E+00    2.7892408844156020E+00    3.1128646307857690E+00
N   -1.5898822621122828E+00    2.7875415273248834E+00    5.0532581770591900E+00
Ga   -1.5643380813415282E+00    4.6734609083809646E+00    5.7470695696207930E+00
N   -1.5229703920189075E+00    4.6910974163287005E+00    7.7075771579949963E+00
Ga   -1.5385270787628227E+00    2.8127076180153905E+00    8.3708722952684003E+00
N   -1.4706708892225075E+00    2.8747929827192444E+00    1.0333110190311105E+01
Ga   -1.4333165172995281E+00    4.7643286931713016E+00    1.1043615127250238E+01
N   -1.2131832885840907E+00    4.8922616026467693E+00    1.2995476676904122E+01
Ga   -1.2179790943836954E+00    3.0421255906081739E+00    1.3667574863197137E+01
N   -1.3643242983098416E+00    2.9411877092951726E+00    1.5605774646714279E+01
Ga   -2.3792007494609693E+00    4.4870905506820833E+00    1.6686645535489365E+01
N   -7.7801059272866357E-01    3.3313361117513400E+00    1.6958326171522241E+01
N   -3.2356569906576849E+00    5.5886014466388172E+00   -1.3493047723793622E-01
Ga   -3.2116918892447175E+00    7.4743643812462848E+00    5.0926051499877656E-01
N   -3.2040975787521591E+00    7.4741203866595276E+00    2.4236255525763708E+00
Ga   -3.2258248926963402E+00    5.5879079899830337E+00    3.1132759330767619E+00
N   -3.2066420439798549E+00    5.5860315277224588E+00    5.0541012208410550E+00
Ga   -3.1812022045537853E+00    7.4730665537884935E+00    5.7441141011080337E+00
N   -3.1394789627578250E+00    7.4915280217258413E+00    7.7060056367681442E+00
Ga   -3.1529430921912636E+00    5.6120569575529835E+00    8.3758853563254192E+00
N   -3.0892242790185156E+00    5.6711544022736309E+00    1.0337692957329049E+01
Ga   -3.0611068995644914E+00    7.5720066668949562E+00    1.1037133841634541E+01
N   -2.8515937295939260E+00    7.6958085088211021E+00    1.2984128960755802E+01
Ga   -2.8992402470672052E+00    5.7876870897046366E+00    1.3582588943321147E+01
N   -3.2426327682276233E+00    5.6230746182995999E+00    1.5359925456763268E+01
Ga   -3.7748761877662274E+00    6.9149407027550289E+00    1.6724563885548481E+01
N   -2.3285615614792210E+00    6.1270008775373217E+00    1.7792937058501401E+01
N   -4.8519313641306088E+00    8.3881976858576621E+00   -1.3506810102783348E-01
Ga   -4.8281696309943714E+00    1.0274113652419052E+01    5.0883495765314324E-01
N   -4.8206560146850688E+00    1.0274286121000069E+01    2.4230570677719445E+00
Ga   -4.8421098329488386E+00    8.3882465788616312E+00    3.1120362357213835E+00
N   -4.8230714602152611E+00    8.3870902896126864E+00    5.0527091341767205E+00
Ga   -4.7979823037569362E+00    1.0273510455912973E+01    5.7452389528379202E+00
N   -4.7559660975948912E+00    1.0291733247137822E+01    7.7063207748779741E+00
Ga   -4.7711791829972068E+00    8.4128546123714916E+00    8.3658460182098864E+00
N   -4.7036080944610603E+00    8.4777980093528296E+00    1.0328743319622523E+01
Ga   -4.6656231428668198E+00    1.0361088860763088E+01    1.1050676282917715E+01
N   -4.4521526371172762E+00    1.0495251304788196E+01    1.3010286997298220E+01
Ga   -4.4362647509892863E+00    8.6214557508092309E+00    1.3664041613330410E+01
N   -4.5724042037914305E+00    8.5362399978576455E+00    1.5605234818139760E+01
Ga   -5.6102392797606573E+00    9.9531548315122915E+00    1.6687619298145318E+01
N   -3.9872759067345962E+00    8.8840680940448991E+00    1.6960545931816242E+01
N    3.2655332804651347E+00   -1.0597866591486879E-02   -1.3487879490484050E-01
Ga    3.2888798004184938E+00    1.8751584851348839E+00    5.0998922048715090E-01
N    3.2970685716034920E+00    1.8754713674577099E+00    2.4247597589426486E+00
Ga    3.2754810541512001E+00   -1.1001369421721172E-02    3.1127681601429487E+00
N    3.2943271719785483E+00   -1.2875333142369595E-02    5.0537470284822090E+00
Ga    3.3197861851564858E+00    1.8745464919552348E+00    5.7419980234572598E+00
N    3.3585587315012644E+00    1.8935519236220664E+00    7.7052335419231808E+00
Ga    3.3446228997151248E+00    1.4752615577750804E-02    8.3691782618134898E+00
N    3.4047786975162326E+00    8.3279902536809391E-02    1.0332706011469957E+01
Ga    3.4399114208372912E+00    1.9731924956530431E+00    1.1020805108217752E+01
N    3.6464575395043379E+00    2.1055386920108101E+00    1.2985335482573683E+01
Ga    3.6681383704786530E+00    2.6159991709507974E-01    1.3683897293165336E+01
N    3.5389112258023991E+00    2.4741459904395119E-01    1.5637448582276408E+01
Ga    2.4183294012479370E+00    1.4531152196549348E+00    1.6983290808353924E+01
N    4.1387641099709809E+00    5.8423552925414646E-01    1.6983993481735450E+01
N    1.6491980657811849E+00    2.7890489425456497E+00   -1.3552925943415145E-01
Ga    1.6726977626397508E+00    4.6745070188632756E+00    5.0926933936487218E-01
N    1.6809130115301474E+00    4.6746715885780494E+00    2.4236470799327132E+00
Ga    1.6588383242543114E+00    2.7891536471433143E+00    3.1134433136130881E+00
N    1.6771614646648607E+00    2.7873537595340361E+00    5.0544609544314678E+00
Ga    1.7042409331881472E+00    4.6739627321238180E+00    5.7470218875537435E+00
N    1.7429042316469721E+00    4.6914097569736697E+00    7.7084491274320079E+00
Ga    1.7269101475718489E+00    2.8141550309419605E+00    8.3765243856170528E+00
N    1.7884892092670586E+00    2.8825943095228674E+00    1.0342674638380100E+01
Ga    1.8072508172697661E+00    4.7826427805164275E+00    1.1038299726623311E+01
N    2.0056536528891984E+00    4.9089791783872494E+00    1.2988296891004472E+01
Ga    2.0367750552315074E+00    3.0393577267325864E+00    1.3598361743819483E+01
N    1.8471018392917067E+00    2.9668097161706490E+00    1.5592191678427865E+01
Ga    8.6720698298726440E-01    4.2171574407194834E+00    1.6819436895098711E+01
N    2.5371249708706358E+00    3.3289540098284696E+00    1.7067679600615655E+01
N    3.2741854367820386E-02    5.5886602108993371E+00   -1.3502393395175000E-01
Ga    5.6478496948060765E-02    7.4745353330091042E+00    5.0997047661693229E-01
N    6.4740887125988578E-02    7.4745941702469434E+00    2.4246544371350711E+00
Ga    4.2851947636402661E-02    5.5878642805618703E+00    3.1126917638509832E+00
N    6.2078712827440596E-02    5.5857861414421190E+00    5.0538583553618537E+00
Ga    8.7738408202681667E-02    7.4736584938750985E+00    5.7425103740843921E+00
N    1.2778525694440140E-01    7.4936785137598809E+00    7.7051616121844368E+00
Ga    1.1145514084247102E-01    5.6152132919500382E+00    8.3714237132574638E+00
N    1.7280357306501029E-01    5.6844631571278894E+00    1.0330379879626761E+01
Ga    2.0296245656956746E-01    7.5708421952375531E+00    1.1028336566373447E+01
N    4.1022567338245325E-01    7.7028078492417480E+00    1.2992384167827655E+01
Ga    4.2306302869262491E-01    5.8612957078791919E+00    1.3700296197822636E+01
N    3.0429097158350943E-01    5.8251883513691327E+00    1.5645398691288724E+01
Ga   -8.5530111042655232E-01    6.9863703504284329E+00    1.7056317466449347E+01
N    8.9537647126744180E-01    6.1847204860016713E+00    1.6981718196223937E+01
N   -1.5835675729869816E+00    8.3882999053258889E+00   -1.3535863023148967E-01
Ga   -1.5600971052502381E+00    1.0273750001718973E+01    5.0952463125577940E-01
N   -1.5518739471422778E+00    1.0274036750554956E+01    2.4240802267616917E+00
Ga   -1.5737343812581361E+00    8.3880005015883015E+00    3.1123562458312422E+00
N   -1.5550939775921790E+00    8.3860534474176056E+00    5.0530455130792191E+00
Ga   -1.5282927959491712E+00    1.0272481557587231E+01    5.7445227626810231E+00
N   -1.4899307650130706E+00    1.0289751697890688E+01    7.7063715065411751E+00
Ga   -1.5040171203644546E+00    8.4120333798144227E+00    8.3727550762163716E+00
N   -1.4397494007086866E+00    8.4793042107245817E+00    1.0334193071782055E+01
Ga   -1.4220796907543878E+00    1.0372274804864634E+01    1.1034232752716690E+01
N   -1.2241068172801863E+00    1.0500297341455324E+01    1.2989670924366370E+01
Ga   -1.1885297522422151E+00    8.6354208502351213E+00    1.3631626967156247E+01
N   -1.3243564274338329E+00    8.6240178865353609E+00    1.5602923345564541E+01
Ga   -2.3748406548628549E+00    9.8244754323985060E+00    1.6830167073579869E+01
N   -6.9457794630158376E-01    8.9064729014103463E+00    1.6995705931922299E+01
N    6.5333526046554420E+00   -1.0591772907609704E-02   -1.3521874007298582E-01
Ga    6.5571117994534660E+00    1.8751615175007312E+00    5.0878948949252290E-01
N    6.5646905099763506E+00    1.8751506781527665E+00    2.4236976531265206E+00
Ga    6.5444141047184665E+00   -1.0842103226083288E-02    3.1133982954955459E+00
N    6.5638091429873313E+00   -1.3291364973087893E-02    5.0545764085798393E+00
Ga    6.5878459398662423E+00    1.8726772397001359E+00    5.7450472580579728E+00
N    6.6269316844414989E+00    1.8873460825349047E+00    7.7065320231900483E+00
Ga    6.6124681725932977E+00    7.7089040711807557E-03    8.3738003411917088E+00
N    6.6732633192859980E+00    6.4890332764060379E-02    1.0339998738064738E+01
Ga    6.7075806973243246E+00    1.9598400201419046E+00    1.1029590460537785E+01
N    6.9011503221166244E+00    2.0788211468984006E+00    1.2992500064201998E+01
Ga    6.9201143951038313E+00    2.1978676478709472E-01    1.3660200683730201E+01
N    6.6937403695275979E+00    1.3810304505447224E-01    1.5606300358156341E+01
Ga    5.7821048163059192E+00    1.4389542826840975E+00    1.6721355468700271E+01
N    7.4317486591796920E+00    4.6623993479524117E-01    1.7196413781200796E+01
N    4.9171405248074871E+00    2.7890240757840461E+00   -1.3560806955436949E-01
Ga    4.9407955460836144E+00    4.6747810476249727E+00    5.0833205047818153E-01
N    4.9484090143351525E+00    4.6747601585278851E+00    2.4231308149924802E+00
Ga    4.9277222396660401E+00    2.7896496597495704E+00    3.1132514155945969E+00
N    4.9467031494786902E+00    2.7874199322550020E+00    5.0545162015223353E+00
Ga    4.9711205134002645E+00    4.6733094964147437E+00    5.7476562872200709E+00
N    5.0100223252952860E+00    4.6889092553092233E+00    7.7083285630411984E+00
Ga    4.9968087864205257E+00    2.8095697774447297E+00    8.3666934847782404E+00
N    5.0637303611499584E+00    2.8709640811349693E+00    1.0333431847134822E+01
Ga    5.0918434697566965E+00    4.7645751299222363E+00    1.1035678403270284E+01
N    5.2889137099296102E+00    4.8997983874154789E+00    1.2991273977025340E+01
Ga    5.3240836772042055E+00    3.0404596103476269E+00    1.3634591448967996E+01
N    5.1530679837942941E+00    2.9951689841356171E+00    1.5589424632017947E+01
Ga    4.1636028657246280E+00    4.2099908980928769E+00    1.6693156132394979E+01
N    5.8334774077160922E+00    3.2835891802894470E+00    1.7147776238945386E+01
N    3.3007738439541536E+00    5.5886782475126795E+00   -1.3543772893505404E-01
Ga    3.3244722226431769E+00    7.4746541455615079E+00    5.0888965709614187E-01
N    3.3321538273691598E+00    7.4746843901407996E+00    2.4237716144426109E+00
Ga    3.3112110899565907E+00    5.5886520763739034E+00    3.1132496794405764E+00
N    3.3301430592890306E+00    5.5863842359862588E+00    5.0546890518792482E+00
Ga    3.3545499608644485E+00    7.4723024387366364E+00    5.7467919669167440E+00
N    3.3935472859729789E+00    7.4885814705848102E+00    7.7091606988324042E+00
Ga    3.3792206829873379E+00    5.6092178277308022E+00    8.3761308150195468E+00
N    3.4386740526019879E+00    5.6671644949597333E+00    1.0342845795084221E+01
Ga    3.4727855386997875E+00    7.5557657291621938E+00    1.1031750221854479E+01
N    3.6642381312555621E+00    7.6771882646652356E+00    1.2984208005447227E+01
Ga    3.6871226650942104E+00    5.8219288734688819E+00    1.3658082479998969E+01
N    3.4747389786212803E+00    5.7461431020125362E+00    1.5609958981108599E+01
Ga    2.5301015298907021E+00    7.0474154215754270E+00    1.6719698323877420E+01
N    4.1955320452813778E+00    6.0725416005479946E+00    1.7135889300704907E+01
N    1.6843872443736225E+00    8.3882418044162588E+00   -1.3567114322253238E-01
Ga    1.7082166906714784E+00    1.0273844799100910E+01    5.0878576258771080E-01
N    1.7158760088958660E+00    1.0273907483498435E+01    2.4233846479267815E+00
Ga    1.6952765596985961E+00    8.3888171265203866E+00    3.1137895183499573E+00
N    1.7142926412169239E+00    8.3867220086427441E+00    5.0545887481400698E+00
Ga    1.7392604708801236E+00    1.0271596389585339E+01    5.7486843969882893E+00
N    1.7781402483732722E+00    1.0286249333753481E+01    7.7098723699405971E+00
Ga    1.7645071318833898E+00    8.4084109301812262E+00    8.3752542338437532E+00
N    1.8321879222902948E+00    8.4696916489598451E+00    1.0340910630764878E+01
Ga    1.8597430391001055E+00    1.0364456763218769E+01    1.1033204243780594E+01
N    2.0649950553260306E+00    1.0499683540562769E+01    1.2992807097889127E+01
Ga    2.0860543655696739E+00    8.6375544112915232E+00    1.3635699294124391E+01
N    1.8947566772517943E+00    8.5805962158252065E+00    1.5584836480909278E+01
Ga    9.4339307983392651E-01    9.8155921812375073E+00    1.6695078741074571E+01
N    2.5973780149805004E+00    8.8960811313868664E+00    1.7150919547490641E+01
N    9.8016475492307382E+00   -1.0627162720086859E-02   -1.3510611572076686E-01
Ga    9.8254041496639299E+00    1.8750991889932898E+00    5.0954069595449769E-01
N    9.8332487588626130E+00    1.8751457788174157E+00    2.4245821039532696E+00
Ga    9.8110615611111065E+00   -1.1620450619519664E-02    3.1132703264486441E+00
N    9.8298215559558120E+00   -1.3942211842485707E-02    5.0547240313025430E+00
Ga    9.8568699442850587E+00    1.8744469313465271E+00    5.7402130219774410E+00
N    9.8992204959675991E+00    1.8940051187636875E+00    7.7008095379809678E+00
Ga    9.8782892809032834E+00    1.5687409286636020E-02    8.3655884919597643E+00
N    9.9345761614053227E+00    8.1257809450076948E-02    1.0325169552467854E+01
Ga    9.9792667921200877E+00    1.9730492149432706E+00    1.1025427842755345E+01
N    1.0185437553764611E+01    2.0975584911696092E+00    1.2985180127596156E+01
Ga    1.0203718153556304E+01    2.5148756892773050E-01    1.3671563669029908E+01
N    1.0128175878728909E+01    1.8056576566166274E-01    1.5621282144299000E+01
Ga    9.0090115561975885E+00    1.4398945415745494E+00    1.6888539021236323E+01
N    1.0712624363321019E+01    5.7848372301984530E-01    1.7002228424183919E+01
N    8.1853191150752487E+00    2.7890065242226862E+00   -1.3571649116142798E-01
Ga    8.2090052684368704E+00    4.6746989704160047E+00    5.0915782460349579E-01
N    8.2167012859861845E+00    4.6747916050141898E+00    2.4238698171163628E+00
Ga    8.1945564772170805E+00    2.7887111055012914E+00    3.1125468079590393E+00
N    8.2129048691540270E+00    2.7864091658835384E+00    5.0536983171346064E+00
Ga    8.2405297113992937E+00    4.6731615195144975E+00    5.7450959445249064E+00
N    8.2810827094298407E+00    4.6910418323861318E+00    7.7065580916573486E+00
Ga    8.2649987296708254E+00    2.8075597832577599E+00    8.3645931693380007E+00
N    8.3258156846292692E+00    2.8620502391433678E+00    1.0322832491831569E+01
Ga    8.3377722758096802E+00    4.7587156362366452E+00    1.0989501072713963E+01
N    8.5038603161626458E+00    4.8571539257373137E+00    1.2904322084432904E+01
Ga    8.5809543091760219E+00    3.0432127069030281E+00    1.3634922169839706E+01
N    8.4858051685680511E+00    2.9848624161505617E+00    1.5598591777684947E+01
Ga    7.3801560047817745E+00    4.2275330456629803E+00    1.6786467837606246E+01
N    9.1053277937156381E+00    3.3705472965050363E+00    1.6977732271029822E+01
N    6.5688620375690077E+00    5.5886846441037168E+00   -1.3515571231834914E-01
Ga    6.5924252621994981E+00    7.4743756717297680E+00    5.0980741398385609E-01
N    6.5998786068650057E+00    7.4743295889078549E+00    2.4248916024758467E+00
Ga    6.5782645185713040E+00    5.5874428834278334E+00    3.1130681972424736E+00
N    6.5969513824952859E+00    5.5854284851351244E+00    5.0545873280664066E+00
Ga    6.6235963135893972E+00    7.4739445342229738E+00    5.7406752684841971E+00
N    6.6647798396103894E+00    7.4950556912656339E+00    7.7011716153293301E+00
Ga    6.6459215858524274E+00    5.6155368097594582E+00    8.3625824958968380E+00
N    6.6988769744097478E+00    5.6832846342061281E+00    1.0319729333802947E+01
Ga    6.7514102724277523E+00    7.5714950325018524E+00    1.1014191845320484E+01
N    6.9575104694754843E+00    7.6977975052313319E+00    1.2973378044222436E+01
Ga    6.9786976814681383E+00    5.8412922733112005E+00    1.3661815158452194E+01
N    6.8842390081192821E+00    5.8102162496573015E+00    1.5627905495215348E+01
Ga    5.7706714965003201E+00    7.0578398867280798E+00    1.6868153744273034E+01
N    7.5023779880888979E+00    6.1972774290647017E+00    1.6964212215141618E+01
N    4.9527057493645854E+00    8.3881446989776229E+00   -1.3573485363272067E-01
Ga    4.9762303728234052E+00    1.0273862667594015E+01    5.0892810747929329E-01
N    4.9838337367091965E+00    1.0273851424151413E+01    2.4236050911125395E+00
Ga    4.9615885331820531E+00    8.3882784689148213E+00    3.1135433553520633E+00
N    4.9797916332553953E+00    8.3864130952384706E+00    5.0547596100481558E+00
Ga    5.0074101977346768E+00    1.0273217199592050E+01    5.7459075336112413E+00
N    5.0478842318835779E+00    1.0290754278711121E+01    7.7082067592878225E+00
Ga    5.0303846130304040E+00    8.4084427098165939E+00    8.3689389245131593E+00
N    5.0909079592576312E+00    8.4664750257672967E+00    1.0332222701958830E+01
Ga    5.1091306387875921E+00    1.0366648749958559E+01    1.1000658869168342E+01
N    5.2909517256951020E+00    1.0473192987444740E+01    1.2933648202475171E+01
Ga    5.3414634434776085E+00    8.6247032997303315E+00    1.3595831490375453E+01
N    5.1860714756673474E+00    8.5536260320674273E+00    1.5581323448619111E+01
Ga    4.1650290889170414E+00    9.8039464683174860E+00    1.6781301343715835E+01
N    5.8702485295569922E+00    8.9568793975515284E+00    1.7054178400040573E+01
H    1.8831995515247403E-03   -7.8258828357138119E-04   -1.1597021974324613E+00
H   -1.6143988655539976E+00    2.7988060097566541E+00   -1.1600807276660863E+00
H   -3.2310212005337897E+00    5.5986150587330057E+00   -1.1597347107196148E+00
H   -4.8471035940558123E+00    8.3983729571349510E+00   -1.1599341503484955E+00
H    3.2696968246850093E+00   -1.2552863444014930E-03   -1.1597237004758731E+00
H    1.6533885762867009E+00    2.7989137689114281E+00   -1.1603982514081188E+00
H    3.7252647458083807E-02    5.5983291124679306E+00   -1.1598944995859917E+00
H   -1.5792402623257544E+00    8.3980296686892277E+00   -1.1602418424946765E+00
H    6.5374637966197096E+00   -1.0628633335123664E-03   -1.1600981233627603E+00
H    4.9214393288130722E+00    2.7988419054696023E+00   -1.1604919841428252E+00
H    3.3048517537331188E+00    5.5982255789085338E+00   -1.1603130511762960E+00
H    1.6886457027583561E+00    8.3978779786098343E+00   -1.1605653834092307E+00
H    9.8067061136357783E+00   -6.1676045576842912E-04   -1.1599210261972375E+00
H    8.1903381204580956E+00    2.7989651618113216E+00   -1.1605927615712837E+00
H    6.5737327351206867E+00    5.5985321268534882E+00   -1.1599706441343591E+00
H    4.9575672101142230E+00    8.3984128564933513E+00   -1.1605987113419347E+00
     &END COORD
     &KIND H
       BASIS_SET DZVP-MOLOPT-SR-GTH-q1
       POTENTIAL GTH-PBE-q1
       &POTENTIAL
 1
  0.2000000000000000E+00 2 -0.4178900440000000E+01  0.7244633100000000E+00
 0
         # Potential name:  GTH-PBE-Q1  for symbol:  H
         # Potential read from the potential filename: GTH_POTENTIALS
       &END POTENTIAL
     &END KIND
     &KIND N
       BASIS_SET DZVP-MOLOPT-SR-GTH
       POTENTIAL GTH-PBE-q5
       &POTENTIAL
 2 3
  0.2837905100000000E+00 2 -0.1241522559000000E+02  0.1868095920000000E+01
 2
  0.2554050000000000E+00 1  0.1363026257000000E+02
  0.2454945300000000E+00 0
         # Potential name:  GTH-PBE-Q5  for symbol:  N
         # Potential read from the potential filename: GTH_POTENTIALS
       &END POTENTIAL
     &END KIND
     &KIND Ga
       BASIS_SET DZVP-MOLOPT-SR-GTH
       POTENTIAL GTH-PBE-q13
       &POTENTIAL
 2 1 10
  0.4900000000000000E+00 0
 3
  0.4167772300000000E+00 3  0.1047568975000000E+02 -0.4921768140000000E+01  0.8707055900000000E+00
  0.7770178090000000E+01 -0.2248152160000000E+01
  0.1784415450000000E+01
  0.5696265200000000E+00 2  0.1777985340000000E+01  0.1958597600000000E+00
 -0.2317443900000000E+00
  0.2381265000000000E+00 1 -0.1624868022000000E+02
         # Potential name:  GTH-PBE-Q13  for symbol:  GA
         # Potential read from the potential filename: GTH_POTENTIALS
       &END POTENTIAL
     &END KIND
     &TOPOLOGY
       NUMBER_OF_ATOMS  256
       MULTIPLE_UNIT_CELL  1 1 1
     &END TOPOLOGY
   &END SUBSYS
 &END FORCE_EVAL
