 # Version information for this restart file 
 # current date 2019-06-10 16:11:25.727
 # current working dir /lustre03/project/6037349/rzk/GaN-carbene/444-addat/00-Surface/RKS
 # Program compiled at                              Sun Apr  7 00:48:11 EDT 2019
 # Program compiled on                          beluga2.int.ets1.calculquebec.ca
 # Program compiled for                        Beluga-Linux-x86-64-intel-openmpi
 # Source code revision number                                         svn:18619
 &GLOBAL
   PRINT_LEVEL  MEDIUM
   PROJECT_NAME TEST
   RUN_TYPE  CELL_OPT
 &END GLOBAL
 &MOTION
   &CELL_OPT
     MAX_ITER  300
     STEP_START_VAL  56
     EXTERNAL_PRESSURE     1.0000000000000000E+00
     KEEP_ANGLES  T
     KEEP_SYMMETRY  T
     CONSTRAINT  Z
     PRESSURE_TOLERANCE     5.0000000000000000E+02
   &END CELL_OPT
 &END MOTION
 &FORCE_EVAL
   METHOD  QS
   STRESS_TENSOR  ANALYTICAL
   &DFT
     BASIS_SET_FILE_NAME BASIS_MOLOPT
     POTENTIAL_FILE_NAME GTH_POTENTIALS
     SURFACE_DIPOLE_CORRECTION  T
     SURF_DIP_DIR  Z
     &SCF
       MAX_SCF  100
       EPS_SCF     5.0000000000000004E-06
       &OT  T
         PRECONDITIONER  FULL_ALL
       &END OT
       &OUTER_SCF  T
         OPTIMIZER  NONE
         EPS_SCF     5.0000000000000004E-06
         MAX_SCF  4
       &END OUTER_SCF
       &PRINT
         &RESTART  OFF
           BACKUP_COPIES  1
           &EACH
             JUST_ENERGY  0
             QS_SCF  0
             MD  20
           &END EACH
         &END RESTART
       &END PRINT
     &END SCF
     &QS
       EPS_DEFAULT     1.0000000000000000E-14
       METHOD  GPW
     &END QS
     &MGRID
       NGRIDS  5
       CUTOFF     1.2000000000000000E+03
     &END MGRID
     &XC
       DENSITY_CUTOFF     1.0000000000000000E-10
       GRADIENT_CUTOFF     1.0000000000000000E-10
       TAU_CUTOFF     1.0000000000000000E-10
       &XC_FUNCTIONAL  NO_SHORTCUT
         &PBE  T
         &END PBE
       &END XC_FUNCTIONAL
       &VDW_POTENTIAL
         POTENTIAL_TYPE  PAIR_POTENTIAL
         &PAIR_POTENTIAL
           R_CUTOFF     1.0000000000000004E+01
           TYPE  DFTD3
           PARAMETER_FILE_NAME dftd3.dat
           REFERENCE_FUNCTIONAL PBE
           EPS_CN     9.9999999999999995E-07
           CALCULATE_C9_TERM  T
           REFERENCE_C9_TERM  T
           LONG_RANGE_CORRECTION  F
           VERBOSE_OUTPUT  F
         &END PAIR_POTENTIAL
       &END VDW_POTENTIAL
     &END XC
   &END DFT
   &SUBSYS
     &CELL
       A     1.3001368075948708E+01    0.0000000000000000E+00    0.0000000000000000E+00
       B    -6.4522093672069865E+00    1.1175554445074313E+01    0.0000000000000000E+00
       C     0.0000000000000000E+00    0.0000000000000000E+00    3.2000000000000000E+01
       MULTIPLE_UNIT_CELL  1 1 1
       &CELL_REF
         A     1.2982353780853531E+01    0.0000000000000000E+00    0.0000000000000000E+00
         B    -6.4911768904267628E+00    1.1243048175136114E+01    0.0000000000000000E+00
         C     0.0000000000000000E+00    0.0000000000000000E+00    3.2000000000000000E+01
         MULTIPLE_UNIT_CELL  1 1 1
       &END CELL_REF
     &END CELL
     &COORD
N    1.3256407404368798E-02   -4.7305309229753734E-03   -1.4730884121651425E-01
Ga    2.7335105294746209E-02    1.8652021177168994E+00    5.1353307511896606E-01
N    4.9090033229503907E-02    1.8741918155441168E+00    2.4366082845045804E+00
Ga    4.2667190855691199E-02    9.9325829013528020E-03    3.1614451900784006E+00
N    7.9930753306847582E-02    2.5797360241192935E-02    5.0961870602112338E+00
Ga    9.8539225089774918E-02    1.8990915175847418E+00    5.7801072311224182E+00
N    1.8344795384731780E-01    1.9633298279432472E+00    7.7122634907354932E+00
Ga    1.8333733917438147E-01    1.0362276677980491E-01    8.3974430142358383E+00
N    3.1275752659243222E-01    1.8572472253337446E-01    1.0325671374430277E+01
Ga    3.3924071545531842E-01    2.0578665833361480E+00    1.1013598459523497E+01
N    4.6906183181284589E-01    2.1390748045334012E+00    1.2942282808115650E+01
Ga    4.3543982213698246E-01    2.7837999244523987E-01    1.3604320767243632E+01
N   -1.2102239653586476E-01   -5.8252754790225042E-02    1.5338115533286686E+01
Ga   -8.5278594612123682E-01    1.0966691509060009E+00    1.6698315513268891E+01
N    5.4852372776401337E-01    3.1622869438535001E-01    1.7870635510397101E+01
N   -1.5997686502999440E+00    2.7890770124884559E+00   -1.4657940634345884E-01
Ga   -1.5862139796298003E+00    4.6596772751231166E+00    5.1308102713495374E-01
N   -1.5651264200539992E+00    4.6695970309922261E+00    2.4358185036102511E+00
Ga   -1.5695861002483154E+00    2.8046867129641435E+00    3.1564969644032796E+00
N   -1.5318348474646271E+00    2.8211413198335609E+00    5.0896309292641089E+00
Ga   -1.5129168550406689E+00    4.6919211392055775E+00    5.7814912206013398E+00
N   -1.4269206015711422E+00    4.7559353220165619E+00    7.7126543883528624E+00
Ga   -1.4316780818936177E+00    2.8935461929699726E+00    8.4003951631399350E+00
N   -1.2989342470384759E+00    2.9807971484195512E+00    1.0336794020245817E+01
Ga   -1.2854951729587571E+00    4.8634982643141278E+00    1.1033704346922262E+01
N   -1.1712009918529582E+00    4.9579592782559399E+00    1.2967278144717730E+01
Ga   -1.1327209443709918E+00    3.0885962017530737E+00    1.3628165003600088E+01
N   -1.6083632824099225E+00    2.6394816857937360E+00    1.5464032299907100E+01
Ga   -2.6487401745511963E+00    4.3828531439759573E+00    1.6761614632670518E+01
N   -1.1500402781891965E+00    3.0936102654271052E+00    1.6753811764280773E+01
N   -3.2127935021591663E+00    5.5829796650901073E+00   -1.4794837253981327E-01
Ga   -3.1988410833216379E+00    7.4529697956785972E+00    5.1283480605380438E-01
N   -3.1772314247833990E+00    7.4622537945764496E+00    2.4358137580615176E+00
Ga   -3.1837225620106357E+00    5.5980493417668047E+00    3.1608223893426701E+00
N   -3.1464858041961907E+00    5.6143189577564341E+00    5.0953618344536027E+00
Ga   -3.1282900100738318E+00    7.4887050557730301E+00    5.7777348200027729E+00
N   -3.0440057643196528E+00    7.5533392425176524E+00    7.7078033572049796E+00
Ga   -3.0439006590388864E+00    5.6899214605690824E+00    8.3886549608426186E+00
N   -2.9121537099364412E+00    5.7750627997458643E+00    1.0319387477252048E+01
Ga   -2.8899613124529968E+00    7.6367983660499092E+00    1.1031861714938833E+01
N   -2.7657725655057197E+00    7.7231383614368028E+00    1.2969543341315338E+01
Ga   -2.7914871200049336E+00    5.8639038730454729E+00    1.3665279813696868E+01
N   -3.3245697446030111E+00    5.5349296085650064E+00    1.5397922047233891E+01
Ga   -3.9851752199529171E+00    6.6918956819726692E+00    1.6763412409048257E+01
N   -2.6774654727218521E+00    5.8990348620430977E+00    1.8053408994388832E+01
N   -4.8259626762702910E+00    8.3769599302998543E+00   -1.4661550947081328E-01
Ga   -4.8122113759352771E+00    1.0247584544730620E+01    5.1345562538270439E-01
N   -4.7909937693063895E+00    1.0257903756810775E+01    2.4362382064411641E+00
Ga   -4.7953375358972901E+00    8.3933299951580072E+00    3.1562612880969243E+00
N   -4.7577384182971079E+00    8.4112278142049846E+00    5.0893741741951972E+00
Ga   -4.7397853624699708E+00    1.0281283405805485E+01    5.7869861364334065E+00
N   -4.6548080060035923E+00    1.0346387336869338E+01    7.7186346649436901E+00
Ga   -4.6584412432221605E+00    8.4806450976071979E+00    8.3982045012138027E+00
N   -4.5225225063401684E+00    8.5655280241309377E+00    1.0334020763749622E+01
Ga   -4.5021053395490807E+00    1.0448852396820497E+01    1.1014721504972648E+01
N   -4.3889386993395609E+00    1.0553238912144106E+01    1.2942202199343189E+01
Ga   -4.3691025631449607E+00    8.6955288929271699E+00    1.3627429862775584E+01
N   -4.9854621816250875E+00    8.4987626383977783E+00    1.5468439127666199E+01
Ga   -5.9423054950478154E+00    9.9015700750044591E+00    1.6692211262117901E+01
N   -4.3687148246127849E+00    8.6483015283520146E+00    1.6759713323266176E+01
N    3.2635133108192478E+00   -4.6322424403295150E-03   -1.4745011490038148E-01
Ga    3.2769396327776290E+00    1.8653256319912381E+00    5.1341326219492711E-01
N    3.2974710959445277E+00    1.8745132989681561E+00    2.4364971632023211E+00
Ga    3.2923300693145059E+00    1.0722197676253768E-02    3.1614897652446361E+00
N    3.3301775040324135E+00    2.7643569142465213E-02    5.0964537290463845E+00
Ga    3.3475237108918519E+00    1.8979150637524012E+00    5.7877734219645216E+00
N    3.4281618897596347E+00    1.9603466040770634E+00    7.7221926207688920E+00
Ga    3.4405188238170985E+00    1.0484638013448561E-01    8.4223607534871938E+00
N    3.5740930073867330E+00    1.8771252247689674E-01    1.0361396893999054E+01
Ga    3.5904913723403955E+00    2.0547242289274674E+00    1.1067139963168529E+01
N    3.7180436455001389E+00    2.1436625517437515E+00    1.3002973975170026E+01
Ga    3.6880381801512003E+00    2.9614675937199642E-01    1.3705488327606171E+01
N    3.1270552154593494E+00    6.5517001130629797E-03    1.5563543334351593E+01
Ga    2.0461451680151344E+00    1.1697460269474209E+00    1.7187215101152567E+01
N    3.7638295192896938E+00    3.6777534876032136E-01    1.6934345562458862E+01
N    1.6505097444478394E+00    2.7890926983182101E+00   -1.4742015848511014E-01
Ga    1.6637674062584080E+00    4.6590284036332870E+00    5.1366334631220323E-01
N    1.6842250630112034E+00    4.6681184807680802E+00    2.4367176224336604E+00
Ga    1.6799616529247612E+00    2.8039650547087436E+00    3.1615611930770111E+00
N    1.7183230940782299E+00    2.8209065845536139E+00    5.0963720637195973E+00
Ga    1.7339457805380181E+00    4.6927531633981454E+00    5.7856638776874743E+00
N    1.8155923357158803E+00    4.7542276001615456E+00    7.7217190362503070E+00
Ga    1.8243501679231124E+00    2.8979035448224026E+00    8.4248845844045501E+00
N    1.9601916263641159E+00    2.9819761199000414E+00    1.0366057634501161E+01
Ga    1.9626917528606980E+00    4.8538360513570025E+00    1.1077842014209580E+01
N    2.0675427595584290E+00    4.9441616415909673E+00    1.3025318378136070E+01
Ga    2.0930600359939699E+00    3.0600249868994824E+00    1.3696130246601530E+01
N    1.5634204930651743E+00    2.6954515490159192E+00    1.5549425498588342E+01
Ga    5.0378670854674557E-01    3.9838488032353636E+00    1.6585425491276133E+01
N    2.1993493299778866E+00    3.0722825097625925E+00    1.6940961329119464E+01
N    3.7388216718355044E-02    5.5831357987973140E+00   -1.4752915561679394E-01
Ga    5.0779968873541463E-02    7.4531757613756229E+00    5.1359011354169481E-01
N    7.1425535251395680E-02    7.4626963106918263E+00    2.4365528470827003E+00
Ga    6.6208491946298617E-02    5.5985500868380536E+00    3.1596148189594038E+00
N    1.0433096449107582E-01    5.6158184826698179E+00    5.0942306303203289E+00
Ga    1.2164718908502578E-01    7.4858440437439517E+00    5.7879210030058212E+00
N    2.0447560331757911E-01    7.5476864260616585E+00    7.7232916782074676E+00
Ga    2.1207154249145851E-01    5.6898512635421294E+00    8.4217034287058574E+00
N    3.4024421945669264E-01    5.7724412834769199E+00    1.0363288590572591E+01
Ga    3.6776141790485656E-01    7.6443586796383096E+00    1.1058792518446554E+01
N    4.8961917494845580E-01    7.7345261859863337E+00    1.2993725014517654E+01
Ga    4.5418515394114234E-01    5.8932094748572394E+00    1.3699203468971689E+01
N   -9.4979792920840342E-02    5.5845790773738786E+00    1.5566969074109110E+01
Ga   -1.1351660484082673E+00    6.7866329361242581E+00    1.7610261021479225E+01
N    4.6841892218017483E-01    5.9801082906021978E+00    1.6855189021172563E+01
N   -1.5755611519564663E+00    8.3767807327941064E+00   -1.4788688099548991E-01
Ga   -1.5623593642693845E+00    1.0246886805938924E+01    5.1336417793932732E-01
N   -1.5420191154466847E+00    1.0256363408485679E+01    2.4366023233035818E+00
Ga   -1.5464547269967466E+00    8.3922888811591658E+00    3.1610543544911796E+00
N   -1.5076982891080157E+00    8.4097878433591209E+00    5.0958859893023813E+00
Ga   -1.4921219859173898E+00    1.0281049490772237E+01    5.7854714447116811E+00
N   -1.4103138588826687E+00    1.0342911201467460E+01    7.7207814459014177E+00
Ga   -1.4037694944268999E+00    8.4850433489887767E+00    8.4241971232991375E+00
N   -1.2721591877158289E+00    8.5651926863059664E+00    1.0368365381694195E+01
Ga   -1.2588690842735157E+00    1.0436984707282834E+01    1.1078892343880860E+01
N   -1.1519823712213912E+00    1.0522983481142983E+01    1.3025170721336695E+01
Ga   -1.1306423730380031E+00    8.6408124573416867E+00    1.3684247958999578E+01
N   -1.6544001084011841E+00    8.2883263529581725E+00    1.5551666491064132E+01
Ga   -2.7420055184655197E+00    9.5958741148770894E+00    1.6590552620366875E+01
N   -1.0446621327891228E+00    8.5873765941584317E+00    1.6844861713470376E+01
N    6.5136519012708529E+00   -5.0491708807776587E-03   -1.4720875123042018E-01
Ga    6.5273477591004365E+00    1.8652117162157944E+00    5.1261230830881044E-01
N    6.5476033469606980E+00    1.8739636953095502E+00    2.4353898422353137E+00
Ga    6.5420248176736058E+00    9.5342838250393070E-03    3.1590361441429513E+00
N    6.5778387623587511E+00    2.5409882259834430E-02    5.0937234522523935E+00
Ga    6.5922969749777067E+00    1.8941368871156876E+00    5.7851589246556827E+00
N    6.6696609250835497E+00    1.9517224814486211E+00    7.7191396138435033E+00
Ga    6.6732095200346562E+00    9.6926837016372558E-02    8.4274656546840294E+00
N    6.7976049135097965E+00    1.7678987646800434E-01    1.0369614051325781E+01
Ga    6.8429791036186636E+00    2.0582993289150671E+00    1.1042439541143910E+01
N    6.9846864533543922E+00    2.1495194239653692E+00    1.2979865706936605E+01
Ga    6.9755139007785907E+00    2.9905709389141083E-01    1.3671047586870175E+01
N    6.4157252583247617E+00   -4.1209455718845878E-02    1.5498706286245143E+01
Ga    5.3992540741353734E+00    1.2565498332985698E+00    1.6602181975926058E+01
N    7.0627444404770889E+00    3.3283510185641485E-01    1.7097925859108074E+01
N    4.9005329421018651E+00    2.7888810059414397E+00   -1.4748381196881807E-01
Ga    4.9143875384748403E+00    4.6590196343063104E+00    5.1289213901497932E-01
N    4.9345831950954917E+00    4.6678652641594338E+00    2.4354302205944451E+00
Ga    4.9289583437871851E+00    2.8033396853796875E+00    3.1583896272439409E+00
N    4.9650096134240655E+00    2.8195665528598268E+00    5.0941559846434696E+00
Ga    4.9783202570679723E+00    4.6902882913556185E+00    5.7882439993235915E+00
N    5.0527870697415462E+00    4.7537504406671500E+00    7.7234425930647461E+00
Ga    5.0649117182019676E+00    2.8934961291627328E+00    8.4218936693398057E+00
N    5.1956261265137842E+00    2.9754502220633587E+00    1.0364826458202094E+01
Ga    5.2237154235003054E+00    4.8625633238171897E+00    1.1037083606016379E+01
N    5.3468794597521772E+00    4.9654658497360895E+00    1.2974936105493727E+01
Ga    5.3877866793054165E+00    3.1105495815068540E+00    1.3657692732216660E+01
N    4.8531520350139630E+00    2.7824479397703108E+00    1.5484992849872061E+01
Ga    3.8033159516804593E+00    4.0252248316818724E+00    1.6612736076658567E+01
N    5.4782075044453329E+00    3.1534855139139477E+00    1.7071844141843872E+01
N    3.2875317312808683E+00    5.5827628984756794E+00   -1.4685090264148407E-01
Ga    3.3013452438159634E+00    7.4530689700709249E+00    5.1299533362315475E-01
N    3.3219177165499603E+00    7.4621268056677312E+00    2.4359272069853386E+00
Ga    3.3161077395421170E+00    5.5972816145148618E+00    3.1585058233454917E+00
N    3.3517428232610929E+00    5.6129974986703228E+00    5.0930581986502252E+00
Ga    3.3672070985732967E+00    7.4813864203809066E+00    5.7851052938485550E+00
N    3.4457893213946669E+00    7.5388867769154189E+00    7.7188556352262712E+00
Ga    3.4455889527564341E+00    5.6854085742870240E+00    8.4304267229427978E+00
N    3.5699662704672344E+00    5.7650045893397737E+00    1.0370702109380415E+01
Ga    3.6190358024551093E+00    7.6438572057207237E+00    1.1043152057636323E+01
N    3.7568202145224290E+00    7.7358640494780575E+00    1.2975739485381974E+01
Ga    3.7483169956242572E+00    5.8897807439260816E+00    1.3672014457234789E+01
N    3.1872527801257577E+00    5.5345378287959095E+00    1.5499395186014816E+01
Ga    2.1622403059411504E+00    6.8374501255295019E+00    1.6558974862248309E+01
N    3.8444191882710284E+00    5.9247634309298940E+00    1.7098579292593410E+01
N    1.6745060075322655E+00    8.3766152544428678E+00   -1.4697834643245949E-01
Ga    1.6882422298466815E+00    1.0246918613508120E+01    5.1285698567756322E-01
N    1.7087497384751977E+00    1.0256044487523404E+01    2.4357370149944644E+00
Ga    1.7030366990375680E+00    8.3915064546281304E+00    3.1595884871583699E+00
N    1.7393169770552679E+00    8.4080513504635306E+00    5.0953736101440601E+00
Ga    1.7529038576497826E+00    1.0278785560091563E+01    5.7868875206433916E+00
N    1.8295517751054131E+00    1.0341407458931691E+01    7.7212657201987422E+00
Ga    1.8435144350082757E+00    8.4824450963607063E+00    8.4196813811399771E+00
N    1.9754689008625936E+00    8.5644469005203074E+00    1.0362482592902831E+01
Ga    1.9990787901616922E+00    1.0450938537509522E+01    1.1039973737357014E+01
N    2.1240249629784200E+00    1.0554160754614278E+01    1.2975051674024813E+01
Ga    2.1687463786914774E+00    8.7007370166332603E+00    1.3641065646795690E+01
N    1.6203982278311104E+00    8.3641239259776885E+00    1.5459395284858724E+01
Ga    5.6339131965364331E-01    9.6075396626229335E+00    1.6561371548004423E+01
N    2.2166928270305610E+00    8.7272283507267563E+00    1.7084829450361291E+01
N    9.7643023991798685E+00   -4.5859045099410130E-03   -1.4690770209897572E-01
Ga    9.7777112907982513E+00    1.8654045511987958E+00    5.1415107995166032E-01
N    9.7987569414460811E+00    1.8744944450190157E+00    2.4369284007623033E+00
Ga    9.7918952453933716E+00    8.7295886699672292E-03    3.1574813785275850E+00
N    9.8263295285092447E+00    2.3197827782407691E-02    5.0915260080846041E+00
Ga    9.8483747791100900E+00    1.8969673681628569E+00    5.7693101338283324E+00
N    9.9309780226013480E+00    1.9582513410189311E+00    7.6979226935853182E+00
Ga    9.9221345266023828E+00    1.0159632761097410E-01    8.3876406348090509E+00
N    1.0046414022564491E+01    1.8906042121334987E-01    1.0316386226725175E+01
Ga    1.0091839937079161E+01    2.0556074421564450E+00    1.1014295267422801E+01
N    1.0227643016871379E+01    2.1484758134916366E+00    1.2938178818448993E+01
Ga    1.0254827145587850E+01    3.0348890709587145E-01    1.3655574926707116E+01
N    9.7498435887368800E+00   -1.1103597617441463E-03    1.5515696796543226E+01
Ga    8.6718559368360797E+00    1.2411846435665048E+00    1.6760051491937848E+01
N    1.0382558367083684E+01    3.5657492952955355E-01    1.6881602155745647E+01
N    8.1512853365864331E+00    2.7890424130052254E+00   -1.4730179652553999E-01
Ga    8.1649807332722322E+00    4.6593638051993995E+00    5.1302471447939135E-01
N    8.1862581597246269E+00    4.6687089198171874E+00    2.4361901037993343E+00
Ga    8.1781539903306530E+00    2.8033347489701312E+00    3.1582247308363853E+00
N    8.2128277215027428E+00    2.8169561708808244E+00    5.0923022166235805E+00
Ga    8.2312287913969797E+00    4.6899946515013111E+00    5.7758503061211526E+00
N    8.3091895605976234E+00    4.7507719406596411E+00    7.7072433520378469E+00
Ga    8.3156001682372072E+00    2.8837093763506956E+00    8.3904448805369825E+00
N    8.4475872257926738E+00    2.9611272850686370E+00    1.0322924318354261E+01
Ga    8.4640451737869320E+00    4.8497219343942479E+00    1.0975828255470928E+01
N    8.5737438205843191E+00    4.9423079581795326E+00    1.2873533532054491E+01
Ga    8.6423994100199497E+00    3.1193145114881404E+00    1.3627737420143255E+01
N    8.1792102885006521E+00    2.8063359349938324E+00    1.5518254450825202E+01
Ga    7.0656631518854907E+00    4.0315154613269453E+00    1.6699811187867709E+01
N    8.8176868428527229E+00    3.1703133559122270E+00    1.6883633758167534E+01
N    6.5381439264846684E+00    5.5831783514171667E+00   -1.4720699107392668E-01
Ga    6.5516584574907917E+00    7.4531514557475482E+00    5.1415903592181511E-01
N    6.5726373968665674E+00    7.4626637405059260E+00    2.4371381777204060E+00
Ga    6.5656150320463569E+00    5.5961081357270244E+00    3.1574969640927852E+00
N    6.5992150702897137E+00    5.6108062859342054E+00    5.0910613921903698E+00
Ga    6.6224432588403062E+00    7.4852648062411742E+00    5.7666480619644798E+00
N    6.7035426326733027E+00    7.5470110146697884E+00    7.6955363869126696E+00
Ga    6.6962586736149321E+00    5.6899972718156064E+00    8.3914348603609827E+00
N    6.8229717951318660E+00    5.7758438849104374E+00    1.0320104820517388E+01
Ga    6.8639292581652089E+00    7.6468174299916143E+00    1.1013523929182735E+01
N    7.0007484200659897E+00    7.7423687495439939E+00    1.2938122218925079E+01
Ga    7.0304816821440870E+00    5.8881360289793250E+00    1.3634710051343438E+01
N    6.5542389767501561E+00    5.6191871515792835E+00    1.5513105811306437E+01
Ga    5.4509177857874604E+00    6.8212893826757073E+00    1.6748056434028936E+01
N    7.1981266692828569E+00    5.9902071931934309E+00    1.6862592765016327E+01
N    4.9251747661695129E+00    8.3768585175448642E+00   -1.4691529672052744E-01
Ga    4.9388790592604792E+00    1.0247109735710689E+01    5.1355625353540046E-01
N    4.9599731903220441E+00    1.0256571825125681E+01    2.4366521036838713E+00
Ga    4.9521773098166717E+00    8.3915586084197233E+00    3.1581036335786781E+00
N    4.9867250062657655E+00    8.4065720699008235E+00    5.0919825061295301E+00
Ga    5.0065800916379066E+00    1.0278775644467299E+01    5.7791760442044025E+00
N    5.0855977390835720E+00    1.0338938233645345E+01    7.7111791425229690E+00
Ga    5.0894129453781591E+00    8.4700053542098068E+00    8.3865868978948441E+00
N    5.2196844289721094E+00    8.5469755937708296E+00    1.0318249487553729E+01
Ga    5.2299985967446796E+00    1.0433038295422088E+01    1.0962604275216334E+01
N    5.3381278217767836E+00    1.0527043413249579E+01    1.2868266743958266E+01
Ga    5.4160891603088626E+00    8.7072466833694513E+00    1.3648383865884261E+01
N    4.9040304818822422E+00    8.3607721164173388E+00    1.5499679647984689E+01
Ga    3.8020531705526848E+00    9.5907012200658563E+00    1.6719532977399783E+01
N    5.5291102822336109E+00    8.7450818006659699E+00    1.6889979666524308E+01
H    1.0511112432545893E-02   -5.6294752793714688E-03   -1.1732009033642001E+00
H   -1.6026231581942372E+00    2.7884695706359279E+00   -1.1725110425690262E+00
H   -3.2151186569313941E+00    5.5822019098307463E+00   -1.1738089970764958E+00
H   -4.8289161025202132E+00    8.3764302699509905E+00   -1.1725274459609831E+00
H    3.2611806109948951E+00   -5.1349569147019864E-03   -1.1733154834866795E+00
H    1.6483264392679271E+00    2.7889545022690729E+00   -1.1732941767520684E+00
H    3.5380212374049522E-02    5.5824587782709054E+00   -1.1734205282928833E+00
H   -1.5776318700083025E+00    8.3763860683312341E+00   -1.1737813806376238E+00
H    6.5114372745387499E+00   -5.8183986263489855E-03   -1.1730502811599537E+00
H    4.8979657798298621E+00    2.7885866803408854E+00   -1.1733219134648232E+00
H    3.2850237709423533E+00    5.5821289317318712E+00   -1.1726830962774530E+00
H    1.6721482882005319E+00    8.3761988404965013E+00   -1.1728249536818232E+00
H    9.7620056438969520E+00   -5.0231663024919090E-03   -1.1727993143627233E+00
H    8.1492341055635382E+00    2.7882447739132110E+00   -1.1731830872103910E+00
H    6.5354020403243167E+00    5.5829291076389209E+00   -1.1730959010244604E+00
H    4.9228957363315020E+00    8.3764705539867688E+00   -1.1728041151661248E+00
     &END COORD
     &KIND H
       BASIS_SET DZVP-MOLOPT-SR-GTH-q1
       POTENTIAL GTH-PBE-q1
       &POTENTIAL
 1
  0.2000000000000000E+00 2 -0.4178900440000000E+01  0.7244633100000000E+00
 0
         # Potential name:  GTH-PBE-Q1  for symbol:  H
         # Potential read from the potential filename: GTH_POTENTIALS
       &END POTENTIAL
     &END KIND
     &KIND N
       BASIS_SET DZVP-MOLOPT-SR-GTH
       POTENTIAL GTH-PBE-q5
       &POTENTIAL
 2 3
  0.2837905100000000E+00 2 -0.1241522559000000E+02  0.1868095920000000E+01
 2
  0.2554050000000000E+00 1  0.1363026257000000E+02
  0.2454945300000000E+00 0
         # Potential name:  GTH-PBE-Q5  for symbol:  N
         # Potential read from the potential filename: GTH_POTENTIALS
       &END POTENTIAL
     &END KIND
     &KIND Ga
       BASIS_SET DZVP-MOLOPT-SR-GTH
       POTENTIAL GTH-PBE-q13
       &POTENTIAL
 2 1 10
  0.4900000000000000E+00 0
 3
  0.4167772300000000E+00 3  0.1047568975000000E+02 -0.4921768140000000E+01  0.8707055900000000E+00
  0.7770178090000000E+01 -0.2248152160000000E+01
  0.1784415450000000E+01
  0.5696265200000000E+00 2  0.1777985340000000E+01  0.1958597600000000E+00
 -0.2317443900000000E+00
  0.2381265000000000E+00 1 -0.1624868022000000E+02
         # Potential name:  GTH-PBE-Q13  for symbol:  GA
         # Potential read from the potential filename: GTH_POTENTIALS
       &END POTENTIAL
     &END KIND
     &TOPOLOGY
       NUMBER_OF_ATOMS  256
       MULTIPLE_UNIT_CELL  1 1 1
     &END TOPOLOGY
   &END SUBSYS
 &END FORCE_EVAL
