 # Version information for this restart file 
 # current date 2019-06-11 00:31:20.505
 # current working dir /lustre03/project/6037349/rzk/GaN-carbene/444-addat/00-Surface/RKS
 # Program compiled at                              Sun Apr  7 00:48:11 EDT 2019
 # Program compiled on                          beluga2.int.ets1.calculquebec.ca
 # Program compiled for                        Beluga-Linux-x86-64-intel-openmpi
 # Source code revision number                                         svn:18619
 &GLOBAL
   PRINT_LEVEL  MEDIUM
   PROJECT_NAME TEST
   RUN_TYPE  CELL_OPT
 &END GLOBAL
 &MOTION
   &CELL_OPT
     MAX_ITER  300
     STEP_START_VAL  108
     EXTERNAL_PRESSURE     1.0000000000000000E+00
     KEEP_ANGLES  T
     KEEP_SYMMETRY  T
     CONSTRAINT  Z
     PRESSURE_TOLERANCE     5.0000000000000000E+02
   &END CELL_OPT
 &END MOTION
 &FORCE_EVAL
   METHOD  QS
   STRESS_TENSOR  ANALYTICAL
   &DFT
     BASIS_SET_FILE_NAME BASIS_MOLOPT
     POTENTIAL_FILE_NAME GTH_POTENTIALS
     SURFACE_DIPOLE_CORRECTION  T
     SURF_DIP_DIR  Z
     &SCF
       MAX_SCF  100
       EPS_SCF     5.0000000000000004E-06
       &OT  T
         PRECONDITIONER  FULL_ALL
       &END OT
       &OUTER_SCF  T
         OPTIMIZER  NONE
         EPS_SCF     5.0000000000000004E-06
         MAX_SCF  4
       &END OUTER_SCF
       &PRINT
         &RESTART  OFF
           BACKUP_COPIES  1
           &EACH
             JUST_ENERGY  0
             QS_SCF  0
             MD  20
           &END EACH
         &END RESTART
       &END PRINT
     &END SCF
     &QS
       EPS_DEFAULT     1.0000000000000000E-14
       METHOD  GPW
     &END QS
     &MGRID
       NGRIDS  5
       CUTOFF     1.2000000000000000E+03
     &END MGRID
     &XC
       DENSITY_CUTOFF     1.0000000000000000E-10
       GRADIENT_CUTOFF     1.0000000000000000E-10
       TAU_CUTOFF     1.0000000000000000E-10
       &XC_FUNCTIONAL  NO_SHORTCUT
         &PBE  T
         &END PBE
       &END XC_FUNCTIONAL
       &VDW_POTENTIAL
         POTENTIAL_TYPE  PAIR_POTENTIAL
         &PAIR_POTENTIAL
           R_CUTOFF     1.0000000000000005E+01
           TYPE  DFTD3
           PARAMETER_FILE_NAME dftd3.dat
           REFERENCE_FUNCTIONAL PBE
           EPS_CN     9.9999999999999995E-07
           CALCULATE_C9_TERM  T
           REFERENCE_C9_TERM  T
           LONG_RANGE_CORRECTION  F
           VERBOSE_OUTPUT  F
         &END PAIR_POTENTIAL
       &END VDW_POTENTIAL
     &END XC
   &END DFT
   &SUBSYS
     &CELL
       A     1.3027821433563233E+01    0.0000000000000000E+00    0.0000000000000000E+00
       B    -6.4424831354476311E+00    1.1158708117501211E+01    0.0000000000000000E+00
       C     0.0000000000000000E+00    0.0000000000000000E+00    3.2000000000000000E+01
       MULTIPLE_UNIT_CELL  1 1 1
       &CELL_REF
         A     1.2982353780853531E+01    0.0000000000000000E+00    0.0000000000000000E+00
         B    -6.4911768904267628E+00    1.1243048175136114E+01    0.0000000000000000E+00
         C     0.0000000000000000E+00    0.0000000000000000E+00    3.2000000000000000E+01
         MULTIPLE_UNIT_CELL  1 1 1
       &END CELL_REF
     &END CELL
     &COORD
N    2.1364091327109427E-01    1.1891260835189776E-01   -1.5417178887488781E-01
Ga    2.3049977490062021E-01    1.9863666420472743E+00    5.1328624607537954E-01
N    2.3866085775546100E-01    1.9956907715522110E+00    2.4364715090640181E+00
Ga    2.2348957413855175E-01    1.2920732239145172E-01    3.1476187171052450E+00
N    2.2542706858806541E-01    1.2753039829865434E-01    5.0774272474891031E+00
Ga    2.4165935634788865E-01    1.9963701624012999E+00    5.7714940223750890E+00
N    2.4886241302301498E-01    2.0051948814888529E+00    7.7061374883952896E+00
Ga    2.3080811282720823E-01    1.3530586551041224E-01    8.3846850743724790E+00
N    2.2410616560352997E-01    1.2850673644389649E-01    1.0317503126112015E+01
Ga    2.4306719370353885E-01    1.9927367467439605E+00    1.1013956006493995E+01
N    2.5807796185408116E-01    1.9986541676818108E+00    1.2948135965007987E+01
Ga    2.1158179427868437E-01    1.2725436831098016E-01    1.3621353623134553E+01
N   -3.5957947396370210E-01   -2.0332608199948987E-01    1.5354315092168685E+01
Ga   -1.0541965417829031E+00    9.2266937325549392E-01    1.6752173745016794E+01
N    2.7874367501098962E-01    1.2761175002766234E-01    1.8012412791799683E+01
N   -1.3968970506980101E+00    2.9088875806106809E+00   -1.5213329091258465E-01
Ga   -1.3803600156942317E+00    4.7764326243280104E+00    5.1490702519570830E-01
N   -1.3720764511842831E+00    4.7855063016887787E+00    2.4377326353720701E+00
Ga   -1.3877934008442177E+00    2.9187888597690250E+00    3.1477869931512723E+00
N   -1.3857918437160528E+00    2.9193563786183754E+00    5.0773086992597447E+00
Ga   -1.3680622793437027E+00    4.7864323376934843E+00    5.7746060277751017E+00
N   -1.3604163503759028E+00    4.7952801205290490E+00    7.7100146201783977E+00
Ga   -1.3789159624621954E+00    2.9272610063214595E+00    8.3942234661134965E+00
N   -1.3821535689529252E+00    2.9236299742498431E+00    1.0331059133509198E+01
Ga   -1.3712421572211226E+00    4.7879597272835674E+00    1.1030983169158969E+01
N   -1.3649762312049454E+00    4.8002694318274699E+00    1.2971655569644108E+01
Ga   -1.3611920626648306E+00    2.9255728128765095E+00    1.3627969094841525E+01
N   -1.8946466998414264E+00    2.4625989630115424E+00    1.5442630139387532E+01
Ga   -2.9157547627728109E+00    4.2006082453126856E+00    1.6830265528664405E+01
N   -1.4245604686859463E+00    2.9008424798590906E+00    1.6733451186975842E+01
N   -3.0075534019596750E+00    5.6983793314922373E+00   -1.5196850865084333E-01
Ga   -2.9908064629859368E+00    7.5660090765304915E+00    5.1418457793058547E-01
N   -2.9824033285546943E+00    7.5748150995543861E+00    2.4371671815929936E+00
Ga   -2.9985009081254095E+00    5.7083168369235109E+00    3.1487760118121684E+00
N   -2.9966273167102169E+00    5.7068949223367849E+00    5.0790956621024916E+00
Ga   -2.9778770055311070E+00    7.5743904106274202E+00    5.7747636192341449E+00
N   -2.9695778610594625E+00    7.5833275068308277E+00    7.7103727271523113E+00
Ga   -2.9879866388904350E+00    5.7163750717191828E+00    8.3962228057156612E+00
N   -2.9929749715763361E+00    5.7106421779682064E+00    1.0331827674062470E+01
Ga   -2.9785986705824383E+00    7.5728026993642423E+00    1.1033154125718696E+01
N   -2.9697186551538026E+00    7.5784115348636387E+00    1.2974067036599354E+01
Ga   -2.9986198491701050E+00    5.7107231227779138E+00    1.3676925045877372E+01
N   -3.5128326226084674E+00    5.4001205088135205E+00    1.5440906764231395E+01
Ga   -4.2491717938899436E+00    6.5056403392743665E+00    1.6842478072957327E+01
N   -2.9136420652299959E+00    5.7330794506309886E+00    1.8096063963939542E+01
N   -4.6179888145044101E+00    8.4881742607164998E+00   -1.5206618822396065E-01
Ga   -4.6016198617040160E+00    1.0356029729474939E+01    5.1417390134105434E-01
N   -4.5931499873074246E+00    1.0364543519768771E+01    2.4371699719615729E+00
Ga   -4.6086928058457257E+00    8.4974986536546844E+00    3.1478105541781316E+00
N   -4.6054430111286484E+00    8.4963029197961681E+00    5.0774173818727553E+00
Ga   -4.5883219931949295E+00    1.0363568596541290E+01    5.7724714895083089E+00
N   -4.5811583651026897E+00    1.0371846637610327E+01    7.7068796773471986E+00
Ga   -4.5981432016973685E+00    8.5041587536353056E+00    8.3951539787111127E+00
N   -4.6005718322738209E+00    8.4994790277229963E+00    1.0332424815757820E+01
Ga   -4.5930275663929763E+00    1.0368857436018475E+01    1.1015751295873367E+01
N   -4.5843437094437576E+00    1.0385806894387942E+01    1.2950397485540496E+01
Ga   -4.5931329579886953E+00    8.5232203579938215E+00    1.3630171857600198E+01
N   -5.2482466604142628E+00    8.2876971386711684E+00    1.5449774253616210E+01
Ga   -6.1609001141272142E+00    9.7556219270206128E+00    1.6718128808747977E+01
N   -4.6217075746500997E+00    8.4440252647231251E+00    1.6742319623241894E+01
N    3.4706425144588673E+00    1.1912635448976448E-01   -1.5181431217914215E-01
Ga    3.4871527890643796E+00    1.9865587192937904E+00    5.1472989757307497E-01
N    3.4944167652050733E+00    1.9951608140511681E+00    2.4375223143812854E+00
Ga    3.4804553235700983E+00    1.2931242537666018E-01    3.1501580594952041E+00
N    3.4835583341685732E+00    1.2859247198534765E-01    5.0810701521252772E+00
Ga    3.4978316443366690E+00    1.9946178594862742E+00    5.7797888169254250E+00
N    3.5053291128870669E+00    2.0034668525493000E+00    7.7167319463366182E+00
Ga    3.4892100541777156E+00    1.3650506425937498E-01    8.4051099744928202E+00
N    3.4876668789108201E+00    1.3376007002215498E-01    1.0344372143398816E+01
Ga    3.5028986424450412E+00    1.9985819109499150E+00    1.1033294249439637E+01
N    3.5206381051822855E+00    2.0135081165230204E+00    1.2981318750554781E+01
Ga    3.4786570705732869E+00    1.5967169461302488E-01    1.3675124510600590E+01
N    2.8975788414585493E+00   -1.4831229963788620E-01    1.5530597461149751E+01
Ga    1.8065289986100401E+00    1.0063927549893612E+00    1.7513041467669819E+01
N    3.4630016592528587E+00    2.0169704731056251E-01    1.6867633360066815E+01
N    1.8601549961978796E+00    2.9086673832351888E+00   -1.5171083746732730E-01
Ga    1.8761883850020353E+00    4.7760829196496815E+00    5.1479472541633897E-01
N    1.8836595346689111E+00    4.7843383659348246E+00    2.4374985546326093E+00
Ga    1.8696339239649962E+00    2.9185674778115680E+00    3.1504432651111487E+00
N    1.8725863336968371E+00    2.9182323469498486E+00    5.0811791831344992E+00
Ga    1.8866081493418441E+00    4.7844005496185478E+00    5.7790347921416663E+00
N    1.8930459703272677E+00    4.7925402655387046E+00    7.7158815117797737E+00
Ga    1.8784643476131253E+00    2.9257272221636854E+00    8.4047546965631472E+00
N    1.8787645577648941E+00    2.9217488012835053E+00    1.0343484891294057E+01
Ga    1.8861980218349754E+00    4.7843520282896446E+00    1.1041565820631007E+01
N    1.8861974989259331E+00    4.7887416911469343E+00    1.2991482848399434E+01
Ga    1.8911814287565549E+00    2.9098319182427703E+00    1.3671456066165492E+01
N    1.3432628101248765E+00    2.5395585232203373E+00    1.5523666859400500E+01
Ga    2.0151691299550528E-01    3.8142550878591615E+00    1.6440708294166491E+01
N    1.9299995111771786E+00    2.8431558171630891E+00    1.6859916509207398E+01
N    2.4916647947637707E-01    5.6983530825866113E+00   -1.5097978902955650E-01
Ga    2.6565471522097855E-01    7.5658608957644029E+00    5.1482004932146674E-01
N    2.7306722153122076E-01    7.5742675202592737E+00    2.4373804151819800E+00
Ga    2.5901527684403486E-01    5.7085956291555320E+00    3.1505877051457407E+00
N    2.6156129901778286E-01    5.7083353727528721E+00    5.0815490081291621E+00
Ga    2.7671277482606527E-01    7.5742286860031820E+00    5.7808491111736879E+00
N    2.8434236782858957E-01    7.5832419533622470E+00    7.7188083609164888E+00
Ga    2.6835284379048929E-01    5.7160458668985337E+00    8.4085739243586897E+00
N    2.6535328538702591E-01    5.7127842153849739E+00    1.0349112385550537E+01
Ga    2.8623358115351644E-01    7.5806395006860585E+00    1.1031305744994407E+01
N    3.0019308031748831E-01    7.5936142450557567E+00    1.2976927957409201E+01
Ga    2.6286166481209178E-01    5.7415431634377736E+00    1.3671822988683855E+01
N   -3.2627478548544098E-01    5.4458997834177492E+00    1.5519942364562375E+01
Ga   -1.3953000920543328E+00    6.6037022776909682E+00    1.7536939979751111E+01
N    2.3601252050980268E-01    5.7844435760778126E+00    1.6857083179282647E+01
N   -1.3613054956700696E+00    8.4881112497267228E+00   -1.5075906974787431E-01
Ga   -1.3450366872823609E+00    1.0355607498277926E+01    5.1467027709176161E-01
N   -1.3375373020464063E+00    1.0363868846030327E+01    2.4374117322628726E+00
Ga   -1.3516405776397218E+00    8.4980811237526197E+00    3.1512565463627951E+00
N   -1.3485615256888210E+00    8.4973636731806348E+00    5.0822325085680671E+00
Ga   -1.3341221925948443E+00    1.0363284308123907E+01    5.7798556389946905E+00
N   -1.3276001182957458E+00    1.0371482112803976E+01    7.7169353309093740E+00
Ga   -1.3421028175165857E+00    8.5058820370527215E+00    8.4100789904246600E+00
N   -1.3436854525150115E+00    8.5007756012173790E+00    1.0351142773200573E+01
Ga   -1.3361623867641836E+00    1.0365346890970102E+01    1.1045209228721534E+01
N   -1.3352331622204530E+00    1.0370283754279146E+01    1.2996155111117114E+01
Ga   -1.3234276015762396E+00    8.4913469916511719E+00    1.3672162812439026E+01
N   -1.8599670524499561E+00    8.1138980561953602E+00    1.5521253663419621E+01
Ga   -3.0102976051219841E+00    9.3814966847207373E+00    1.6448353720770967E+01
N   -1.2835649790170773E+00    8.4243691226714823E+00    1.6855266188783592E+01
N    6.7267893070471967E+00    1.1882732846372339E-01   -1.5172237055117541E-01
Ga    6.7438291884152299E+00    1.9866241594106875E+00    5.1420211544958305E-01
N    6.7504283895445152E+00    1.9948036585753013E+00    2.4372399728079190E+00
Ga    6.7347038374797892E+00    1.2830748739428829E-01    3.1492346696370408E+00
N    6.7351953903187383E+00    1.2661255189387002E-01    5.0793220870100138E+00
Ga    6.7511042715668257E+00    1.9925372854411876E+00    5.7746312893936160E+00
N    6.7564817780400608E+00    1.9995374048039363E+00    7.7112974942702914E+00
Ga    6.7430731614206278E+00    1.3553878357763610E-01    8.4108231187662916E+00
N    6.7386115851172876E+00    1.3011115781895893E-01    1.0354938273706450E+01
Ga    6.7660887649345716E+00    1.9994125886117080E+00    1.1037224219292767E+01
N    6.7866424618120407E+00    2.0096541821522602E+00    1.2987714780234178E+01
Ga    6.7656871403803445E+00    1.4713636803812583E-01    1.3658084693307535E+01
N    6.1859591510746412E+00   -1.8481428832460550E-01    1.5491030314943487E+01
Ga    5.1383232232454059E+00    1.0683539770726127E+00    1.6590091834993064E+01
N    6.8314014543170103E+00    1.6382134023514033E-01    1.7070555949203396E+01
N    5.1164653423819564E+00    2.9084492412608420E+00   -1.5171107912684462E-01
Ga    5.1334047554493756E+00    4.7760329475106413E+00    5.1486327863572567E-01
N    5.1402300306691151E+00    4.7840122455243455E+00    2.4377951158078108E+00
Ga    5.1244898436686386E+00    2.9175050338327431E+00    3.1503732371868174E+00
N    5.1253900781786985E+00    2.9161528815516808E+00    5.0808776756557945E+00
Ga    5.1406090585669588E+00    4.7827130993651128E+00    5.7745071265905237E+00
N    5.1451967565087262E+00    4.7903733059422766E+00    7.7109849777339372E+00
Ga    5.1358110916972084E+00    2.9261730548204312E+00    8.4094013149449314E+00
N    5.1358044053226495E+00    2.9228127787929261E+00    1.0353360095302218E+01
Ga    5.1520547004204200E+00    4.7935248212890480E+00    1.1034833324143161E+01
N    5.1672441335034174E+00    4.8127886809192404E+00    1.2985055244142949E+01
Ga    5.1786972962183953E+00    2.9521593411883460E+00    1.3647341437584730E+01
N    4.6256932474761578E+00    2.6262062694171640E+00    1.5471654086760095E+01
Ga    3.5371219233811111E+00    3.8305677758548646E+00    1.6583611607696820E+01
N    5.2321240408844671E+00    2.9572303828216651E+00    1.7070615738812002E+01
N    3.5057713768158210E+00    5.6978418228437313E+00   -1.5174692748116575E-01
Ga    3.5225360583940022E+00    7.5657353241078580E+00    5.1336116772633955E-01
N    3.5294033978386836E+00    7.5734585304278621E+00    2.4361001919253313E+00
Ga    3.5138718507750690E+00    5.7069343455747967E+00    3.1489153865202932E+00
N    3.5146558801580596E+00    5.7047889880190361E+00    5.0790091176137970E+00
Ga    3.5293735131182076E+00    7.5710839119179223E+00    5.7719566572115850E+00
N    3.5339321681757858E+00    7.5771016562912266E+00    7.7071247889699510E+00
Ga    3.5219752485872968E+00    5.7140123506268203E+00    8.4094693629404027E+00
N    3.5179519621808515E+00    5.7081825076184032E+00    1.0352955659564461E+01
Ga    3.5448130344938740E+00    7.5781614611738970E+00    1.1033686621196864E+01
N    3.5612987746710272E+00    7.5876640023628799E+00    1.2981935550805495E+01
Ga    3.5416706286348298E+00    5.7293826700531181E+00    1.3654137387235759E+01
N    2.9619159033624092E+00    5.3850615855347339E+00    1.5482948132269408E+01
Ga    1.9158746701914400E+00    6.6418569334521003E+00    1.6578241903083772E+01
N    3.6008550974646476E+00    5.7286277439140294E+00    1.7066231945683349E+01
N    1.8948954056474874E+00    8.4877590560242453E+00   -1.5215503176009165E-01
Ga    1.9117695314075631E+00    1.0355641644028303E+01    5.1391842498710349E-01
N    1.9183301241775685E+00    1.0363754090469255E+01    2.4366046904130143E+00
Ga    1.9034651290158351E+00    8.4969522772000925E+00    3.1482610514688352E+00
N    1.9039755733652486E+00    8.4955338712766668E+00    5.0786086816782454E+00
Ga    1.9181702855681568E+00    1.0362133305495247E+01    5.7720686518773840E+00
N    1.9214585245109195E+00    1.0370044352538779E+01    7.7071157908709393E+00
Ga    1.9158064626821518E+00    8.5070336785323004E+00    8.4073406704256790E+00
N    1.9163077323556268E+00    8.5042406466629341E+00    1.0349677175700617E+01
Ga    1.9315203285741307E+00    1.0373644439435648E+01    1.1036101341529836E+01
N    1.9449171256588313E+00    1.0390447876991072E+01    1.2985439000856804E+01
Ga    1.9586692299832003E+00    8.5317802618702618E+00    1.3647765903075785E+01
N    1.3914750090182448E+00    8.2016733785636333E+00    1.5469728286345921E+01
Ga    3.1826366362425890E-01    9.4223930715436310E+00    1.6581157974123983E+01
N    1.9845952665207105E+00    8.5202341388136524E+00    1.7092123896603155E+01
N    9.9839631286355974E+00    1.1866876736551372E-01   -1.5356039368486438E-01
Ga    1.0001077296599878E+01    1.9865622660628690E+00    5.1245611974525174E-01
N    1.0008288989110827E+01    1.9955814069927396E+00    2.4356175369247142E+00
Ga    9.9917007817908718E+00    1.2868432954086040E-01    3.1468739951756692E+00
N    9.9915447202363250E+00    1.2672443890961901E-01    5.0763285081048286E+00
Ga    1.0011271446436709E+01    1.9959089995722061E+00    5.7671241947802105E+00
N    1.0018714360860804E+01    2.0056729264351039E+00    7.6996336425360097E+00
Ga    9.9947873391661801E+00    1.3774499474377047E-01    8.3785804459429745E+00
N    9.9832513576476334E+00    1.3568590035456402E-01    1.0308614923591811E+01
Ga    1.0013854160194928E+01    1.9939595313402920E+00    1.1005706306919759E+01
N    1.0024857433795999E+01    2.0023643144403183E+00    1.2939870731032387E+01
Ga    1.0065517782813529E+01    1.5576698794453026E-01    1.3661309967073336E+01
N    9.5381005732985411E+00   -1.5175464943062184E-01    1.5526098883329862E+01
Ga    8.4315548873085504E+00    1.0739608396298701E+00    1.6709496750575713E+01
N    1.0174585569546263E+01    1.9381344382368099E-01    1.6892267370598972E+01
N    8.3734605586405042E+00    2.9087215862715694E+00   -1.5230597444916430E-01
Ga    8.3906293117286044E+00    4.7764768308571002E+00    5.1406712338184479E-01
N    8.3976780315819806E+00    4.7849161022132121E+00    2.4370127004625064E+00
Ga    8.3814503637467421E+00    2.9180356172731861E+00    3.1483207560812789E+00
N    8.3809998426243979E+00    2.9166434744103467E+00    5.0782705984092731E+00
Ga    8.4003795194122191E+00    4.7842960506009744E+00    5.7716726302409596E+00
N    8.4066937742382155E+00    4.7922850491614088E+00    7.7067206586838033E+00
Ga    8.3896262276540234E+00    2.9216392161140612E+00    8.3891086545187186E+00
N    8.3860350781979545E+00    2.9137878637106702E+00    1.0323324578367565E+01
Ga    8.3960217872844414E+00    4.7841427748650718E+00    1.0989625272136472E+01
N    8.3918320292475865E+00    4.7865205654473000E+00    1.2911234225995635E+01
Ga    8.4458641341281950E+00    2.9617843328293465E+00    1.3649944827010302E+01
N    7.9625310563738037E+00    2.6587423487366957E+00    1.5522825168652854E+01
Ga    6.8178343968473047E+00    3.8551236049439668E+00    1.6710340669802576E+01
N    8.5733442058542497E+00    3.0147196635114373E+00    1.6905301037032096E+01
N    6.7630510907132155E+00    5.6980074211921750E+00   -1.5237663087789741E-01
Ga    6.7798877254176126E+00    7.5660112920833118E+00    5.1249854518464377E-01
N    6.7873842858297024E+00    7.5742468758987425E+00    2.4356009084013812E+00
Ga    6.7711286588825033E+00    5.7076227498452594E+00    3.1479332361435604E+00
N    6.7716174528632171E+00    5.7046807472322953E+00    5.0778671247895337E+00
Ga    6.7914413528623552E+00    7.5734835812537371E+00    5.7673519334775651E+00
N    6.7998882665633715E+00    7.5818072004000481E+00    7.6996804585003620E+00
Ga    6.7762943866094716E+00    5.7161401823226727E+00    8.3875437303522027E+00
N    6.7696495943676878E+00    5.7127280498147535E+00    1.0322047932067061E+01
Ga    6.7892856298363240E+00    7.5788628265764864E+00    1.1006540659649129E+01
N    6.7977514850267760E+00    7.5917183648938318E+00    1.2941113299663783E+01
Ga    6.8351769513737617E+00    5.7457646441629926E+00    1.3648330382211594E+01
N    6.3403340126148144E+00    5.4630960614270760E+00    1.5522807735798850E+01
Ga    5.2039110758415674E+00    6.6408180549946962E+00    1.6707899392472271E+01
N    6.9667816217110801E+00    5.7920006988124308E+00    1.6899201365022613E+01
N    5.1521560352726903E+00    8.4879033270939956E+00   -1.5332769383735886E-01
Ga    5.1694036130304859E+00    1.0355920573321949E+01    5.1379092341520538E-01
N    5.1769005265797992E+00    1.0364257708156339E+01    2.4368016968887951E+00
Ga    5.1605102763169439E+00    8.4963662061528975E+00    3.1469704482957375E+00
N    5.1607041608206679E+00    8.4937948676332020E+00    5.0765135561728050E+00
Ga    5.1782850520544175E+00    1.0362789960235427E+01    5.7660349120031613E+00
N    5.1827478128018383E+00    1.0369925794578153E+01    7.6992676408560294E+00
Ga    5.1683513152752178E+00    8.4979806881749678E+00    8.3789511576642770E+00
N    5.1627735140776210E+00    8.4847853414546854E+00    1.0308929550876265E+01
Ga    5.1630831885566320E+00    1.0356290506640327E+01    1.0967365268848068E+01
N    5.1545830978134424E+00    1.0355390258265855E+01    1.2872271398828191E+01
Ga    5.2155836524257451E+00    8.5515109743300268E+00    1.3658846328879980E+01
N    4.6938302089331865E+00    8.2205704260439791E+00    1.5521342464716421E+01
Ga    3.5674687097075051E+00    9.4228331124256979E+00    1.6744197118169950E+01
N    5.3187561214579970E+00    8.5868608801049664E+00    1.6883554271920826E+01
H    2.1358029874091763E-01    1.1918866290028772E-01   -1.1815099323664655E+00
H   -1.3976551598922642E+00    2.9092588420935499E+00   -1.1792863309309933E+00
H   -3.0081403481906506E+00    5.6983667294288196E+00   -1.1791880412038016E+00
H   -4.6179942566142609E+00    8.4869904129298117E+00   -1.1792275470912319E+00
H    3.4718103744957567E+00    1.1968718552234045E-01   -1.1789611101485213E+00
H    1.8610047645875909E+00    2.9093398077403885E+00   -1.1788113418882389E+00
H    2.4961540871284324E-01    5.6986886346788239E+00   -1.1780939773352812E+00
H   -1.3611035555238917E+00    8.4881950316611068E+00   -1.1778117977918177E+00
H    6.7251063394242694E+00    1.1800973988363501E-01   -1.1788638467602583E+00
H    5.1151441316821957E+00    2.9075820305572107E+00   -1.1788930748008404E+00
H    3.5040769665778986E+00    5.6972109002449152E+00   -1.1789214926322247E+00
H    1.8931423878558162E+00    8.4864556445121977E+00   -1.1793223763113347E+00
H    9.9819699090960547E+00    1.1862424805054435E-01   -1.1808609022003012E+00
H    8.3724705754873519E+00    2.9084262246096242E+00   -1.1794938499416097E+00
H    6.7625255869353635E+00    5.6973884445562888E+00   -1.1795918767032196E+00
H    5.1510593770443283E+00    8.4857908803789783E+00   -1.1806007002000030E+00
     &END COORD
     &KIND H
       BASIS_SET DZVP-MOLOPT-SR-GTH-q1
       POTENTIAL GTH-PBE-q1
       &POTENTIAL
1
0.2000000000000000E+00 2 -0.4178900440000000E+01  0.7244633100000000E+00
0
       &END POTENTIAL
     &END KIND
     &KIND N
       BASIS_SET DZVP-MOLOPT-SR-GTH
       POTENTIAL GTH-PBE-q5
       &POTENTIAL
2 3
0.2837905100000000E+00 2 -0.1241522559000000E+02  0.1868095920000000E+01
2
0.2554050000000000E+00 1  0.1363026257000000E+02
0.2454945300000000E+00 0
       &END POTENTIAL
     &END KIND
     &KIND Ga
       BASIS_SET DZVP-MOLOPT-SR-GTH
       POTENTIAL GTH-PBE-q13
       &POTENTIAL
2 1 10
0.4900000000000000E+00 0
3
0.4167772300000000E+00 3  0.1047568975000000E+02 -0.4921768140000000E+01  0.8707055900000000E+00
0.7770178090000000E+01 -0.2248152160000000E+01
0.1784415450000000E+01
0.5696265200000000E+00 2  0.1777985340000000E+01  0.1958597600000000E+00
-0.2317443900000000E+00
0.2381265000000000E+00 1 -0.1624868022000000E+02
       &END POTENTIAL
     &END KIND
     &TOPOLOGY
       NUMBER_OF_ATOMS  256
       MULTIPLE_UNIT_CELL  1 1 1
     &END TOPOLOGY
   &END SUBSYS
 &END FORCE_EVAL
