 # Version information for this restart file 
 # current date 2019-06-10 14:27:00.189
 # current working dir /lustre03/project/6037349/rzk/GaN-carbene/444-addat/00-Surface/RKS
 # Program compiled at                              Sun Apr  7 00:48:11 EDT 2019
 # Program compiled on                          beluga2.int.ets1.calculquebec.ca
 # Program compiled for                        Beluga-Linux-x86-64-intel-openmpi
 # Source code revision number                                         svn:18619
 &GLOBAL
   PRINT_LEVEL  MEDIUM
   PROJECT_NAME TEST
   RUN_TYPE  CELL_OPT
 &END GLOBAL
 &MOTION
   &CELL_OPT
     MAX_ITER  300
     STEP_START_VAL  36
     EXTERNAL_PRESSURE     1.0000000000000000E+00
     KEEP_ANGLES  T
     KEEP_SYMMETRY  T
     CONSTRAINT  Z
     PRESSURE_TOLERANCE     5.0000000000000000E+02
   &END CELL_OPT
 &END MOTION
 &FORCE_EVAL
   METHOD  QS
   STRESS_TENSOR  ANALYTICAL
   &DFT
     BASIS_SET_FILE_NAME BASIS_MOLOPT
     POTENTIAL_FILE_NAME GTH_POTENTIALS
     SURFACE_DIPOLE_CORRECTION  T
     SURF_DIP_DIR  Z
     &SCF
       MAX_SCF  100
       EPS_SCF     5.0000000000000004E-06
       &OT  T
         PRECONDITIONER  FULL_ALL
       &END OT
       &OUTER_SCF  T
         OPTIMIZER  NONE
         EPS_SCF     5.0000000000000004E-06
         MAX_SCF  4
       &END OUTER_SCF
       &PRINT
         &RESTART  OFF
           BACKUP_COPIES  1
           &EACH
             JUST_ENERGY  0
             QS_SCF  0
             MD  20
           &END EACH
         &END RESTART
       &END PRINT
     &END SCF
     &QS
       EPS_DEFAULT     1.0000000000000000E-14
       METHOD  GPW
     &END QS
     &MGRID
       NGRIDS  5
       CUTOFF     1.2000000000000000E+03
     &END MGRID
     &XC
       DENSITY_CUTOFF     1.0000000000000000E-10
       GRADIENT_CUTOFF     1.0000000000000000E-10
       TAU_CUTOFF     1.0000000000000000E-10
       &XC_FUNCTIONAL  NO_SHORTCUT
         &PBE  T
         &END PBE
       &END XC_FUNCTIONAL
       &VDW_POTENTIAL
         POTENTIAL_TYPE  PAIR_POTENTIAL
         &PAIR_POTENTIAL
           R_CUTOFF     1.0000000000000004E+01
           TYPE  DFTD3
           PARAMETER_FILE_NAME dftd3.dat
           REFERENCE_FUNCTIONAL PBE
           EPS_CN     9.9999999999999995E-07
           CALCULATE_C9_TERM  T
           REFERENCE_C9_TERM  T
           LONG_RANGE_CORRECTION  F
           VERBOSE_OUTPUT  F
         &END PAIR_POTENTIAL
       &END VDW_POTENTIAL
     &END XC
   &END DFT
   &SUBSYS
     &CELL
       A     1.3079177554596313E+01    0.0000000000000000E+00    0.0000000000000000E+00
       B    -6.4534621877519713E+00    1.1177724393910994E+01    0.0000000000000000E+00
       C     0.0000000000000000E+00    0.0000000000000000E+00    3.2000000000000000E+01
       MULTIPLE_UNIT_CELL  1 1 1
       &CELL_REF
         A     1.2982353780853531E+01    0.0000000000000000E+00    0.0000000000000000E+00
         B    -6.4911768904267628E+00    1.1243048175136114E+01    0.0000000000000000E+00
         C     0.0000000000000000E+00    0.0000000000000000E+00    3.2000000000000000E+01
         MULTIPLE_UNIT_CELL  1 1 1
       &END CELL_REF
     &END CELL
     &COORD
N   -1.2534079252143500E-03   -5.2836256218558517E-03   -2.7534379894963851E-01
Ga    1.9311378176427300E-02    1.8668311493013601E+00    4.3741865311736355E-01
N    2.1807352533083260E-02    1.8637608099466163E+00    2.3935304376235380E+00
Ga    5.2351929500723945E-03   -5.0232402185662380E-03    3.1028226160470109E+00
N    1.9565155184353682E-02   -6.0539119017713455E-03    5.0282702350105062E+00
Ga    4.1660077458279619E-02    1.8649357976672836E+00    5.7480107701910290E+00
N    7.6073487366241366E-02    1.8714078268135959E+00    7.7068469677575395E+00
Ga    6.1786154309262320E-02    3.2169241039593627E-03    8.4328274302370598E+00
N    1.2164874653081863E-01    4.3792829264749325E-02    1.0390073150628789E+01
Ga    1.5115225477452837E-01    1.9290642981391177E+00    1.1083559587655284E+01
N    3.0724619871768755E-01    2.0377141027247823E+00    1.3022277937758934E+01
Ga    2.8815193461036465E-01    1.6285950390288878E-01    1.3668601530169424E+01
N    1.2417820210154241E-01    1.1571512609896240E-01    1.5590008903121280E+01
Ga   -5.9409054623840885E-01    1.4585225778918458E+00    1.6779810660755832E+01
N    1.0084820211618686E+00    6.2197462583525420E-01    1.7465873337440112E+01
N   -1.6145527899273473E+00    2.7891541596296854E+00   -2.7515850693819915E-01
Ga   -1.5942408621135093E+00    4.6611443601465501E+00    4.3734513374161577E-01
N   -1.5918909335968945E+00    4.6578549463040231E+00    2.3932737358539100E+00
Ga   -1.6075542766837052E+00    2.7895007541600654E+00    3.1042012803523593E+00
N   -1.5925745185883284E+00    2.7886184999919719E+00    5.0290810301216018E+00
Ga   -1.5713819023596121E+00    4.6590341296692586E+00    5.7487898993734694E+00
N   -1.5374192919142329E+00    4.6645031257830176E+00    7.7067680595620915E+00
Ga   -1.5504952692104907E+00    2.7959250029046845E+00    8.4327950927293376E+00
N   -1.4850695461562204E+00    2.8385659372215128E+00    1.0384533384896011E+01
Ga   -1.4579101224790614E+00    4.7149021906990587E+00    1.1084380636089634E+01
N   -1.3044324832550407E+00    4.8229643889952660E+00    1.3013377020335380E+01
Ga   -1.2904601148421209E+00    2.9799392848786654E+00    1.3767406017744127E+01
N   -1.2973701796818160E+00    3.0113526796845083E+00    1.5659328717485415E+01
Ga   -2.2908456585031134E+00    4.4620351939374556E+00    1.6744153902107662E+01
N   -6.4531902337370195E-01    3.3984562179524143E+00    1.7033530602918020E+01
N   -3.2280138695499323E+00    5.5836061378418620E+00   -2.7532947122763890E-01
Ga   -3.2074304222200873E+00    7.4557042150650998E+00    4.3746119065671674E-01
N   -3.2048161199139797E+00    7.4522690409013421E+00    2.3935513000080322E+00
Ga   -3.2213054098485463E+00    5.5836364806186696E+00    3.1034412711788790E+00
N   -3.2065039452673973E+00    5.5822094869449170E+00    5.0286920300406459E+00
Ga   -3.1851403649089045E+00    7.4536847694199988E+00    5.7472560024154831E+00
N   -3.1504282745764036E+00    7.4599807285949682E+00    7.7053997405409085E+00
Ga   -3.1646041287908697E+00    5.5912889773097119E+00    8.4314424355441400E+00
N   -3.1043422900813957E+00    5.6316800197964261E+00    1.0386149653291657E+01
Ga   -3.0750484616517082E+00    7.5180330034850185E+00    1.1074520617145771E+01
N   -2.9177953906820746E+00    7.6282462036183363E+00    1.3010896601200303E+01
Ga   -2.9528111487306474E+00    5.7413548571028121E+00    1.3659747235266183E+01
N   -3.1248017965589585E+00    5.7050617592161341E+00    1.5531009373902549E+01
Ga   -3.7640018775081843E+00    7.0127019270952164E+00    1.6774986618416825E+01
N   -2.1995777466004980E+00    6.2307743693899429E+00    1.7610449168460239E+01
N   -4.8412865430348724E+00    8.3780226518162131E+00   -2.7528641812098015E-01
Ga   -4.8209682945418502E+00    1.0250076836026771E+01    4.3753774006532853E-01
N   -4.8185964647470358E+00    1.0246872608271374E+01    2.3933976146261400E+00
Ga   -4.8344139088009346E+00    8.3783005837535356E+00    3.1037657240526539E+00
N   -4.8194942301606645E+00    8.3777076727722335E+00    5.0285590863366991E+00
Ga   -4.7991709328402807E+00    1.0248419443918154E+01    5.7482320821489745E+00
N   -4.7651652963842865E+00    1.0254491891361321E+01    7.7062685720085371E+00
Ga   -4.7776675342377555E+00    8.3850045111226024E+00    8.4294010076978978E+00
N   -4.7121770560293017E+00    8.4284276577805741E+00    1.0380782643138343E+01
Ga   -4.6845065312509222E+00    1.0303371555196721E+01    1.1087217343272339E+01
N   -4.5348595834237964E+00    1.0414733968970280E+01    1.3020567321897063E+01
Ga   -4.5128043706651217E+00    8.5575885435886612E+00    1.3762318294535353E+01
N   -4.5034524250158965E+00    8.5997461678319365E+00    1.5654339910510222E+01
Ga   -5.5052605791484091E+00    9.9862858919609199E+00    1.6736154591607274E+01
N   -3.8595111651025391E+00    8.9848146867380034E+00    1.7030617065591976E+01
N    3.2684611510947614E+00   -5.4138464773438467E-03   -2.7535803342512677E-01
Ga    3.2888812386962010E+00    1.8667197844473047E+00    4.3789667610356131E-01
N    3.2912747579731647E+00    1.8634494037029588E+00    2.3939373465349294E+00
Ga    3.2754693017406153E+00   -5.2348788389230119E-03    3.1037370324804172E+00
N    3.2895352459366554E+00   -7.2045440619186076E-03    5.0285688904523864E+00
Ga    3.3122098214149411E+00    1.8649589047961874E+00    5.7459889849464592E+00
N    3.3445418259239394E+00    1.8702165421546999E+00    7.7046508646131704E+00
Ga    3.3346535308879397E+00    4.1351736360813575E-03    8.4298317215717287E+00
N    3.3935818411099157E+00    4.8948427548088098E-02    1.0385831659109970E+01
Ga    3.4242721544880035E+00    1.9268197448616753E+00    1.1083224644908837E+01
N    3.5725773580785711E+00    2.0451424449602249E+00    1.3021083447483884E+01
Ga    3.5838830308497953E+00    2.0044546769219079E-01    1.3750887608257973E+01
N    3.5773331224161962E+00    2.9011752300526006E-01    1.5735059369748408E+01
Ga    2.5425728831724315E+00    1.4940687254579084E+00    1.6972846631253326E+01
N    4.2437356795739163E+00    6.5781823048207022E-01    1.7087520555799180E+01
N    1.6551187812405541E+00    2.7891053563969592E+00   -2.7542506525391991E-01
Ga    1.6755116761958089E+00    4.6609997299890908E+00    4.3795276955682638E-01
N    1.6780091326687578E+00    4.6574994906476368E+00    2.3935769851724067E+00
Ga    1.6622915753072069E+00    2.7893476040043130E+00    3.1046965182411497E+00
N    1.6762850335508210E+00    2.7881390540505171E+00    5.0295027920703594E+00
Ga    1.6989538385796594E+00    4.6592851775733104E+00    5.7490136534013203E+00
N    1.7308472717987802E+00    4.6632463528509751E+00    7.7072237972630289E+00
Ga    1.7221253228535418E+00    2.7968147337782190E+00    8.4337949802209913E+00
N    1.7828802667830606E+00    2.8415362574181673E+00    1.0392195153031965E+01
Ga    1.7984678015150399E+00    4.7223525103791371E+00    1.1097026800782936E+01
N    1.9255474882426080E+00    4.8296559677425153E+00    1.3030959690768100E+01
Ga    1.9768749958868317E+00    2.9762046049885362E+00    1.3716136883140166E+01
N    1.9400193452442336E+00    3.0098634850375698E+00    1.5652087496136446E+01
Ga    1.0173433884238645E+00    4.3164184303841271E+00    1.6844724182015995E+01
N    2.6353426943080409E+00    3.4061103349944895E+00    1.7044445042479712E+01
N    4.1731695954732022E-02    5.5835410970606372E+00   -2.7537067872628490E-01
Ga    6.2190179541460930E-02    7.4557157650243591E+00    4.3795831244399042E-01
N    6.4796675903691370E-02    7.4523654192162248E+00    2.3940283061156347E+00
Ga    4.8880604300084000E-02    5.5834824850045983E+00    3.1031636728474172E+00
N    6.3304476493462936E-02    5.5814383723716556E+00    5.0282316703061154E+00
Ga    8.5899869378923147E-02    7.4534638831765410E+00    5.7458473564573032E+00
N    1.1925078668139755E-01    7.4591562137070495E+00    7.7046592158129625E+00
Ga    1.0799234771293521E-01    5.5938760015432267E+00    8.4326033243401834E+00
N    1.6677810700443035E-01    5.6393459266681027E+00    1.0387825673922325E+01
Ga    1.9694899532603677E-01    7.5151278800327139E+00    1.1086942491624644E+01
N    3.4651846833264938E-01    7.6344187532885854E+00    1.3027165541511980E+01
Ga    3.4901267132300307E-01    5.7901537090395072E+00    1.3764493474274127E+01
N    3.4035510290902921E-01    5.8582319171198218E+00    1.5745850052448947E+01
Ga   -7.0329063384009560E-01    7.0572020720103827E+00    1.6998477586115115E+01
N    1.0052964478051929E+00    6.2521501054094646E+00    1.7106953005270547E+01
N   -1.5716140070253293E+00    8.3779528914892829E+00   -2.7536316009478873E-01
Ga   -1.5512661097626654E+00    1.0249837157528550E+01    4.3801672357642751E-01
N   -1.5488102420585776E+00    1.0246350553504762E+01    2.3938232643343427E+00
Ga   -1.5644942508572184E+00    8.3780341844222459E+00    3.1045229887707424E+00
N   -1.5500800808668669E+00    8.3762357308808415E+00    5.0288407727356921E+00
Ga   -1.5279024941178785E+00    1.0247579541163729E+01    5.7468950168650448E+00
N   -1.4961689490849834E+00    1.0251074019176116E+01    7.7052539328681773E+00
Ga   -1.5036858169586436E+00    8.3843152861854318E+00    8.4326497179190696E+00
N   -1.4410924270770069E+00    8.4264476378424078E+00    1.0388127095511729E+01
Ga   -1.4281852937159880E+00    1.0304279416779950E+01    1.1086263685592508E+01
N   -1.3011893663521359E+00    1.0411007071968445E+01    1.3025695955756710E+01
Ga   -1.2492668442190664E+00    8.5604515286207992E+00    1.3739130669188736E+01
N   -1.2514926376287949E+00    8.6315683435099135E+00    1.5675312604327832E+01
Ga   -2.2264514996539639E+00    9.9096225709839665E+00    1.6843242771206125E+01
N   -5.7197050676600514E-01    9.0053390633265789E+00    1.7031086522129154E+01
N    6.5380646936519371E+00   -5.3225181239836576E-03   -2.7559961737600702E-01
Ga    6.5586201550303471E+00    1.8668039325376489E+00    4.3745616665550474E-01
N    6.5609810714315477E+00    1.8635094540015527E+00    2.3929729764495029E+00
Ga    6.5454746714845440E+00   -4.9328567851002428E-03    3.1035513402041994E+00
N    6.5602682994700876E+00   -6.4249982381025111E-03    5.0285253292258378E+00
Ga    6.5808039303296395E+00    1.8645068276610748E+00    5.7488040828928124E+00
N    6.6138167376725985E+00    1.8686319488992451E+00    7.7062112781918177E+00
Ga    6.6012793378216772E+00    2.8167497324349940E-04    8.4318341071324525E+00
N    6.6570611745986454E+00    3.5094259269696289E-02    1.0388126509588782E+01
Ga    6.6920591847702076E+00    1.9210432783061973E+00    1.1074205194869208E+01
N    6.8345059585364343E+00    2.0247859914725876E+00    1.3008357222715711E+01
Ga    6.8487956918982498E+00    1.7198262412661294E-01    1.3698240554130853E+01
N    6.7058194109071181E+00    1.6494544175517181E-01    1.5668603236580802E+01
Ga    5.9040332009577758E+00    1.4980107163254330E+00    1.6760327033962088E+01
N    7.5665803306078026E+00    6.0993635240824073E-01    1.7321753326922977E+01
N    4.9248102199670454E+00    2.7891282498527827E+00   -2.7544169205048652E-01
Ga    4.9452035061615183E+00    4.6611735178582610E+00    4.3748678730278345E-01
N    4.9474485821117025E+00    4.6578767618477919E+00    2.3927090955109009E+00
Ga    4.9320676277693973E+00    2.7898491302706261E+00    3.1044271501979508E+00
N    4.9468703782004466E+00    2.7889217898436693E+00    5.0291115103399324E+00
Ga    4.9668940903824828E+00    4.6591740091667031E+00    5.7503129226802931E+00
N    4.9995851547842882E+00    4.6632823975656352E+00    7.7074841293301573E+00
Ga    4.9888206564373085E+00    2.7947723304030525E+00    8.4307757104747907E+00
N    5.0501276169844260E+00    2.8332622774763347E+00    1.0384013021562060E+01
Ga    5.0772594633063006E+00    4.7146168413097458E+00    1.1082380980921240E+01
N    5.2091399989802474E+00    4.8246394705709372E+00    1.3009038571370098E+01
Ga    5.2562782823879273E+00    2.9785470775338907E+00    1.3740281122869224E+01
N    5.2467478196767630E+00    3.0240664117024743E+00    1.5634352319511502E+01
Ga    4.2773794794508984E+00    4.3236569409154404E+00    1.6750475223864647E+01
N    5.9317638196686122E+00    3.3839090426186487E+00    1.7120243879975391E+01
N    3.3114190882901076E+00    5.5835672308949489E+00   -2.7568502771789205E-01
Ga    3.3319915874689889E+00    7.4558304958804591E+00    4.3739681176246847E-01
N    3.3344108993054511E+00    7.4526605212089647E+00    2.3929551056551763E+00
Ga    3.3186393346727563E+00    5.5842128867424279E+00    3.1032489850195244E+00
N    3.3329524978615330E+00    5.5829196931065717E+00    5.0284554831639028E+00
Ga    3.3543022416383321E+00    7.4534277181833595E+00    5.7497322317111657E+00
N    3.3873645951782163E+00    7.4589993339750276E+00    7.7078792406018266E+00
Ga    3.3743764520887560E+00    5.5912747892595229E+00    8.4341943558504777E+00
N    3.4285800220978495E+00    5.6288571382647916E+00    1.0390602213730249E+01
Ga    3.4665382708267600E+00    7.5102462134995340E+00    1.1088038998921382E+01
N    3.6100848224457560E+00    7.6183493862882976E+00    1.3015764606802696E+01
Ga    3.6235673556827068E+00    5.7658294687639975E+00    1.3708007355259980E+01
N    3.4979610059133264E+00    5.7503705078785696E+00    1.5678031973425169E+01
Ga    2.6544535001625253E+00    7.0840964492187792E+00    1.6771677592974179E+01
N    4.3224835601498501E+00    6.1854698669750201E+00    1.7273601436603709E+01
N    1.6980699024310315E+00    8.3779518758668914E+00   -2.7549313294853384E-01
Ga    1.7185312603791880E+00    1.0249981784859736E+01    4.3756730979975283E-01
N    1.7208239236728144E+00    1.0246624638578844E+01    2.3929293188666687E+00
Ga    1.7056948539048364E+00    8.3786239702668759E+00    3.1049314051823069E+00
N    1.7204987473744078E+00    8.3776521102430586E+00    5.0295109688180473E+00
Ga    1.7410981361952071E+00    1.0247671454373899E+01    5.7506597872969589E+00
N    1.7739327707234072E+00    1.0251287452037317E+01    7.7082950251219815E+00
Ga    1.7628991852608711E+00    8.3833130976543355E+00    8.4360286170069365E+00
N    1.8249399860674300E+00    8.4225509011077140E+00    1.0390963272287088E+01
Ga    1.8514313982303827E+00    1.0303003422496534E+01    1.1081729951130910E+01
N    1.9897785359384461E+00    1.0412956590883649E+01    1.3011446059305509E+01
Ga    2.0286304617213102E+00    8.5691298068157433E+00    1.3743022473595836E+01
N    2.0002897440559635E+00    8.6020703038720239E+00    1.5636007514628483E+01
Ga    1.0531224828183774E+00    9.9275090161262245E+00    1.6762315664031224E+01
N    2.6946339469971594E+00    8.9759133346172995E+00    1.7124134061048270E+01
N    9.8080459571811467E+00   -5.2996259974803879E-03   -2.7528302440049662E-01
Ga    9.8284734654895498E+00    1.8667816122335630E+00    4.3771301096633752E-01
N    9.8310757136347515E+00    1.8636156206872032E+00    2.3937700258326386E+00
Ga    9.8145409750931574E+00   -5.4645860745598848E-03    3.1034675918441867E+00
N    9.8293111618180227E+00   -6.8872812795757335E-03    5.0285199733179420E+00
Ga    9.8508154846685034E+00    1.8644214408538229E+00    5.7453347024877726E+00
N    9.8867324880502370E+00    1.8710180459994961E+00    7.7016243730042326E+00
Ga    9.8712880004185806E+00    5.0916129288323328E-03    8.4296872000449365E+00
N    9.9285738832662958E+00    4.8342226202935185E-02    1.0381080478295143E+01
Ga    9.9650661886333047E+00    1.9281291328962447E+00    1.1084311362601349E+01
N    1.0121547036360605E+01    2.0430578491006051E+00    1.3016162209611181E+01
Ga    1.0115250910388371E+01    1.9156655029017100E-01    1.3731248204562409E+01
N    1.0085063576113402E+01    1.9545514415738607E-01    1.5697119214557771E+01
Ga    9.1246674066895146E+00    1.5155064254363975E+00    1.6908139172947912E+01
N    1.0805485255084760E+01    6.4083297062253386E-01    1.7127092731498795E+01
N    8.1946463295792604E+00    2.7891023141757745E+00   -2.7551691819985641E-01
Ga    8.2149947361380651E+00    4.6611135072923346E+00    4.3767900774080898E-01
N    8.2175492241651487E+00    4.6578284752613532E+00    2.3934130004484997E+00
Ga    8.2011001027447605E+00    2.7891521878451688E+00    3.1041505693438078E+00
N    8.2160050172352488E+00    2.7877467939054905E+00    5.0287001478507891E+00
Ga    8.2365851695904073E+00    4.6583357153786409E+00    5.7468776119011249E+00
N    8.2707774624276915E+00    4.6637066268670822E+00    7.7039787371642525E+00
Ga    8.2607939310956162E+00    2.7938309561918668E+00    8.4293623144059957E+00
N    8.3227700611943245E+00    2.8318480596057052E+00    1.0378446722930962E+01
Ga    8.3329631775150403E+00    4.7112961551628167E+00    1.1067613152875509E+01
N    8.4491769174940377E+00    4.8040275962041337E+00    1.2977325475181017E+01
Ga    8.5079878003725096E+00    2.9691637230696726E+00    1.3723337137712727E+01
N    8.5010356373788447E+00    2.9806523743434248E+00    1.5658192912972227E+01
Ga    7.5410130601340581E+00    4.3345505133685922E+00    1.6793861083897056E+01
N    9.2110004008599251E+00    3.4152026158955424E+00    1.7033408129876243E+01
N    6.5811840635026746E+00    5.5835796804935347E+00   -2.7531849736687808E-01
Ga    6.6016542563190708E+00    7.4556854927538678E+00    4.3777923443587630E-01
N    6.6039036473481580E+00    7.4524664026949701E+00    2.3938858550272029E+00
Ga    6.5875094426767422E+00    5.5833310290491625E+00    3.1036002119980570E+00
N    6.6019914326194939E+00    5.5817994993283602E+00    5.0283869293156140E+00
Ga    6.6235786289846121E+00    7.4534147759597129E+00    5.7454591184762291E+00
N    6.6582290664059780E+00    7.4610154321679580E+00    7.7020096837898606E+00
Ga    6.6443981780976715E+00    5.5940041772774940E+00    8.4277047017731270E+00
N    6.7012499136098231E+00    5.6390402223961189E+00    1.0376683438200772E+01
Ga    6.7392480426103480E+00    7.5173493504182503E+00    1.1080979378404137E+01
N    6.8957112074405407E+00    7.6316439326559244E+00    1.3008822844995482E+01
Ga    6.8921384255839984E+00    5.7740977542693859E+00    1.3714805965675005E+01
N    6.8567663544760578E+00    5.7925495397858580E+00    1.5693873789257974E+01
Ga    5.8973267556535252E+00    7.1017506024272494E+00    1.6903303591990969E+01
N    7.5924000200121755E+00    6.2382018213710326E+00    1.7111131015136710E+01
N    4.9679936593918699E+00    8.3780327885230310E+00   -2.7544380244422040E-01
Ga    4.9883166040417439E+00    1.0249948511506622E+01    4.3763939904608246E-01
N    4.9908290298784355E+00    1.0246567422683302E+01    2.3932724588035987E+00
Ga    4.9742786119752251E+00    8.3782976147585728E+00    3.1049543416183014E+00
N    4.9888351225408876E+00    8.3776162838237092E+00    5.0294290978989817E+00
Ga    5.0100231747815451E+00    1.0247837318009669E+01    5.7482185811228730E+00
N    5.0441445513772196E+00    1.0253365388738651E+01    7.7057169946983866E+00
Ga    5.0331807594657754E+00    8.3842174566901075E+00    8.4318169337570126E+00
N    5.0940260553838046E+00    8.4251391591777285E+00    1.0384518057347726E+01
Ga    5.1080114372825527E+00    1.0304825382701024E+01    1.1078202467995940E+01
N    5.2325627624048083E+00    1.0403552173655900E+01    1.2996255640393834E+01
Ga    5.2855779439963593E+00    8.5536766671657283E+00    1.3705290348655017E+01
N    5.2522109095160259E+00    8.5503550118502716E+00    1.5632530588798749E+01
Ga    4.3276876546959935E+00    9.9168075081022842E+00    1.6799865604597244E+01
N    5.9647564146794476E+00    8.9826528143931039E+00    1.7045049995986346E+01
H    2.0638920686334291E-03    1.0442125660881782E-03   -1.3094213005162592E+00
H   -1.6112136580319001E+00    2.7954644204862142E+00   -1.3091832072498371E+00
H   -3.2247258847770568E+00    5.5899596410124914E+00   -1.3092753494817104E+00
H   -4.8379041907472455E+00    8.3844610703611817E+00   -1.3092160408399582E+00
H    3.2716645569087599E+00    8.0912903122938389E-04   -1.3093752012538493E+00
H    1.6583755630626265E+00    2.7955203961255095E+00   -1.3094655064876100E+00
H    4.5044480620205024E-02    5.5898243611810665E+00   -1.3094992613680403E+00
H   -1.5683026964847702E+00    8.3842893136193766E+00   -1.3095119231447876E+00
H    6.5412729539186758E+00    9.6962427678734205E-04   -1.3095640895597307E+00
H    4.9281245580892934E+00    2.7954798898052351E+00   -1.3094786412873107E+00
H    3.3145601109482730E+00    5.5898802614200394E+00   -1.3096568684913918E+00
H    1.7013675790288600E+00    8.3842693451881036E+00   -1.3095111888517863E+00
H    9.8117782669310269E+00    1.2657898010471557E-03   -1.3094405140813843E+00
H    8.1984279998713525E+00    2.7956458419283274E+00   -1.3095822215352833E+00
H    6.5849097204756406E+00    5.5900743762635381E+00   -1.3094067758280847E+00
H    4.9716505933811170E+00    8.3846592163076910E+00   -1.3095339654725764E+00
     &END COORD
     &KIND H
       BASIS_SET DZVP-MOLOPT-SR-GTH-q1
       POTENTIAL GTH-PBE-q1
       &POTENTIAL
 1
  0.2000000000000000E+00 2 -0.4178900440000000E+01  0.7244633100000000E+00
 0
         # Potential name:  GTH-PBE-Q1  for symbol:  H
         # Potential read from the potential filename: GTH_POTENTIALS
       &END POTENTIAL
     &END KIND
     &KIND N
       BASIS_SET DZVP-MOLOPT-SR-GTH
       POTENTIAL GTH-PBE-q5
       &POTENTIAL
 2 3
  0.2837905100000000E+00 2 -0.1241522559000000E+02  0.1868095920000000E+01
 2
  0.2554050000000000E+00 1  0.1363026257000000E+02
  0.2454945300000000E+00 0
         # Potential name:  GTH-PBE-Q5  for symbol:  N
         # Potential read from the potential filename: GTH_POTENTIALS
       &END POTENTIAL
     &END KIND
     &KIND Ga
       BASIS_SET DZVP-MOLOPT-SR-GTH
       POTENTIAL GTH-PBE-q13
       &POTENTIAL
 2 1 10
  0.4900000000000000E+00 0
 3
  0.4167772300000000E+00 3  0.1047568975000000E+02 -0.4921768140000000E+01  0.8707055900000000E+00
  0.7770178090000000E+01 -0.2248152160000000E+01
  0.1784415450000000E+01
  0.5696265200000000E+00 2  0.1777985340000000E+01  0.1958597600000000E+00
 -0.2317443900000000E+00
  0.2381265000000000E+00 1 -0.1624868022000000E+02
         # Potential name:  GTH-PBE-Q13  for symbol:  GA
         # Potential read from the potential filename: GTH_POTENTIALS
       &END POTENTIAL
     &END KIND
     &TOPOLOGY
       NUMBER_OF_ATOMS  256
       MULTIPLE_UNIT_CELL  1 1 1
     &END TOPOLOGY
   &END SUBSYS
 &END FORCE_EVAL
