 # Version information for this restart file 
 # current date 2019-06-10 22:59:20.156
 # current working dir /lustre03/project/6037349/rzk/GaN-carbene/444-addat/00-Surface/RKS
 # Program compiled at                              Sun Apr  7 00:48:11 EDT 2019
 # Program compiled on                          beluga2.int.ets1.calculquebec.ca
 # Program compiled for                        Beluga-Linux-x86-64-intel-openmpi
 # Source code revision number                                         svn:18619
 &GLOBAL
   PRINT_LEVEL  MEDIUM
   PROJECT_NAME TEST
   RUN_TYPE  CELL_OPT
 &END GLOBAL
 &MOTION
   &CELL_OPT
     MAX_ITER  300
     STEP_START_VAL  62
     EXTERNAL_PRESSURE     1.0000000000000000E+00
     KEEP_ANGLES  T
     KEEP_SYMMETRY  T
     CONSTRAINT  Z
     PRESSURE_TOLERANCE     5.0000000000000000E+02
   &END CELL_OPT
 &END MOTION
 &FORCE_EVAL
   METHOD  QS
   STRESS_TENSOR  ANALYTICAL
   &DFT
     BASIS_SET_FILE_NAME BASIS_MOLOPT
     POTENTIAL_FILE_NAME GTH_POTENTIALS
     SURFACE_DIPOLE_CORRECTION  T
     SURF_DIP_DIR  Z
     &SCF
       MAX_SCF  100
       EPS_SCF     5.0000000000000004E-06
       &OT  T
         PRECONDITIONER  FULL_ALL
       &END OT
       &OUTER_SCF  T
         OPTIMIZER  NONE
         EPS_SCF     5.0000000000000004E-06
         MAX_SCF  4
       &END OUTER_SCF
       &PRINT
         &RESTART  OFF
           BACKUP_COPIES  1
           &EACH
             JUST_ENERGY  0
             QS_SCF  0
             MD  20
           &END EACH
         &END RESTART
       &END PRINT
     &END SCF
     &QS
       EPS_DEFAULT     1.0000000000000000E-14
       METHOD  GPW
     &END QS
     &MGRID
       NGRIDS  5
       CUTOFF     1.2000000000000000E+03
     &END MGRID
     &XC
       DENSITY_CUTOFF     1.0000000000000000E-10
       GRADIENT_CUTOFF     1.0000000000000000E-10
       TAU_CUTOFF     1.0000000000000000E-10
       &XC_FUNCTIONAL  NO_SHORTCUT
         &PBE  T
         &END PBE
       &END XC_FUNCTIONAL
       &VDW_POTENTIAL
         POTENTIAL_TYPE  PAIR_POTENTIAL
         &PAIR_POTENTIAL
           R_CUTOFF     1.0000000000000005E+01
           TYPE  DFTD3
           PARAMETER_FILE_NAME dftd3.dat
           REFERENCE_FUNCTIONAL PBE
           EPS_CN     9.9999999999999995E-07
           CALCULATE_C9_TERM  T
           REFERENCE_C9_TERM  T
           LONG_RANGE_CORRECTION  F
           VERBOSE_OUTPUT  F
         &END PAIR_POTENTIAL
       &END VDW_POTENTIAL
     &END XC
   &END DFT
   &SUBSYS
     &CELL
       A     1.3023889108193133E+01    0.0000000000000000E+00    0.0000000000000000E+00
       B    -6.4486081066514034E+00    1.1169316878820744E+01    0.0000000000000000E+00
       C     0.0000000000000000E+00    0.0000000000000000E+00    3.2000000000000000E+01
       MULTIPLE_UNIT_CELL  1 1 1
       &CELL_REF
         A     1.2982353780853531E+01    0.0000000000000000E+00    0.0000000000000000E+00
         B    -6.4911768904267628E+00    1.1243048175136114E+01    0.0000000000000000E+00
         C     0.0000000000000000E+00    0.0000000000000000E+00    3.2000000000000000E+01
         MULTIPLE_UNIT_CELL  1 1 1
       &END CELL_REF
     &END CELL
     &COORD
N    1.8906659544543666E-02   -3.1193517142498140E-03   -1.4390045105553789E-01
Ga    3.5553875549890306E-02    1.8654224575027434E+00    5.2146403592549428E-01
N    6.2359815661875539E-02    1.8811575821634343E+00    2.4449425519354246E+00
Ga    5.1945240597994304E-02    1.5714917846849131E-02    3.1561009239371045E+00
N    9.8091166346256614E-02    4.1288735858226663E-02    5.0887290173479123E+00
Ga    1.2058348340670215E-01    1.9161600848394573E+00    5.7770531189968217E+00
N    2.1061350602394255E-01    1.9831159720805112E+00    7.7121028352112484E+00
Ga    2.0698652694622055E-01    1.1889461874045081E-01    8.3882626252087835E+00
N    3.2486225059118362E-01    1.9185052331714134E-01    1.0316850414535192E+01
Ga    3.4957926705446235E-01    2.0630297601447323E+00    1.1014208927657100E+01
N    4.4392788091713759E-01    2.1253203094935329E+00    1.2945822379455326E+01
Ga    4.0831354772638051E-01    2.5483623832928559E-01    1.3600453419474006E+01
N   -1.6384640589481056E-01   -7.5073700349342493E-02    1.5323810587826205E+01
Ga   -8.6729461897401705E-01    1.0746237441498749E+00    1.6707799349001046E+01
N    5.2262535980315117E-01    3.0233178078174472E-01    1.7894837643903777E+01
N   -1.5930129256823438E+00    2.7891364104903151E+00   -1.4302203911998451E-01
Ga   -1.5769587356152308E+00    4.6583276310800921E+00    5.2041397543133849E-01
N   -1.5503893747853106E+00    4.6744775552096369E+00    2.4441154367519120E+00
Ga   -1.5596993934002246E+00    2.8085644108719996E+00    3.1522491428238357E+00
N   -1.5131808611486728E+00    2.8342273179181832E+00    5.0838768063405286E+00
Ga   -1.4909031653340117E+00    4.7067294475252650E+00    5.7752390802276921E+00
N   -1.4014063517021851E+00    4.7717502944378563E+00    7.7109347664804639E+00
Ga   -1.4052764218048177E+00    2.9126018726145242E+00    8.3974199894986565E+00
N   -1.2850988352756401E+00    2.9878923049466999E+00    1.0330827540837474E+01
Ga   -1.2724518005256018E+00    4.8596248366215491E+00    1.1037784114464124E+01
N   -1.1880052221092092E+00    4.9218786216153729E+00    1.2978905352125246E+01
Ga   -1.1681403505185148E+00    3.0523655866110393E+00    1.3623066657088525E+01
N   -1.6308147474174561E+00    2.6091909769576023E+00    1.5459221280465664E+01
Ga   -2.6654621366230584E+00    4.3722470629718257E+00    1.6786196278829536E+01
N   -1.1880539545036719E+00    3.0710600469019451E+00    1.6756072576743552E+01
N   -3.2053193066471164E+00    5.5816154022794358E+00   -1.4436075518014860E-01
Ga   -3.1887639471317573E+00    7.4501937443835864E+00    5.2079548768837125E-01
N   -3.1619799781243154E+00    7.4661518267023750E+00    2.4444848181663366E+00
Ga   -3.1727160921288022E+00    5.6004560924901119E+00    3.1547578962822902E+00
N   -3.1271440474652108E+00    5.6254752810419761E+00    5.0872192834365357E+00
Ga   -3.1034659537902987E+00    7.5007790246577075E+00    5.7749230722459188E+00
N   -3.0132327152010405E+00    7.5654595053056379E+00    7.7105985593084441E+00
Ga   -3.0161911294541124E+00    5.7044991360190362E+00    8.3915191444808546E+00
N   -2.8984653072461901E+00    5.7776916523016340E+00    1.0325430079010710E+01
Ga   -2.8795139566837369E+00    7.6425122463575619E+00    1.1035362611999824E+01
N   -2.7945135615709100E+00    7.7029075531583659E+00    1.2977911015065477E+01
Ga   -2.8208713506068932E+00    5.8353627273511073E+00    1.3669896985591800E+01
N   -3.3620068504768792E+00    5.5122388562961353E+00    1.5404159294836539E+01
Ga   -3.9960202256892661E+00    6.6710052882541238E+00    1.6793169586974216E+01
N   -2.6893814103526608E+00    5.8907761526736335E+00    1.8076288538593680E+01
N   -4.8174669664718017E+00    8.3741206413529756E+00   -1.4310506912949025E-01
Ga   -4.8011548660769243E+00    1.0243131700272208E+01    5.2079391614101433E-01
N   -4.7745486917912698E+00    1.0259554155079865E+01    2.4442141237843642E+00
Ga   -4.7841581587405742E+00    8.3941331811159170E+00    3.1524127149409598E+00
N   -4.7377322483186823E+00    8.4197557944577888E+00    5.0839242219202490E+00
Ga   -4.7152855566759504E+00    1.0291446385529547E+01    5.7778679040979908E+00
N   -4.6235491280664718E+00    1.0355153970478298E+01    7.7126338130884227E+00
Ga   -4.6273078995126982E+00    8.4937540884476821E+00    8.3972042781644181E+00
N   -4.5058658860035399E+00    8.5681426114661381E+00    1.0330522751894259E+01
Ga   -4.4903133928079280E+00    1.0445662036663936E+01    1.1018458656759169E+01
N   -4.4018473118075514E+00    1.0514421116697973E+01    1.2951130993783909E+01
Ga   -4.4073257079620127E+00    8.6592890786308345E+00    1.3625233042154195E+01
N   -5.0171192608446784E+00    8.4746592973714154E+00    1.5463214973931757E+01
Ga   -5.9591089033478548E+00    9.8931607891718762E+00    1.6696481213607289E+01
N   -4.3856287843734671E+00    8.6065664046059958E+00    1.6753128221112242E+01
N    3.2749154626942811E+00   -2.9629817034566987E-03   -1.4396986957787292E-01
Ga    3.2910517108611499E+00    1.8655563793027656E+00    5.2183863677710307E-01
N    3.3171155362858116E+00    1.8811790757848639E+00    2.4456118450742208E+00
Ga    3.3080120580772419E+00    1.6556553371129008E-02    3.1579351363981116E+00
N    3.3549461576529174E+00    4.1910416706619540E-02    5.0914481818243775E+00
Ga    3.3739135568604297E+00    1.9139419544601948E+00    5.7861663725572452E+00
N    3.4622087016261394E+00    1.9768158465401955E+00    7.7243147893192621E+00
Ga    3.4665127226485666E+00    1.1863512151872228E-01    8.4155740074975274E+00
N    3.5861948982737708E+00    1.9285340352125552E-01    1.0351286393068284E+01
Ga    3.6076938249713528E+00    2.0627279832081959E+00    1.1052011566483895E+01
N    3.6972936537297758E+00    2.1277872357333694E+00    1.2993485232228574E+01
Ga    3.6669878230661679E+00    2.8021360879594182E-01    1.3697079923188795E+01
N    3.1116602136420752E+00    1.3030690658292604E-02    1.5556611794417746E+01
Ga    2.0348074862419572E+00    1.1562787828263295E+00    1.7281986394156633E+01
N    3.7475287821918464E+00    3.4199016290434919E-01    1.6924716953100322E+01
N    1.6627904314377531E+00    2.7891816947823762E+00   -1.4379566036737337E-01
Ga    1.6786385640571637E+00    4.6577219899109430E+00    5.2143347372550797E-01
N    1.7044574817602178E+00    4.6733135324238591E+00    2.4450380442495150E+00
Ga    1.6963706979574189E+00    2.8087399448560975E+00    3.1569733205722863E+00
N    1.7428073144028708E+00    2.8345054954296098E+00    5.0901889602338617E+00
Ga    1.7612015785356991E+00    4.7054972466604701E+00    5.7863022742696382E+00
N    1.8464967364997749E+00    4.7685192160723400E+00    7.7250687848090349E+00
Ga    1.8539067495817385E+00    2.9115899803034577E+00    8.4177044138261454E+00
N    1.9763197758880160E+00    2.9850471200070881E+00    1.0353630780243140E+01
Ga    1.9821955641683928E+00    4.8540969393865607E+00    1.1060964572669725E+01
N    2.0560264313694514E+00    4.9102332613862396E+00    1.3015001347551927E+01
Ga    2.0774156885911785E+00    3.0353859261391753E+00    1.3688857229180645E+01
N    1.5773978187977411E+00    2.6776049823633294E+00    1.5551713866771005E+01
Ga    4.7466542610730117E-01    3.9568549374132060E+00    1.6521092660006335E+01
N    2.1824605532411820E+00    3.0494543086640644E+00    1.6920038009572121E+01
N    5.0742450364511318E-02    5.5817438088007769E+00   -1.4380920217183979E-01
Ga    6.6736999654240042E-02    7.4503732427015770E+00    5.2141867427995381E-01
N    9.3049887003002846E-02    7.4662130438730250E+00    2.4449910199797409E+00
Ga    8.4035500805364011E-02    5.6015023057310493E+00    3.1572163843373442E+00
N    1.3078493359660676E-01    5.6271615728745914E+00    5.0906654062716532E+00
Ga    1.4925665969064592E-01    7.4980057407928271E+00    5.7887051921384369E+00
N    2.3669077984558318E-01    7.5607310151743414E+00    7.7282757235400279E+00
Ga    2.3752769605119464E-01    5.7015994462381183E+00    8.4194668927243601E+00
N    3.5469423907650099E-01    5.7738973499021000E+00    1.0357924020363662E+01
Ga    3.8232949833358221E-01    7.6475291693814738E+00    1.1046039615261227E+01
N    4.6946999726836408E-01    7.7106331763607194E+00    1.2986115142626760E+01
Ga    4.3992960520148949E-01    5.8671912264096084E+00    1.3691902771067284E+01
N   -1.0340308052658892E-01    5.5771509997760802E+00    1.5556781766559569E+01
Ga   -1.1353062392274487E+00    6.7791290637639596E+00    1.7655740449192429E+01
N    4.5384348947317471E-01    5.9483114771097707E+00    1.6858678340469954E+01
N   -1.5614167203280549E+00    8.3740425688833007E+00   -1.4418823047077436E-01
Ga   -1.5457797795064276E+00    1.0242537720939406E+01    5.2159747631258113E-01
N   -1.5201216977087830E+00    1.0258426804110265E+01    2.4451520613524185E+00
Ga   -1.5274667415129477E+00    8.3936118785898213E+00    3.1563398139807592E+00
N   -1.4805197239323944E+00    8.4189053931062610E+00    5.0895259540637205E+00
Ga   -1.4623490038423015E+00    1.0289298176256366E+01    5.7866681472821790E+00
N   -1.3753745514389142E+00    1.0349749297647032E+01    7.7252475277350428E+00
Ga   -1.3742528564545475E+00    8.4935392381232493E+00    8.4219816495937181E+00
N   -1.2559256862415478E+00    8.5652411468326335E+00    1.0360758944152234E+01
Ga   -1.2408273529168199E+00    1.0436434832446514E+01    1.1061651386358591E+01
N   -1.1679100209520588E+00    1.0491878350461048E+01    1.3014590286883672E+01
Ga   -1.1462280350631520E+00    8.6156177798157429E+00    1.3687088669550706E+01
N   -1.6616431466317858E+00    8.2742688400687161E+00    1.5558476581815292E+01
Ga   -2.7760509841875658E+00    9.5697245741089318E+00    1.6521551941008592E+01
N   -1.0561101364047110E+00    8.5658553282955001E+00    1.6851952010221080E+01
N    6.5305866935782122E+00   -3.5805501553048632E-03   -1.4384589452754293E-01
Ga    6.5463997695531315E+00    1.8652852614937461E+00    5.2045911691323543E-01
N    6.5709118295102122E+00    1.8804561611801431E+00    2.4442326318414218E+00
Ga    6.5621512663966151E+00    1.5364029150189466E-02    3.1573541314750897E+00
N    6.6055533252330116E+00    3.9538558722033164E-02    5.0902384017101721E+00
Ga    6.6250819094589346E+00    1.9105665236941443E+00    5.7835936197817484E+00
N    6.7098100036705119E+00    1.9718289168687495E+00    7.7209581601674353E+00
Ga    6.7098587891986554E+00    1.1484926793880583E-01    8.4252679617699275E+00
N    6.8236202011346414E+00    1.8588563001436584E-01    1.0361256156170249E+01
Ga    6.8672341162018613E+00    2.0656980716702797E+00    1.1042839864077255E+01
N    6.9624271292025099E+00    2.1273423154003162E+00    1.2987658711193941E+01
Ga    6.9505869419427579E+00    2.7252010470286270E-01    1.3656969769512223E+01
N    6.3957740628997746E+00   -5.4315055105093241E-02    1.5493832404423554E+01
Ga    5.3828970369693234E+00    1.2397931731093341E+00    1.6607782379855799E+01
N    7.0571113503011782E+00    3.1564144168731362E-01    1.7081121197951823E+01
N    4.9183275569273412E+00    2.7889002106738130E+00   -1.4426163201106046E-01
Ga    4.9343576289855537E+00    4.6573348484579018E+00    5.2009773578829743E-01
N    4.9589559395873701E+00    4.6721369972538902E+00    2.4437258815905745E+00
Ga    4.9501825543743481E+00    2.8079098026657765E+00    3.1589066766533915E+00
N    4.9942311751721853E+00    2.8326525339657733E+00    5.0916231060241381E+00
Ga    5.0118342659814807E+00    4.7037672198081673E+00    5.7843019056817537E+00
N    5.0954825156476398E+00    4.7660098152882382E+00    7.7215083039283225E+00
Ga    5.1031506680857222E+00    2.9091421654335097E+00    8.4221095750262158E+00
N    5.2237963101258815E+00    2.9821232214622895E+00    1.0357941257550996E+01
Ga    5.2478866057607165E+00    4.8633335782258014E+00    1.1042193280229249E+01
N    5.3374183817775247E+00    4.9343976312959059E+00    1.2988530733975480E+01
Ga    5.3599754097882428E+00    3.0768703055864761E+00    1.3651765538183064E+01
N    4.8345992063870353E+00    2.7658472418504458E+00    1.5478814348172458E+01
Ga    3.7927468654568903E+00    4.0102687311259428E+00    1.6611229261604951E+01
N    5.4797428621558151E+00    3.1337109985268978E+00    1.7074103867153557E+01
N    3.3061266056071528E+00    5.5814288686050144E+00   -1.4362359083326309E-01
Ga    3.3220771628619499E+00    7.4499711026177984E+00    5.2123291617538192E-01
N    3.3463657035932131E+00    7.4649724999897407E+00    2.4446449436213333E+00
Ga    3.3380478057330536E+00    5.5996493763818771E+00    3.1575293806434557E+00
N    3.3813609308156991E+00    5.6233653556732852E+00    5.0902557491082634E+00
Ga    3.4011200741787908E+00    7.4945247291666979E+00    5.7806597119104524E+00
N    3.4848531250060826E+00    7.5551174874518319E+00    7.7176411565653193E+00
Ga    3.4852623272236203E+00    5.6989155869795329E+00    8.4257390236332128E+00
N    3.5994358170738039E+00    5.7686876743567046E+00    1.0360638483855888E+01
Ga    3.6429588943435927E+00    7.6474510068148565E+00    1.1037064885226441E+01
N    3.7365236862921027E+00    7.7081875995981664E+00    1.2977484183479742E+01
Ga    3.7236457966991376E+00    5.8573018901822795E+00    1.3665192014174893E+01
N    3.1781466202585635E+00    5.5264183438342762E+00    1.5493907699565915E+01
Ga    2.1395855936362684E+00    6.8075990627835470E+00    1.6569719105695111E+01
N    3.8222940675646706E+00    5.9034680888704170E+00    1.7082751202871258E+01
N    1.6942312707179898E+00    8.3737170761259385E+00   -1.4396864218926636E-01
Ga    1.7100253017380913E+00    1.0242086221108451E+01    5.2095977923097125E-01
N    1.7345852144370706E+00    1.0256839255336304E+01    2.4443830551384154E+00
Ga    1.7257722846150354E+00    8.3924974558534267E+00    3.1585422659954965E+00
N    1.7694707306524950E+00    8.4165493888927632E+00    5.0915824559095588E+00
Ga    1.7877548311734115E+00    1.0288474737134893E+01    5.7816370356784761E+00
N    1.8702679497703043E+00    1.0350135995954730E+01    7.7183895353356222E+00
Ga    1.8796783214825521E+00    8.4936456399523781E+00    8.4207700483199606E+00
N    1.9993377768096576E+00    8.5667393626143813E+00    1.0355172306855366E+01
Ga    2.0234757698927406E+00    1.0449074245431868E+01    1.1036700167293127E+01
N    2.1120476076534032E+00    1.0521035658099557E+01    1.2979546171884460E+01
Ga    2.1400492897269894E+00    8.6645154684502455E+00    1.3636694138452224E+01
N    1.5910169282568654E+00    8.3408353493576151E+00    1.5449753879662657E+01
Ga    5.3699908549931852E-01    9.5802690586544905E+00    1.6562121803926328E+01
N    2.1899469727864367E+00    8.6815399459458806E+00    1.7084839027664010E+01
N    9.7869035657590331E+00   -3.2252203584175179E-03   -1.4338981627553016E-01
Ga    9.8028192657433149E+00    1.8655366641595901E+00    5.2153168796295502E-01
N    9.8285077755027110E+00    1.8809474849394023E+00    2.4447858865970677E+00
Ga    9.8171641813867669E+00    1.4095866656585389E-02    3.1550013699842974E+00
N    9.8601275108701518E+00    3.7842673106406176E-02    5.0868008804401956E+00
Ga    9.8857998438299255E+00    1.9138600909723771E+00    5.7673077278954379E+00
N    9.9753705778108444E+00    1.9801220827530694E+00    7.7002583893771792E+00
Ga    9.9647886379636663E+00    1.1822609755204039E-01    8.3853002907035208E+00
N    1.0075438537455623E+01    1.9346818629174378E-01    1.0308066694833206E+01
Ga    1.0115233655017876E+01    2.0616373649285902E+00    1.1004106133658736E+01
N    1.0207098129476412E+01    2.1263038375341283E+00    1.2937924160538785E+01
Ga    1.0240401983537513E+01    2.7880834133974913E-01    1.3648360615937092E+01
N    9.7393460082416894E+00   -1.5302597078948019E-02    1.5517494580560964E+01
Ga    8.6480652935356730E+00    1.2261464405260116E+00    1.6724864437476576E+01
N    1.0376466990459354E+01    3.3514774810066045E-01    1.6885343981671046E+01
N    8.1747079844983830E+00    2.7890731873613497E+00   -1.4382963364354290E-01
Ga    8.1908956851548300E+00    4.6578476843634462E+00    5.2073689125293110E-01
N    8.2163301639506461E+00    4.6730283515033868E+00    2.4444357213933183E+00
Ga    8.2045540473425085E+00    2.8066226462513177E+00    3.1540285099225605E+00
N    8.2475926599630398E+00    2.8301966738275484E+00    5.0856670691238151E+00
Ga    8.2712849481127222E+00    4.7037871262467839E+00    5.7714597208039153E+00
N    8.3598285342012524E+00    4.7675335855819876E+00    7.7068204007460519E+00
Ga    8.3574548855900392E+00    2.9036260120416006E+00    8.3915294935301414E+00
N    8.4766649176310782E+00    2.9721009107153913E+00    1.0318719420217290E+01
Ga    8.4928497417886373E+00    4.8527645997817652E+00    1.0979912052523641E+01
N    8.5647314397572476E+00    4.9080768177118168E+00    1.2887661942736303E+01
Ga    8.6301336722517128E+00    3.0921407660817564E+00    1.3640675470361129E+01
N    8.1970586665585170E+00    2.7922140677121954E+00    1.5524006794720876E+01
Ga    7.0669282438719341E+00    4.0289016453357434E+00    1.6688932698033874E+01
N    8.8203293782622989E+00    3.1735903990663519E+00    1.6885173087542210E+01
N    6.5624918564584060E+00    5.5816707311138245E+00   -1.4361255417430877E-01
Ga    6.5786325469322726E+00    7.4501986839437899E+00    5.2175241107955239E-01
N    6.6045232814558741E+00    7.4654824212738546E+00    2.4449352902967925E+00
Ga    6.5922248021907945E+00    5.5985862155290036E+00    3.1542786423111742E+00
N    6.6351873602961806E+00    5.6217349108451140E+00    5.0861238395124646E+00
Ga    6.6618762067686363E+00    7.4974927301915582E+00    5.7664574574998051E+00
N    6.7526744906042886E+00    7.5617780608965663E+00    7.6997984322437896E+00
Ga    6.7416191134723933E+00    5.7016404329836812E+00    8.3906182882391782E+00
N    6.8544122776662570E+00    5.7770292257265980E+00    1.0317144078843656E+01
Ga    6.8893531612485601E+00    7.6500557902960127E+00    1.1001487146540651E+01
N    6.9804416585291111E+00    7.7160866110511757E+00    1.2935079506636903E+01
Ga    7.0190621012033549E+00    5.8696413361766409E+00    1.3633504778969856E+01
N    6.5589592576937354E+00    5.6223889478421087E+00    1.5518952030871143E+01
Ga    5.4302839832366212E+00    6.7986859206688077E+00    1.6721606893981679E+01
N    7.2070381585101515E+00    5.9669645357205523E+00    1.6875647771738237E+01
N    4.9503219229137603E+00    8.3739784271788018E+00   -1.4343455609834166E-01
Ga    4.9667033605667736E+00    1.0242635225827540E+01    5.2148644261064458E-01
N    4.9925759365623446E+00    1.0258248372473895E+01    2.4447491744125998E+00
Ga    4.9804204799956828E+00    8.3918463545437749E+00    3.1546705353519338E+00
N    5.0236896447298847E+00    8.4147823223670528E+00    5.0859382868693848E+00
Ga    5.0477095814640727E+00    1.0288551086102890E+01    5.7708720965221874E+00
N    5.1349419882797571E+00    1.0351587730171220E+01    7.7047934734637007E+00
Ga    5.1335954410269693E+00    8.4860064451943877E+00    8.3879031506773547E+00
N    5.2511591063573695E+00    8.5532771702070285E+00    1.0309851763697582E+01
Ga    5.2625504934325011E+00    1.0434463826391656E+01    1.0974537308148211E+01
N    5.3288108707136876E+00    1.0487549099388826E+01    1.2867747853419715E+01
Ga    5.3919014426954837E+00    8.6724643030222897E+00    1.3648500374041054E+01
N    4.9000983884975060E+00    8.3599292750877403E+00    1.5511752904988565E+01
Ga    3.7742883267982026E+00    9.5707751535365908E+00    1.6711930227364110E+01
N    5.5189120825746834E+00    8.7339831556520533E+00    1.6887611363558019E+01
H    1.6549591666004219E-02   -3.8023202047553824E-03   -1.1707291272353568E+00
H   -1.5955275987853879E+00    2.7885060902295291E+00   -1.1698389810512313E+00
H   -3.2074263009286179E+00    5.5808416521713147E+00   -1.1712864677307817E+00
H   -4.8201570670381209E+00    8.3735925732922158E+00   -1.1699311097770380E+00
H    3.2727865247692556E+00   -3.4226596188309303E-03   -1.1708256631006240E+00
H    1.6606919862201244E+00    2.7890758712673409E+00   -1.1706720708598999E+00
H    4.8814488936678807E-02    5.5811608275153075E+00   -1.1706814602712869E+00
H   -1.5633286777707875E+00    8.3735800005098522E+00   -1.1711157853433447E+00
H    6.5283593338156445E+00   -4.2883320349850719E-03   -1.1707013642120616E+00
H    4.9159178806820014E+00    2.7885099472075625E+00   -1.1711076372845719E+00
H    3.3037622693631068E+00    5.5805838867069015E+00   -1.1704397970248239E+00
H    1.6919050370393300E+00    8.3730686534553307E+00   -1.1707135826941140E+00
H    9.7848484670378770E+00   -3.4052911311593229E-03   -1.1702467506259318E+00
H    8.1729158217844144E+00    2.7884046969672083E+00   -1.1707288179776103E+00
H    6.5601310670806523E+00    5.5814714442272892E+00   -1.1704914823545123E+00
H    4.9484036301704046E+00    8.3734491201348984E+00   -1.1703141959584966E+00
     &END COORD
     &KIND H
       BASIS_SET DZVP-MOLOPT-SR-GTH-q1
       POTENTIAL GTH-PBE-q1
       &POTENTIAL
1
0.2000000000000000E+00 2 -0.4178900440000000E+01  0.7244633100000000E+00
0
       &END POTENTIAL
     &END KIND
     &KIND N
       BASIS_SET DZVP-MOLOPT-SR-GTH
       POTENTIAL GTH-PBE-q5
       &POTENTIAL
2 3
0.2837905100000000E+00 2 -0.1241522559000000E+02  0.1868095920000000E+01
2
0.2554050000000000E+00 1  0.1363026257000000E+02
0.2454945300000000E+00 0
       &END POTENTIAL
     &END KIND
     &KIND Ga
       BASIS_SET DZVP-MOLOPT-SR-GTH
       POTENTIAL GTH-PBE-q13
       &POTENTIAL
2 1 10
0.4900000000000000E+00 0
3
0.4167772300000000E+00 3  0.1047568975000000E+02 -0.4921768140000000E+01  0.8707055900000000E+00
0.7770178090000000E+01 -0.2248152160000000E+01
0.1784415450000000E+01
0.5696265200000000E+00 2  0.1777985340000000E+01  0.1958597600000000E+00
-0.2317443900000000E+00
0.2381265000000000E+00 1 -0.1624868022000000E+02
       &END POTENTIAL
     &END KIND
     &TOPOLOGY
       NUMBER_OF_ATOMS  256
       MULTIPLE_UNIT_CELL  1 1 1
     &END TOPOLOGY
   &END SUBSYS
 &END FORCE_EVAL
