 # Version information for this restart file 
 # current date 2019-06-10 14:15:42.145
 # current working dir /lustre03/project/6037349/rzk/GaN-carbene/444-addat/00-Surface/RKS
 # Program compiled at                              Sun Apr  7 00:48:11 EDT 2019
 # Program compiled on                          beluga2.int.ets1.calculquebec.ca
 # Program compiled for                        Beluga-Linux-x86-64-intel-openmpi
 # Source code revision number                                         svn:18619
 &GLOBAL
   PRINT_LEVEL  MEDIUM
   PROJECT_NAME TEST
   RUN_TYPE  CELL_OPT
 &END GLOBAL
 &MOTION
   &CELL_OPT
     MAX_ITER  300
     STEP_START_VAL  34
     EXTERNAL_PRESSURE     1.0000000000000000E+00
     KEEP_ANGLES  T
     KEEP_SYMMETRY  T
     CONSTRAINT  Z
     PRESSURE_TOLERANCE     5.0000000000000000E+02
   &END CELL_OPT
 &END MOTION
 &FORCE_EVAL
   METHOD  QS
   STRESS_TENSOR  ANALYTICAL
   &DFT
     BASIS_SET_FILE_NAME BASIS_MOLOPT
     POTENTIAL_FILE_NAME GTH_POTENTIALS
     SURFACE_DIPOLE_CORRECTION  T
     SURF_DIP_DIR  Z
     &SCF
       MAX_SCF  100
       EPS_SCF     5.0000000000000004E-06
       &OT  T
         PRECONDITIONER  FULL_ALL
       &END OT
       &OUTER_SCF  T
         OPTIMIZER  NONE
         EPS_SCF     5.0000000000000004E-06
         MAX_SCF  4
       &END OUTER_SCF
       &PRINT
         &RESTART  OFF
           BACKUP_COPIES  1
           &EACH
             JUST_ENERGY  0
             QS_SCF  0
             MD  20
           &END EACH
         &END RESTART
       &END PRINT
     &END SCF
     &QS
       EPS_DEFAULT     1.0000000000000000E-14
       METHOD  GPW
     &END QS
     &MGRID
       NGRIDS  5
       CUTOFF     1.2000000000000000E+03
     &END MGRID
     &XC
       DENSITY_CUTOFF     1.0000000000000000E-10
       GRADIENT_CUTOFF     1.0000000000000000E-10
       TAU_CUTOFF     1.0000000000000000E-10
       &XC_FUNCTIONAL  NO_SHORTCUT
         &PBE  T
         &END PBE
       &END XC_FUNCTIONAL
       &VDW_POTENTIAL
         POTENTIAL_TYPE  PAIR_POTENTIAL
         &PAIR_POTENTIAL
           R_CUTOFF     1.0000000000000004E+01
           TYPE  DFTD3
           PARAMETER_FILE_NAME dftd3.dat
           REFERENCE_FUNCTIONAL PBE
           EPS_CN     9.9999999999999995E-07
           CALCULATE_C9_TERM  T
           REFERENCE_C9_TERM  T
           LONG_RANGE_CORRECTION  F
           VERBOSE_OUTPUT  F
         &END PAIR_POTENTIAL
       &END VDW_POTENTIAL
     &END XC
   &END DFT
   &SUBSYS
     &CELL
       A     1.2990230635470379E+01    0.0000000000000000E+00    0.0000000000000000E+00
       B    -6.4535248647570995E+00    1.1177832953668341E+01    0.0000000000000000E+00
       C     0.0000000000000000E+00    0.0000000000000000E+00    3.2000000000000000E+01
       MULTIPLE_UNIT_CELL  1 1 1
       &CELL_REF
         A     1.2982353780853531E+01    0.0000000000000000E+00    0.0000000000000000E+00
         B    -6.4911768904267628E+00    1.1243048175136114E+01    0.0000000000000000E+00
         C     0.0000000000000000E+00    0.0000000000000000E+00    3.2000000000000000E+01
         MULTIPLE_UNIT_CELL  1 1 1
       &END CELL_REF
     &END CELL
     &COORD
N    1.4775915292330167E-03    1.9251448645339221E-04   -3.6256392110236879E-01
Ga    8.1175960328644537E-03    1.8616521869902367E+00    3.6489278409674236E-01
N    9.9428061049183416E-03    1.8591128323474706E+00    2.3355794507976686E+00
Ga    5.7089554337282650E-03   -1.0916623375629494E-03    3.0893976254505322E+00
N    1.7914521143741136E-02   -1.0452746507507312E-03    5.0447983110501387E+00
Ga    2.8006566114342862E-02    1.8604971133600507E+00    5.7860002706684748E+00
N    6.0518995750292695E-02    1.8609627076959236E+00    7.7480989175251080E+00
Ga    5.7158716242241683E-02    1.1515427278984836E-03    8.4718015237335145E+00
N    1.1652957551259335E-01    3.1202288086356965E-02    1.0424702740849265E+01
Ga    1.4175302802063200E-01    1.9081881446458442E+00    1.1100910950361362E+01
N    2.6076998368345344E-01    2.0152763783733247E+00    1.3045358725298126E+01
Ga    2.5477995214609417E-01    1.5789451082179468E-01    1.3705192841313178E+01
N    1.8348545873172864E-01    1.5868856152351141E-01    1.5618867934787186E+01
Ga   -5.9121943683764533E-01    1.4944284136001471E+00    1.6789410559686765E+01
N    1.0167851176653904E+00    6.5574891704628113E-01    1.7508586375797364E+01
N   -1.6118057239531585E+00    2.7945835341057648E+00   -3.6200671849855021E-01
Ga   -1.6053744816716156E+00    4.6561393336891701E+00    3.6489300403958025E-01
N   -1.6038706857732379E+00    4.6536172049578814E+00    2.3355024665767670E+00
Ga   -1.6071891441769759E+00    2.7932588616266489E+00    3.0901338138400321E+00
N   -1.5943242934766504E+00    2.7933672635537410E+00    5.0453162387832071E+00
Ga   -1.5856843215994172E+00    4.6547347594189787E+00    5.7855045705073813E+00
N   -1.5537381659480765E+00    4.6550718439541923E+00    7.7477454763084941E+00
Ga   -1.5535423789482221E+00    2.7942909988806548E+00    8.4715133880828866E+00
N   -1.4890904733448946E+00    2.8256410331834565E+00    1.0420491938365545E+01
Ga   -1.4740359440146633E+00    4.6958386290774756E+00    1.1098279729127750E+01
N   -1.3696021744125784E+00    4.8035186023721366E+00    1.3038868532395702E+01
Ga   -1.3229969527683776E+00    2.9660773052936271E+00    1.3779531204742122E+01
N   -1.2588155531296570E+00    3.0487114088822906E+00    1.5679849291294298E+01
Ga   -2.2549254988029861E+00    4.4700430731688101E+00    1.6771598754740438E+01
N   -5.9849553658469701E-01    3.4393427300634061E+00    1.7096193476399932E+01
N   -3.2253114830247300E+00    5.5891162758091024E+00   -3.6244499825837312E-01
Ga   -3.2186415417195304E+00    7.4506478255908055E+00    3.6495014689978872E-01
N   -3.2168737691925653E+00    7.4480398633243494E+00    2.3355832608673333E+00
Ga   -3.2210452156957139E+00    5.5877465596718627E+00    3.0892674775794569E+00
N   -3.2085445471937950E+00    5.5874080564002648E+00    5.0445916774574542E+00
Ga   -3.1991290101687171E+00    7.4490021103386717E+00    5.7856136961159921E+00
N   -3.1667937306842973E+00    7.4491677187427845E+00    7.7471684911098011E+00
Ga   -3.1692140436846357E+00    5.5882663621488105E+00    8.4694493300306259E+00
N   -3.1095789931406284E+00    5.6175510855358590E+00    1.0420828950817132E+01
Ga   -3.0857667980704502E+00    7.4948758904930779E+00    1.1091040842126116E+01
N   -2.9692513771384124E+00    7.6005760820354551E+00    1.3030450639103544E+01
Ga   -2.9823174489853117E+00    5.7390046766679799E+00    1.3689489391938244E+01
N   -3.0536283718996784E+00    5.7466570368184460E+00    1.5582981959488189E+01
Ga   -3.7811137798731136E+00    7.0719546341687343E+00    1.6784853579428024E+01
N   -2.1853640068332645E+00    6.2733982606525762E+00    1.7589159970548064E+01
N   -4.8385932790341677E+00    8.3835792579213972E+00   -3.6214257229914215E-01
Ga   -4.8321932659698774E+00    1.0245042706305869E+01    3.6512839275740533E-01
N   -4.8307471648514859E+00    1.0242560939502953E+01    2.3357126032383140E+00
Ga   -4.8341027398411462E+00    8.3821834598028566E+00    3.0902053277271269E+00
N   -4.8213220049806358E+00    8.3823292358541774E+00    5.0452397483284894E+00
Ga   -4.8134264292435391E+00    1.0243854519909794E+01    5.7857114949542314E+00
N   -4.7824453688584745E+00    1.0244669015084368E+01    7.7475675882594510E+00
Ga   -4.7811497313009061E+00    8.3833324359329886E+00    8.4698133681581282E+00
N   -4.7167379255161590E+00    8.4154026615593338E+00    1.0417401157717926E+01
Ga   -4.7019289711532188E+00    1.0285804113091526E+01    1.1096673035754725E+01
N   -4.5974772483651369E+00    1.0394339570382199E+01    1.3042183128339062E+01
Ga   -4.5487239316751324E+00    8.5485189025938180E+00    1.3770759840406184E+01
N   -4.4716099539563530E+00    8.6377381495037255E+00    1.5671274149037227E+01
Ga   -5.4825560504994266E+00    1.0008932228644111E+01    1.6761673129556446E+01
N   -3.8216757056096191E+00    9.0361823534502310E+00    1.7087713660099364E+01
N    3.2488543564909373E+00    2.2595625424948511E-05   -3.6243206083076718E-01
Ga    3.2556138137050512E+00    1.8615827009317818E+00    3.6497631715032353E-01
N    3.2568502466776512E+00    1.8588204035371256E+00    2.3356276598685848E+00
Ga    3.2530232862775281E+00   -1.5437496312808120E-03    3.0898034647119110E+00
N    3.2655365421256248E+00   -2.0671803752747540E-03    5.0449598952179349E+00
Ga    3.2758998334222809E+00    1.8598562991817644E+00    5.7854179487870558E+00
N    3.3075654018041196E+00    1.8586899518799116E+00    7.7468551970706505E+00
Ga    3.3088690726192627E+00   -1.8023998067602951E-04    8.4716384797867725E+00
N    3.3711072203003787E+00    3.0604974610379584E-02    1.0423347342721211E+01
Ga    3.3901100415739047E+00    1.9007271558829799E+00    1.1112497599820514E+01
N    3.5022016186270473E+00    2.0154754932559360E+00    1.3054340695406156E+01
Ga    3.5138668467714478E+00    1.7648380871340238E-01    1.3773071602264796E+01
N    3.5473800642637947E+00    3.0103793857905004E-01    1.5738060555898498E+01
Ga    2.5518487891583637E+00    1.5054833029066996E+00    1.6944034214901638E+01
N    4.2723414837109397E+00    6.8091033285318048E-01    1.7191415359770584E+01
N    1.6355533666730375E+00    2.7945527157591528E+00   -3.6216191332728193E-01
Ga    1.6421388215668247E+00    4.6560929835557365E+00    3.6526093756122380E-01
N    1.6435576450042657E+00    4.6532005326999606E+00    2.3357799499738281E+00
Ga    1.6400889715359446E+00    2.7929194031704756E+00    3.0903988483216542E+00
N    1.6529938700417048E+00    2.7929062247854946E+00    5.0456100515968245E+00
Ga    1.6620804149374446E+00    4.6544955402720172E+00    5.7856904296818863E+00
N    1.6933222995134176E+00    4.6531002001771524E+00    7.7477320609564915E+00
Ga    1.6980778677173967E+00    2.7941641540237763E+00    8.4730229623525393E+00
N    1.7626205590770052E+00    2.8255202865773130E+00    1.0425989967716738E+01
Ga    1.7676438546279620E+00    4.6929785266227109E+00    1.1117948552161735E+01
N    1.8563264193258333E+00    4.8015926699806624E+00    1.3073119865365742E+01
Ga    1.9191107284014466E+00    2.9545876117693677E+00    1.3773204162680813E+01
N    1.9721358845358798E+00    3.0135277412054049E+00    1.5692998429869650E+01
Ga    9.9599935686973584E-01    4.3815395616445709E+00    1.6840116740966362E+01
N    2.6759044310896107E+00    3.4275901228465488E+00    1.7031160724026229E+01
N    2.2158997261626432E-02    5.5890347374686282E+00   -3.6242486945512076E-01
Ga    2.8749801418703272E-02    7.4505463197697930E+00    3.6509908024334997E-01
N    3.0254911317218320E-02    7.4478642175222873E+00    2.3357831267709912E+00
Ga    2.6464696591108849E-02    5.5873890999758666E+00    3.0894200946137351E+00
N    3.9266982130251482E-02    5.5868160337890282E+00    5.0445860546831769E+00
Ga    4.9790990687010317E-02    7.4482306634274273E+00    5.7852211905355881E+00
N    8.2320435403165665E-02    7.4468088227812474E+00    7.7467583872838377E+00
Ga    8.3313316462586745E-02    5.5892141087440530E+00    8.4746429485091515E+00
N    1.4562845838308566E-01    5.6205222021064403E+00    1.0427463268193806E+01
Ga    1.6500065333029657E-01    7.4897319770756967E+00    1.1116584780663981E+01
N    2.7791452507678555E-01    7.6058947321908610E+00    1.3060769394306131E+01
Ga    2.8141151527170288E-01    5.7666692577567611E+00    1.3783050767930806E+01
N    3.0243636618314018E-01    5.8803410356780272E+00    1.5754738785029787E+01
Ga   -6.8456498652429576E-01    7.1093718156638142E+00    1.6959509474456016E+01
N    1.0344569052660426E+00    6.2678842016028886E+00    1.7216136187250143E+01
N   -1.5911932530898865E+00    8.3834308946075087E+00   -3.6223169416765644E-01
Ga   -1.5846460111776752E+00    1.0244955084350423E+01    3.6528820918728033E-01
N   -1.5833555391763259E+00    1.0242002238092532E+01    2.3358482938492333E+00
Ga   -1.5867025649467499E+00    8.3816695639204006E+00    3.0906627713304329E+00
N   -1.5735520932354059E+00    8.3810799978806045E+00    5.0456620991847183E+00
Ga   -1.5649596031437882E+00    1.0242987885512298E+01    5.7844897001896269E+00
N   -1.5340570652945811E+00    1.0241106057091431E+01    7.7460622815702145E+00
Ga   -1.5279282708635811E+00    8.3813034014548613E+00    8.4717262021933735E+00
N   -1.4624806701576405E+00    8.4105758402123385E+00    1.0422990212718027E+01
Ga   -1.4608120531003639E+00    1.0277502081675275E+01    1.1108136162704890E+01
N   -1.3727412638138565E+00    1.0382642170580498E+01    1.3061227043161592E+01
Ga   -1.3133311605706817E+00    8.5375909754803363E+00    1.3778820487292872E+01
N   -1.2467404409337028E+00    8.6176842187665024E+00    1.5708123431069055E+01
Ga   -2.2221637579574756E+00    9.9674597891467567E+00    1.6835848831739913E+01
N   -5.3849076290976094E-01    9.0326479216828854E+00    1.7058922015116369E+01
N    6.4964037202838787E+00    9.9479812978356104E-05   -3.6257059748709530E-01
Ga    6.5031255962268721E+00    1.8617070442403685E+00    3.6480364072182581E-01
N    6.5045515331728065E+00    1.8590764877374064E+00    2.3350274472418775E+00
Ga    6.5005447764283817E+00   -1.1410689551294173E-03    3.0892184466599844E+00
N    6.5131996777419046E+00   -1.2112680643545429E-03    5.0445101809567472E+00
Ga    6.5220925980721143E+00    1.8602854553632540E+00    5.7863115097307958E+00
N    6.5538774959596191E+00    1.8594727315915762E+00    7.7476892583257460E+00
Ga    6.5529347459879963E+00   -1.2058348627877382E-03    8.4721713511557954E+00
N    6.6106740000349511E+00    2.3701457041895066E-02    1.0423421092629445E+01
Ga    6.6369360797971169E+00    1.9007242191596987E+00    1.1092556512784626E+01
N    6.7496339774919463E+00    2.0010951116687163E+00    1.3027909158318581E+01
Ga    6.7624894736212777E+00    1.5897767717029879E-01    1.3718797374520650E+01
N    6.6978833362629961E+00    1.6963518566663588E-01    1.5657312455145355E+01
Ga    5.9127490663178781E+00    1.5398902752582770E+00    1.6775796222666902E+01
N    7.5297562136135276E+00    6.7622796044514444E-01    1.7421561205247873E+01
N    4.8830593619185096E+00    2.7946081032601913E+00   -3.6215004484488161E-01
Ga    4.8895736668805947E+00    4.6561739224206313E+00    3.6495141356185928E-01
N    4.8907740121262204E+00    4.6536607722846188E+00    2.3350568432576986E+00
Ga    4.8873576692974794E+00    2.7932614844792245E+00    3.0899884847346821E+00
N    4.9001651799186750E+00    2.7936601131234711E+00    5.0450128896593931E+00
Ga    4.9078692330168145E+00    4.6549376022029394E+00    5.7861575814197561E+00
N    4.9386522690022963E+00    4.6546681387214974E+00    7.7477459747603667E+00
Ga    4.9410975249479900E+00    2.7941905604896942E+00    8.4727354057765396E+00
N    5.0034293568343431E+00    2.8225032097620355E+00    1.0420592440020062E+01
Ga    5.0190241491929175E+00    4.6952655122694438E+00    1.1096714827461724E+01
N    5.1167420090219711E+00    4.8009543398111507E+00    1.3036035818618400E+01
Ga    5.1759248625955534E+00    2.9597515623616379E+00    1.3768008862124157E+01
N    5.2504769149409816E+00    3.0309673389242064E+00    1.5646010540687609E+01
Ga    4.2748370242444462E+00    4.3856598217620295E+00    1.6774325006920630E+01
N    5.9251299164003894E+00    3.4527602014419769E+00    1.7121301408628689E+01
N    3.2696251776205552E+00    5.5890998453441272E+00   -3.6256121779734046E-01
Ga    3.2764347984423816E+00    7.4506679833416900E+00    3.6472048724454964E-01
N    3.2779275006624156E+00    7.4481747085579215E+00    2.3349954338261139E+00
Ga    3.2738038829180125E+00    5.5880675438770142E+00    3.0892072094513234E+00
N    3.2861705270291184E+00    5.5883239600018877E+00    5.0445592021168837E+00
Ga    3.2959733754568434E+00    7.4493770317190871E+00    5.7871503890570413E+00
N    3.3281895482609940E+00    7.4492405100295773E+00    7.7491672153622009E+00
Ga    3.3259058179923571E+00    5.5893965005423825E+00    8.4752524394319195E+00
N    3.3829442841309199E+00    5.6169538523349374E+00    1.0426696622431191E+01
Ga    3.4123286072311823E+00    7.4924617780098499E+00    1.1105803228386376E+01
N    3.5288796243441363E+00    7.5972921838930052E+00    1.3042779201408145E+01
Ga    3.5396182443080675E+00    5.7536674481455687E+00    1.3735634505805596E+01
N    3.4787417004253274E+00    5.7580411823891771E+00    1.5670464074443508E+01
Ga    2.6649579532933880E+00    7.1212690720252549E+00    1.6787579569920450E+01
N    4.2863129909725091E+00    6.2453959310498144E+00    1.7389153872872754E+01
N    1.6563536678945352E+00    8.3835207153789035E+00   -3.6217428602032053E-01
Ga    1.6628263190263588E+00    1.0245111052307330E+01    3.6482694641288010E-01
N    1.6641876927246440E+00    1.0242480607642493E+01    2.3351118831394433E+00
Ga    1.6609136424291011E+00    8.3821331659287637E+00    3.0902565998389622E+00
N    1.6739376358926057E+00    8.3824071840495886E+00    5.0455121007991552E+00
Ga    1.6820769905850987E+00    1.0243717534936682E+01    5.7862247733567296E+00
N    1.7136672563441675E+00    1.0243176026234524E+01    7.7483785790020274E+00
Ga    1.7152315606365354E+00    8.3825359508821986E+00    8.4750982722782844E+00
N    1.7780915517427291E+00    8.4110285256171267E+00    1.0425420672763519E+01
Ga    1.7938742802914431E+00    1.0282406928177629E+01    1.1098863627535428E+01
N    1.8943587100310693E+00    1.0388969378985857E+01    1.3037826501694745E+01
Ga    1.9506242752432343E+00    8.5525243270110654E+00    1.3777659360632679E+01
N    2.0158524158931690E+00    8.6148728825580001E+00    1.5654713165077549E+01
Ga    1.0505070523999847E+00    1.0003584748980613E+01    1.6789902033669627E+01
N    2.6900480699491061E+00    9.0359094498311361E+00    1.7120571498036437E+01
N    9.7441989442820773E+00    1.9836799131850850E-04   -3.6237603441183253E-01
Ga    9.7507623970896109E+00    1.8617752252340147E+00    3.6510861485370327E-01
N    9.7521686233236569E+00    1.8591353511386337E+00    2.3355926447077988E+00
Ga    9.7481543247409217E+00   -1.3905330610603658E-03    3.0891055436223240E+00
N    9.7607743300248302E+00   -1.6205839894273999E-03    5.0441756822473547E+00
Ga    9.7705596498191074E+00    1.8597042846544640E+00    5.7846622777925871E+00
N    9.8034050028391029E+00    1.8590143218342507E+00    7.7446954321140993E+00
Ga    9.8025462250654591E+00    1.4226109920315849E-03    8.4726630508043925E+00
N    9.8637743078071267E+00    3.2174219462506974E-02    1.0422124620887848E+01
Ga    9.8865316843034279E+00    1.9034668896249345E+00    1.1109547341648481E+01
N    1.0006186574284570E+01    2.0173868634857235E+00    1.3050549273405750E+01
Ga    1.0002465677285906E+01    1.7072082545632117E-01    1.3756004608354875E+01
N    9.9738655134321910E+00    2.1285280446506516E-01    1.5708438857082038E+01
Ga    9.0915135265723706E+00    1.5351868039788132E+00    1.6891818055385844E+01
N    1.0764985468909433E+01    6.6058844067895983E-01    1.7222805007885022E+01
N    8.1307969361568926E+00    2.7946233657965309E+00   -3.6220456484987135E-01
Ga    8.1372590759382586E+00    4.6561473656938279E+00    3.6511340297445205E-01
N    8.1386243222382166E+00    4.6534269144026394E+00    2.3354862131458392E+00
Ga    8.1347831620276558E+00    2.7929468727374114E+00    3.0900051122176784E+00
N    8.1477452314417018E+00    2.7926411136786684E+00    5.0448383526276670E+00
Ga    8.1555859337850372E+00    4.6542315667772449E+00    5.7836385267507495E+00
N    8.1865894212515773E+00    4.6532747381754636E+00    7.7444769473065573E+00
Ga    8.1919303003354038E+00    2.7926907572113402E+00    8.4703696737066672E+00
N    8.2568768918049162E+00    2.8208937734174899E+00    1.0416744369118678E+01
Ga    8.2573590621824557E+00    4.6895159416282617E+00    1.1098008102412058E+01
N    8.3413667232534081E+00    4.7867038442141290E+00    1.3030381275850747E+01
Ga    8.4037604763593983E+00    2.9472459830007485E+00    1.3755506887539909E+01
N    8.4258682544157750E+00    2.9619192950070223E+00    1.5678914131957599E+01
Ga    7.5265289232885451E+00    4.3749743043472185E+00    1.6786652501421379E+01
N    9.1859539774264451E+00    3.4337834222571302E+00    1.7068632006492884E+01
N    6.5173454313025854E+00    5.5890998198386219E+00   -3.6233819769087267E-01
Ga    6.5240310943758404E+00    7.4507173036089487E+00    3.6503691728594928E-01
N    6.5252557027272822E+00    7.4481354382040594E+00    2.3355479928662173E+00
Ga    6.5210391952483020E+00    5.5876264651810263E+00    3.0892040156216982E+00
N    6.5332974595878390E+00    5.5872853668446121E+00    5.0440556514288666E+00
Ga    6.5430781050375160E+00    7.4489136527930349E+00    5.7845846026358210E+00
N    6.5748864137178593E+00    7.4487316409644979E+00    7.7448370099974877E+00
Ga    6.5745082020730363E+00    5.5900743147974188E+00    8.4706247352101709E+00
N    6.6356103468643273E+00    5.6216722592962416E+00    1.0417496608021340E+01
Ga    6.6586801262069990E+00    7.4926017230208508E+00    1.1108181460811871E+01
N    6.7795118282754698E+00    7.6047618406654651E+00    1.3046275331064017E+01
Ga    6.7779603863825901E+00    5.7552602855884771E+00    1.3742483506365010E+01
N    6.7453710083235014E+00    5.7948403724121587E+00    1.5691708947285912E+01
Ga    5.8649184630984328E+00    7.0918896764101813E+00    1.6891001567633662E+01
N    7.5543016035369428E+00    6.2567840552035454E+00    1.7215278751376424E+01
N    4.9040512067350095E+00    8.3836858985291745E+00   -3.6217811679585432E-01
Ga    4.9106170524326780E+00    1.0245071013578929E+01    3.6515418400193783E-01
N    4.9120425131675134E+00    1.0242384458219668E+01    2.3354892416867683E+00
Ga    4.9080168739419925E+00    8.3821052599634474E+00    3.0902529035120274E+00
N    4.9206999279704560E+00    8.3823870716469653E+00    5.0452184959195145E+00
Ga    4.9292705838956969E+00    1.0243512906211752E+01    5.7851595966520986E+00
N    4.9605623998687483E+00    1.0243081460234929E+01    7.7465127033823489E+00
Ga    4.9648347115219931E+00    8.3834467766301302E+00    8.4730604155668559E+00
N    5.0291267937785946E+00    8.4144778401394049E+00    1.0421761987270333E+01
Ga    5.0327794458670541E+00    1.0281749593429511E+01    1.1107360720747250E+01
N    5.1216703690510448E+00    1.0385113450688126E+01    1.3048182926990057E+01
Ga    5.1869149197296283E+00    8.5394568042508308E+00    1.3759070889658627E+01
N    5.2171302541933082E+00    8.5485957081311064E+00    1.5666367537236003E+01
Ga    4.2897356364863359E+00    9.9639800438406922E+00    1.6794811058837652E+01
N    5.9370679266167112E+00    8.9993150269662312E+00    1.7035545095185789E+01
H    1.8241574517223061E-03    1.3169777252292159E-03   -1.3996997152095760E+00
H   -1.6114703166376072E+00    2.7957404155288801E+00   -1.3991239538490503E+00
H   -3.2249117463030403E+00    5.5902093040485346E+00   -1.3995832958679957E+00
H   -4.8381859292946814E+00    8.3846426571808870E+00   -1.3992894227021266E+00
H    3.2494168029535859E+00    1.2820591734169764E-03   -1.3995919105668673E+00
H    1.6361169677723273E+00    2.7957707264862521E+00   -1.3992704924275918E+00
H    2.2622852276938960E-02    5.5902235115806587E+00   -1.3995720483037501E+00
H   -1.5906241812537154E+00    8.3846316231907103E+00   -1.3993505740644161E+00
H    6.4968934613963416E+00    1.3615969536097902E-03   -1.3997161474457094E+00
H    4.8836194181273660E+00    2.7957230930531751E+00   -1.3992659565482626E+00
H    3.2700898993017398E+00    5.5903460348018035E+00   -1.3996947000290088E+00
H    1.6568719780576282E+00    8.3846858995921352E+00   -1.3992667323653640E+00
H    9.7449448448196261E+00    1.5829095041029675E-03   -1.3995080132366766E+00
H    8.1316173782003229E+00    2.7959475487681398E+00   -1.3993289000328388E+00
H    6.5181504761664089E+00    5.5905007633122432E+00   -1.3994821389635415E+00
H    4.9048433246621288E+00    8.3849614979652642E+00   -1.3992785626915587E+00
     &END COORD
     &KIND H
       BASIS_SET DZVP-MOLOPT-SR-GTH-q1
       POTENTIAL GTH-PBE-q1
       &POTENTIAL
 1
  0.2000000000000000E+00 2 -0.4178900440000000E+01  0.7244633100000000E+00
 0
         # Potential name:  GTH-PBE-Q1  for symbol:  H
         # Potential read from the potential filename: GTH_POTENTIALS
       &END POTENTIAL
     &END KIND
     &KIND N
       BASIS_SET DZVP-MOLOPT-SR-GTH
       POTENTIAL GTH-PBE-q5
       &POTENTIAL
 2 3
  0.2837905100000000E+00 2 -0.1241522559000000E+02  0.1868095920000000E+01
 2
  0.2554050000000000E+00 1  0.1363026257000000E+02
  0.2454945300000000E+00 0
         # Potential name:  GTH-PBE-Q5  for symbol:  N
         # Potential read from the potential filename: GTH_POTENTIALS
       &END POTENTIAL
     &END KIND
     &KIND Ga
       BASIS_SET DZVP-MOLOPT-SR-GTH
       POTENTIAL GTH-PBE-q13
       &POTENTIAL
 2 1 10
  0.4900000000000000E+00 0
 3
  0.4167772300000000E+00 3  0.1047568975000000E+02 -0.4921768140000000E+01  0.8707055900000000E+00
  0.7770178090000000E+01 -0.2248152160000000E+01
  0.1784415450000000E+01
  0.5696265200000000E+00 2  0.1777985340000000E+01  0.1958597600000000E+00
 -0.2317443900000000E+00
  0.2381265000000000E+00 1 -0.1624868022000000E+02
         # Potential name:  GTH-PBE-Q13  for symbol:  GA
         # Potential read from the potential filename: GTH_POTENTIALS
       &END POTENTIAL
     &END KIND
     &TOPOLOGY
       NUMBER_OF_ATOMS  256
       MULTIPLE_UNIT_CELL  1 1 1
     &END TOPOLOGY
   &END SUBSYS
 &END FORCE_EVAL
