 # Version information for this restart file 
 # current date 2019-06-10 23:31:47.308
 # current working dir /lustre03/project/6037349/rzk/GaN-carbene/444-addat/00-Surface/RKS
 # Program compiled at                              Sun Apr  7 00:48:11 EDT 2019
 # Program compiled on                          beluga2.int.ets1.calculquebec.ca
 # Program compiled for                        Beluga-Linux-x86-64-intel-openmpi
 # Source code revision number                                         svn:18619
 &GLOBAL
   PRINT_LEVEL  MEDIUM
   PROJECT_NAME TEST
   RUN_TYPE  CELL_OPT
 &END GLOBAL
 &MOTION
   &CELL_OPT
     MAX_ITER  300
     STEP_START_VAL  78
     EXTERNAL_PRESSURE     1.0000000000000000E+00
     KEEP_ANGLES  T
     KEEP_SYMMETRY  T
     CONSTRAINT  Z
     PRESSURE_TOLERANCE     5.0000000000000000E+02
   &END CELL_OPT
 &END MOTION
 &FORCE_EVAL
   METHOD  QS
   STRESS_TENSOR  ANALYTICAL
   &DFT
     BASIS_SET_FILE_NAME BASIS_MOLOPT
     POTENTIAL_FILE_NAME GTH_POTENTIALS
     SURFACE_DIPOLE_CORRECTION  T
     SURF_DIP_DIR  Z
     &SCF
       MAX_SCF  100
       EPS_SCF     5.0000000000000004E-06
       &OT  T
         PRECONDITIONER  FULL_ALL
       &END OT
       &OUTER_SCF  T
         OPTIMIZER  NONE
         EPS_SCF     5.0000000000000004E-06
         MAX_SCF  4
       &END OUTER_SCF
       &PRINT
         &RESTART  OFF
           BACKUP_COPIES  1
           &EACH
             JUST_ENERGY  0
             QS_SCF  0
             MD  20
           &END EACH
         &END RESTART
       &END PRINT
     &END SCF
     &QS
       EPS_DEFAULT     1.0000000000000000E-14
       METHOD  GPW
     &END QS
     &MGRID
       NGRIDS  5
       CUTOFF     1.2000000000000000E+03
     &END MGRID
     &XC
       DENSITY_CUTOFF     1.0000000000000000E-10
       GRADIENT_CUTOFF     1.0000000000000000E-10
       TAU_CUTOFF     1.0000000000000000E-10
       &XC_FUNCTIONAL  NO_SHORTCUT
         &PBE  T
         &END PBE
       &END XC_FUNCTIONAL
       &VDW_POTENTIAL
         POTENTIAL_TYPE  PAIR_POTENTIAL
         &PAIR_POTENTIAL
           R_CUTOFF     1.0000000000000005E+01
           TYPE  DFTD3
           PARAMETER_FILE_NAME dftd3.dat
           REFERENCE_FUNCTIONAL PBE
           EPS_CN     9.9999999999999995E-07
           CALCULATE_C9_TERM  T
           REFERENCE_C9_TERM  T
           LONG_RANGE_CORRECTION  F
           VERBOSE_OUTPUT  F
         &END PAIR_POTENTIAL
       &END VDW_POTENTIAL
     &END XC
   &END DFT
   &SUBSYS
     &CELL
       A     1.3037332937331838E+01    0.0000000000000000E+00    0.0000000000000000E+00
       B    -6.4462166060944499E+00    1.1165174678349855E+01    0.0000000000000000E+00
       C     0.0000000000000000E+00    0.0000000000000000E+00    3.2000000000000000E+01
       MULTIPLE_UNIT_CELL  1 1 1
       &CELL_REF
         A     1.2982353780853531E+01    0.0000000000000000E+00    0.0000000000000000E+00
         B    -6.4911768904267628E+00    1.1243048175136114E+01    0.0000000000000000E+00
         C     0.0000000000000000E+00    0.0000000000000000E+00    3.2000000000000000E+01
         MULTIPLE_UNIT_CELL  1 1 1
       &END CELL_REF
     &END CELL
     &COORD
N    5.8154028568186439E-02    1.8210111577990858E-02   -1.4387517984705861E-01
Ga    7.8938732172147044E-02    1.8905825822722044E+00    5.1971073204232143E-01
N    1.2035118293834240E-01    1.9201971853600568E+00    2.4426587529470720E+00
Ga    1.1055845514399541E-01    5.6302597558450185E-02    3.1526740973697813E+00
N    1.6832043124127544E-01    9.0982882880698696E-02    5.0858876542676645E+00
Ga    1.9122981763368552E-01    1.9664017578404467E+00    5.7732944146756742E+00
N    2.4997532356838018E-01    2.0072802391677564E+00    7.7093009071069201E+00
Ga    2.3877963210629810E-01    1.3736478224560847E-01    8.3777913590082935E+00
N    2.6542612933854492E-01    1.5365113003843264E-01    1.0308805594289414E+01
Ga    2.9247410292497195E-01    2.0206868970902625E+00    1.1008988857510936E+01
N    3.6165991489458099E-01    2.0604208779094288E+00    1.2942502826725473E+01
Ga    3.1262151821664697E-01    1.9030598914117378E-01    1.3617087110045514E+01
N   -2.1634781009304549E-01   -1.1131857051162398E-01    1.5350313366901471E+01
Ga   -8.6813377152392568E-01    1.0473727436229767E+00    1.6718837003446414E+01
N    4.5238741731077631E-01    2.4456680436354666E-01    1.7996856194416484E+01
N   -1.5535926736277550E+00    2.8094988633656639E+00   -1.4419522558828679E-01
Ga   -1.5330726237438941E+00    4.6821714503832421E+00    5.1886546209281237E-01
N   -1.4922244759975665E+00    4.7130354999443194E+00    2.4421897381090480E+00
Ga   -1.5005664962237244E+00    2.8490051652303472E+00    3.1499874272581976E+00
N   -1.4423373388261123E+00    2.8826300417381421E+00    5.0822321861035720E+00
Ga   -1.4203859264032055E+00    4.7539417798614299E+00    5.7803056453779895E+00
N   -1.3626437026012768E+00    4.7953579174671068E+00    7.7163265801967817E+00
Ga   -1.3755567908743573E+00    2.9292627994867568E+00    8.3976067095184437E+00
N   -1.3402139134524624E+00    2.9477831082646144E+00    1.0331395662992430E+01
Ga   -1.3253888771198552E+00    4.8194910847701280E+00    1.1031424068680700E+01
N   -1.2687871942085545E+00    4.8599969113864230E+00    1.2970048045134506E+01
Ga   -1.2618669895659329E+00    2.9816102202998951E+00    1.3629626233391670E+01
N   -1.7289226020690696E+00    2.5683662951952906E+00    1.5462714435042299E+01
Ga   -2.7298263089364223E+00    4.3278397505664286E+00    1.6828947770426474E+01
N   -1.2487767019602007E+00    3.0262586719488653E+00    1.6744599497502094E+01
N   -3.1653235199906269E+00    5.6007620700911565E+00   -1.4370138419200071E-01
Ga   -3.1439610383497336E+00    7.4726564448036692E+00    5.2045417567214092E-01
N   -3.1028074485752417E+00    7.5022334714572301E+00    2.4433609557591929E+00
Ga   -3.1130017770536420E+00    5.6388416047717289E+00    3.1568857217278432E+00
N   -3.0562211958061982E+00    5.6723976012768498E+00    5.0905179549686386E+00
Ga   -3.0327996647133042E+00    7.5470099508063351E+00    5.7803163598563270E+00
N   -2.9743950741398919E+00    7.5849620140031977E+00    7.7171080838632573E+00
Ga   -2.9852183334573046E+00    5.7192079758707219E+00    8.3988463434175671E+00
N   -2.9539429908796970E+00    5.7384529130188877E+00    1.0332849562363570E+01
Ga   -2.9373611199487240E+00    7.6077923057046624E+00    1.1032697055920041E+01
N   -2.8791117302975682E+00    7.6447016408420030E+00    1.2969703007997389E+01
Ga   -2.9053866439715321E+00    5.7740667538568990E+00    1.3666749065179570E+01
N   -3.3578084634028555E+00    5.5044520606180560E+00    1.5439115702401121E+01
Ga   -4.0580645986772925E+00    6.6306430481638383E+00    1.6841448982982396E+01
N   -2.7169200057666747E+00    5.8658645281438826E+00    1.8078635364999837E+01
N   -4.7762758404416683E+00    8.3915377877769313E+00   -1.4416419325593421E-01
Ga   -4.7557117210962128E+00    1.0264333275904221E+01    5.1791137605678239E-01
N   -4.7147526788677734E+00    1.0295341143826144E+01    2.4411158813604756E+00
Ga   -4.7230680441473032E+00    8.4314474703939748E+00    3.1499724422179036E+00
N   -4.6649944209057583E+00    8.4646452921598776E+00    5.0822028774166084E+00
Ga   -4.6417602647570915E+00    1.0336416915961017E+01    5.7754112649850784E+00
N   -4.5809357249699856E+00    1.0375141526623626E+01    7.7109534132976103E+00
Ga   -4.5984832096169921E+00    8.5099651424170339E+00    8.3983734156544809E+00
N   -4.5658888497648924E+00    8.5330461827793247E+00    1.0332723003569924E+01
Ga   -4.5499802800640818E+00    1.0408470781208312E+01    1.1014778009889033E+01
N   -4.4852948428930661E+00    1.0458716268891457E+01    1.2947849904463411E+01
Ga   -4.4988483813294353E+00    8.5907468463135288E+00    1.3632100833387637E+01
N   -5.0892266862436450E+00    8.4019726018049958E+00    1.5469191613663925E+01
Ga   -5.9812819647862092E+00    9.8803320432760078E+00    1.6695233076823971E+01
N   -4.4407032416454815E+00    8.5623193576583478E+00    1.6748616791454044E+01
N    3.3182585984244577E+00    1.8357288053040564E-02   -1.4240822349109145E-01
Ga    3.3377475879259442E+00    1.8901725509356058E+00    5.2257561938916142E-01
N    3.3798112660338329E+00    1.9205834373989985E+00    2.4448902895973639E+00
Ga    3.3685118716914495E+00    5.6442723300330115E-02    3.1539858832574672E+00
N    3.4274410101756572E+00    9.1536318210024947E-02    5.0868519873558062E+00
Ga    3.4489887558808650E+00    1.9639713588223295E+00    5.7779203980370308E+00
N    3.5070205142988558E+00    2.0027371853880611E+00    7.7170705601600673E+00
Ga    3.4993429508318972E+00    1.3841329456868509E-01    8.4074565598295745E+00
N    3.5309503911981031E+00    1.6296279972340874E-01    1.0344335812448948E+01
Ga    3.5578638554537649E+00    2.0332312157572523E+00    1.1032579385507061E+01
N    3.6315464174352532E+00    2.0826546991291925E+00    1.2980391959133744E+01
Ga    3.5801391435023340E+00    2.3204736124482198E-01    1.3673668157259209E+01
N    3.0502843049109121E+00   -1.5081699026308858E-02    1.5545517677548643E+01
Ga    1.9964998467087540E+00    1.1370363289458636E+00    1.7627365335030056E+01
N    3.6277876519097592E+00    3.3943496960764541E-01    1.6851353455738767E+01
N    1.7064465665958402E+00    2.8095997219548043E+00   -1.4329657109901831E-01
Ga    1.7258813915118376E+00    4.6814758113018780E+00    5.2253330563045941E-01
N    1.7670064384410100E+00    4.7122669969443134E+00    2.4446942702498888E+00
Ga    1.7579735866337323E+00    2.8475142712036310E+00    3.1524003443653266E+00
N    1.8162521214948659E+00    2.8815949846346665E+00    5.0849375830673109E+00
Ga    1.8370081824451550E+00    4.7536282876342009E+00    5.7793154901801715E+00
N    1.8909269476661319E+00    4.7930199772790472E+00    7.7179747664006886E+00
Ga    1.8868516133011759E+00    2.9302313048642992E+00    8.4079155677567297E+00
N    1.9244809566784553E+00    2.9483072479941645E+00    1.0344947865565299E+01
Ga    1.9301642778815615E+00    4.8153841152078458E+00    1.1049154840040741E+01
N    1.9847859791047768E+00    4.8463831478796218E+00    1.2994610568079032E+01
Ga    1.9992356928383597E+00    2.9660454316285634E+00    1.3663168732758058E+01
N    1.5180902708767425E+00    2.6313358585986952E+00    1.5546410163359617E+01
Ga    3.8967406165319135E-01    3.9284051456576052E+00    1.6455098324216980E+01
N    2.1171455251179849E+00    2.9358857195606771E+00    1.6849214316696173E+01
N    9.4724327242530854E-02    5.6012586063054188E+00   -1.4218915655325631E-01
Ga    1.1445864958747014E-01    7.4728978381015239E+00    5.2326514149636461E-01
N    1.5604620313200537E-01    7.5029684606480211E+00    2.4450227445643220E+00
Ga    1.4501238286362816E-01    5.6388871751065208E+00    3.1552417269940332E+00
N    2.0347136233574020E-01    5.6731492874334588E+00    5.0887898112704857E+00
Ga    2.2405889647656649E-01    7.5455613187309076E+00    5.7816879426738907E+00
N    2.7933449040077257E-01    7.5839109763800368E+00    7.7207563962032806E+00
Ga    2.7122250273085491E-01    5.7198109034720028E+00    8.4102894607220993E+00
N    3.0488972183606966E-01    5.7408366184303432E+00    1.0348694616376269E+01
Ga    3.2749114186112249E-01    7.6127065106849638E+00    1.1034543464724532E+01
N    3.9437523047587475E-01    7.6574429096256758E+00    1.2979663560437521E+01
Ga    3.6468512049506252E-01    5.8016981302306379E+00    1.3669490575221483E+01
N   -1.4778458570311470E-01    5.5446105554661642E+00    1.5522614098149919E+01
Ga   -1.2026633024679696E+00    6.7324556298252984E+00    1.7478221534714493E+01
N    4.2691064514171412E-01    5.8935355523661794E+00    1.6863381227345460E+01
N   -1.5167384994427182E+00    8.3920167435176758E+00   -1.4290013764086049E-01
Ga   -1.4969671960740427E+00    1.0263779613653444E+01    5.2265999202774693E-01
N   -1.4560563298407252E+00    1.0294405139969436E+01    2.4448857361949070E+00
Ga   -1.4658476502061157E+00    8.4295669129149431E+00    3.1540832734508282E+00
N   -1.4083772499491951E+00    8.4632357630087860E+00    5.0872732909051912E+00
Ga   -1.3861918677305032E+00    1.0336130921282651E+01    5.7797630653139160E+00
N   -1.3301849589184391E+00    1.0372413982243739E+01    7.7186836473598026E+00
Ga   -1.3408938072149186E+00    8.5097086336491312E+00    8.4124116199555736E+00
N   -1.3060903510891353E+00    8.5302917825618678E+00    1.0351672084895934E+01
Ga   -1.2951317704288445E+00    1.0400676798014375E+01    1.1051126502966470E+01
N   -1.2472113689299018E+00    1.0440512974508735E+01    1.2999071826952513E+01
Ga   -1.2280061876267416E+00    8.5573617178055610E+00    1.3665027381293068E+01
N   -1.7118826417203374E+00    8.2471480669627937E+00    1.5526377716398375E+01
Ga   -2.8376778315991791E+00    9.5153187387260463E+00    1.6454658457201454E+01
N   -1.1142750179853109E+00    8.5651088359585881E+00    1.6865484321275179E+01
N    6.5763831616059063E+00    1.8174316031588790E-02   -1.4125547215681861E-01
Ga    6.5975512130142109E+00    1.8907102512666407E+00    5.2202566000221606E-01
N    6.6388327285973183E+00    1.9215564892638444E+00    2.4434846105806858E+00
Ga    6.6284687406424263E+00    5.6892003056817325E-02    3.1512620306298289E+00
N    6.6830386302636153E+00    9.0789981053233812E-02    5.0839477256732009E+00
Ga    6.7073075514736473E+00    1.9619161882876799E+00    5.7786757864694627E+00
N    6.7626634010551703E+00    1.9980404884838736E+00    7.7164163160226789E+00
Ga    6.7485543639467158E+00    1.3254353446749856E-01    8.4090514414488879E+00
N    6.7802191007989538E+00    1.5244070384339617E-01    1.0352120654412705E+01
Ga    6.8208284449184164E+00    2.0284024569898946E+00    1.1031692312012698E+01
N    6.8964346756363870E+00    2.0681739033633910E+00    1.2984907547411385E+01
Ga    6.8638271835775164E+00    2.0446038952627105E-01    1.3653965202550143E+01
N    6.3473651016722830E+00   -7.6133608229198804E-02    1.5508804068376381E+01
Ga    5.3138348560967632E+00    1.1909959804875698E+00    1.6596621752081308E+01
N    7.0145658861561495E+00    2.8804895486351112E-01    1.7060901412974303E+01
N    4.9651248251249731E+00    2.8093155109400159E+00   -1.4036678598043981E-01
Ga    4.9860354417382204E+00    4.6819082520513504E+00    5.2090005341740209E-01
N    5.0276440039014236E+00    4.7119874564332598E+00    2.4425292261375078E+00
Ga    5.0172834643013289E+00    2.8481599863315537E+00    3.1544510613304650E+00
N    5.0740823576133520E+00    2.8813703800215094E+00    5.0878975157693143E+00
Ga    5.0949842166701531E+00    4.7542299877427023E+00    5.7788576370619706E+00
N    5.1496854959434915E+00    4.7930536694396197E+00    7.7160146944802221E+00
Ga    5.1433428727626103E+00    2.9285390478334965E+00    8.4057317790089865E+00
N    5.1856180604660631E+00    2.9541334550608096E+00    1.0349661689811320E+01
Ga    5.2032752057356140E+00    4.8294956708778347E+00    1.1033089680779190E+01
N    5.2696278035013044E+00    4.8841636242770381E+00    1.2983392985625255E+01
Ga    5.2966997322019029E+00    3.0205099255584376E+00    1.3628165680332739E+01
N    4.8218527320690168E+00    2.7463985293706408E+00    1.5483419056728001E+01
Ga    3.7154556860597827E+00    3.9376414040124663E+00    1.6585389164093687E+01
N    5.4271133499383435E+00    3.0845864736849795E+00    1.7060155615551331E+01
N    3.3533833225253762E+00    5.6009016930641877E+00   -1.4101247140182149E-01
Ga    3.3740188336077321E+00    7.4735782383235474E+00    5.2207483698861945E-01
N    3.4153521296867075E+00    7.5040580313340772E+00    2.4436435551905262E+00
Ga    3.4060442541726368E+00    5.6384700293253882E+00    3.1509753718057198E+00
N    3.4619026093442669E+00    5.6702134892185647E+00    5.0837942262112987E+00
Ga    3.4807895904621589E+00    7.5426892448075913E+00    5.7704729000362160E+00
N    3.5320815790206983E+00    7.5777762739594037E+00    7.7071189468208026E+00
Ga    3.5258757263950802E+00    5.7157544219253227E+00    8.4084881762050010E+00
N    3.5588681132351754E+00    5.7352268226969940E+00    1.0352682775921792E+01
Ga    3.5893668907568603E+00    7.6106474866206915E+00    1.1030302746066626E+01
N    3.6573650605219123E+00    7.6472528754481237E+00    1.2979428245558667E+01
Ga    3.6424493234889495E+00    5.7908578667198132E+00    1.3647194686498509E+01
N    3.1338560601776901E+00    5.4879293187482459E+00    1.5502415907727290E+01
Ga    2.0942065876220908E+00    6.7580405497976717E+00    1.6592003099228961E+01
N    3.7818440784491041E+00    5.8442274934319727E+00    1.7056035798457259E+01
N    1.7415181953426708E+00    8.3917462641666720E+00   -1.4157797606792685E-01
Ga    1.7627136027798775E+00    1.0264173654591387E+01    5.2074918762608435E-01
N    1.8043565903419116E+00    1.0294370989912512E+01    2.4426216202066593E+00
Ga    1.7925827687368627E+00    8.4299817802094061E+00    3.1514657961298211E+00
N    1.8476825798762344E+00    8.4618581803139925E+00    5.0838358005352511E+00
Ga    1.8685220386587014E+00    1.0334952967876539E+01    5.7712271253794363E+00
N    1.9188616964873959E+00    1.0371008109015721E+01    7.7074360960522421E+00
Ga    1.9162989036649465E+00    8.5091770453186939E+00    8.4066882755947390E+00
N    1.9553045983107593E+00    8.5315611940010392E+00    1.0347731689723084E+01
Ga    1.9749078585913835E+00    1.0406653098349510E+01    1.1032529061764134E+01
N    2.0390529182787929E+00    1.0456234714175766E+01    1.2981739920028645E+01
Ga    2.0588374342703486E+00    8.5955776992958555E+00    1.3636561337348629E+01
N    1.5556909049742926E+00    8.3115731610612169E+00    1.5487659325792018E+01
Ga    4.9085138729957911E-01    9.5436144823557161E+00    1.6593433930042234E+01
N    2.1654195182104461E+00    8.6408033654519887E+00    1.7079673363197077E+01
N    9.8353484502086932E+00    1.8185275881277416E-02   -1.4305451850174061E-01
Ga    9.8567013129068339E+00    1.8909700471800437E+00    5.2045085654729750E-01
N    9.8980276251528778E+00    1.9215118976650147E+00    2.4430020890808262E+00
Ga    9.8876115000132305E+00    5.6581998532454283E-02    3.1511498857019342E+00
N    9.9423037118370416E+00    9.0258042020354839E-02    5.0836805503469682E+00
Ga    9.9673521004765941E+00    1.9673367579161964E+00    5.7670897593670398E+00
N    1.0024225437328612E+01    2.0071925023876420E+00    7.7018823174420650E+00
Ga    1.0000346176550282E+01    1.3891584219619985E-01    8.3747915774620960E+00
N    1.0026419118850836E+01    1.5947333423889443E-01    1.0302301395667214E+01
Ga    1.0068227075095644E+01    2.0221624326555316E+00    1.1005521173743990E+01
N    1.0131650947793366E+01    2.0586445439923926E+00    1.2940942878550750E+01
Ga    1.0174780915297696E+01    2.1314116341519074E-01    1.3654432089817158E+01
N    9.7014227269322184E+00   -4.9099693874086352E-02    1.5534005326233187E+01
Ga    8.6184665015136410E+00    1.1938253472471692E+00    1.6717366963018016E+01
N    1.0362820300845108E+01    3.1647189282607452E-01    1.6884339368256452E+01
N    8.2239778823442542E+00    2.8095087157292742E+00   -1.4321354290779167E-01
Ga    8.2456002001629649E+00    4.6821089825168203E+00    5.2057395395010164E-01
N    8.2872214385790084E+00    4.7129837223540587E+00    2.4429836775836442E+00
Ga    8.2752755507898446E+00    2.8487099731329204E+00    3.1509401043039511E+00
N    8.3300261434904836E+00    2.8814870428903308E+00    5.0833495829514694E+00
Ga    8.3549603814081337E+00    4.7534529318969589E+00    5.7782247505272011E+00
N    8.4125098829580267E+00    4.7922400279601804E+00    7.7141721625077739E+00
Ga    8.4006433667307370E+00    2.9247359107309951E+00    8.3965320640393646E+00
N    8.4369622175048029E+00    2.9445795945401629E+00    1.0327167333703898E+01
Ga    8.4487533367816354E+00    4.8176424773862214E+00    1.1004208326205676E+01
N    8.4858430570112233E+00    4.8438123890231788E+00    1.2923650450187202E+01
Ga    8.5589108660647923E+00    3.0208641384058836E+00    1.3652615083322029E+01
N    8.1429382806651116E+00    2.7668654889897275E+00    1.5537489677501547E+01
Ga    7.0200183083687495E+00    3.9905771100527798E+00    1.6723061461416208E+01
N    8.7656552953907489E+00    3.1427494569119445E+00    1.6913136067189196E+01
N    6.6127589928776462E+00    5.6004901477132387E+00   -1.4299598115192630E-01
Ga    6.6338130481891406E+00    7.4732832226332606E+00    5.2079652955560485E-01
N    6.6751201564679201E+00    7.5037650170759811E+00    2.4433549722615089E+00
Ga    6.6646060732553902E+00    5.6379094002414769E+00    3.1512729661592203E+00
N    6.7202678624079999E+00    5.6700824919166131E+00    5.0839829903337526E+00
Ga    6.7468927234215137E+00    7.5450370099214856E+00    5.7656165599061611E+00
N    6.8050162386024358E+00    7.5834820255545594E+00    7.7005502030010158E+00
Ga    6.7882585272380700E+00    5.7207066552429113E+00    8.3929260205831220E+00
N    6.8189621953983499E+00    5.7438948060817907E+00    1.0325558773038585E+01
Ga    6.8396946526230176E+00    7.6159211406943923E+00    1.1005156024194914E+01
N    6.8971029821977723E+00    7.6619295059511687E+00    1.2940677110264577E+01
Ga    6.9400325919068511E+00    5.8197461389582852E+00    1.3655102153533436E+01
N    6.5093284750864404E+00    5.5820134119816931E+00    1.5541595782503023E+01
Ga    5.3899737693929444E+00    6.7643547364349308E+00    1.6726866031332928E+01
N    7.1586907223596183E+00    5.9271411688099391E+00    1.6909343586947067E+01
N    5.0008456097318676E+00    8.3914708612549536E+00   -1.4373305655125532E-01
Ga    5.0221652236380017E+00    1.0264468212257070E+01    5.1918435658011453E-01
N    5.0636990684784537E+00    1.0295435833298777E+01    2.4417802073218504E+00
Ga    5.0526163767916916E+00    8.4311280633016974E+00    3.1501573118227633E+00
N    5.1080807006989817E+00    8.4624433627511007E+00    5.0824115076654008E+00
Ga    5.1319702906380664E+00    1.0336791415396046E+01    5.7685366550581127E+00
N    5.1852142942545933E+00    1.0372799571764332E+01    7.7035713482390946E+00
Ga    5.1739943409574822E+00    8.4982109473518435E+00    8.3763712460226660E+00
N    5.2048053259048226E+00    8.5143073361172501E+00    1.0305167460958220E+01
Ga    5.2108451033843428E+00    1.0392959921094027E+01    1.0958389564019575E+01
N    5.2555892459492730E+00    1.0422460252527124E+01    1.2860423591533651E+01
Ga    5.3147154672633663E+00    8.6223332472539500E+00    1.3646004072458535E+01
N    4.8500850698804374E+00    8.3302181860804065E+00    1.5535527200738363E+01
Ga    3.7529165435844249E+00    9.5504121210061026E+00    1.6754643054265046E+01
N    5.5021814256090620E+00    8.7095691499529480E+00    1.6879972081123537E+01
H    5.5118278457280345E-02    1.6251224104051866E-02   -1.1709542786273610E+00
H   -1.5569114675307241E+00    2.8085040710300579E+00   -1.1714288989941612E+00
H   -3.1685206225017502E+00    5.5987158248829791E+00   -1.1707063255941734E+00
H   -4.7795444823131827E+00    8.3907147645193696E+00   -1.1713456048438442E+00
H    3.3165166063311289E+00    1.7624888290237888E-02   -1.1695302529812310E+00
H    1.7052592292907411E+00    2.8095173326553460E+00   -1.1706463368267961E+00
H    9.3369212963711423E-02    5.6002477037909246E+00   -1.1692810989541518E+00
H   -1.5179927183651798E+00    8.3918775836149901E+00   -1.1701232893991758E+00
H    6.5732753145095932E+00    1.6759136944535815E-02   -1.1683519200921462E+00
H    4.9619986140695005E+00    2.8084442442571453E+00   -1.1673761207584705E+00
H    3.3503592476723592E+00    5.5987490233488533E+00   -1.1680875919127993E+00
H    1.7384428779343868E+00    8.3907607824526913E+00   -1.1685798586455765E+00
H    9.8303766146619580E+00    1.5210752803670157E-02   -1.1701150547580574E+00
H    8.2189437749153402E+00    2.8070935127738039E+00   -1.1703738905168186E+00
H    6.6074583110855150E+00    5.5972974433937335E+00   -1.1701079003358188E+00
H    4.9958826167112127E+00    8.3893177928105001E+00   -1.1708777858075525E+00
     &END COORD
     &KIND H
       BASIS_SET DZVP-MOLOPT-SR-GTH-q1
       POTENTIAL GTH-PBE-q1
       &POTENTIAL
1
0.2000000000000000E+00 2 -0.4178900440000000E+01  0.7244633100000000E+00
0
       &END POTENTIAL
     &END KIND
     &KIND N
       BASIS_SET DZVP-MOLOPT-SR-GTH
       POTENTIAL GTH-PBE-q5
       &POTENTIAL
2 3
0.2837905100000000E+00 2 -0.1241522559000000E+02  0.1868095920000000E+01
2
0.2554050000000000E+00 1  0.1363026257000000E+02
0.2454945300000000E+00 0
       &END POTENTIAL
     &END KIND
     &KIND Ga
       BASIS_SET DZVP-MOLOPT-SR-GTH
       POTENTIAL GTH-PBE-q13
       &POTENTIAL
2 1 10
0.4900000000000000E+00 0
3
0.4167772300000000E+00 3  0.1047568975000000E+02 -0.4921768140000000E+01  0.8707055900000000E+00
0.7770178090000000E+01 -0.2248152160000000E+01
0.1784415450000000E+01
0.5696265200000000E+00 2  0.1777985340000000E+01  0.1958597600000000E+00
-0.2317443900000000E+00
0.2381265000000000E+00 1 -0.1624868022000000E+02
       &END POTENTIAL
     &END KIND
     &TOPOLOGY
       NUMBER_OF_ATOMS  256
       MULTIPLE_UNIT_CELL  1 1 1
     &END TOPOLOGY
   &END SUBSYS
 &END FORCE_EVAL
