 # Version information for this restart file 
 # current date 2019-06-10 11:33:12.572
 # current working dir /lustre03/project/6037349/rzk/GaN-carbene/444-addat/00-Surface/RKS
 # Program compiled at                              Sun Apr  7 00:48:11 EDT 2019
 # Program compiled on                          beluga2.int.ets1.calculquebec.ca
 # Program compiled for                        Beluga-Linux-x86-64-intel-openmpi
 # Source code revision number                                         svn:18619
 &GLOBAL
   PRINT_LEVEL  MEDIUM
   PROJECT_NAME TEST
   RUN_TYPE  CELL_OPT
 &END GLOBAL
 &MOTION
   &CELL_OPT
     MAX_ITER  300
     STEP_START_VAL  19
     EXTERNAL_PRESSURE     1.0000000000000000E+00
     KEEP_ANGLES  T
     KEEP_SYMMETRY  T
     CONSTRAINT  Z
     PRESSURE_TOLERANCE     5.0000000000000000E+02
   &END CELL_OPT
 &END MOTION
 &FORCE_EVAL
   METHOD  QS
   STRESS_TENSOR  ANALYTICAL
   &DFT
     BASIS_SET_FILE_NAME BASIS_MOLOPT
     POTENTIAL_FILE_NAME GTH_POTENTIALS
     SURFACE_DIPOLE_CORRECTION  T
     SURF_DIP_DIR  Z
     &SCF
       MAX_SCF  100
       EPS_SCF     5.0000000000000004E-06
       &OT  T
         PRECONDITIONER  FULL_ALL
       &END OT
       &OUTER_SCF  T
         OPTIMIZER  NONE
         EPS_SCF     5.0000000000000004E-06
         MAX_SCF  4
       &END OUTER_SCF
       &PRINT
         &RESTART  OFF
           BACKUP_COPIES  1
           &EACH
             JUST_ENERGY  0
             QS_SCF  0
             MD  20
           &END EACH
         &END RESTART
       &END PRINT
     &END SCF
     &QS
       EPS_DEFAULT     1.0000000000000000E-14
       METHOD  GPW
     &END QS
     &MGRID
       NGRIDS  5
       CUTOFF     1.2000000000000000E+03
     &END MGRID
     &XC
       DENSITY_CUTOFF     1.0000000000000000E-10
       GRADIENT_CUTOFF     1.0000000000000000E-10
       TAU_CUTOFF     1.0000000000000000E-10
       &XC_FUNCTIONAL  NO_SHORTCUT
         &PBE  T
         &END PBE
       &END XC_FUNCTIONAL
       &VDW_POTENTIAL
         POTENTIAL_TYPE  PAIR_POTENTIAL
         &PAIR_POTENTIAL
           R_CUTOFF     1.0000000000000004E+01
           TYPE  DFTD3
           PARAMETER_FILE_NAME dftd3.dat
           REFERENCE_FUNCTIONAL PBE
           EPS_CN     9.9999999999999995E-07
           CALCULATE_C9_TERM  T
           REFERENCE_C9_TERM  T
           LONG_RANGE_CORRECTION  F
           VERBOSE_OUTPUT  F
         &END PAIR_POTENTIAL
       &END VDW_POTENTIAL
     &END XC
   &END DFT
   &SUBSYS
     &CELL
       A     1.2884549870055741E+01    0.0000000000000000E+00    0.0000000000000000E+00
       B    -6.4625586848783794E+00    1.1193479989104814E+01    0.0000000000000000E+00
       C     0.0000000000000000E+00    0.0000000000000000E+00    3.2000000000000000E+01
       MULTIPLE_UNIT_CELL  1 1 1
       &CELL_REF
         A     1.2982353780853531E+01    0.0000000000000000E+00    0.0000000000000000E+00
         B    -6.4911768904267628E+00    1.1243048175136114E+01    0.0000000000000000E+00
         C     0.0000000000000000E+00    0.0000000000000000E+00    3.2000000000000000E+01
         MULTIPLE_UNIT_CELL  1 1 1
       &END CELL_REF
     &END CELL
     &COORD
N    5.0273821217792082E-04    4.6833460655735539E-04   -1.0205209426603161E-01
Ga   -3.3705245099027261E-03    1.8650780080712690E+00    5.6245055292492541E-01
N   -3.8310000570661910E-03    1.8644481197258067E+00    2.4659930850473017E+00
Ga    3.6063004499512841E-04    7.6485193939327946E-05    3.1588002570452680E+00
N    1.2758950039102202E-03    4.7901879825618565E-04    5.0610652000932452E+00
Ga   -2.4556548547116841E-03    1.8650729469233172E+00    5.7292730170617725E+00
N    7.9837790793874108E-04    1.8638642872040894E+00    7.6458504329189161E+00
Ga    4.7612798577417624E-03   -5.0797698344453917E-04    8.3427374999040325E+00
N    1.9482640161360976E-02   -1.9194432282646310E-03    1.0278673358303443E+01
Ga    2.5780876099555667E-02    1.8625452166895480E+00    1.0970487496726843E+01
N    8.3279532961539574E-02    1.8619129733081714E+00    1.2914567417578095E+01
Ga    7.3420998611199592E-02   -5.0128956705083215E-03    1.3606819375224905E+01
N   -6.3466802422428121E-03    4.1508571213211581E-02    1.5531077403865389E+01
Ga   -1.2694381073525077E-01    1.8659477558090942E+00    1.6673918392997138E+01
N    1.4462221993468183E+00    9.1008187213351821E-01    1.7415190017028888E+01
N   -1.6151342242340083E+00    2.7988304897924037E+00   -1.0204114224417003E-01
Ga   -1.6190336753566650E+00    4.6634397762312521E+00    5.6246713503460122E-01
N   -1.6195338572983702E+00    4.6628404562142105E+00    2.4659840810007778E+00
Ga   -1.6152484450609084E+00    2.7985701439084214E+00    3.1587207688835579E+00
N   -1.6142557817694081E+00    2.7990174823070983E+00    5.0608243239555435E+00
Ga   -1.6184177823278172E+00    4.6632184421211891E+00    5.7302890772134738E+00
N   -1.6161972189157756E+00    4.6614917548632775E+00    7.6471132671254072E+00
Ga   -1.6098741321830343E+00    2.7961803816545623E+00    8.3436481641166349E+00
N   -1.5923824405934797E+00    2.7931343833152988E+00    1.0279732231773606E+01
Ga   -1.5972612305868668E+00    4.6592504729645770E+00    1.0964104785582903E+01
N   -1.5524828162854798E+00    4.6547412153061876E+00    1.2903847834757473E+01
Ga   -1.5260633435505855E+00    2.7945152990631246E+00    1.3613827517273446E+01
N   -1.5473180997066238E+00    2.8791316281990804E+00    1.5544930283466755E+01
Ga   -1.7205237404570226E+00    4.6768576336836976E+00    1.6611616027138847E+01
N   -1.3148965866732198E-01    3.7292693642716346E+00    1.7430972703756542E+01
N   -3.2307625000069171E+00    5.5972105635068816E+00   -1.0200471101173982E-01
Ga   -3.2346504424861084E+00    7.4617813906388770E+00    5.6244357048423932E-01
N   -3.2350941043044674E+00    7.4611601616293433E+00    2.4659960842062909E+00
Ga   -3.2309379967178629E+00    5.5968295743288072E+00    3.1589815435344106E+00
N   -3.2301289446363137E+00    5.5972842104193177E+00    5.0612601639090604E+00
Ga   -3.2336661023285327E+00    7.4618831525836695E+00    5.7294274325116090E+00
N   -3.2304293504623471E+00    7.4605978915353477E+00    7.6460898802367030E+00
Ga   -3.2270380009815534E+00    5.5961677506683527E+00    8.3429287540291313E+00
N   -3.2133010662023245E+00    5.5941989218034074E+00    1.0278760795374669E+01
Ga   -3.2058767056235342E+00    7.4575601708076800E+00    1.0971708078785460E+01
N   -3.1493137384789880E+00    7.4539301194515639E+00    1.2915055919055401E+01
Ga   -3.1619900782778894E+00    5.5864515577317544E+00    1.3607486064312107E+01
N   -3.2466584282113002E+00    5.6318681444434127E+00    1.5529167442421636E+01
Ga   -3.3516905854675825E+00    7.4591986987978922E+00    1.6670752568294169E+01
N   -1.7697744026622835E+00    6.5211279581157680E+00    1.7419250150367699E+01
N   -4.8464011288339321E+00    8.3955598420637170E+00   -1.0196091415451966E-01
Ga   -4.8502864509880963E+00    1.0260164719073543E+01    5.6242764663975109E-01
N   -4.8507489589491062E+00    1.0259577423327224E+01    2.4659441404722244E+00
Ga   -4.8464916248882588E+00    8.3952757789574566E+00    3.1586219845364027E+00
N   -4.8454151207614551E+00    8.3957535358305098E+00    5.0607702685052853E+00
Ga   -4.8496180960630477E+00    1.0259887159977451E+01    5.7303235519318179E+00
N   -4.8470758008970831E+00    1.0258059949115752E+01    7.6472859084591560E+00
Ga   -4.8409356043161758E+00    8.3927430122899622E+00    8.3438931014572351E+00
N   -4.8233635315925252E+00    8.3892344338264628E+00    1.0280368418272976E+01
Ga   -4.8279449217102250E+00    1.0254938227698059E+01    1.0964389662181024E+01
N   -4.7833906903613439E+00    1.0248889699748487E+01    1.2904542635521389E+01
Ga   -4.7567149418109018E+00    8.3875694102221736E+00    1.3614887944190480E+01
N   -4.7740135188965906E+00    8.4681492890569618E+00    1.5545506323122783E+01
Ga   -4.9590266400423388E+00    1.0257061369633774E+01    1.6613047390376561E+01
N   -3.3616220712583424E+00    9.3248992825789934E+00    1.7435762911903637E+01
N    3.2217118141700736E+00    5.0941647926559927E-04   -1.0202149176554706E-01
Ga    3.2177229812397861E+00    1.8650530614303540E+00    5.6255701120213297E-01
N    3.2173353430879219E+00    1.8644474224473604E+00    2.4661193740595615E+00
Ga    3.2213231775535816E+00   -6.5985142693461254E-05    3.1587523891305240E+00
N    3.2221672062911444E+00    2.2173786400643116E-04    5.0609546966464780E+00
Ga    3.2184979056949792E+00    1.8648436171183800E+00    5.7283078336689641E+00
N    3.2215761268214389E+00    1.8631629958982698E+00    7.6447742745170375E+00
Ga    3.2261963796096946E+00   -1.0076450719186381E-03    8.3427623501236887E+00
N    3.2419233732206081E+00   -3.7383305934514557E-03    1.0279095482717315E+01
Ga    3.2456538537005062E+00    1.8584719650214589E+00    1.0972342170075793E+01
N    3.3040981439639339E+00    1.8486982518685571E+00    1.2919354919239527E+01
Ga    3.2965168537787655E+00   -1.7783723645922442E-02    1.3617896024960773E+01
N    3.2140584066821281E+00   -2.8881339845031034E-02    1.5551115165673334E+01
Ga    3.0704894999359658E+00    1.8527849601533621E+00    1.6750415263532805E+01
N    4.6753924927170143E+00    9.3612328674573375E-01    1.7384369368065901E+01
N    1.6060685331565379E+00    2.7988614026554810E+00   -1.0204085812093190E-01
Ga    1.6020841280230906E+00    4.6634181757402100E+00    5.6253576303543296E-01
N    1.6016335161862116E+00    4.6628578300405135E+00    2.4660480344929785E+00
Ga    1.6057048415375390E+00    2.7984559413520858E+00    3.1586164368207172E+00
N    1.6066754704769484E+00    2.7988809342188370E+00    5.0606258008469700E+00
Ga    1.6025614496483847E+00    4.6631767412065566E+00    5.7294234508522814E+00
N    1.6049232079085838E+00    4.6613349907830717E+00    7.6460213629930998E+00
Ga    1.6118975540813349E+00    2.7962682970057529E+00    8.3432458393068369E+00
N    1.6312806351478897E+00    2.7932431846817107E+00    1.0279458862563729E+01
Ga    1.6244549270029414E+00    4.6577026957905199E+00    1.0965456890352380E+01
N    1.6737006954160405E+00    4.6484576200603458E+00    1.2908746629687947E+01
Ga    1.7036685063222103E+00    2.7904630219898232E+00    1.3627581287659988E+01
N    1.6860711221769753E+00    2.8269451800148633E+00    1.5567726602454639E+01
Ga    1.4974074112215003E+00    4.6692097572867155E+00    1.6653631822034203E+01
N    3.0859658327925668E+00    3.7313778332672674E+00    1.7402039282895021E+01
N   -9.5890813826497844E-03    5.5972454516683774E+00   -1.0209474813249375E-01
Ga   -1.3542446718842074E-02    7.4617984131718176E+00    5.6255598150784969E-01
N   -1.3961169106350705E-02    7.4612171127294413E+00    2.4660804799137694E+00
Ga   -1.0017086668095160E-02    5.5967445857042595E+00    3.1588052144451129E+00
N   -9.2502977395433096E-03    5.5971785105732064E+00    5.0610006830230816E+00
Ga   -1.2864041527785950E-02    7.4618329080408765E+00    5.7285598460395954E+00
N   -9.7604534003385666E-03    7.4606117650519819E+00    7.6449970322064162E+00
Ga   -5.4928124064061081E-03    5.5962585733190497E+00    8.3421242686446764E+00
N    9.9655458439711769E-03    5.5940727242401591E+00    1.0278113808029955E+01
Ga    1.4681967414683271E-02    7.4559967524670352E+00    1.0972467407052910E+01
N    7.4138588220054355E-02    7.4474576287386247E+00    1.2919094713174307E+01
Ga    6.6091161825470757E-02    5.5814647630291665E+00    1.3614944954242702E+01
N   -1.2047600793875794E-02    5.5707540321959232E+00    1.5548062542262834E+01
Ga   -1.4760868772846736E-01    7.4664439866878141E+00    1.6749646798412069E+01
N    1.4442327423681274E+00    6.5308998525199007E+00    1.7385535127198434E+01
N   -1.6252037911639481E+00    8.3956140028663970E+00   -1.0211780262081217E-01
Ga   -1.6291871496137380E+00    1.0260152229747884E+01    5.6252274948686032E-01
N   -1.6296134337313009E+00    1.0259605178711608E+01    2.4660393927533404E+00
Ga   -1.6255843341123475E+00    8.3952017912678176E+00    3.1585601392908527E+00
N   -1.6246644208533807E+00    8.3956622377559000E+00    5.0606016340865319E+00
Ga   -1.6286769651585606E+00    1.0259736180391499E+01    5.7295783251202641E+00
N   -1.6263646443977258E+00    1.0257757318956736E+01    7.6462370713308117E+00
Ga   -1.6196113780286592E+00    8.3929566544862517E+00    8.3439376862066084E+00
N   -1.6008477146253619E+00    8.3892873483385344E+00    1.0280415965513008E+01
Ga   -1.6070327876540753E+00    1.0252597280503956E+01    1.0967895746530516E+01
N   -1.5594629206905266E+00    1.0241382987151209E+01    1.2911056795347664E+01
Ga   -1.5298445698144050E+00    8.3817887630414827E+00    1.3628820474970103E+01
N   -1.5480480878543643E+00    8.4157390128073857E+00    1.5568546219286238E+01
Ga   -1.7343450498959845E+00    1.0265704024277252E+01    1.6655194979332574E+01
N   -1.3626421656104884E-01    9.3447503446669149E+00    1.7409003504672622E+01
N    6.4428131834457920E+00    4.8978845153670354E-04   -1.0190723793374196E-01
Ga    6.4388190130858343E+00    1.8650119123079578E+00    5.6262872215297366E-01
N    6.4383914961796060E+00    1.8644027036769995E+00    2.4661835745021508E+00
Ga    6.4424523152811766E+00   -3.2680243379989975E-05    3.1588531663139596E+00
N    6.4432434925761868E+00    4.3095547643645773E-04    5.0610631105647990E+00
Ga    6.4397671007574147E+00    1.8651032351096568E+00    5.7286514248194109E+00
N    6.4425336909057807E+00    1.8639796937431152E+00    7.6451159916630962E+00
Ga    6.4456375283256637E+00   -6.4565855138342255E-04    8.3418092290577057E+00
N    6.4590923361682764E+00   -1.7166363621623337E-03    1.0277634489932662E+01
Ga    6.4654370149796545E+00    1.8625833957428932E+00    1.0967000453814723E+01
N    6.5192384114779536E+00    1.8614195968919649E+00    1.2910773788736122E+01
Ga    6.5122501059461575E+00   -2.9850115787517007E-03    1.3607447468719458E+01
N    6.4308349607199160E+00    3.9711615826805921E-02    1.5531630151530578E+01
Ga    6.3128270044946060E+00    1.8620935883671821E+00    1.6669249288846604E+01
N    7.8972819177857643E+00    9.2663719166738545E-01    1.7419108247612648E+01
N    4.8271854237347709E+00    2.7988398295531387E+00   -1.0192561928691082E-01
Ga    4.8231995135953305E+00    4.6633872601113522E+00    5.6260414698941508E-01
N    4.8227575909870621E+00    4.6628055622903828E+00    2.4661107374511402E+00
Ga    4.8268824793543601E+00    2.7984932488255363E+00    3.1586548684012894E+00
N    4.8278854733658125E+00    2.7990081667019338E+00    5.0607070140806139E+00
Ga    4.8238081888542794E+00    4.6633269991065722E+00    5.7295735031889850E+00
N    4.8259518172801377E+00    4.6618313210751330E+00    7.6461808117651131E+00
Ga    4.8314671446710351E+00    2.7963286702704795E+00    8.3420834934538508E+00
N    4.8482418133965481E+00    2.7943747685455227E+00    1.0278246215822058E+01
Ga    4.8433668416974021E+00    4.6605845424155561E+00    1.0960178344875036E+01
N    4.8860375964494027E+00    4.6573009761096094E+00    1.2901433729131277E+01
Ga    4.9158295611311136E+00    2.7978984720263087E+00    1.3612549698458817E+01
N    4.9050902820349762E+00    2.8767753076669376E+00    1.5543833942023220E+01
Ga    4.7138229310283748E+00    4.6608118509291439E+00    1.6613424623773060E+01
N    6.3076070271699951E+00    3.7270601939786046E+00    1.7438949330332143E+01
N    3.2115348990525012E+00    5.5972179411416478E+00   -1.0189234802198821E-01
Ga    3.2075431714686493E+00    7.4617675423710645E+00    5.6263205361262492E-01
N    3.2071201852725109E+00    7.4612045123833237E+00    2.4661754608257938E+00
Ga    3.2111867993433969E+00    5.5967570497944656E+00    3.1587213774477858E+00
N    3.2120363655986650E+00    5.5972952792805044E+00    5.0609116713466458E+00
Ga    3.2084395062036131E+00    7.4620626877586611E+00    5.7285072082976072E+00
N    3.2113920475061200E+00    7.4614297583698033E+00    7.6448708683160511E+00
Ga    3.2146790536802339E+00    5.5968520370673360E+00    8.3409270478155513E+00
N    3.2287754790600491E+00    5.5967247965510776E+00    1.0276649624931746E+01
Ga    3.2350966833201027E+00    7.4611002291718007E+00    1.0967823069099753E+01
N    3.2909650550344249E+00    7.4622951292687496E+00    1.2912462055108263E+01
Ga    3.2832785326576199E+00    5.5968866131506338E+00    1.3606369258807812E+01
N    3.2054060859132916E+00    5.6392036254569238E+00    1.5531437313680888E+01
Ga    3.0777011755954580E+00    7.4562125178426140E+00    1.6676909196713087E+01
N    4.6550655721356460E+00    6.5060164127013289E+00    1.7414733469165697E+01
N    1.5958867068517884E+00    8.3955816014601066E+00   -1.0191641506229579E-01
Ga    1.5919084313704333E+00    1.0260132427217584E+01    5.6263004655596849E-01
N    1.5914359451944167E+00    1.0259585887625942E+01    2.4661434311365467E+00
Ga    1.5955674493772365E+00    8.3952558962605472E+00    3.1586891602912552E+00
N    1.5965035739988220E+00    8.3958497840425625E+00    5.0607201559518185E+00
Ga    1.5925062890442414E+00    1.0260092873184098E+01    5.7297957713836087E+00
N    1.5945426849213566E+00    1.0258800642630082E+01    7.6464136581131106E+00
Ga    1.6003771692884012E+00    8.3934676587848802E+00    8.3427994137907362E+00
N    1.6175507109241785E+00    8.3918602691818318E+00    1.0279017405845220E+01
Ga    1.6125153737978644E+00    1.0258176060605594E+01    1.0962283451804023E+01
N    1.6562884295921794E+00    1.0256352408704892E+01    1.2903467577420752E+01
Ga    1.6858095032716207E+00    8.3973013409875463E+00    1.3614093158940248E+01
N    1.6727544443359272E+00    8.4776362728450625E+00    1.5547073258495372E+01
Ga    1.4872045603777579E+00    1.0272741481766563E+01    1.6614840455211045E+01
N    3.0710248188057201E+00    9.3201308259679561E+00    1.7435243698130929E+01
N    9.6638932675950127E+00    4.5448274017690081E-04   -1.0192904412326013E-01
Ga    9.6599952682829215E+00    1.8650339304980712E+00    5.6259842498035872E-01
N    9.6595494299434712E+00    1.8643990301836402E+00    2.4661625793104691E+00
Ga    9.6636517997593145E+00    1.9071182771493020E-05    3.1588462314521450E+00
N    9.6644173729476570E+00    4.6754877541335714E-04    5.0610329305677437E+00
Ga    9.6610682665914140E+00    1.8652861341902449E+00    5.7284317442722257E+00
N    9.6639696089265446E+00    1.8641696479714585E+00    7.6447252410174036E+00
Ga    9.6678664116411230E+00   -4.4232026974067070E-05    8.3410641684176667E+00
N    9.6823928924525191E+00   -1.5139265242784807E-03    1.0276864347417416E+01
Ga    9.6864290497383738E+00    1.8611007918244900E+00    1.0970259896174413E+01
N    9.7408895442229682E+00    1.8560518430603674E+00    1.2916351571654589E+01
Ga    9.7359469337539455E+00   -7.4498543216549792E-03    1.3613099566391135E+01
N    9.6467754849559793E+00   -5.1937682919560293E-03    1.5545089467380709E+01
Ga    9.5100043370049772E+00    1.8875170909139782E+00    1.6732397791514980E+01
N    1.1108388675852156E+01    9.5097596001483964E-01    1.7365563935714533E+01
N    8.0482672103146502E+00    2.7988109497048925E+00   -1.0186034843215751E-01
Ga    8.0443600786822795E+00    4.6634155944461577E+00    5.6257265145486379E-01
N    8.0438836657195854E+00    4.6628433530132041E+00    2.4661279122584707E+00
Ga    8.0480667015768361E+00    2.7985156864489236E+00    3.1585619978541617E+00
N    8.0489854300815900E+00    2.7990126133843605E+00    5.0606131544943009E+00
Ga    8.0451975342831865E+00    4.6633643562634441E+00    5.7294489863876770E+00
N    8.0472615734175204E+00    4.6618165212575651E+00    7.6460179575897289E+00
Ga    8.0536098834845244E+00    2.7966980568884909E+00    8.3417948167857645E+00
N    8.0711251657153138E+00    2.7938421980972543E+00    1.0277775294760264E+01
Ga    8.0646074288813274E+00    4.6580545507072744E+00    1.0964497262787440E+01
N    8.1071672359986806E+00    4.6497107856410533E+00    1.2906724467553071E+01
Ga    8.1360924262289007E+00    2.7920240056552839E+00    1.3624162694664461E+01
N    8.1003847681679098E+00    2.8387693113046986E+00    1.5560190152296764E+01
Ga    7.9279300771123973E+00    4.6780064968638442E+00    1.6642932687460231E+01
N    9.5303365962989499E+00    3.7645995543304069E+00    1.7406300622262041E+01
N    6.4326175742263958E+00    5.5971995910321466E+00   -1.0189902605625703E-01
Ga    6.4287233786917994E+00    7.4617559670116105E+00    5.6260182600367603E-01
N    6.4282855930007781E+00    7.4611416793493843E+00    2.4661710930622127E+00
Ga    6.4323914552143338E+00    5.5967436387287561E+00    3.1588143859208877E+00
N    6.4331907383629101E+00    5.5971804131531329E+00    5.0610108000454606E+00
Ga    6.4299331155254906E+00    7.4620283937709910E+00    5.7283121360026019E+00
N    6.4328914735701925E+00    7.4608835023739752E+00    7.6447540987802318E+00
Ga    6.4366379556024587E+00    5.5965952861350274E+00    8.3410302748074461E+00
N    6.4508034867448538E+00    5.5947506989375562E+00    1.0276880948082379E+01
Ga    6.4554296139739744E+00    7.4572687476182473E+00    1.0970749134342173E+01
N    6.5099928671981200E+00    7.4503132519230260E+00    1.2917322810275797E+01
Ga    6.5020977273303142E+00    5.5854776667602604E+00    1.3614619666173736E+01
N    6.4109615310238564E+00    5.5848054024323446E+00    1.5545771193194595E+01
Ga    6.2700160643012799E+00    7.4634605847661950E+00    1.6737103697454550E+01
N    7.8805476997024746E+00    6.5485607567046813E+00    1.7370352402400876E+01
N    4.8169861054109058E+00    8.3955525204814485E+00   -1.0189163346079871E-01
Ga    4.8130638184672545E+00    1.0260159730637525E+01    5.6257778814988735E-01
N    4.8125772972987706E+00    1.0259581205836206E+01    2.4661088918714342E+00
Ga    4.8168094298570709E+00    8.3952661750101214E+00    3.1586670070632321E+00
N    4.8178042277090434E+00    8.3958207321959204E+00    5.0607031493985710E+00
Ga    4.8139676596241134E+00    1.0260238909848088E+01    5.7294813640321900E+00
N    4.8162164294348040E+00    1.0258869946796500E+01    7.6461007404146129E+00
Ga    4.8226142445248561E+00    8.3937220991493966E+00    8.3419826032163442E+00
N    4.8408512127821561E+00    8.3914431425002736E+00    1.0278115767815736E+01
Ga    4.8343401265725596E+00    1.0256172237705110E+01    1.0964305433328093E+01
N    4.8797410016865053E+00    1.0250320597490731E+01    1.2907043154050928E+01
Ga    4.9092921633081392E+00    8.3931270354462271E+00    1.3625047929490517E+01
N    4.8769235917190032E+00    8.4407105157795854E+00    1.5562625818321015E+01
Ga    4.6919183501993675E+00    1.0272656714139629E+01    1.6646483913621289E+01
N    6.2874590929872660E+00    9.3442316677745758E+00    1.7397303993832402E+01
H    3.2186273308698089E-04    3.7373734337777144E-04   -1.1296037402203585E+00
H   -1.6153184275251224E+00    2.7987551984417083E+00   -1.1296622294428984E+00
H   -3.2309532209147234E+00    5.5970939203240544E+00   -1.1296558589493342E+00
H   -4.8465974369462224E+00    8.3954622073108123E+00   -1.1297413074652864E+00
H    3.2216492365240681E+00    4.9169289578525387E-04   -1.1297121184398133E+00
H    1.6060216592466816E+00    2.7988591347701557E+00   -1.1297215926165987E+00
H   -9.6331132195401036E-03    5.5972080377110229E+00   -1.1296433901142089E+00
H   -1.6252669335089338E+00    8.3955870832989792E+00   -1.1296610458832774E+00
H    6.4427576571954130E+00    4.4668785191410705E-04   -1.1295948066841399E+00
H    4.8271175985491936E+00    2.7988325762126869E+00   -1.1296004460220270E+00
H    3.2114732140906335E+00    5.5971724794628583E+00   -1.1296102215682928E+00
H    1.5958287708550565E+00    8.3955643032683618E+00   -1.1296249877074784E+00
H    9.6636708947133716E+00    3.3673271428684144E-04   -1.1295007073018180E+00
H    8.0480516634596189E+00    2.7987124339851643E+00   -1.1295483065704355E+00
H    6.4324097046244200E+00    5.5970561719374636E+00   -1.1295355663632172E+00
H    4.8167715343324282E+00    8.3954327492462593E+00   -1.1295110404012421E+00
     &END COORD
     &KIND H
       BASIS_SET DZVP-MOLOPT-SR-GTH-q1
       POTENTIAL GTH-PBE-q1
       &POTENTIAL
 1
  0.2000000000000000E+00 2 -0.4178900440000000E+01  0.7244633100000000E+00
 0
         # Potential name:  GTH-PBE-Q1  for symbol:  H
         # Potential read from the potential filename: GTH_POTENTIALS
       &END POTENTIAL
     &END KIND
     &KIND N
       BASIS_SET DZVP-MOLOPT-SR-GTH
       POTENTIAL GTH-PBE-q5
       &POTENTIAL
 2 3
  0.2837905100000000E+00 2 -0.1241522559000000E+02  0.1868095920000000E+01
 2
  0.2554050000000000E+00 1  0.1363026257000000E+02
  0.2454945300000000E+00 0
         # Potential name:  GTH-PBE-Q5  for symbol:  N
         # Potential read from the potential filename: GTH_POTENTIALS
       &END POTENTIAL
     &END KIND
     &KIND Ga
       BASIS_SET DZVP-MOLOPT-SR-GTH
       POTENTIAL GTH-PBE-q13
       &POTENTIAL
 2 1 10
  0.4900000000000000E+00 0
 3
  0.4167772300000000E+00 3  0.1047568975000000E+02 -0.4921768140000000E+01  0.8707055900000000E+00
  0.7770178090000000E+01 -0.2248152160000000E+01
  0.1784415450000000E+01
  0.5696265200000000E+00 2  0.1777985340000000E+01  0.1958597600000000E+00
 -0.2317443900000000E+00
  0.2381265000000000E+00 1 -0.1624868022000000E+02
         # Potential name:  GTH-PBE-Q13  for symbol:  GA
         # Potential read from the potential filename: GTH_POTENTIALS
       &END POTENTIAL
     &END KIND
     &TOPOLOGY
       NUMBER_OF_ATOMS  256
       MULTIPLE_UNIT_CELL  1 1 1
     &END TOPOLOGY
   &END SUBSYS
 &END FORCE_EVAL
