 # Version information for this restart file 
 # current date 2019-06-11 00:08:26.823
 # current working dir /lustre03/project/6037349/rzk/GaN-carbene/444-addat/00-Surface/RKS
 # Program compiled at                              Sun Apr  7 00:48:11 EDT 2019
 # Program compiled on                          beluga2.int.ets1.calculquebec.ca
 # Program compiled for                        Beluga-Linux-x86-64-intel-openmpi
 # Source code revision number                                         svn:18619
 &GLOBAL
   PRINT_LEVEL  MEDIUM
   PROJECT_NAME TEST
   RUN_TYPE  CELL_OPT
 &END GLOBAL
 &MOTION
   &CELL_OPT
     MAX_ITER  300
     STEP_START_VAL  94
     EXTERNAL_PRESSURE     1.0000000000000000E+00
     KEEP_ANGLES  T
     KEEP_SYMMETRY  T
     CONSTRAINT  Z
     PRESSURE_TOLERANCE     5.0000000000000000E+02
   &END CELL_OPT
 &END MOTION
 &FORCE_EVAL
   METHOD  QS
   STRESS_TENSOR  ANALYTICAL
   &DFT
     BASIS_SET_FILE_NAME BASIS_MOLOPT
     POTENTIAL_FILE_NAME GTH_POTENTIALS
     SURFACE_DIPOLE_CORRECTION  T
     SURF_DIP_DIR  Z
     &SCF
       MAX_SCF  100
       EPS_SCF     5.0000000000000004E-06
       &OT  T
         PRECONDITIONER  FULL_ALL
       &END OT
       &OUTER_SCF  T
         OPTIMIZER  NONE
         EPS_SCF     5.0000000000000004E-06
         MAX_SCF  4
       &END OUTER_SCF
       &PRINT
         &RESTART  OFF
           BACKUP_COPIES  1
           &EACH
             JUST_ENERGY  0
             QS_SCF  0
             MD  20
           &END EACH
         &END RESTART
       &END PRINT
     &END SCF
     &QS
       EPS_DEFAULT     1.0000000000000000E-14
       METHOD  GPW
     &END QS
     &MGRID
       NGRIDS  5
       CUTOFF     1.2000000000000000E+03
     &END MGRID
     &XC
       DENSITY_CUTOFF     1.0000000000000000E-10
       GRADIENT_CUTOFF     1.0000000000000000E-10
       TAU_CUTOFF     1.0000000000000000E-10
       &XC_FUNCTIONAL  NO_SHORTCUT
         &PBE  T
         &END PBE
       &END XC_FUNCTIONAL
       &VDW_POTENTIAL
         POTENTIAL_TYPE  PAIR_POTENTIAL
         &PAIR_POTENTIAL
           R_CUTOFF     1.0000000000000005E+01
           TYPE  DFTD3
           PARAMETER_FILE_NAME dftd3.dat
           REFERENCE_FUNCTIONAL PBE
           EPS_CN     9.9999999999999995E-07
           CALCULATE_C9_TERM  T
           REFERENCE_C9_TERM  T
           LONG_RANGE_CORRECTION  F
           VERBOSE_OUTPUT  F
         &END PAIR_POTENTIAL
       &END VDW_POTENTIAL
     &END XC
   &END DFT
   &SUBSYS
     &CELL
       A     1.3030610205428552E+01    0.0000000000000000E+00    0.0000000000000000E+00
       B    -6.4406567546607372E+00    1.1155544733184309E+01    0.0000000000000000E+00
       C     0.0000000000000000E+00    0.0000000000000000E+00    3.2000000000000000E+01
       MULTIPLE_UNIT_CELL  1 1 1
       &CELL_REF
         A     1.2982353780853531E+01    0.0000000000000000E+00    0.0000000000000000E+00
         B    -6.4911768904267628E+00    1.1243048175136114E+01    0.0000000000000000E+00
         C     0.0000000000000000E+00    0.0000000000000000E+00    3.2000000000000000E+01
         MULTIPLE_UNIT_CELL  1 1 1
       &END CELL_REF
     &END CELL
     &COORD
N    1.8246379406922050E-01    9.7615476401726964E-02   -1.5258307235946311E-01
Ga    2.0217163664264909E-01    1.9668351773054615E+00    5.1565734819771991E-01
N    2.3337982158836049E-01    1.9916763381565705E+00    2.4374197024783966E+00
Ga    2.1600762861447900E-01    1.2399451061550509E-01    3.1399108232919031E+00
N    2.2692482455745205E-01    1.3090647298102706E-01    5.0720969145076964E+00
Ga    2.4583404546825188E-01    1.9965641663321767E+00    5.7722671399537555E+00
N    2.4862287197340990E-01    2.0058225319702387E+00    7.7079484784268448E+00
Ga    2.3364773757362101E-01    1.3912714850779451E-01    8.3922655474743504E+00
N    2.3169575336380901E-01    1.2891799303997009E-01    1.0323336832682754E+01
Ga    2.4835371412016460E-01    1.9947730302816760E+00    1.1018889153502986E+01
N    2.5488721668913761E-01    1.9904309173551573E+00    1.2949009726568100E+01
Ga    2.0026633170278393E-01    1.2018328668272302E-01    1.3626945161254001E+01
N   -3.2585485809144066E-01   -1.8313899896556307E-01    1.5375664331570452E+01
Ga   -1.0292756354571280E+00    9.4527471830466270E-01    1.6772217015029980E+01
N    2.9470168099759514E-01    1.4663974101363231E-01    1.8043176458023833E+01
N   -1.4282685291454795E+00    2.8863445008273061E+00   -1.5180655590931319E-01
Ga   -1.4079938581793396E+00    4.7550196000954283E+00    5.1520717825865647E-01
N   -1.3766941172665621E+00    4.7800917143067911E+00    2.4365731765349161E+00
Ga   -1.3923106915600261E+00    2.9144457807610489E+00    3.1453135163548289E+00
N   -1.3803473375804634E+00    2.9209393441830414E+00    5.0752555585653232E+00
Ga   -1.3634189596771182E+00    4.7875925735087481E+00    5.7733877564471046E+00
N   -1.3595864769213561E+00    4.7931863804318571E+00    7.7083044079815606E+00
Ga   -1.3786139389874865E+00    2.9268284948969043E+00    8.3947778925825212E+00
N   -1.3775702512578623E+00    2.9266601658254778E+00    1.0332028315686291E+01
Ga   -1.3644168391997582E+00    4.7942371717109635E+00    1.1026960262102827E+01
N   -1.3563351234569081E+00    4.8056858272216960E+00    1.2965891236301630E+01
Ga   -1.3500163620242673E+00    2.9365104465195726E+00    1.3620706821999690E+01
N   -1.8880285562121226E+00    2.4848284686266453E+00    1.5437134698582486E+01
Ga   -2.8877030061253834E+00    4.2282530690701980E+00    1.6846402485908811E+01
N   -1.4056243788122176E+00    2.9206695255364314E+00    1.6719020719716688E+01
N   -3.0386210233333357E+00    5.6749898475278329E+00   -1.4862794865988693E-01
Ga   -3.0184173854954262E+00    7.5444795331564114E+00    5.1634493014597305E-01
N   -2.9873897071750659E+00    7.5697528403969452E+00    2.4378432210992105E+00
Ga   -3.0021061696285640E+00    5.7030982652578670E+00    3.1447234642550286E+00
N   -2.9911587076215449E+00    5.7101868763301749E+00    5.0765803381467496E+00
Ga   -2.9743098255622535E+00    7.5793436579364446E+00    5.7722128635819905E+00
N   -2.9711279233711667E+00    7.5867294842987238E+00    7.7078296409629754E+00
Ga   -2.9879431507917031E+00    5.7171201125808579E+00    8.3858120279645014E+00
N   -2.9876922384337656E+00    5.7112238184124333E+00    1.0322169674474896E+01
Ga   -2.9683397697936664E+00    7.5716514635641374E+00    1.1025128409814675E+01
N   -2.9548674889824866E+00    7.5810511694840317E+00    1.2967228623764914E+01
Ga   -2.9891392419979277E+00    5.7143429646882229E+00    1.3677142379802362E+01
N   -3.4511274082388974E+00    5.4360727314464166E+00    1.5452446008632728E+01
Ga   -4.2209790335113100E+00    6.5218205154970876E+00    1.6852443946630931E+01
N   -2.8870448496746528E+00    5.7592436366714939E+00    1.8123400552254257E+01
N   -4.6482201769797076E+00    8.4635840508479188E+00   -1.5181524239911126E-01
Ga   -4.6282404880743995E+00    1.0332791384104512E+01    5.1461767050981655E-01
N   -4.5974490696449646E+00    1.0358116465231417E+01    2.4360979409540193E+00
Ga   -4.6133266120963672E+00    8.4930973448123073E+00    3.1453314894096303E+00
N   -4.6015135620173258E+00    8.5015072687467121E+00    5.0751901303026106E+00
Ga   -4.5874859029329551E+00    1.0368211783493090E+01    5.7748214457016589E+00
N   -4.5808784799576641E+00    1.0372336369118266E+01    7.7098535763193876E+00
Ga   -4.5981120636984345E+00    8.5058207847692469E+00    8.3960924147957599E+00
N   -4.5921523658621428E+00    8.5011083918840757E+00    1.0332943602767015E+01
Ga   -4.5817734628141782E+00    1.0369761347524925E+01    1.1024446256337276E+01
N   -4.5878181700087000E+00    1.0384932956284077E+01    1.2958073808095474E+01
Ga   -4.5747707965695357E+00    8.5249465615771527E+00    1.3625197026371962E+01
N   -5.2240209802990929E+00    8.2802272793688516E+00    1.5442809646301647E+01
Ga   -6.1322371153101303E+00    9.7722300603085763E+00    1.6744187786384572E+01
N   -4.6025519452321015E+00    8.4595239114026004E+00    1.6728552439726680E+01
N    3.4406404289888326E+00    9.7677886066989128E-02   -1.5171587270543940E-01
Ga    3.4590154201189613E+00    1.9662167697866308E+00    5.1649743693051009E-01
N    3.4891857519645146E+00    1.9907936583534336E+00    2.4392915499305583E+00
Ga    3.4758711555835586E+00    1.2577799900583878E-01    3.1520038054639969E+00
N    3.4864377211230035E+00    1.3236618628448610E-01    5.0836955648894211E+00
Ga    3.5074341072820197E+00    2.0009844171917228E+00    5.7787531013420486E+00
N    3.5072811306487202E+00    2.0053628055261941E+00    7.7139936435288892E+00
Ga    3.4910165403864881E+00    1.3810929210352155E-01    8.3999461019691424E+00
N    3.4953030747378921E+00    1.3234814399411440E-01    1.0341299053675309E+01
Ga    3.5023839019834928E+00    1.9962253478131868E+00    1.1031147572587630E+01
N    3.5201674395870270E+00    2.0089985622347908E+00    1.2975914827496309E+01
Ga    3.4716611455916677E+00    1.6092068737701765E-01    1.3684686587914820E+01
N    2.9033326369888504E+00   -1.3304099092171062E-01    1.5540074704483786E+01
Ga    1.8224495154496860E+00    1.0127942407541486E+00    1.7517125877965650E+01
N    3.4787163728386443E+00    2.1464516000988598E-01    1.6879411759480359E+01
N    1.8303194972429102E+00    2.8866086689880390E+00   -1.5219526321360616E-01
Ga    1.8490315501362899E+00    4.7545644999790442E+00    5.1837521997234848E-01
N    1.8793546604594384E+00    4.7793509431253298E+00    2.4414317404964945E+00
Ga    1.8663285604730853E+00    2.9144598069827574E+00    3.1530162156313528E+00
N    1.8774168817153749E+00    2.9213239454877544E+00    5.0845367867663098E+00
Ga    1.8948328832555466E+00    4.7900370908060497E+00    5.7799060499483810E+00
N    1.8969275538423671E+00    4.7948831877774865E+00    7.7161361487885030E+00
Ga    1.8803343778277122E+00    2.9274927799920576E+00    8.4002111771579155E+00
N    1.8819310523304125E+00    2.9246184551420980E+00    1.0340146632007093E+01
Ga    1.8900855159384988E+00    4.7838480854340792E+00    1.1043522007362625E+01
N    1.8903464249611190E+00    4.7795566720928981E+00    1.2995130913338699E+01
Ga    1.8918948827858999E+00    2.8963118027520438E+00    1.3677286670686922E+01
N    1.3597229698537974E+00    2.5354893595497252E+00    1.5535067088590717E+01
Ga    2.2921918225579815E-01    3.8211885417709293E+00    1.6436018460229036E+01
N    1.9435400446089950E+00    2.8526213857690776E+00    1.6868269625051301E+01
N    2.1978946181510223E-01    5.6754954112217249E+00   -1.5136105207787015E-01
Ga    2.3835411747050200E-01    7.5438653788235079E+00    5.1792184267664954E-01
N    2.6990480126426813E-01    7.5690863517436258E+00    2.4409321406601925E+00
Ga    2.5527242033387904E-01    5.7039989323392275E+00    3.1518959144674885E+00
N    2.6642460511988425E-01    5.7112073177704659E+00    5.0835268977918302E+00
Ga    2.8534404857157847E-01    7.5780983059239073E+00    5.7841274276251031E+00
N    2.8737663430903948E-01    7.5833956800822788E+00    7.7202799621713698E+00
Ga    2.6977374481041561E-01    5.7145194750382249E+00    8.4024778519179204E+00
N    2.7343099810110072E-01    5.7123517278013214E+00    1.0344707997147363E+01
Ga    2.9005471150339518E-01    7.5791158879221241E+00    1.1029842201034587E+01
N    3.1877410252163862E-01    7.5972898278386660E+00    1.2975274028048480E+01
Ga    2.7413820087707480E-01    5.7448921381544595E+00    1.3667621238014593E+01
N   -2.9711656635966693E-01    5.4558343627340022E+00    1.5523661954753027E+01
Ga   -1.3596540557335288E+00    6.6217276735117583E+00    1.7570534963266685E+01
N    2.5639888021873769E-01    5.8104042264071758E+00    1.6849599841021469E+01
N   -1.3905155656146371E+00    8.4641003830270982E+00   -1.5131894334474233E-01
Ga   -1.3715728010273092E+00    1.0332431311130808E+01    5.1801437676761675E-01
N   -1.3408325799383594E+00    1.0357121281256937E+01    2.4406986938486526E+00
Ga   -1.3541061088417510E+00    8.4925901896087108E+00    3.1530738060064301E+00
N   -1.3417008625149700E+00    8.5002726685452004E+00    5.0848958604222965E+00
Ga   -1.3248523041722655E+00    1.0367878352433619E+01    5.7809941406806429E+00
N   -1.3222736879860437E+00    1.0372898743941715E+01    7.7168605077608614E+00
Ga   -1.3404089311986913E+00    8.5068911759190708E+00    8.4062545089793019E+00
N   -1.3364259226795354E+00    8.5034905507662017E+00    1.0347141186604352E+01
Ga   -1.3292896870710249E+00    1.0364799020415983E+01    1.1048722659034235E+01
N   -1.3344973754843099E+00    1.0372788003224910E+01    1.3001710000212368E+01
Ga   -1.3102161216566754E+00    8.4921245424879981E+00    1.3671884370185417E+01
N   -1.8286634178823837E+00    8.1309060520991405E+00    1.5524104562710500E+01
Ga   -2.9832630095770636E+00    9.3909039286961491E+00    1.6446616309745089E+01
N   -1.2504561130268337E+00    8.4308799909458720E+00    1.6847752112834247E+01
N    6.6962389125419799E+00    9.7365230584034679E-02   -1.5288249194047238E-01
Ga    6.7158098472988437E+00    1.9651979967244295E+00    5.1643409247149097E-01
N    6.7465433533495602E+00    1.9892869148053181E+00    2.4392831086629543E+00
Ga    6.7332767032354370E+00    1.2426399440689519E-01    3.1504452880995877E+00
N    6.7444559143755498E+00    1.3240539090818099E-01    5.0818980716452584E+00
Ga    6.7612314246776704E+00    1.9993993972627848E+00    5.7762691384269411E+00
N    6.7613671802439992E+00    2.0022006518698037E+00    7.7128988914581535E+00
Ga    6.7456041413700039E+00    1.3902485209651047E-01    8.4136901343145016E+00
N    6.7436840594700547E+00    1.3119158662337843E-01    1.0358360636538061E+01
Ga    6.7717883286397722E+00    2.0051558634122197E+00    1.1035637749919438E+01
N    6.7963571084557302E+00    2.0171065133215023E+00    1.2984993611671314E+01
Ga    6.7684307588751151E+00    1.5342640632081808E-01    1.3654995778075667E+01
N    6.2025965054011367E+00   -1.6467096331635633E-01    1.5489413662250481E+01
Ga    5.1556550115515911E+00    1.0752493437967336E+00    1.6596585303680655E+01
N    6.8659541710822136E+00    1.8024624043749438E-01    1.7060581712242517E+01
N    5.0872918128184477E+00    2.8862214226271017E+00   -1.5229898811791567E-01
Ga    5.1053428455122924E+00    4.7547053022197776E+00    5.1597839169342385E-01
N    5.1353602806309127E+00    4.7803289510097606E+00    2.4389094440232530E+00
Ga    5.1226951763617921E+00    2.9148823690136259E+00    3.1477020693259288E+00
N    5.1354654297907727E+00    2.9224509488505253E+00    5.0792448355692894E+00
Ga    5.1502375705409849E+00    4.7886069833882114E+00    5.7769848531687931E+00
N    5.1502473157807449E+00    4.7931189436182757E+00    7.7137334304135488E+00
Ga    5.1381571092117566E+00    2.9267753225750650E+00    8.4092061148612807E+00
N    5.1352032803464258E+00    2.9226193335237221E+00    1.0353345302583890E+01
Ga    5.1618388790587622E+00    4.7958558778491209E+00    1.1036138910837973E+01
N    5.1805415116455933E+00    4.8107581161599260E+00    1.2984793244171463E+01
Ga    5.1762154319170470E+00    2.9488140544444637E+00    1.3642685266024342E+01
N    4.6173185353925552E+00    2.6274693347246707E+00    1.5467728847897337E+01
Ga    3.5498981834891654E+00    3.8439215054733977E+00    1.6590422497438041E+01
N    5.2397665764979680E+00    2.9680394092974733E+00    1.7066232061145083E+01
N    3.4765862378893249E+00    5.6743093325146994E+00   -1.5358269168953467E-01
Ga    3.4943617749232314E+00    7.5428290675231073E+00    5.1495275871909574E-01
N    3.5243119029033205E+00    7.5683997043241975E+00    2.4388938167651388E+00
Ga    3.5118163077521389E+00    5.7042089758452592E+00    3.1503512808026635E+00
N    3.5236542759043163E+00    5.7104987526017705E+00    5.0814930908015228E+00
Ga    3.5413169007167107E+00    7.5771326684971436E+00    5.7766717338936395E+00
N    3.5393799290023393E+00    7.5778417526203752E+00    7.7115709671062369E+00
Ga    3.5260736991751025E+00    5.7140898665899424E+00    8.4128946988788833E+00
N    3.5224708580261481E+00    5.7071984805319413E+00    1.0356648849395368E+01
Ga    3.5546930152438820E+00    7.5778000529345988E+00    1.1035789397055536E+01
N    3.5812278992957789E+00    7.5864350671141194E+00    1.2980247518026301E+01
Ga    3.5459844522427506E+00    5.7202704691027089E+00    1.3649452605622233E+01
N    2.9769879665515639E+00    5.3960553655916570E+00    1.5481679346078584E+01
Ga    1.9448760449093023E+00    6.6632860801424068E+00    1.6570006470665160E+01
N    3.6264115762907512E+00    5.7460137284693751E+00    1.7061410072926606E+01
N    1.8655386191980887E+00    8.4632094812267677E+00   -1.5384815999844981E-01
Ga    1.8841776105077901E+00    1.0331246657358937E+01    5.1402985265260270E-01
N    1.9146235526298891E+00    1.0355150343835875E+01    2.4374683310500629E+00
Ga    1.9021420303180494E+00    8.4925331753091111E+00    3.1525332328880249E+00
N    1.9134739031012293E+00    8.5004417434488637E+00    5.0842152188388869E+00
Ga    1.9298344605906530E+00    1.0367426115125626E+01    5.7789095533039214E+00
N    1.9270841684093563E+00    1.0371175047492466E+01    7.7133346932959954E+00
Ga    1.9200708677419245E+00    8.5060847906877584E+00    8.4076286406215210E+00
N    1.9215777904950955E+00    8.5026109145242437E+00    1.0352679400513413E+01
Ga    1.9414984713943209E+00    1.0375743532830692E+01    1.1039149765837232E+01
N    1.9568566011905941E+00    1.0397375997193922E+01    1.2985762442367427E+01
Ga    1.9811800597647207E+00    8.5377834921311440E+00    1.3636806812230914E+01
N    1.4415140779672035E+00    8.2285897956734129E+00    1.5470618626912879E+01
Ga    3.5723696668815952E-01    9.4315207848753229E+00    1.6571736108662009E+01
N    2.0254864625795168E+00    8.5403875050903135E+00    1.7106650682500430E+01
N    9.9534870588298556E+00    9.7251115015528050E-02   -1.5288394995381549E-01
Ga    9.9729622658468955E+00    1.9657737513228299E+00    5.1562223900153348E-01
N    1.0003492641628522E+01    1.9890210652853373E+00    2.4382711157498562E+00
Ga    9.9891836722972105E+00    1.2215178125521919E-01    3.1446876342190340E+00
N    1.0000464220289317E+01    1.2906433830160907E-01    5.0771991109492811E+00
Ga    1.0021186304732231E+01    1.9983312651702287E+00    5.7649032050485980E+00
N    1.0023903808318231E+01    2.0073902126397791E+00    7.6974019261011879E+00
Ga    9.9980628789027008E+00    1.4168244335058872E-01    8.3798061711191014E+00
N    9.9912030168384565E+00    1.4029570613345968E-01    1.0309264727254467E+01
Ga    1.0020951259727699E+01    1.9984221504096091E+00    1.1005040807133440E+01
N    1.0034106519888205E+01    2.0124771384120956E+00    1.2934826865713886E+01
Ga    1.0075955062663844E+01    1.6740550596282938E-01    1.3659459786428258E+01
N    9.5736472957903676E+00   -1.3505855559440536E-01    1.5530734157169466E+01
Ga    8.4570594641499746E+00    1.0988027324725522E+00    1.6704152262645970E+01
N    1.0198888047240905E+01    2.2181841253845097E-01    1.6891171494835515E+01
N    8.3437189962387386E+00    2.8860456886394759E+00   -1.5156757222298148E-01
Ga    8.3625168760485220E+00    4.7538266535901261E+00    5.1703618030301468E-01
N    8.3929300951073476E+00    4.7785245387583011E+00    2.4388470961143875E+00
Ga    8.3795628136462028E+00    2.9135351675671415E+00    3.1482021596597631E+00
N    8.3911743865289523E+00    2.9213954331346605E+00    5.0795829036470268E+00
Ga    8.4095862416946119E+00    4.7897226943328404E+00    5.7717944459688022E+00
N    8.4101044419125994E+00    4.7943337440040823E+00    7.7056111743059628E+00
Ga    8.3955896590678094E+00    2.9241936357025970E+00    8.3852655918308212E+00
N    8.3947344058253694E+00    2.9178503538368816E+00    1.0321051524251761E+01
Ga    8.4084731885908059E+00    4.7867763518374469E+00    1.0986603531719398E+01
N    8.4074242558959309E+00    4.7899848402270768E+00    1.2912265908799357E+01
Ga    8.4560496459109320E+00    2.9638133722085120E+00    1.3648384135407918E+01
N    7.9879225935099596E+00    2.6841872985437263E+00    1.5525597360912455E+01
Ga    6.8269066061357391E+00    3.8635362977555121E+00    1.6710914043846937E+01
N    8.5962565095575432E+00    3.0469451674664989E+00    1.6903640818041552E+01
N    6.7342913645874800E+00    5.6742690809477114E+00   -1.5156933736443554E-01
Ga    6.7530471059638204E+00    7.5427566118846094E+00    5.1554455844008917E-01
N    6.7824693534647214E+00    7.5678037437881542E+00    2.4384382191090825E+00
Ga    6.7691734879970387E+00    5.7026996013378772E+00    3.1481268493525634E+00
N    6.7803356050252823E+00    5.7090734746159812E+00    5.0790603330402853E+00
Ga    6.7998085287322789E+00    7.5790855639441288E+00    5.7646074045274265E+00
N    6.8053656789740096E+00    7.5842693133448282E+00    7.6978970080459499E+00
Ga    6.7818068178600743E+00    5.7184461578947809E+00    8.3860554039206452E+00
N    6.7823283087078821E+00    5.7117715843408021E+00    1.0320219949429061E+01
Ga    6.8014149813772695E+00    7.5771241215503746E+00    1.1006314523023390E+01
N    6.8177033669209681E+00    7.5871894457015951E+00    1.2936434315002520E+01
Ga    6.8481552784386812E+00    5.7452626641686706E+00    1.3646295267137857E+01
N    6.3731335266234170E+00    5.4668529261427938E+00    1.5524202815269833E+01
Ga    5.2324528681401015E+00    6.6518628727058582E+00    1.6695904485241897E+01
N    6.9973066389696497E+00    5.8015118768749909E+00    1.6897298085066065E+01
N    5.1236898342406096E+00    8.4626427190613107E+00   -1.5313193645299608E-01
Ga    5.1425136725729939E+00    1.0331534917964662E+01    5.1207815412298063E-01
N    5.1722218005686695E+00    1.0355329861383971E+01    2.4347641046310513E+00
Ga    5.1577347289499134E+00    8.4920272399519874E+00    3.1462878538045542E+00
N    5.1693954562858613E+00    8.5008134756405358E+00    5.0783820682452037E+00
Ga    5.1897258142081055E+00    1.0368080244129532E+01    5.7749188070879756E+00
N    5.1900578340452084E+00    1.0372296903963422E+01    7.7089065206208218E+00
Ga    5.1739559065132230E+00    8.4976456986576387E+00    8.3794395718293746E+00
N    5.1728034714786029E+00    8.4819181676567226E+00    1.0308583058490866E+01
Ga    5.1729430545786332E+00    1.0354174620549008E+01    1.0959100354850056E+01
N    5.1562177063902457E+00    1.0350597562973601E+01    1.2871095691026808E+01
Ga    5.2366045287858238E+00    8.5479274598655479E+00    1.3658413547011651E+01
N    4.7333876865856777E+00    8.2420674449076738E+00    1.5528589101332956E+01
Ga    3.6106067187547550E+00    9.4404758871034318E+00    1.6766475932418352E+01
N    5.3559640184169641E+00    8.5982528653946453E+00    1.6889204327719163E+01
H    1.8085111040478685E-01    9.5570935286254100E-02   -1.1794586058701624E+00
H   -1.4304372110852352E+00    2.8876083889464730E+00   -1.1786696390939475E+00
H   -3.0400529312351381E+00    5.6731348416557035E+00   -1.1753038061866021E+00
H   -4.6484499766518335E+00    8.4615206104578817E+00   -1.1786772847327822E+00
H    3.4374269061879072E+00    9.6155697785947458E-02   -1.1785405840159866E+00
H    1.8282066885964152E+00    2.8843430476814609E+00   -1.1790756474404422E+00
H    2.1404201868523934E-01    5.6722724443566062E+00   -1.1782581918801081E+00
H   -1.3953102788641580E+00    8.4609571033475088E+00   -1.1781772087318538E+00
H    6.6920467742988166E+00    9.6205189723682763E-02   -1.1798005176644830E+00
H    5.0840189881735176E+00    2.8842690838141518E+00   -1.1792540958402822E+00
H    3.4743624614604189E+00    5.6700784164299884E+00   -1.1806229169329232E+00
H    1.8609081360375641E+00    8.4610438610956962E+00   -1.1807251744107874E+00
H    9.9511102651807697E+00    9.6008651949549051E-02   -1.1796936109315499E+00
H    8.3402965972537491E+00    2.8861184889036036E+00   -1.1783716375266713E+00
H    6.7322656318188194E+00    5.6710395945165253E+00   -1.1783729090129522E+00
H    5.1219804024169902E+00    8.4617602391894984E+00   -1.1799564022610078E+00
     &END COORD
     &KIND H
       BASIS_SET DZVP-MOLOPT-SR-GTH-q1
       POTENTIAL GTH-PBE-q1
       &POTENTIAL
1
0.2000000000000000E+00 2 -0.4178900440000000E+01  0.7244633100000000E+00
0
       &END POTENTIAL
     &END KIND
     &KIND N
       BASIS_SET DZVP-MOLOPT-SR-GTH
       POTENTIAL GTH-PBE-q5
       &POTENTIAL
2 3
0.2837905100000000E+00 2 -0.1241522559000000E+02  0.1868095920000000E+01
2
0.2554050000000000E+00 1  0.1363026257000000E+02
0.2454945300000000E+00 0
       &END POTENTIAL
     &END KIND
     &KIND Ga
       BASIS_SET DZVP-MOLOPT-SR-GTH
       POTENTIAL GTH-PBE-q13
       &POTENTIAL
2 1 10
0.4900000000000000E+00 0
3
0.4167772300000000E+00 3  0.1047568975000000E+02 -0.4921768140000000E+01  0.8707055900000000E+00
0.7770178090000000E+01 -0.2248152160000000E+01
0.1784415450000000E+01
0.5696265200000000E+00 2  0.1777985340000000E+01  0.1958597600000000E+00
-0.2317443900000000E+00
0.2381265000000000E+00 1 -0.1624868022000000E+02
       &END POTENTIAL
     &END KIND
     &TOPOLOGY
       NUMBER_OF_ATOMS  256
       MULTIPLE_UNIT_CELL  1 1 1
     &END TOPOLOGY
   &END SUBSYS
 &END FORCE_EVAL
