 # Version information for this restart file 
 # current date 2019-06-11 00:16:50.206
 # current working dir /lustre03/project/6037349/rzk/GaN-carbene/444-addat/00-Surface/RKS
 # Program compiled at                              Sun Apr  7 00:48:11 EDT 2019
 # Program compiled on                          beluga2.int.ets1.calculquebec.ca
 # Program compiled for                        Beluga-Linux-x86-64-intel-openmpi
 # Source code revision number                                         svn:18619
 &GLOBAL
   PRINT_LEVEL  MEDIUM
   PROJECT_NAME TEST
   RUN_TYPE  CELL_OPT
 &END GLOBAL
 &MOTION
   &CELL_OPT
     MAX_ITER  300
     STEP_START_VAL  99
     EXTERNAL_PRESSURE     1.0000000000000000E+00
     KEEP_ANGLES  T
     KEEP_SYMMETRY  T
     CONSTRAINT  Z
     PRESSURE_TOLERANCE     5.0000000000000000E+02
   &END CELL_OPT
 &END MOTION
 &FORCE_EVAL
   METHOD  QS
   STRESS_TENSOR  ANALYTICAL
   &DFT
     BASIS_SET_FILE_NAME BASIS_MOLOPT
     POTENTIAL_FILE_NAME GTH_POTENTIALS
     SURFACE_DIPOLE_CORRECTION  T
     SURF_DIP_DIR  Z
     &SCF
       MAX_SCF  100
       EPS_SCF     5.0000000000000004E-06
       &OT  T
         PRECONDITIONER  FULL_ALL
       &END OT
       &OUTER_SCF  T
         OPTIMIZER  NONE
         EPS_SCF     5.0000000000000004E-06
         MAX_SCF  4
       &END OUTER_SCF
       &PRINT
         &RESTART  OFF
           BACKUP_COPIES  1
           &EACH
             JUST_ENERGY  0
             QS_SCF  0
             MD  20
           &END EACH
         &END RESTART
       &END PRINT
     &END SCF
     &QS
       EPS_DEFAULT     1.0000000000000000E-14
       METHOD  GPW
     &END QS
     &MGRID
       NGRIDS  5
       CUTOFF     1.2000000000000000E+03
     &END MGRID
     &XC
       DENSITY_CUTOFF     1.0000000000000000E-10
       GRADIENT_CUTOFF     1.0000000000000000E-10
       TAU_CUTOFF     1.0000000000000000E-10
       &XC_FUNCTIONAL  NO_SHORTCUT
         &PBE  T
         &END PBE
       &END XC_FUNCTIONAL
       &VDW_POTENTIAL
         POTENTIAL_TYPE  PAIR_POTENTIAL
         &PAIR_POTENTIAL
           R_CUTOFF     1.0000000000000005E+01
           TYPE  DFTD3
           PARAMETER_FILE_NAME dftd3.dat
           REFERENCE_FUNCTIONAL PBE
           EPS_CN     9.9999999999999995E-07
           CALCULATE_C9_TERM  T
           REFERENCE_C9_TERM  T
           LONG_RANGE_CORRECTION  F
           VERBOSE_OUTPUT  F
         &END PAIR_POTENTIAL
       &END VDW_POTENTIAL
     &END XC
   &END DFT
   &SUBSYS
     &CELL
       A     1.3027291990574716E+01    0.0000000000000000E+00    0.0000000000000000E+00
       B    -6.4436237944237353E+00    1.1160683796801919E+01    0.0000000000000000E+00
       C     0.0000000000000000E+00    0.0000000000000000E+00    3.2000000000000000E+01
       MULTIPLE_UNIT_CELL  1 1 1
       &CELL_REF
         A     1.2982353780853531E+01    0.0000000000000000E+00    0.0000000000000000E+00
         B    -6.4911768904267628E+00    1.1243048175136114E+01    0.0000000000000000E+00
         C     0.0000000000000000E+00    0.0000000000000000E+00    3.2000000000000000E+01
         MULTIPLE_UNIT_CELL  1 1 1
       &END CELL_REF
     &END CELL
     &COORD
N    1.9958321808519081E-01    1.0949459984930236E-01   -1.5168439646773418E-01
Ga    2.1726452997851117E-01    1.9782450228803279E+00    5.1279922465784122E-01
N    2.3694171450654194E-01    1.9933713349802724E+00    2.4357671816694397E+00
Ga    2.2132822219133197E-01    1.2774492942241389E-01    3.1484380332064963E+00
N    2.2675877776773756E-01    1.3076991738356217E-01    5.0787563798122761E+00
Ga    2.4324913854657645E-01    1.9994657667516027E+00    5.7727224392759027E+00
N    2.4969922888533300E-01    2.0084601740535519E+00    7.7075092268117356E+00
Ga    2.3621030125423043E-01    1.3837397992967965E-01    8.3865493200907455E+00
N    2.2969395069722401E-01    1.3026671701187253E-01    1.0319610929820355E+01
Ga    2.4295989275084429E-01    1.9909235226719320E+00    1.1016374588470981E+01
N    2.5591427625541052E-01    1.9969176732541929E+00    1.2951648292934763E+01
Ga    2.0710739322910371E-01    1.2576598985953458E-01    1.3629482546630690E+01
N   -3.5017365651829208E-01   -1.9770962356161040E-01    1.5369431227421686E+01
Ga   -1.0450492369222333E+00    9.2983852133972211E-01    1.6764746116089270E+01
N    2.8734876212819654E-01    1.3694542325845546E-01    1.8032101743129342E+01
N   -1.4113090663906978E+00    2.8999507903306529E+00   -1.5211544940802582E-01
Ga   -1.3936169915683116E+00    4.7685406563591366E+00    5.1417113430620687E-01
N   -1.3745116561015147E+00    4.7852816181237916E+00    2.4373108766900780E+00
Ga   -1.3874336390853936E+00    2.9187116109191820E+00    3.1449183279372463E+00
N   -1.3826564941245698E+00    2.9209641367348436E+00    5.0740973032028940E+00
Ga   -1.3666870130951225E+00    4.7870017079462759E+00    5.7704067328600530E+00
N   -1.3594428745668157E+00    4.7964657132773088E+00    7.7060507255667714E+00
Ga   -1.3779420490939507E+00    2.9304269268409686E+00    8.3959434729423830E+00
N   -1.3790036639704513E+00    2.9257102324521060E+00    1.0332786934607405E+01
Ga   -1.3673613964183609E+00    4.7910923505942868E+00    1.1026481346382518E+01
N   -1.3573804987065683E+00    4.8061656879529666E+00    1.2967410744866740E+01
Ga   -1.3609314509981978E+00    2.9318156335389016E+00    1.3628518604075717E+01
N   -1.8943870741272448E+00    2.4774336350810828E+00    1.5442500921031611E+01
Ga   -2.9086996894417463E+00    4.2165163516492363E+00    1.6840304865459220E+01
N   -1.4210322202884125E+00    2.9083065343483132E+00    1.6730101598902429E+01
N   -3.0222054025075376E+00    5.6898536112027420E+00   -1.4885815911199818E-01
Ga   -3.0045715307071310E+00    7.5586173710974922E+00    5.1526844322957976E-01
N   -2.9847662638557959E+00    7.5744723669981617E+00    2.4383021470741273E+00
Ga   -2.9994706820812489E+00    5.7090238861883957E+00    3.1506284557152773E+00
N   -2.9950299895206935E+00    5.7118446263501097E+00    5.0801122909934717E+00
Ga   -2.9784182243047157E+00    7.5809722009256015E+00    5.7719572672782196E+00
N   -2.9701890887515812E+00    7.5879318100363413E+00    7.7078700302984684E+00
Ga   -2.9856880494228939E+00    5.7203675400029699E+00    8.3909030001065616E+00
N   -2.9889723692557060E+00    5.7144540516039877E+00    1.0328723148537444E+01
Ga   -2.9751089490366196E+00    7.5769314572649051E+00    1.1029178619671210E+01
N   -2.9611947470823843E+00    7.5835391465385591E+00    1.2969630928657580E+01
Ga   -2.9900896874287080E+00    5.7168347625737068E+00    1.3671002017267321E+01
N   -3.4819649406573814E+00    5.4234626573589804E+00    1.5446877311923815E+01
Ga   -4.2402795981234087E+00    6.5118982755581092E+00    1.6844700709103254E+01
N   -2.9122727688516346E+00    5.7423435921255983E+00    1.8116109772639046E+01
N   -4.6329379230482486E+00    8.4796836634074477E+00   -1.5204650034471953E-01
Ga   -4.6155196495876600E+00    1.0348774496549723E+01    5.1156366753321547E-01
N   -4.5967113260064973E+00    1.0366160644736665E+01    2.4346536793731524E+00
Ga   -4.6098040702014274E+00    8.5010591971621068E+00    3.1451641295238413E+00
N   -4.6045285810358410E+00    8.5030559719377212E+00    5.0745025685731715E+00
Ga   -4.5885841176118660E+00    1.0367969210389129E+01    5.7724057993999986E+00
N   -4.5791255180466344E+00    1.0375129157544452E+01    7.7068083563197902E+00
Ga   -4.5975289146827532E+00    8.5087696374499320E+00    8.3970729253600744E+00
N   -4.5979343818299379E+00    8.5037196893032370E+00    1.0334708087967188E+01
Ga   -4.5931588076750565E+00    1.0371210121486236E+01    1.1020506310554667E+01
N   -4.5868595274181878E+00    1.0387297399723856E+01    1.2954908611322516E+01
Ga   -4.5868311123180305E+00    8.5216735620726922E+00    1.3630226677251217E+01
N   -5.2382659124388598E+00    8.2812730404381103E+00    1.5448611582516621E+01
Ga   -6.1529390687927217E+00    9.7657931323490850E+00    1.6737565490938408E+01
N   -4.6166780676155446E+00    8.4495392709623829E+00    1.6738357901238391E+01
N    3.4571635123794064E+00    1.0990733070788215E-01   -1.5139101840337008E-01
Ga    3.4732217948435125E+00    1.9777760586528521E+00    5.1603880525290591E-01
N    3.4930040698549765E+00    1.9937291623414315E+00    2.4389081615488002E+00
Ga    3.4784087256126068E+00    1.2851986179798500E-01    3.1511322228252090E+00
N    3.4838403931909743E+00    1.3044852811523577E-01    5.0814509571969015E+00
Ga    3.4989755742978681E+00    1.9976210361745856E+00    5.7763735442651098E+00
N    3.5043677891383282E+00    2.0041252238885705E+00    7.7158660268004109E+00
Ga    3.4916722629513051E+00    1.3684959696017271E-01    8.4074574927169827E+00
N    3.4878431034513064E+00    1.3345829026894862E-01    1.0347516064173844E+01
Ga    3.5028298180978608E+00    2.0000377877522322E+00    1.1027890587251528E+01
N    3.5197023418408317E+00    2.0133524113879635E+00    1.2976370013076652E+01
Ga    3.4760134625611112E+00    1.6099158923128007E-01    1.3672102661272900E+01
N    2.9081592180665190E+00   -1.5177403837443718E-01    1.5531269013425320E+01
Ga    1.8092825000578170E+00    1.0094995366615012E+00    1.7498949105097068E+01
N    3.4694150364842233E+00    1.9878117879172455E-01    1.6871702692612502E+01
N    1.8462481249759088E+00    2.9000934430254706E+00   -1.5205956333622056E-01
Ga    1.8624545498556941E+00    4.7679998845506057E+00    5.1601797991067466E-01
N    1.8817058410342860E+00    4.7845056691729981E+00    2.4386381931849193E+00
Ga    1.8682965279432573E+00    2.9185866786474137E+00    3.1495035060920640E+00
N    1.8727893526344737E+00    2.9212646811268752E+00    5.0798339798672982E+00
Ga    1.8888031194626875E+00    4.7873895843608656E+00    5.7777189558257867E+00
N    1.8931884779585604E+00    4.7950581192351631E+00    7.7154830730473387E+00
Ga    1.8783381817649469E+00    2.9292704220424950E+00    8.4054016468736474E+00
N    1.8762658264032077E+00    2.9216998131401231E+00    1.0345058620525785E+01
Ga    1.8845088640896805E+00    4.7837598403655379E+00    1.1043449483814904E+01
N    1.8864170310564072E+00    4.7843973250260117E+00    1.2992326620372440E+01
Ga    1.8893522221895049E+00    2.9046878469770090E+00    1.3665747155741267E+01
N    1.3467468956644120E+00    2.5498224505312614E+00    1.5521424123256821E+01
Ga    2.0656026441644557E-01    3.8231812089666519E+00    1.6444325306972253E+01
N    1.9320966631271093E+00    2.8486119247827828E+00    1.6865605458214475E+01
N    2.3516081605703681E-01    5.6899824846500220E+00   -1.5047690202838596E-01
Ga    2.5151319937371458E-01    7.5581374735290963E+00    5.1622362950389566E-01
N    2.7125379479794415E-01    7.5743123255146756E+00    2.4390714383043455E+00
Ga    2.5763521975599402E-01    5.7092815893353235E+00    3.1518645207162441E+00
N    2.6273697727118162E-01    5.7117388872987451E+00    5.0822311922353247E+00
Ga    2.7745772682989228E-01    7.5786351794526325E+00    5.7796117754703342E+00
N    2.8396434316142649E-01    7.5864913260200897E+00    7.7184436788472564E+00
Ga    2.6780058065909595E-01    5.7191878041212920E+00    8.4064161952437413E+00
N    2.6707743141128004E-01    5.7173918793618084E+00    1.0347890557943110E+01
Ga    2.8859498581274717E-01    7.5847002082322765E+00    1.1031624402827573E+01
N    3.1080312303133217E-01    7.6003856645014158E+00    1.2979369925849166E+01
Ga    2.6839814976313403E-01    5.7453717193597695E+00    1.3670842903111305E+01
N   -3.1474008328482572E-01    5.4550402396433348E+00    1.5521321605406262E+01
Ga   -1.3939904640747387E+00    6.6095389804477032E+00    1.7550960452020245E+01
N    2.4185792698406028E-01    5.7922872614976857E+00    1.6858419953233003E+01
N   -1.3759801804605312E+00    8.4801677645905684E+00   -1.5091450377263657E-01
Ga   -1.3594498147953642E+00    1.0348366895683062E+01    5.1613614935283270E-01
N   -1.3401587767566983E+00    1.0365123077183222E+01    2.4390217740165738E+00
Ga   -1.3526662744502653E+00    8.4996964621695383E+00    3.1510930942718032E+00
N   -1.3479395355120747E+00    8.5021676106132027E+00    5.0814009528594761E+00
Ga   -1.3329211529890308E+00    1.0368745584520420E+01    5.7777459772545212E+00
N   -1.3275024467963719E+00    1.0374363670852341E+01    7.7159866068592846E+00
Ga   -1.3425280261417118E+00    8.5089725128390281E+00    8.4073755256626121E+00
N   -1.3412151975216522E+00    8.5044187518311070E+00    1.0350013426285074E+01
Ga   -1.3367197338152967E+00    1.0367759641082145E+01    1.1047649270510705E+01
N   -1.3369051709085331E+00    1.0373180328128823E+01    1.2997552708255592E+01
Ga   -1.3162395987975757E+00    8.4940429314918298E+00    1.3669772850666856E+01
N   -1.8487748111252300E+00    8.1195761303393290E+00    1.5523771074644516E+01
Ga   -3.0013126325398032E+00    9.3852467110828055E+00    1.6453854074480017E+01
N   -1.2707364199204163E+00    8.4289916578333006E+00    1.6855513029777576E+01
N    6.7125270641839654E+00    1.0899035676543160E-01   -1.5181263239264767E-01
Ga    6.7300366891033390E+00    1.9772954065942958E+00    5.1368893739643373E-01
N    6.7492140792331599E+00    1.9938124570034133E+00    2.4362571604292360E+00
Ga    6.7366030731221871E+00    1.2868942098572975E-01    3.1493041747331696E+00
N    6.7388079054383150E+00    1.3062747227688570E-01    5.0792873721229954E+00
Ga    6.7546672844144648E+00    1.9966358931683330E+00    5.7753389399720669E+00
N    6.7562276699215662E+00    2.0013029125225712E+00    7.7129252366150309E+00
Ga    6.7428121959442038E+00    1.3598038450304012E-01    8.4128887856441459E+00
N    6.7382959690936941E+00    1.3304224641236484E-01    1.0357670902718622E+01
Ga    6.7652282609641023E+00    2.0018249327795332E+00    1.1035649652811445E+01
N    6.7845792980647266E+00    2.0121085623079833E+00    1.2987319055153282E+01
Ga    6.7624060124515051E+00    1.5016955962535064E-01    1.3658356070585397E+01
N    6.1923943258550178E+00   -1.7608409447841494E-01    1.5495589902472785E+01
Ga    5.1420305674368940E+00    1.0697830579396981E+00    1.6599698267374620E+01
N    6.8413485217333490E+00    1.6840709416448185E-01    1.7061152341205304E+01
N    5.1020473348070547E+00    2.8995149895541523E+00   -1.5030245234059034E-01
Ga    5.1187944975526145E+00    4.7683932978969112E+00    5.1266189952858332E-01
N    5.1380540031782500E+00    4.7844779046226487E+00    2.4352130808331673E+00
Ga    5.1250938678912181E+00    2.9193182126628852E+00    3.1495442438525671E+00
N    5.1284149480815504E+00    2.9203077212625206E+00    5.0801087486275520E+00
Ga    5.1427113173360004E+00    4.7872617369409118E+00    5.7749652908043902E+00
N    5.1448479263095690E+00    4.7925723572710517E+00    7.7121470323667287E+00
Ga    5.1337591128426592E+00    2.9279825321856014E+00    8.4083934315168065E+00
N    5.1364654068508759E+00    2.9250744215118805E+00    1.0352768704172460E+01
Ga    5.1525371455035049E+00    4.7935586850463929E+00    1.1034018391708708E+01
N    5.1686774378294036E+00    4.8107761747986082E+00    1.2985132396825746E+01
Ga    5.1756426524010930E+00    2.9494335442066872E+00    1.3649061861362496E+01
N    4.6204721238065769E+00    2.6327691955522794E+00    1.5475724261899707E+01
Ga    3.5360616835731244E+00    3.8349516175741329E+00    1.6593860148914086E+01
N    5.2347181460360002E+00    2.9547309928454095E+00    1.7068055898497771E+01
N    3.4906969385869449E+00    5.6895064032760718E+00   -1.5164212974450506E-01
Ga    3.5074189404624470E+00    7.5583033892131164E+00    5.1334524314213847E-01
N    3.5267410641022727E+00    7.5750398544746664E+00    2.4361478142253081E+00
Ga    3.5142753037334642E+00    5.7094542785203268E+00    3.1491413969480595E+00
N    3.5169296460527737E+00    5.7101453119914085E+00    5.0791198351973161E+00
Ga    3.5317292925723001E+00    7.5762076544042500E+00    5.7739576497669391E+00
N    3.5325710659034484E+00    7.5787138821910611E+00    7.7099084886152953E+00
Ga    3.5209783566415069E+00    5.7151681729646402E+00    8.4113663563767531E+00
N    3.5179192886625557E+00    5.7076526941973587E+00    1.0355330474050554E+01
Ga    3.5495135088910690E+00    7.5784824097544625E+00    1.1031401030457181E+01
N    3.5699015090401347E+00    7.5828193592948105E+00    1.2981378745550741E+01
Ga    3.5428475875013192E+00    5.7234725924296530E+00    1.3653660231226665E+01
N    2.9664916374584149E+00    5.3949145446835640E+00    1.5486589937159025E+01
Ga    1.9197040073413534E+00    6.6517922997208982E+00    1.6574545394965927E+01
N    3.6108692650660612E+00    5.7320269243301691E+00    1.7058150607312907E+01
N    1.8795470557433840E+00    8.4793050019316620E+00   -1.5307908023827610E-01
Ga    1.8969591193518489E+00    1.0347529950647317E+01    5.1233912355161459E-01
N    1.9167826728141790E+00    1.0364028662522825E+01    2.4353325732971816E+00
Ga    1.9026733375752112E+00    8.4995454237827222E+00    3.1509455251097758E+00
N    1.9059431835641680E+00    8.5004967315661553E+00    5.0809496569485946E+00
Ga    1.9199497868126416E+00    1.0367172592601719E+01    5.7738056891860579E+00
N    1.9203517834887194E+00    1.0371644594544007E+01    7.7096285440315109E+00
Ga    1.9147060925587100E+00    8.5091527255187192E+00    8.4117955169449061E+00
N    1.9200996253769826E+00    8.5091887309951044E+00    1.0354469746979682E+01
Ga    1.9322267961881390E+00    1.0380811090252736E+01    1.1034761665699969E+01
N    1.9454443095778169E+00    1.0402160106047623E+01    1.2984611443956751E+01
Ga    1.9734470238416544E+00    8.5404255670204758E+00    1.3642413509501528E+01
N    1.4122538205819779E+00    8.2208682088309519E+00    1.5471236307772671E+01
Ga    3.2967286559844750E-01    9.4286299786319265E+00    1.6577322808895019E+01
N    1.9971040012069059E+00    8.5253977789208033E+00    1.7101015311033059E+01
N    9.9690677827299918E+00    1.0905063851441212E-01   -1.5263327257038437E-01
Ga    9.9870810684266189E+00    1.9774054710428006E+00    5.1356561344265617E-01
N    1.0006595505876021E+01    1.9929705499996804E+00    2.4364491026629356E+00
Ga    9.9925815890437590E+00    1.2674190052211798E-01    3.1489684567756728E+00
N    9.9951377993829329E+00    1.2981072437523927E-01    5.0784867324196821E+00
Ga    1.0014033999022695E+01    2.0005527959089791E+00    5.7651546459980443E+00
N    1.0018771544425663E+01    2.0099247530085198E+00    7.6986006087887677E+00
Ga    9.9944495475435478E+00    1.4160616652311012E-01    8.3789648812505764E+00
N    9.9861218524472672E+00    1.3953747302670755E-01    1.0309835552863127E+01
Ga    1.0014255001339164E+01    1.9986316456964479E+00    1.1002289775292942E+01
N    1.0028598920079355E+01    2.0061837776619886E+00    1.2937341270507241E+01
Ga    1.0068192491964400E+01    1.6054506821030914E-01    1.3660708693306747E+01
N    9.5430827190085719E+00   -1.4741722600317916E-01    1.5527709550901774E+01
Ga    8.4413618797485501E+00    1.0868565294558785E+00    1.6704077329200203E+01
N    1.0180952592540457E+01    2.0098259342826572E-01    1.6895281675440174E+01
N    8.3586967761589257E+00    2.8995309834267817E+00   -1.5142310354608562E-01
Ga    8.3760126324021158E+00    4.7680087802693860E+00    5.1431079213877551E-01
N    8.3958916767190637E+00    4.7847729306491162E+00    2.4369444197048171E+00
Ga    8.3809936189905123E+00    2.9185048285297328E+00    3.1468562864219862E+00
N    8.3838180516930816E+00    2.9205904515647636E+00    5.0761560307085141E+00
Ga    8.4017802705349727E+00    4.7877893642247953E+00    5.7688557964632219E+00
N    8.4075772537981273E+00    4.7950367354357768E+00    7.7036853195052295E+00
Ga    8.3891375005959183E+00    2.9259557159962295E+00    8.3881181870651993E+00
N    8.3850440469278720E+00    2.9178392018453994E+00    1.0323909268140000E+01
Ga    8.4016637832525234E+00    4.7871069829377673E+00    1.0992182414971852E+01
N    8.3980298971345810E+00    4.7907461072794817E+00    1.2913889650628329E+01
Ga    8.4475975909708225E+00    2.9634887462438826E+00    1.3642766068197924E+01
N    7.9736792252237247E+00    2.6696917644984315E+00    1.5521684596013905E+01
Ga    6.8156969658075512E+00    3.8607097068987084E+00    1.6710246023488967E+01
N    8.5761642337842154E+00    3.0312589127489700E+00    1.6903599128332225E+01
N    6.7480194756130771E+00    5.6895437578453958E+00   -1.5131120619045127E-01
Ga    6.7649183421184356E+00    7.5584278863924048E+00    5.1384775486220602E-01
N    6.7840974370573086E+00    7.5749667708952906E+00    2.4366393637225290E+00
Ga    6.7697719733004380E+00    5.7082047486015011E+00    3.1473079055020912E+00
N    6.7734732441547774E+00    5.7096027407996246E+00    5.0768210084423027E+00
Ga    6.7940691486126710E+00    7.5789612790087961E+00    5.7654040241587206E+00
N    6.8015843076418259E+00    7.5839488391672116E+00    7.6986623785532835E+00
Ga    6.7780118973442613E+00    5.7177221639120761E+00    8.3879487778224924E+00
N    6.7724274223858485E+00    5.7121652304250228E+00    1.0324334135157809E+01
Ga    6.7941184811548379E+00    7.5791577576506493E+00    1.1002841711312422E+01
N    6.8039624129425826E+00    7.5933255231158476E+00    1.2938557812613455E+01
Ga    6.8366786756756071E+00    5.7476670098537461E+00    1.3642331174021527E+01
N    6.3511168180273669E+00    5.4654717204286127E+00    1.5521107819519184E+01
Ga    5.2131070840782776E+00    6.6479898804955786E+00    1.6698581184824199E+01
N    6.9758418752213975E+00    5.7967926632748119E+00    1.6899620345773265E+01
N    5.1366484203071927E+00    8.4790181657131445E+00   -1.5315536803794186E-01
Ga    5.1537688550590826E+00    1.0347917141707050E+01    5.1003474020581030E-01
N    5.1733187575988522E+00    1.0364927527064131E+01    2.4329676779680076E+00
Ga    5.1585094324248866E+00    8.5005686544746943E+00    3.1480603170993655E+00
N    5.1623344587547413E+00    8.5009088341644894E+00    5.0777244388902076E+00
Ga    5.1799405836694499E+00    1.0368572531610839E+01    5.7708947458843562E+00
N    5.1837273419319754E+00    1.0373900177054898E+01    7.7036333944221855E+00
Ga    5.1692072461367546E+00    8.4991990714271051E+00    8.3786164460750765E+00
N    5.1675983930910325E+00    8.4868674950622545E+00    1.0309482742765875E+01
Ga    5.1665621048720922E+00    1.0360050795091542E+01    1.0967391848519226E+01
N    5.1559443026373462E+00    1.0356098299020669E+01    1.2873614486913283E+01
Ga    5.2214866061115357E+00    8.5495150822630599E+00    1.3657202832062382E+01
N    4.6991164969094941E+00    8.2290619463719938E+00    1.5523585509404194E+01
Ga    3.5772801767739573E+00    9.4329251633283011E+00    1.6751114605691914E+01
N    5.3276518098017789E+00    8.5932391548772813E+00    1.6889663212516144E+01
H    1.9994992254315466E-01    1.0875056099972957E-01   -1.1783206457089166E+00
H   -1.4124694806384723E+00    2.8999299696563479E+00   -1.1790967649166177E+00
H   -3.0235606595280458E+00    5.6882359467731849E+00   -1.1756132256572194E+00
H   -4.6330198423608557E+00    8.4783585894624061E+00   -1.1790445205130577E+00
H    3.4560070565670240E+00    1.0865747957902304E-01   -1.1782708335328300E+00
H    1.8453764638740366E+00    2.8989629481478403E+00   -1.1790534937045587E+00
H    2.3272379308125329E-01    5.6883455060751436E+00   -1.1774251241111711E+00
H   -1.3780559257536487E+00    8.4784266887826636E+00   -1.1779828734677407E+00
H    6.7092525358600383E+00    1.0844549830126474E-01   -1.1787729602426753E+00
H    5.1007462935379762E+00    2.8983336101080526E+00   -1.1771506943130645E+00
H    3.4894488780795045E+00    5.6856151111270465E+00   -1.1785816340443891E+00
H    1.8763400551559772E+00    8.4773035646085813E+00   -1.1801226449236479E+00
H    9.9663245727066254E+00    1.0837095121028187E-01   -1.1794359434863209E+00
H    8.3557656004444425E+00    2.8989872584507235E+00   -1.1783716532977158E+00
H    6.7464203420611613E+00    5.6861750497366979E+00   -1.1782021831808782E+00
H    5.1353110827930193E+00    8.4767034435805879E+00   -1.1800923520225721E+00
     &END COORD
     &KIND H
       BASIS_SET DZVP-MOLOPT-SR-GTH-q1
       POTENTIAL GTH-PBE-q1
       &POTENTIAL
1
0.2000000000000000E+00 2 -0.4178900440000000E+01  0.7244633100000000E+00
0
       &END POTENTIAL
     &END KIND
     &KIND N
       BASIS_SET DZVP-MOLOPT-SR-GTH
       POTENTIAL GTH-PBE-q5
       &POTENTIAL
2 3
0.2837905100000000E+00 2 -0.1241522559000000E+02  0.1868095920000000E+01
2
0.2554050000000000E+00 1  0.1363026257000000E+02
0.2454945300000000E+00 0
       &END POTENTIAL
     &END KIND
     &KIND Ga
       BASIS_SET DZVP-MOLOPT-SR-GTH
       POTENTIAL GTH-PBE-q13
       &POTENTIAL
2 1 10
0.4900000000000000E+00 0
3
0.4167772300000000E+00 3  0.1047568975000000E+02 -0.4921768140000000E+01  0.8707055900000000E+00
0.7770178090000000E+01 -0.2248152160000000E+01
0.1784415450000000E+01
0.5696265200000000E+00 2  0.1777985340000000E+01  0.1958597600000000E+00
-0.2317443900000000E+00
0.2381265000000000E+00 1 -0.1624868022000000E+02
       &END POTENTIAL
     &END KIND
     &TOPOLOGY
       NUMBER_OF_ATOMS  256
       MULTIPLE_UNIT_CELL  1 1 1
     &END TOPOLOGY
   &END SUBSYS
 &END FORCE_EVAL
