 # Version information for this restart file 
 # current date 2019-06-10 11:03:46.341
 # current working dir /lustre03/project/6037349/rzk/GaN-carbene/444-addat/00-Surface/RKS
 # Program compiled at                              Sun Apr  7 00:48:11 EDT 2019
 # Program compiled on                          beluga2.int.ets1.calculquebec.ca
 # Program compiled for                        Beluga-Linux-x86-64-intel-openmpi
 # Source code revision number                                         svn:18619
 &GLOBAL
   PRINT_LEVEL  MEDIUM
   PROJECT_NAME TEST
   RUN_TYPE  CELL_OPT
 &END GLOBAL
 &MOTION
   &CELL_OPT
     MAX_ITER  300
     STEP_START_VAL  13
     EXTERNAL_PRESSURE     1.0000000000000000E+00
     KEEP_ANGLES  T
     KEEP_SYMMETRY  T
     CONSTRAINT  Z
     PRESSURE_TOLERANCE     5.0000000000000000E+02
   &END CELL_OPT
 &END MOTION
 &FORCE_EVAL
   METHOD  QS
   STRESS_TENSOR  ANALYTICAL
   &DFT
     BASIS_SET_FILE_NAME BASIS_MOLOPT
     POTENTIAL_FILE_NAME GTH_POTENTIALS
     SURFACE_DIPOLE_CORRECTION  T
     SURF_DIP_DIR  Z
     &SCF
       MAX_SCF  100
       EPS_SCF     5.0000000000000004E-06
       &OT  T
         PRECONDITIONER  FULL_ALL
       &END OT
       &OUTER_SCF  T
         OPTIMIZER  NONE
         EPS_SCF     5.0000000000000004E-06
         MAX_SCF  4
       &END OUTER_SCF
       &PRINT
         &RESTART  OFF
           BACKUP_COPIES  1
           &EACH
             JUST_ENERGY  0
             QS_SCF  0
             MD  20
           &END EACH
         &END RESTART
       &END PRINT
     &END SCF
     &QS
       EPS_DEFAULT     1.0000000000000000E-14
       METHOD  GPW
     &END QS
     &MGRID
       NGRIDS  5
       CUTOFF     1.2000000000000000E+03
     &END MGRID
     &XC
       DENSITY_CUTOFF     1.0000000000000000E-10
       GRADIENT_CUTOFF     1.0000000000000000E-10
       TAU_CUTOFF     1.0000000000000000E-10
       &XC_FUNCTIONAL  NO_SHORTCUT
         &PBE  T
         &END PBE
       &END XC_FUNCTIONAL
       &VDW_POTENTIAL
         POTENTIAL_TYPE  PAIR_POTENTIAL
         &PAIR_POTENTIAL
           R_CUTOFF     1.0000000000000004E+01
           TYPE  DFTD3
           PARAMETER_FILE_NAME dftd3.dat
           REFERENCE_FUNCTIONAL PBE
           EPS_CN     9.9999999999999995E-07
           CALCULATE_C9_TERM  T
           REFERENCE_C9_TERM  T
           LONG_RANGE_CORRECTION  F
           VERBOSE_OUTPUT  F
         &END PAIR_POTENTIAL
       &END VDW_POTENTIAL
     &END XC
   &END DFT
   &SUBSYS
     &CELL
       A     1.2868248649759856E+01    0.0000000000000000E+00    0.0000000000000000E+00
       B    -6.4418090740115259E+00    1.1157540608846160E+01    0.0000000000000000E+00
       C     0.0000000000000000E+00    0.0000000000000000E+00    3.2000000000000000E+01
       MULTIPLE_UNIT_CELL  1 1 1
       &CELL_REF
         A     1.2982353780853531E+01    0.0000000000000000E+00    0.0000000000000000E+00
         B    -6.4911768904267628E+00    1.1243048175136114E+01    0.0000000000000000E+00
         C     0.0000000000000000E+00    0.0000000000000000E+00    3.2000000000000000E+01
         MULTIPLE_UNIT_CELL  1 1 1
       &END CELL_REF
     &END CELL
     &COORD
N    4.9770448872982200E-05   -1.3425677952041946E-04   -5.2013548388176366E-02
Ga   -1.1327970440176457E-03    1.8595918021990463E+00    6.1476374357891106E-01
N   -1.2760093458487006E-03    1.8594567125672465E+00    2.5256828937822600E+00
Ga   -2.0296156092619233E-04   -4.5914399608741157E-04    3.2326082882267224E+00
N    2.5057262227235475E-04    1.4607134654461568E-04    5.1426587926459089E+00
Ga   -8.3665716881877730E-04    1.8598967952409413E+00    5.8157916078895209E+00
N   -6.3547469473333013E-04    1.8589817040875596E+00    7.7107225993095811E+00
Ga    7.0817800963932586E-04   -5.7046925702223779E-04    8.3558521609318746E+00
N    5.4972504737229233E-03   -1.4823251164283791E-03    1.0248354723547669E+01
Ga    8.3476647228249538E-03    1.8585418104617248E+00    1.0926987128295185E+01
N    4.0062638031141518E-02    1.8519693514536915E+00    1.2849181799132804E+01
Ga    3.8819167089540620E-02   -1.2185930642183439E-02    1.3541734252106711E+01
N    1.2150935066623837E-02   -4.2140657056512392E-03    1.5453572175285641E+01
Ga   -6.3225820311240438E-02    1.8662529448656426E+00    1.6534392986205745E+01
N    1.4991035378628705E+00    9.2634965446640316E-01    1.7283725814931000E+01
N   -1.6103989306755833E+00    2.7892357688953830E+00   -5.2046582538523858E-02
Ga   -1.6115655552425787E+00    4.6489508977932994E+00    6.1480506448466998E-01
N   -1.6117456282136347E+00    4.6488453783026378E+00    2.5257247897325228E+00
Ga   -1.6106407267464360E+00    2.7889330348207699E+00    3.2326157960895809E+00
N   -1.6101694834029268E+00    2.7895569401624316E+00    5.1426718123346973E+00
Ga   -1.6113365839290210E+00    4.6492631590810980E+00    5.8158766766989478E+00
N   -1.6113796270058540E+00    4.6483630797481137E+00    7.7110671245117457E+00
Ga   -1.6096577636900602E+00    2.7881265707200580E+00    8.3555304807896054E+00
N   -1.6039962989715182E+00    2.7864511386940762E+00    1.0248213808057315E+01
Ga   -1.6048410774245965E+00    4.6468562246593237E+00    1.0922150242594681E+01
N   -1.5796435377664322E+00    4.6391594414393218E+00    1.2842592098610016E+01
Ga   -1.5646304054277671E+00    2.7774150227206595E+00    1.3547775812245071E+01
N   -1.5442744469232992E+00    2.8180972808224798E+00    1.5464143190743679E+01
Ga   -1.6596030355297025E+00    4.6559907840755281E+00    1.6492222750190724E+01
N   -7.3062181936834086E-02    3.7376141361239634E+00    1.7302873268407669E+01
N   -3.2208613423098438E+00    5.5786154069409317E+00   -5.2033518788803447E-02
Ga   -3.2220230927301921E+00    7.4383518342425559E+00    6.1479288857162095E-01
N   -3.2221949073390412E+00    7.4382262757605497E+00    2.5256697281854334E+00
Ga   -3.2211111806155781E+00    5.5783201173887731E+00    3.2326516610810048E+00
N   -3.2206714025810954E+00    5.5789436482654500E+00    5.1427473800031720E+00
Ga   -3.2217128705556375E+00    7.4387492164978690E+00    5.8158716672172854E+00
N   -3.2215038976880659E+00    7.4379467752014357E+00    7.7108491890632997E+00
Ga   -3.2205369970902979E+00    5.5783488621838995E+00    8.3555152402897459E+00
N   -3.2162617127681496E+00    5.5774180634402679E+00    1.0248076033259121E+01
Ga   -3.2129101347552629E+00    7.4368955107801886E+00    1.0927600791640007E+01
N   -3.1817121949326324E+00    7.4291540314135691E+00    1.2850764025733183E+01
Ga   -3.1839319750183850E+00    5.5637008566322361E+00    1.3541595334046411E+01
N   -3.2099949846254261E+00    5.5725108493620032E+00    1.5456841755951965E+01
Ga   -3.2821681542942671E+00    7.4433927585924495E+00    1.6537464677506673E+01
N   -1.7128211776887692E+00    6.5157753101064166E+00    1.7285463540604326E+01
N   -4.8313223272327379E+00    8.3680250921213712E+00   -5.2078104827289133E-02
Ga   -4.8324602474350868E+00    1.0227713864459616E+01    6.1479285824974417E-01
N   -4.8326524409959006E+00    1.0227617564831931E+01    2.5256897524608681E+00
Ga   -4.8315506048673926E+00    8.3676946069040241E+00    3.2326027443277447E+00
N   -4.8310453440147532E+00    8.3683200366138930E+00    5.1426409694630868E+00
Ga   -4.8322594074021019E+00    1.0228027606272471E+01    5.8157487073831566E+00
N   -4.8322614901732521E+00    1.0227036030899551E+01    7.7108586802298236E+00
Ga   -4.8304316268246064E+00    8.3670792910510148E+00    8.3558140225302928E+00
N   -4.8246579674621470E+00    8.3653062926996586E+00    1.0248516195318839E+01
Ga   -4.8251598705877363E+00    1.0225372640790997E+01    1.0923173726256246E+01
N   -4.7993257862669259E+00    1.0216656555271022E+01    1.2844173229133807E+01
Ga   -4.7864902158381657E+00    8.3546405902271541E+00    1.3550406154013171E+01
N   -4.7665261108533574E+00    8.3900429709468707E+00    1.5466313058369044E+01
Ga   -4.8915248743535233E+00    1.0223915741000623E+01    1.6495741674775090E+01
N   -3.2984056416371228E+00    9.3171146059632708E+00    1.7302855491876461E+01
N    3.2171059057046065E+00   -1.3849931555243153E-04   -5.2068071840317622E-02
Ga    3.2159596358741243E+00    1.8595669921700930E+00    6.1482762887040188E-01
N    3.2157830340308098E+00    1.8594560905294770E+00    2.5257572843017040E+00
Ga    3.2168208579624631E+00   -4.7374465358785025E-04    3.2326379058013948E+00
N    3.2172769353300192E+00    1.0565998231278093E-04    5.1426898102335086E+00
Ga    3.2161630274482302E+00    1.8598468042601730E+00    5.8155687516809591E+00
N    3.2164360433916181E+00    1.8589553706714805E+00    7.7103080519120546E+00
Ga    3.2177146228189288E+00   -5.6965366074836481E-04    8.3552225047859796E+00
N    3.2229522761737517E+00   -1.2196930008552612E-03    1.0247689682568469E+01
Ga    3.2243340810985468E+00    1.8573090664731042E+00    1.0928038677074206E+01
N    3.2548890394236754E+00    1.8490125067223708E+00    1.2851813644273165E+01
Ga    3.2556787693407956E+00   -1.3564323078754593E-02    1.3549159421644251E+01
N    3.2346094956938134E+00   -3.3592888705638153E-02    1.5467345719975734E+01
Ga    3.1393793630127256E+00    1.8651818714342301E+00    1.6570235453549682E+01
N    4.7156356247833422E+00    9.5627811651450623E-01    1.7290286345688603E+01
N    1.6066632794020210E+00    2.7892522636004919E+00   -5.2079827795348692E-02
Ga    1.6054632145176064E+00    4.6489545614056977E+00    6.1483197871688455E-01
N    1.6053233148679280E+00    4.6488471617656684E+00    2.5257779718702205E+00
Ga    1.6063604462119643E+00    2.7889209408843350E+00    3.2326256283486350E+00
N    1.6068585240422197E+00    2.7895440846147075E+00    5.1426639741296425E+00
Ga    1.6056640505885735E+00    4.6492382147209659E+00    5.8155159095000446E+00
N    1.6056907494915735E+00    4.6485184105911221E+00    7.7104935036417892E+00
Ga    1.6076947861786739E+00    2.7884806582436839E+00    8.3548428301395212E+00
N    1.6142957155323683E+00    2.7875989836678210E+00    1.0247582225863843E+01
Ga    1.6116552128538508E+00    4.6469026297387268E+00    1.0922917223289092E+01
N    1.6367752493233445E+00    4.6403225328772102E+00    1.2845225515201887E+01
Ga    1.6542018474788853E+00    2.7807524206406371E+00    1.3554184910368312E+01
N    1.6865269346495362E+00    2.7946208206267422E+00    1.5474796265887617E+01
Ga    1.5498525525442222E+00    4.6632159485986593E+00    1.6513226152543652E+01
N    3.1329489615363992E+00    3.7490384087630559E+00    1.7306680799208007E+01
N   -3.7858094817328006E-03    5.5786342572451399E+00   -5.2038911362041938E-02
Ga   -4.9925199240026990E-03    7.4383104105687083E+00    6.1484114114078348E-01
N   -5.1115620988350851E-03    7.4382466251828161E+00    2.5257507041919198E+00
Ga   -4.1018790260166707E-03    5.5782877511016178E+00    3.2326351145039696E+00
N   -3.6585145404140029E-03    5.5789238469166689E+00    5.1426975313169274E+00
Ga   -4.8179499473387111E-03    7.4386729380157437E+00    5.8155794224477440E+00
N   -4.6222208096070114E-03    7.4379313573234391E+00    7.7103976627182256E+00
Ga   -3.1551991100639601E-03    5.5785139044673482E+00    8.3550796077836509E+00
N    1.8078287554167379E-03    5.5782587249083120E+00    1.0247566147966499E+01
Ga    3.5925625324237428E-03    7.4366663826534918E+00    1.0928564139033710E+01
N    3.4812342875423959E-02    7.4292481150223137E+00    1.2852763064891915E+01
Ga    3.4548852626743877E-02    5.5660042005798767E+00    1.3546642670919582E+01
N    1.5776626019292229E-02    5.5445560749087246E+00    1.5466054406709187E+01
Ga   -7.4619165924931924E-02    7.4530907351908695E+00    1.6568550439137752E+01
N    1.4967533645198379E+00    6.5330717958776594E+00    1.7287262167574049E+01
N   -1.6142489903316339E+00    8.3680119973848672E+00   -5.2057719493376821E-02
Ga   -1.6154236667325430E+00    1.0227746094134465E+01    6.1485001495759217E-01
N   -1.6155756802045693E+00    1.0227621332698932E+01    2.5257614439887797E+00
Ga   -1.6145456582756408E+00    8.3676653004045622E+00    3.2326228440365412E+00
N   -1.6140684252999540E+00    8.3683010258118546E+00    5.1426304821262301E+00
Ga   -1.6152474250905953E+00    1.0227917612080979E+01    5.8156794127548004E+00
N   -1.6152413963265311E+00    1.0227004860029865E+01    7.7106913216182971E+00
Ga   -1.6132712103245519E+00    8.3671521210073454E+00    8.3557910241258568E+00
N   -1.6069285961771154E+00    8.3660180538813567E+00    1.0248617161614781E+01
Ga   -1.6093377934557742E+00    1.0224994735801499E+01    1.0924925975346923E+01
N   -1.5840633858434376E+00    1.0216155119194571E+01    1.2847603819552969E+01
Ga   -1.5677400574929037E+00    8.3564773828204864E+00    1.3557352967367072E+01
N   -1.5369616532955150E+00    8.3683302377296904E+00    1.5476467702962331E+01
Ga   -1.6704808040621439E+00    1.0239168381796290E+01    1.6519461354500354E+01
N   -8.2370818487355280E-02    9.3379433595648216E+00    1.7305478764061508E+01
N    6.4341513411501543E+00   -1.9771370894472833E-04   -5.2028261980348878E-02
Ga    6.4329309865214848E+00    1.8595264481360614E+00    6.1490542771270507E-01
N    6.4326566524706932E+00    1.8593198993918769E+00    2.5258394273421305E+00
Ga    6.4337941254166431E+00   -5.0853711734527606E-04    3.2326912942702006E+00
N    6.4343043066166139E+00    1.0823342726261090E-04    5.1427350748948211E+00
Ga    6.4333832617041224E+00    1.8599598390651122E+00    5.8155290929304675E+00
N    6.4334687299335283E+00    1.8591944445644666E+00    7.7103442321752524E+00
Ga    6.4342424123498798E+00   -2.8402036930979055E-04    8.3552583772007853E+00
N    6.4384305416058343E+00   -5.7187901122097322E-04    1.0247724801041283E+01
Ga    6.4410153311306990E+00    1.8590030061809071E+00    1.0925750128462481E+01
N    6.4703195244051663E+00    1.8533523401270477E+00    1.2848481013752115E+01
Ga    6.4712932164041259E+00   -9.0078876389156348E-03    1.3540963238828249E+01
N    6.4479795376586928E+00    4.2256232886480963E-03    1.5456729970225942E+01
Ga    6.3663568911705815E+00    1.8633019990199213E+00    1.6535059469919922E+01
N    7.9376493449821197E+00    9.3855994910989970E-01    1.7287066182252218E+01
N    4.8236604371725278E+00    2.7892181090125154E+00   -5.2040757591347291E-02
Ga    4.8224733877793717E+00    4.6488962526557724E+00    6.1491783226658547E-01
N    4.8222114367871436E+00    4.6487426633610900E+00    2.5258509413961039E+00
Ga    4.8233674171583623E+00    2.7888621774843614E+00    3.2326717829545517E+00
N    4.8239187045316347E+00    2.7895337016576986E+00    5.1426656624422851E+00
Ga    4.8227849606634479E+00    4.6493109266560255E+00    5.8155549739241632E+00
N    4.8225422406901366E+00    4.6485511127348396E+00    7.7105840094807157E+00
Ga    4.8243889340812762E+00    2.7883501124519934E+00    8.3548704480666771E+00
N    4.8299230314757580E+00    2.7872138489488996E+00    1.0247362485326386E+01
Ga    4.8281236880158849E+00    4.6475254831314556E+00    1.0920641411215030E+01
N    4.8516112257858648E+00    4.6411976640583585E+00    1.2841438381681666E+01
Ga    4.8669943856574642E+00    2.7815812230362518E+00    1.3547777296624529E+01
N    4.8938400069151706E+00    2.8213905338767993E+00    1.5463264051009055E+01
Ga    4.7647629745137356E+00    4.6468100856825334E+00    1.6490930484456360E+01
N    6.3538979023946327E+00    3.7373507301040574E+00    1.7309936566062344E+01
N    3.2132165032562101E+00    5.5786025295928177E+00   -5.2033757166586717E-02
Ga    3.2120165029382570E+00    7.4382721587728469E+00    6.1487270258050752E-01
N    3.2117462884941412E+00    7.4381088801542363E+00    2.5258373412701123E+00
Ga    3.2129100107555013E+00    5.5782420565867596E+00    3.2326730458708477E+00
N    3.2134275925578297E+00    5.5788943187416189E+00    5.1426643403965189E+00
Ga    3.2124253173934552E+00    7.4387044946168137E+00    5.8155063049094347E+00
N    3.2125045393791005E+00    7.4380337016291822E+00    7.7103348351555745E+00
Ga    3.2134297478664622E+00    5.5785717307107046E+00    8.3552602320636939E+00
N    3.2177446992093555E+00    5.5788198434323180E+00    1.0247459211232179E+01
Ga    3.2208245613742936E+00    7.4386501995034600E+00    1.0925648500744275E+01
N    3.2511466011759516E+00    7.4343976208914375E+00    1.2848450334034840E+01
Ga    3.2509176828685060E+00    5.5720871456987027E+00    1.3540299980123525E+01
N    3.2273638676898813E+00    5.5833561421871885E+00    1.5452798016150577E+01
Ga    3.1443209389493290E+00    7.4417010373167107E+00    1.6535561020442856E+01
N    4.7099300651556355E+00    6.5060864537591323E+00    1.7288462010110397E+01
N    1.6027877431662456E+00    8.3680155571049593E+00   -5.2049410754585100E-02
Ga    1.6015384069140497E+00    1.0227678729826390E+01    6.1490143063963620E-01
N    1.6013195998318548E+00    1.0227513429684549E+01    2.5258732807956026E+00
Ga    1.6024545763786493E+00    8.3676140519334812E+00    3.2326670362770944E+00
N    1.6029896598846429E+00    8.3683068735147117E+00    5.1427009247245303E+00
Ga    1.6019023923237037E+00    1.0228067337711543E+01    5.8156093136118310E+00
N    1.6017110081152530E+00    1.0227337678785732E+01    7.7106676786846648E+00
Ga    1.6033589309666327E+00    8.3671675382507171E+00    8.3549637095677873E+00
N    1.6089845855925813E+00    8.3664364352078415E+00    1.0247633937153719E+01
Ga    1.6075277916166302E+00    1.0226580156092721E+01    1.0920973196154524E+01
N    1.6314252655210719E+00    1.0221657394710956E+01    1.2842074910791762E+01
Ga    1.6481179138076456E+00    8.3620769999987719E+00    1.3547203441202642E+01
N    1.6747473594556246E+00    8.4047482846412187E+00    1.5464428144039504E+01
Ga    1.5492594615387141E+00    1.0235069423737459E+01    1.6494003232801180E+01
N    3.1329017271165163E+00    9.3144493584897816E+00    1.7307639616642611E+01
N    9.6511935171062664E+00   -1.8098947095370355E-04   -5.1976273406533831E-02
Ga    9.6500515604025310E+00    1.8595660520688764E+00    6.1484293803132928E-01
N    9.6497612175021334E+00    1.8593281497573668E+00    2.5257553736933716E+00
Ga    9.6508852447756919E+00   -5.2569006965790313E-04    3.2326627290150460E+00
N    9.6513850377255217E+00    1.1694425479114600E-04    5.1427043319398456E+00
Ga    9.6504008571463711E+00    1.8600253696208997E+00    5.8155628576771825E+00
N    9.6503267245725777E+00    1.8592221606065038E+00    7.7103459978001183E+00
Ga    9.6518270985265655E+00   -7.8793914461639065E-05    8.3550412311172160E+00
N    9.6560074826121980E+00   -1.5286803385553715E-04    1.0247482301847549E+01
Ga    9.6576617280486587E+00    1.8587099333818071E+00    1.0927892567966380E+01
N    9.6858297806109803E+00    1.8523314230644341E+00    1.2851160846412787E+01
Ga    9.6879011031606250E+00   -8.8820038493449324E-03    1.3544847618254943E+01
N    9.6665310632084331E+00   -2.1418340313936024E-02    1.5463728205184854E+01
Ga    9.5736474230294792E+00    1.8838978758096845E+00    1.6560166524566238E+01
N    1.1148469307456283E+01    9.6641911392551993E-01    1.7275824240367211E+01
N    8.0407301488884269E+00    2.7892113240956902E+00   -5.2002328725549281E-02
Ga    8.0395788245888244E+00    4.6489458529606100E+00    6.1485186413847293E-01
N    8.0392901660650171E+00    4.6487433907862012E+00    2.5257779496138490E+00
Ga    8.0404480244187262E+00    2.7888793464240083E+00    3.2326430615172459E+00
N    8.0409823020173139E+00    2.7895249566890161E+00    5.1426074244141953E+00
Ga    8.0399270859039635E+00    4.6492706774198957E+00    5.8156963457050690E+00
N    8.0396672399907558E+00    4.6483434198901916E+00    7.7107266606564506E+00
Ga    8.0416820872253236E+00    2.7884665055317512E+00    8.3553707348896165E+00
N    8.0470772810363247E+00    2.7874328237177122E+00    1.0247922401074318E+01
Ga    8.0447726271725166E+00    4.6469723543010586E+00    1.0923379417659506E+01
N    8.0673062507684605E+00    4.6389320242843466E+00    1.2844468914070612E+01
Ga    8.0835555075442382E+00    2.7813661830444119E+00    1.3553060956177209E+01
N    8.1039239970467420E+00    2.8015458781845806E+00    1.5473068483624726E+01
Ga    7.9784799522830188E+00    4.6679593452277768E+00    1.6511192026290537E+01
N    9.5699417203061774E+00    3.7711266098441572E+00    1.7303361912041261E+01
N    6.4303073673532181E+00    5.5785737596160558E+00   -5.1988635616648127E-02
Ga    6.4291483960584088E+00    7.4383276070090742E+00    6.1484657523477726E-01
N    6.4288347687601552E+00    7.4380975590385052E+00    2.5257446246489983E+00
Ga    6.4299850413057031E+00    5.5782532035313483E+00    3.2326684141169473E+00
N    6.4304970692070755E+00    5.5788623772833583E+00    5.1427001773865619E+00
Ga    6.4295826511953891E+00    7.4387505661890838E+00    5.8155960460180607E+00
N    6.4297021443510252E+00    7.4379477257448325E+00    7.7103518154748309E+00
Ga    6.4308623876388769E+00    5.5785762817146081E+00    8.3549664637075374E+00
N    6.4350387556485504E+00    5.5784062915481032E+00    1.0247318462787222E+01
Ga    6.4368446312760339E+00    7.4372155823811212E+00    1.0927583492244363E+01
N    6.4652877210296440E+00    7.4297248039472583E+00    1.2850787999222840E+01
Ga    6.4648865635585739E+00    5.5679736151992651E+00    1.3544645811823750E+01
N    6.4399047080085490E+00    5.5518645386005252E+00    1.5462231226913660E+01
Ga    6.3478828508244867E+00    7.4517599359111291E+00    1.6565637576001649E+01
N    7.9282178446547169E+00    6.5491481917137078E+00    1.7281491951639886E+01
N    4.8198174505770668E+00    8.3680080737714739E+00   -5.1991462630342107E-02
Ga    4.8186829269150318E+00    1.0227683627416708E+01    6.1483807161028259E-01
N    4.8183802268874540E+00    1.0227518209074210E+01    2.5257726694790343E+00
Ga    4.8195503161663362E+00    8.3676274552926753E+00    3.2326379465596768E+00
N    4.8200973127297386E+00    8.3683121866343573E+00    5.1426686154665759E+00
Ga    4.8190655851707636E+00    1.0228132101923231E+01    5.8156483342254628E+00
N    4.8188926241298775E+00    1.0227357697820070E+01    7.7106410819011568E+00
Ga    4.8209450189533962E+00    8.3674204176099849E+00    8.3546477049409091E+00
N    4.8268369041718939E+00    8.3668800458627288E+00    1.0247263258272492E+01
Ga    4.8243165147015743E+00    1.0226296560185498E+01    1.0922945465879405E+01
N    4.8473337052938046E+00    1.0219886187909601E+01    1.2843923495207314E+01
Ga    4.8657567888510620E+00    8.3630125063316925E+00    1.3552719670343725E+01
N    4.8907774051846831E+00    8.3834989784524385E+00    1.5473479255186215E+01
Ga    4.7545542443971467E+00    1.0246173153148320E+01    1.6510520139879237E+01
N    6.3377583245959075E+00    9.3357663568175688E+00    1.7307263410302795E+01
H    2.8445505846095979E-04    4.7196911024733040E-04   -1.0769363411283612E+00
H   -1.6101516885096547E+00    2.7898808522576837E+00   -1.0769432073326004E+00
H   -3.2206139447462712E+00    5.5792473904583275E+00   -1.0769234184874261E+00
H   -4.8310684082949207E+00    8.3686378598788949E+00   -1.0769286360789365E+00
H    3.2174290909106138E+00    5.1223593893483157E-04   -1.0769497046843195E+00
H    1.6069783453324693E+00    2.7899072012743815E+00   -1.0769633794221178E+00
H   -3.4830177916250421E-03    5.5792852083159126E+00   -1.0769633156690217E+00
H   -1.6139351754185691E+00    8.3686707045630619E+00   -1.0769857757762917E+00
H    6.4344887236617492E+00    5.0471924592731057E-04   -1.0769133220051588E+00
H    4.8240390826497999E+00    2.7899052811899954E+00   -1.0769334188399657E+00
H    3.2135775602932273E+00    5.5792758247713481E+00   -1.0769117138174804E+00
H    1.6031200974710327E+00    8.3686741317597129E+00   -1.0769299334222755E+00
H    9.6514581498471514E+00    4.4297387640080082E-04   -1.0769012028166149E+00
H    8.0410245974548324E+00    2.7898512131309543E+00   -1.0768919991968682E+00
H    6.4305538902833188E+00    5.5792252358992060E+00   -1.0768955191710594E+00
H    4.8201072213798248E+00    8.3686092887220784E+00   -1.0769042098369037E+00
     &END COORD
     &KIND H
       BASIS_SET DZVP-MOLOPT-SR-GTH-q1
       POTENTIAL GTH-PBE-q1
       &POTENTIAL
 1
  0.2000000000000000E+00 2 -0.4178900440000000E+01  0.7244633100000000E+00
 0
         # Potential name:  GTH-PBE-Q1  for symbol:  H
         # Potential read from the potential filename: GTH_POTENTIALS
       &END POTENTIAL
     &END KIND
     &KIND N
       BASIS_SET DZVP-MOLOPT-SR-GTH
       POTENTIAL GTH-PBE-q5
       &POTENTIAL
 2 3
  0.2837905100000000E+00 2 -0.1241522559000000E+02  0.1868095920000000E+01
 2
  0.2554050000000000E+00 1  0.1363026257000000E+02
  0.2454945300000000E+00 0
         # Potential name:  GTH-PBE-Q5  for symbol:  N
         # Potential read from the potential filename: GTH_POTENTIALS
       &END POTENTIAL
     &END KIND
     &KIND Ga
       BASIS_SET DZVP-MOLOPT-SR-GTH
       POTENTIAL GTH-PBE-q13
       &POTENTIAL
 2 1 10
  0.4900000000000000E+00 0
 3
  0.4167772300000000E+00 3  0.1047568975000000E+02 -0.4921768140000000E+01  0.8707055900000000E+00
  0.7770178090000000E+01 -0.2248152160000000E+01
  0.1784415450000000E+01
  0.5696265200000000E+00 2  0.1777985340000000E+01  0.1958597600000000E+00
 -0.2317443900000000E+00
  0.2381265000000000E+00 1 -0.1624868022000000E+02
         # Potential name:  GTH-PBE-Q13  for symbol:  GA
         # Potential read from the potential filename: GTH_POTENTIALS
       &END POTENTIAL
     &END KIND
     &TOPOLOGY
       NUMBER_OF_ATOMS  256
       MULTIPLE_UNIT_CELL  1 1 1
     &END TOPOLOGY
   &END SUBSYS
 &END FORCE_EVAL
