 # Version information for this restart file 
 # current date 2019-06-10 10:59:43.302
 # current working dir /lustre03/project/6037349/rzk/GaN-carbene/444-addat/00-Surface/RKS
 # Program compiled at                              Sun Apr  7 00:48:11 EDT 2019
 # Program compiled on                          beluga2.int.ets1.calculquebec.ca
 # Program compiled for                        Beluga-Linux-x86-64-intel-openmpi
 # Source code revision number                                         svn:18619
 &GLOBAL
   PRINT_LEVEL  MEDIUM
   PROJECT_NAME TEST
   RUN_TYPE  CELL_OPT
 &END GLOBAL
 &MOTION
   &CELL_OPT
     MAX_ITER  300
     STEP_START_VAL  12
     EXTERNAL_PRESSURE     1.0000000000000000E+00
     KEEP_ANGLES  T
     KEEP_SYMMETRY  T
     CONSTRAINT  Z
     PRESSURE_TOLERANCE     5.0000000000000000E+02
   &END CELL_OPT
 &END MOTION
 &FORCE_EVAL
   METHOD  QS
   STRESS_TENSOR  ANALYTICAL
   &DFT
     BASIS_SET_FILE_NAME BASIS_MOLOPT
     POTENTIAL_FILE_NAME GTH_POTENTIALS
     SURFACE_DIPOLE_CORRECTION  T
     SURF_DIP_DIR  Z
     &SCF
       MAX_SCF  100
       EPS_SCF     5.0000000000000004E-06
       &OT  T
         PRECONDITIONER  FULL_ALL
       &END OT
       &OUTER_SCF  T
         OPTIMIZER  NONE
         EPS_SCF     5.0000000000000004E-06
         MAX_SCF  4
       &END OUTER_SCF
       &PRINT
         &RESTART  OFF
           BACKUP_COPIES  1
           &EACH
             JUST_ENERGY  0
             QS_SCF  0
             MD  20
           &END EACH
         &END RESTART
       &END PRINT
     &END SCF
     &QS
       EPS_DEFAULT     1.0000000000000000E-14
       METHOD  GPW
     &END QS
     &MGRID
       NGRIDS  5
       CUTOFF     1.2000000000000000E+03
     &END MGRID
     &XC
       DENSITY_CUTOFF     1.0000000000000000E-10
       GRADIENT_CUTOFF     1.0000000000000000E-10
       TAU_CUTOFF     1.0000000000000000E-10
       &XC_FUNCTIONAL  NO_SHORTCUT
         &PBE  T
         &END PBE
       &END XC_FUNCTIONAL
       &VDW_POTENTIAL
         POTENTIAL_TYPE  PAIR_POTENTIAL
         &PAIR_POTENTIAL
           R_CUTOFF     1.0000000000000004E+01
           TYPE  DFTD3
           PARAMETER_FILE_NAME dftd3.dat
           REFERENCE_FUNCTIONAL PBE
           EPS_CN     9.9999999999999995E-07
           CALCULATE_C9_TERM  T
           REFERENCE_C9_TERM  T
           LONG_RANGE_CORRECTION  F
           VERBOSE_OUTPUT  F
         &END PAIR_POTENTIAL
       &END VDW_POTENTIAL
     &END XC
   &END DFT
   &SUBSYS
     &CELL
       A     1.2882077759779994E+01    0.0000000000000000E+00    0.0000000000000000E+00
       B    -6.4519274212089526E+00    1.1175066100280727E+01    0.0000000000000000E+00
       C     0.0000000000000000E+00    0.0000000000000000E+00    3.2000000000000000E+01
       MULTIPLE_UNIT_CELL  1 1 1
       &CELL_REF
         A     1.2982353780853531E+01    0.0000000000000000E+00    0.0000000000000000E+00
         B    -6.4911768904267628E+00    1.1243048175136114E+01    0.0000000000000000E+00
         C     0.0000000000000000E+00    0.0000000000000000E+00    3.2000000000000000E+01
         MULTIPLE_UNIT_CELL  1 1 1
       &END CELL_REF
     &END CELL
     &COORD
N   -7.5286431846797929E-05   -3.2430333228909898E-04   -4.7091231585388728E-02
Ga   -1.5733723684879916E-03    1.8626952182341352E+00    6.2091402877361723E-01
N   -1.7452919272081672E-03    1.8625060372202837E+00    2.5274240354247763E+00
Ga   -2.5299690046976479E-04   -5.2747285925014583E-04    3.2378020050523326E+00
N    1.3207298496455645E-04   -1.0471390175622114E-05    5.1475073816882633E+00
Ga   -1.3205054577429042E-03    1.8629806167599814E+00    5.8236125608852403E+00
N   -1.2601749754317258E-03    1.8621580822838866E+00    7.7204791385578480E+00
Ga    4.2859339420375672E-04   -7.5575948800504008E-04    8.3653767347285495E+00
N    4.4909579866750232E-03   -1.6702619554758746E-03    1.0253513601984389E+01
Ga    6.3721900359337211E-03    1.8618616466794442E+00    1.0919209105870662E+01
N    3.5351973022527329E-02    1.8552136781378639E+00    1.2839511208606627E+01
Ga    3.5276471590016775E-02   -1.1940936863418126E-02    1.3534050344512229E+01
N    1.6247866669267749E-02   -9.5447817762794891E-03    1.5440167322594744E+01
Ga   -5.9810167277763088E-02    1.8686056121041454E+00    1.6520746950070055E+01
N    1.5044043929600932E+00    9.2991197806181991E-01    1.7274944045944366E+01
N   -1.6130467146071246E+00    2.7934198731662465E+00   -4.7091836584998673E-02
Ga   -1.6145415531935192E+00    4.6564320827244545E+00    6.2096386424019490E-01
N   -1.6147456443784542E+00    4.6562712514693194E+00    2.5274667107037874E+00
Ga   -1.6132182121194820E+00    2.7932457780382109E+00    3.2378043293055074E+00
N   -1.6128331758352108E+00    2.7937843930099904E+00    5.1475171396165846E+00
Ga   -1.6143346294505141E+00    4.6567364139480754E+00    5.8236403203033333E+00
N   -1.6144945909794073E+00    4.6559707741433582E+00    7.7207410733428503E+00
Ga   -1.6125114254240844E+00    2.7925367140338437E+00    8.3650964551772127E+00
N   -1.6078308454369323E+00    2.7910548583711550E+00    1.0253189484410925E+01
Ga   -1.6088820363595659E+00    4.6546149584832310E+00    1.0914875137307639E+01
N   -1.5856120997672942E+00    4.6468435942480948E+00    1.2833791137499194E+01
Ga   -1.5715248976838823E+00    2.7821285661570281E+00    1.3539720352880309E+01
N   -1.5443086133464545E+00    2.8167535969117599E+00    1.5450759656665911E+01
Ga   -1.6589295365073120E+00    4.6627752067798767E+00    1.6481413974596972E+01
N   -7.0103558050020970E-02    3.7449240258256387E+00    1.7293294537244584E+01
N   -3.2260412716720861E+00    5.5871916419141341E+00   -4.7063329091154071E-02
Ga   -3.2275286444901146E+00    7.4502128932925880E+00    6.2093820490761287E-01
N   -3.2277215770002776E+00    7.4500333224344404E+00    2.5274111845177432E+00
Ga   -3.2262161905154465E+00    5.5870118035334926E+00    3.2378278802492035E+00
N   -3.2258552588678149E+00    5.5875500836081091E+00    5.1475861729206986E+00
Ga   -3.2272650603539663E+00    7.4505783215423742E+00    5.8236616333253082E+00
N   -3.2272172658006983E+00    7.4498729494407581E+00    7.7206114855136665E+00
Ga   -3.2258285387872552E+00    5.5869254942465973E+00    8.3650347333469561E+00
N   -3.2223577918322110E+00    5.5861112620504905E+00    1.0253266954115832E+01
Ga   -3.2199504420474043E+00    7.4489735902882286E+00    1.0919539449494330E+01
N   -3.1916443906257546E+00    7.4413114173992829E+00    1.2841150395705284E+01
Ga   -3.1921252544465233E+00    5.5727738136939795E+00    1.3533699222484382E+01
N   -3.2102809701626467E+00    5.5764519730763258E+00    1.5443801835987669E+01
Ga   -3.2842652212649304E+00    7.4551542299863049E+00    1.6524644819225646E+01
N   -1.7128311430692498E+00    6.5282531119027292E+00    1.7276835840589420E+01
N   -4.8390320000790625E+00    8.3809783154112019E+00   -4.7051762599938388E-02
Ga   -4.8404909099306614E+00    1.0243951501201616E+01    6.2094792081056183E-01
N   -4.8407040723608992E+00    1.0243806629482233E+01    2.5274294502775425E+00
Ga   -4.8391959238273765E+00    8.3807681229249695E+00    3.2377886107221698E+00
N   -4.8387688702303988E+00    8.3813080278101033E+00    5.1475058809215897E+00
Ga   -4.8403303254751116E+00    1.0244268853107204E+01    5.8235350919543638E+00
N   -4.8404225928759717E+00    1.0243402546127896E+01    7.7205508584761375E+00
Ga   -4.8383549651679534E+00    8.3802712861745636E+00    8.3652765746780364E+00
N   -4.8335617671711590E+00    8.3787665462657319E+00    1.0253555959572491E+01
Ga   -4.8343654104874698E+00    1.0241984420508999E+01    1.0915796272806920E+01
N   -4.8102955819583828E+00    1.0233271954590322E+01    1.2835544134719425E+01
Ga   -4.7986901100823225E+00    8.3683092517995785E+00    1.3542168630066193E+01
N   -4.7725593675534324E+00    8.3976954459781403E+00    1.5453137473674554E+01
Ga   -4.8962146186213618E+00    1.0239991422486487E+01    1.6485957221738197E+01
N   -3.3017103160948285E+00    9.3336289895200935E+00    1.7292305427813879E+01
N    3.2204364052843673E+00   -3.3322645519380496E-04   -4.7083425649285360E-02
Ga    3.2189761691787844E+00    1.8626700073973148E+00    6.2096261190646707E-01
N    3.2187729614629315E+00    1.8625022085457543E+00    2.5274992165967025E+00
Ga    3.2202273063657088E+00   -5.4224622033233693E-04    3.2378281426205797E+00
N    3.2206293331364968E+00   -3.8590329792364046E-05    5.1475406733960316E+00
Ga    3.2191226804550097E+00    1.8629329009015163E+00    5.8234281318387957E+00
N    3.2192875138061638E+00    1.8621592026102196E+00    7.7201599409170845E+00
Ga    3.2208417524431288E+00   -7.6059391830307600E-04    8.3647118579778574E+00
N    3.2252474858010793E+00   -1.2971542997761594E-03    1.0252932046771939E+01
Ga    3.2257951639190185E+00    1.8607910510341212E+00    1.0919886210538893E+01
N    3.2533697127805308E+00    1.8531544352685247E+00    1.2841944919473006E+01
Ga    3.2551743967362756E+00   -1.2553220839526610E-02    1.3540923854471824E+01
N    3.2414666396237060E+00   -3.4182383524896304E-02    1.5453722542265767E+01
Ga    3.1471063619147883E+00    1.8696318314157765E+00    1.6553152157881691E+01
N    4.7242192911186676E+00    9.5824866099639616E-01    1.7284555769379818E+01
N    1.6074620077420121E+00    2.7934338657226156E+00   -4.7096975288615166E-02
Ga    1.6059547974866317E+00    4.6564333208522291E+00    6.2098783359548804E-01
N    1.6057852076866228E+00    4.6562734085877464E+00    2.5275174412031620E+00
Ga    1.6072384775450843E+00    2.7932344118677763E+00    3.2378290030346633E+00
N    1.6076761239398869E+00    2.7937663256494680E+00    5.1475065478519255E+00
Ga    1.6061085747738038E+00    4.6566983783426386E+00    5.8233605515997979E+00
N    1.6060563326507142E+00    4.6560980531284546E+00    7.7202409936556808E+00
Ga    1.6082303313408108E+00    2.7928977876466354E+00    8.3643745724134710E+00
N    1.6138625373682569E+00    2.7922100222705493E+00    1.0252624128060921E+01
Ga    1.6109392263908415E+00    4.6546499427308241E+00    1.0915503008855012E+01
N    1.6339054246800842E+00    4.6486034889276624E+00    1.2836473988313099E+01
Ga    1.6497924682470686E+00    2.7856080821021552E+00    1.3545029136846864E+01
N    1.6879406439141034E+00    2.7968352625773245E+00    1.5460653209632461E+01
Ga    1.5540765568515578E+00    4.6719509678117941E+00    1.6500506785521125E+01
N    3.1384211380087570E+00    3.7558150103051759E+00    1.7299756531464038E+01
N   -5.5142672981538807E-03    5.5872059006480121E+00   -4.7118361720455387E-02
Ga   -7.0376226296520808E-03    7.4501745258483467E+00    6.2098696369361506E-01
N   -7.1807341089133647E-03    7.4500566212666470E+00    2.5274888715392327E+00
Ga   -5.7463931960949500E-03    5.5869804683800162E+00    3.2378355750507875E+00
N   -5.3701005158232106E-03    5.5875343584637971E+00    5.1475366521366102E+00
Ga   -6.8944021360067189E-03    7.4504935307184308E+00    5.8234342278810800E+00
N   -6.8405185749397315E-03    7.4498686051096730E+00    7.7202147580017622E+00
Ga   -5.0192729923366364E-03    5.5870598657079240E+00    8.3646520184897355E+00
N   -8.1599068327108007E-04    5.5868868660710884E+00    1.0252846365771545E+01
Ga    1.0730445266371725E-04    7.4487921674135356E+00    1.0920496835221444E+01
N    2.8205766720049871E-02    7.4421442905460493E+00    1.2843040898651823E+01
Ga    2.9008055748215730E-02    5.5754423770384758E+00    1.3538029088364672E+01
N    1.6946086478589473E-02    5.5525125523703753E+00    1.5452864037816806E+01
Ga   -7.2206852803113425E-02    7.4658638825603969E+00    1.6551730074904405E+01
N    1.4998672426439861E+00    6.5443269659761363E+00    1.7281392213614634E+01
N   -1.6185067817034176E+00    8.3809595610191536E+00   -4.7136297485688490E-02
Ga   -1.6199976256442186E+00    1.0243986387393777E+01    6.2100143179572243E-01
N   -1.6201726479990270E+00    1.0243811341515288E+01    2.5275030651978985E+00
Ga   -1.6187236569860404E+00    8.3807363684196758E+00    3.2378216498342844E+00
N   -1.6183198531824174E+00    8.3812990176384350E+00    5.1474884491498454E+00
Ga   -1.6198602548552390E+00    1.0244157545912470E+01    5.8234715915662587E+00
N   -1.6199415603714471E+00    1.0243396573088257E+01    7.7204400711015442E+00
Ga   -1.6177625265017002E+00    8.3802799427440906E+00    8.3652543960645929E+00
N   -1.6124721284959895E+00    8.3794170940278736E+00    1.0253702072643032E+01
Ga   -1.6150240787872512E+00    1.0241689142776552E+01    1.0917158020921917E+01
N   -1.5920313219737188E+00    1.0233601478453764E+01    1.2838589593297355E+01
Ga   -1.5771193017368426E+00    8.3703681622438690E+00    1.3548098166955457E+01
N   -1.5406079908678196E+00    8.3795260382217904E+00    1.5462645771700389E+01
Ga   -1.6714959018607758E+00    1.0256933469455936E+01    1.6507285616103360E+01
N   -8.2617148641994445E-02    9.3523933224329987E+00    1.7298051714890754E+01
N    6.4409428680931056E+00   -3.9403386642034244E-04   -4.7051032959940807E-02
Ga    6.4394005985655411E+00    1.8626279983405027E+00    6.2103509738554219E-01
N    6.4390957317212063E+00    1.8623625235751948E+00    2.5275748926344961E+00
Ga    6.4406591776466637E+00   -5.8276076177581461E-04    3.2378814219971401E+00
N    6.4411132985015156E+00   -4.0287741141508593E-05    5.1475829420050685E+00
Ga    6.4397920593638833E+00    1.8630235996491324E+00    5.8233728064114789E+00
N    6.4397570724020179E+00    1.8623678082121908E+00    7.7201507133644585E+00
Ga    6.4409631619438796E+00   -4.7195661430980874E-04    8.3647954842046612E+00
N    6.4444423286854233E+00   -6.3371432477968769E-04    1.0253046864783926E+01
Ga    6.4461182865900373E+00    1.8622571790714197E+00    1.0918030795327480E+01
N    6.4725712524709875E+00    1.8565437061147116E+00    1.2839369209118056E+01
Ga    6.4750051504036126E+00   -8.9527464630511748E-03    1.3532701053901640E+01
N    6.4596565548212412E+00   -1.4632774968573691E-04    1.5443696555052995E+01
Ga    6.3764953850945512E+00    1.8667743879543077E+00    1.6522293807315098E+01
N    7.9498211788454043E+00    9.4155985646415807E-01    1.7278594677588867E+01
N    4.8279203544524698E+00    2.7934071816138566E+00   -4.7069374680016839E-02
Ga    4.8264134138447226E+00    4.6563750617546660E+00    6.2105914083969171E-01
N    4.8261204853456405E+00    4.6561617127991770E+00    2.5275807669958881E+00
Ga    4.8276962926464417E+00    2.7931721249002424E+00    3.2378720979260751E+00
N    4.8281897743082176E+00    2.7937558998367691E+00    5.1475186977315648E+00
Ga    4.8266849366429696E+00    4.6567652460120108E+00    5.8233561152122197E+00
N    4.8264010180084522E+00    4.6561207668236433E+00    7.7203014176119664E+00
Ga    4.8284922647742778E+00    2.7927593751635831E+00    8.3644358645479517E+00
N    4.8331577797339582E+00    2.7918345122084749E+00    1.0252572382579411E+01
Ga    4.8310571007134886E+00    4.6552470499548582E+00    1.0913372664359835E+01
N    4.8526749311499442E+00    4.6487625698949255E+00    1.2833091311662828E+01
Ga    4.8667331130910414E+00    2.7860453237911669E+00    1.3539567767942740E+01
N    4.8996598054511571E+00    2.8206418185635451E+00    1.5449867356184413E+01
Ga    4.7722835301695836E+00    4.6546854541063922E+00    1.6480121320311763E+01
N    6.3634603731332424E+00    3.7446941348603096E+00    1.7299850406318889E+01
N    3.2149473847574779E+00    5.5871712672010583E+00   -4.7043358118447509E-02
Ga    3.2134260568795385E+00    7.4501292603878877E+00    6.2100606447040252E-01
N    3.2131187406308008E+00    7.4499127763015149E+00    2.5275711732228867E+00
Ga    3.2147120245092542E+00    5.5869299964977834E+00    3.2378834036179871E+00
N    3.2151826922490168E+00    5.5875002872179298E+00    5.1475131631304949E+00
Ga    3.2137869509360288E+00    7.4505289394536121E+00    5.8233622086875334E+00
N    3.2137576243758765E+00    7.4499399831953408E+00    7.7201311928355221E+00
Ga    3.2150318583621784E+00    5.5871009498915853E+00    8.3649091884183822E+00
N    3.2186739209142035E+00    5.5873388337318124E+00    1.0252842931310358E+01
Ga    3.2208213520780280E+00    7.4506542086247833E+00    1.0917840758994465E+01
N    3.2483514623524448E+00    7.4463214489541132E+00    1.2839099502574349E+01
Ga    3.2492103678550026E+00    5.5808540911574909E+00    1.3532369254439491E+01
N    3.2331943221374408E+00    5.5878811417509082E+00    1.5439140594554809E+01
Ga    3.1498304966378221E+00    7.4539722377907882E+00    1.6521823848891092E+01
N    4.7175674923047337E+00    6.5188029408158288E+00    1.7280184011605677E+01
N    1.6019870215054968E+00    8.3809664852037340E+00   -4.7060793200212517E-02
Ga    1.6004174986945821E+00    1.0243918812080514E+01    6.2104069670777207E-01
N    1.6001636644988637E+00    1.0243694084872647E+01    2.5276075410608874E+00
Ga    1.6017288089740944E+00    8.3806786909976658E+00    3.2378673494131922E+00
N    1.6022010283048334E+00    8.3812992827450508E+00    5.1475474549448004E+00
Ga    1.6007479205508037E+00    1.0244277614787363E+01    5.8234009836640910E+00
N    1.6004820033575491E+00    1.0243671687801742E+01    7.7203602059708407E+00
Ga    1.6023899930934569E+00    8.3802843487043575E+00    8.3645673787398405E+00
N    1.6071123570657484E+00    8.3797381594047593E+00    1.0252743449458229E+01
Ga    1.6054282734701868E+00    1.0242963598881255E+01    1.0913753405171274E+01
N    1.6273028002153394E+00    1.0237773686692439E+01    1.2833500662881354E+01
Ga    1.6429675546772540E+00    8.3752509585392758E+00    1.3538788014709006E+01
N    1.6759788227695753E+00    8.4129305913863828E+00    1.5451086290223014E+01
Ga    1.5518892103791375E+00    1.0251549342194355E+01    1.6482890399732213E+01
N    3.1381387289205236E+00    9.3306290268304579E+00    1.7297777614503953E+01
N    9.6614524815373048E+00   -3.7172683142276729E-04   -4.7049445400143518E-02
Ga    9.6599778517429602E+00    1.8626692519112766E+00    6.2097544151795492E-01
N    9.6596529558293156E+00    1.8623696815726345E+00    2.5274856895979281E+00
Ga    9.6612121667295838E+00   -5.9729118171694272E-04    3.2378550788240585E+00
N    9.6616377315224824E+00   -3.7231983192655942E-05    5.1475442232006641E+00
Ga    9.6602812845265422E+00    1.8630813147958607E+00    5.8234205703548589E+00
N    9.6600841860884632E+00    1.8623712249770881E+00    7.7201516504155112E+00
Ga    9.6619285587460784E+00   -3.0973856246288301E-04    8.3646836144191656E+00
N    9.6653194441178414E+00   -3.3607062618939493E-04    1.0252791580613001E+01
Ga    9.6662592313894020E+00    1.8620377050703865E+00    1.0920068578068140E+01
N    9.6914734995275982E+00    1.8561268963920297E+00    1.2841633356353658E+01
Ga    9.6945993379762712E+00   -8.5810531269853458E-03    1.3536234190451035E+01
N    9.6807380180967133E+00   -2.3167021803193067E-02    1.5450462970022574E+01
Ga    9.5888359075513545E+00    1.8875118832369233E+00    1.6544030870284733E+01
N    1.1164108174601418E+01    9.6848490679881216E-01    1.7270919237020802E+01
N    8.0484599321926495E+00    2.7934022060609949E+00   -4.7023778049942871E-02
Ga    8.0469753893566551E+00    4.6564247616385659E+00    6.2099057549418823E-01
N    8.0466571648276801E+00    4.6561622326739656E+00    2.5275128209730497E+00
Ga    8.0482406574609460E+00    2.7931855441830864E+00    3.2378451815878284E+00
N    8.0486955363098165E+00    2.7937531267245195E+00    5.1474678609595426E+00
Ga    8.0472816916573198E+00    4.6567336998764954E+00    5.8234859275754056E+00
N    8.0469468481598092E+00    4.6559375392516404E+00    7.7204611387554829E+00
Ga    8.0491886044701495E+00    2.7928118793176258E+00    8.3649758623999162E+00
N    8.0535371639993230E+00    2.7919878969404519E+00    1.0253159146080481E+01
Ga    8.0511824589589409E+00    4.6548051174593557E+00    1.0915956291396020E+01
N    8.0716371082342828E+00    4.6471983986233631E+00    1.2835676889501634E+01
Ga    8.0866833005804626E+00    2.7861935038608245E+00    1.3544021495137342E+01
N    8.1136558167556512E+00    2.8030339100724171E+00    1.5459277287235484E+01
Ga    7.9898212821729580E+00    4.6771662956783384E+00    1.6499510065095802E+01
N    9.5822217834169958E+00    3.7763056644626825E+00    1.7295973786387673E+01
N    6.4355023795484403E+00    5.5871481955447466E+00   -4.7033260403236882E-02
Ga    6.4340214702079894E+00    7.4501852453198811E+00    6.2097808248006958E-01
N    6.4336729637657823E+00    7.4499004701350833E+00    2.5274718418794633E+00
Ga    6.4352443483959965E+00    5.5869471038220979E+00    3.2378578741821489E+00
N    6.4357007805041651E+00    5.5874706774856477E+00    5.1475515481400240E+00
Ga    6.4343759574587018E+00    7.4505761962647625E+00    5.8234473177147779E+00
N    6.4343864512502682E+00    7.4498465580442739E+00    7.7201878867188931E+00
Ga    6.4358803646656311E+00    5.5871029965521384E+00    8.3645871049510312E+00
N    6.4392542775391757E+00    5.5869980925766143E+00    1.0252681233551282E+01
Ga    6.4402726616414743E+00    7.4493614062115334E+00    1.0919626842497669E+01
N    6.4659291030947550E+00    7.4423570564917307E+00    1.2841104216275113E+01
Ga    6.4666090704676664E+00    5.5773621478533091E+00    1.3536342376193527E+01
N    6.4492070417532146E+00    5.5590674805367746E+00    1.5448380090685960E+01
Ga    6.3579711935748415E+00    7.4641248652108860E+00    1.6549420764440821E+01
N    7.9390113967792226E+00    6.5597651580782834E+00    1.7276388934317850E+01
N    4.8224838498224658E+00    8.3809673883604177E+00   -4.7047999918804873E-02
Ga    4.8210229391678663E+00    1.0243922511335217E+01    6.2098597133590083E-01
N    4.8206800542752379E+00    1.0243702086334114E+01    2.5274995052873219E+00
Ga    4.8222791358646431E+00    8.3806952979134746E+00    3.2378361407072593E+00
N    4.8227556147032455E+00    8.3812924835136382E+00    5.1475205758733145E+00
Ga    4.8213550129046974E+00    1.0244337050034844E+01    5.8234625031244631E+00
N    4.8211043803354618E+00    1.0243659870636559E+01    7.7203724211485181E+00
Ga    4.8233558483741668E+00    8.3805253679462108E+00    8.3642896797656743E+00
N    4.8282879014356697E+00    8.3801335151235978E+00    1.0252422294743200E+01
Ga    4.8255601860229334E+00    1.0242768474839707E+01    1.0915690243921356E+01
N    4.8465769112243899E+00    1.0236703689852988E+01    1.2835130986311833E+01
Ga    4.8636866172325863E+00    8.3764723331438873E+00    1.3543879466227645E+01
N    4.8953559804322060E+00    8.3937652367186644E+00    1.5459503231039815E+01
Ga    4.7614523984581352E+00    1.0263686919533923E+01    1.6498358237711656E+01
N    6.3452730340423322E+00    9.3505318542485263E+00    1.7300816731319976E+01
H    2.7900390973677398E-04    4.7454295645729075E-04   -1.0736885369159472E+00
H   -1.6126868869493183E+00    2.7942651923547039E+00   -1.0737201207823490E+00
H   -3.2256797845183289E+00    5.5880152521251665E+00   -1.0737157377801614E+00
H   -4.8386632216892203E+00    8.3817873780939784E+00   -1.0737675461737166E+00
H    3.2208698082922331E+00    5.0819814488747503E-04   -1.0737543274788612E+00
H    1.6078895179651882E+00    2.7942837248619621E+00   -1.0737621088291069E+00
H   -5.1025803079738754E-03    5.5880462427067803E+00   -1.0737112021630344E+00
H   -1.6180848120999869E+00    8.3818117463129553E+00   -1.0737250496836006E+00
H    6.4413904351300602E+00    5.0544501408710213E-04   -1.0737248376772104E+00
H    4.8284114198345609E+00    2.7942840043965504E+00   -1.0737330073602791E+00
H    3.2154201771830824E+00    5.5880408907026897E+00   -1.0737337472059152E+00
H    1.6024337253729097E+00    8.3818188284528912E+00   -1.0737471743344447E+00
H    9.6618311673170005E+00    4.4874186311502781E-04   -1.0736677814075843E+00
H    8.0488670122711952E+00    2.7942382063138660E+00   -1.0737003358449770E+00
H    6.4358670845004653E+00    5.5879970347827497E+00   -1.0736834740714467E+00
H    4.8228909372002668E+00    8.3817604585456262E+00   -1.0736871939889472E+00
     &END COORD
     &KIND H
       BASIS_SET DZVP-MOLOPT-SR-GTH-q1
       POTENTIAL GTH-PBE-q1
       &POTENTIAL
 1
  0.2000000000000000E+00 2 -0.4178900440000000E+01  0.7244633100000000E+00
 0
         # Potential name:  GTH-PBE-Q1  for symbol:  H
         # Potential read from the potential filename: GTH_POTENTIALS
       &END POTENTIAL
     &END KIND
     &KIND N
       BASIS_SET DZVP-MOLOPT-SR-GTH
       POTENTIAL GTH-PBE-q5
       &POTENTIAL
 2 3
  0.2837905100000000E+00 2 -0.1241522559000000E+02  0.1868095920000000E+01
 2
  0.2554050000000000E+00 1  0.1363026257000000E+02
  0.2454945300000000E+00 0
         # Potential name:  GTH-PBE-Q5  for symbol:  N
         # Potential read from the potential filename: GTH_POTENTIALS
       &END POTENTIAL
     &END KIND
     &KIND Ga
       BASIS_SET DZVP-MOLOPT-SR-GTH
       POTENTIAL GTH-PBE-q13
       &POTENTIAL
 2 1 10
  0.4900000000000000E+00 0
 3
  0.4167772300000000E+00 3  0.1047568975000000E+02 -0.4921768140000000E+01  0.8707055900000000E+00
  0.7770178090000000E+01 -0.2248152160000000E+01
  0.1784415450000000E+01
  0.5696265200000000E+00 2  0.1777985340000000E+01  0.1958597600000000E+00
 -0.2317443900000000E+00
  0.2381265000000000E+00 1 -0.1624868022000000E+02
         # Potential name:  GTH-PBE-Q13  for symbol:  GA
         # Potential read from the potential filename: GTH_POTENTIALS
       &END POTENTIAL
     &END KIND
     &TOPOLOGY
       NUMBER_OF_ATOMS  256
       MULTIPLE_UNIT_CELL  1 1 1
     &END TOPOLOGY
   &END SUBSYS
 &END FORCE_EVAL
