 # Version information for this restart file 
 # current date 2019-06-10 23:40:53.989
 # current working dir /lustre03/project/6037349/rzk/GaN-carbene/444-addat/00-Surface/RKS
 # Program compiled at                              Sun Apr  7 00:48:11 EDT 2019
 # Program compiled on                          beluga2.int.ets1.calculquebec.ca
 # Program compiled for                        Beluga-Linux-x86-64-intel-openmpi
 # Source code revision number                                         svn:18619
 &GLOBAL
   PRINT_LEVEL  MEDIUM
   PROJECT_NAME TEST
   RUN_TYPE  CELL_OPT
 &END GLOBAL
 &MOTION
   &CELL_OPT
     MAX_ITER  300
     STEP_START_VAL  83
     EXTERNAL_PRESSURE     1.0000000000000000E+00
     KEEP_ANGLES  T
     KEEP_SYMMETRY  T
     CONSTRAINT  Z
     PRESSURE_TOLERANCE     5.0000000000000000E+02
   &END CELL_OPT
 &END MOTION
 &FORCE_EVAL
   METHOD  QS
   STRESS_TENSOR  ANALYTICAL
   &DFT
     BASIS_SET_FILE_NAME BASIS_MOLOPT
     POTENTIAL_FILE_NAME GTH_POTENTIALS
     SURFACE_DIPOLE_CORRECTION  T
     SURF_DIP_DIR  Z
     &SCF
       MAX_SCF  100
       EPS_SCF     5.0000000000000004E-06
       &OT  T
         PRECONDITIONER  FULL_ALL
       &END OT
       &OUTER_SCF  T
         OPTIMIZER  NONE
         EPS_SCF     5.0000000000000004E-06
         MAX_SCF  4
       &END OUTER_SCF
       &PRINT
         &RESTART  OFF
           BACKUP_COPIES  1
           &EACH
             JUST_ENERGY  0
             QS_SCF  0
             MD  20
           &END EACH
         &END RESTART
       &END PRINT
     &END SCF
     &QS
       EPS_DEFAULT     1.0000000000000000E-14
       METHOD  GPW
     &END QS
     &MGRID
       NGRIDS  5
       CUTOFF     1.2000000000000000E+03
     &END MGRID
     &XC
       DENSITY_CUTOFF     1.0000000000000000E-10
       GRADIENT_CUTOFF     1.0000000000000000E-10
       TAU_CUTOFF     1.0000000000000000E-10
       &XC_FUNCTIONAL  NO_SHORTCUT
         &PBE  T
         &END PBE
       &END XC_FUNCTIONAL
       &VDW_POTENTIAL
         POTENTIAL_TYPE  PAIR_POTENTIAL
         &PAIR_POTENTIAL
           R_CUTOFF     1.0000000000000005E+01
           TYPE  DFTD3
           PARAMETER_FILE_NAME dftd3.dat
           REFERENCE_FUNCTIONAL PBE
           EPS_CN     9.9999999999999995E-07
           CALCULATE_C9_TERM  T
           REFERENCE_C9_TERM  T
           LONG_RANGE_CORRECTION  F
           VERBOSE_OUTPUT  F
         &END PAIR_POTENTIAL
       &END VDW_POTENTIAL
     &END XC
   &END DFT
   &SUBSYS
     &CELL
       A     1.3024471265093561E+01    0.0000000000000000E+00    0.0000000000000000E+00
       B    -6.4464811238939808E+00    1.1165632836618208E+01    0.0000000000000000E+00
       C     0.0000000000000000E+00    0.0000000000000000E+00    3.2000000000000000E+01
       MULTIPLE_UNIT_CELL  1 1 1
       &CELL_REF
         A     1.2982353780853531E+01    0.0000000000000000E+00    0.0000000000000000E+00
         B    -6.4911768904267628E+00    1.1243048175136114E+01    0.0000000000000000E+00
         C     0.0000000000000000E+00    0.0000000000000000E+00    3.2000000000000000E+01
         MULTIPLE_UNIT_CELL  1 1 1
       &END CELL_REF
     &END CELL
     &COORD
N    9.3709248327504546E-02    4.0460468559522247E-02   -1.4956615399042739E-01
Ga    1.1187271651872530E-01    1.9095263299272740E+00    5.1955287029919583E-01
N    1.5824972344177426E-01    1.9455540291665354E+00    2.4406104359455338E+00
Ga    1.5010503377369314E-01    8.3257201061401512E-02    3.1538423669367686E+00
N    1.9990895181366716E-01    1.1235098477329170E-01    5.0800969191548448E+00
Ga    2.1988788918137089E-01    1.9861659461952164E+00    5.7750336046025605E+00
N    2.5135928267042240E-01    2.0099070988555288E+00    7.7082381948038963E+00
Ga    2.3063989573367405E-01    1.3660161115088518E-01    8.3774730088045395E+00
N    2.4802009604364200E-01    1.4455260517065133E-01    1.0314514761886036E+01
Ga    2.7572812678770925E-01    2.0111244941700592E+00    1.1008984157102367E+01
N    3.1728465011293711E-01    2.0447888568765999E+00    1.2945725805114240E+01
Ga    2.8828073717268737E-01    1.7176624143433913E-01    1.3598903664387811E+01
N   -2.2909486824997946E-01   -1.2488515135579957E-01    1.5349590752076695E+01
Ga   -8.9306380978027322E-01    1.0213086628951618E+00    1.6733267435529658E+01
N    4.0630941708615931E-01    2.2031562201811150E-01    1.8035710137474616E+01
N   -1.5177821512206700E+00    2.8324165362183567E+00   -1.4686802448153685E-01
Ga   -1.5006085776829898E+00    4.7024678954622177E+00    5.2243668399092058E-01
N   -1.4546349482822500E+00    4.7392091282833944E+00    2.4437586406944694E+00
Ga   -1.4618366257550905E+00    2.8746337107118465E+00    3.1504961645440837E+00
N   -1.4136254829862394E+00    2.9055068967550008E+00    5.0774092774825812E+00
Ga   -1.3925249115307385E+00    4.7755202486905306E+00    5.7760153047484497E+00
N   -1.3622787050758798E+00    4.8007752244755579E+00    7.7109608506526923E+00
Ga   -1.3749312638225810E+00    2.9333060021934929E+00    8.3901612888700310E+00
N   -1.3558183962176453E+00    2.9377045895982299E+00    1.0328915334646938E+01
Ga   -1.3462637469321759E+00    4.8027603489673822E+00    1.1023678972681457E+01
N   -1.3074924628455422E+00    4.8346512552249310E+00    1.2964507435100717E+01
Ga   -1.3003389055987344E+00    2.9688276240488545E+00    1.3620213649315605E+01
N   -1.7870383485602657E+00    2.5477033079888138E+00    1.5450622563258259E+01
Ga   -2.7819448060574072E+00    4.3014697104372086E+00    1.6844874810158434E+01
N   -1.2924939837071880E+00    2.9996274208763309E+00    1.6721600992339859E+01
N   -3.1293678558114491E+00    5.6234614960114815E+00   -1.4867724162412360E-01
Ga   -3.1113702734028328E+00    7.4919559923748498E+00    5.2174343413810531E-01
N   -3.0651321056317502E+00    7.5273265166975216E+00    2.4429386320632656E+00
Ga   -3.0743985611252600E+00    5.6654557317508578E+00    3.1569197410889953E+00
N   -3.0250690866483190E+00    5.6947176787749161E+00    5.0835390677917225E+00
Ga   -3.0035385565976767E+00    7.5652623479929524E+00    5.7794098372571963E+00
N   -2.9727987816993302E+00    7.5891979039250321E+00    7.7138867187122591E+00
Ga   -2.9874338302657288E+00    5.7235426287558129E+00    8.3981961132066942E+00
N   -2.9724517025049342E+00    5.7308113082094350E+00    1.0336923287748343E+01
Ga   -2.9567887136694497E+00    7.5982645656024728E+00    1.1026679386783306E+01
N   -2.9150674932585052E+00    7.6227285228572530E+00    1.2971155012739645E+01
Ga   -2.9338084817326933E+00    5.7546653661544189E+00    1.3667095735618451E+01
N   -3.3881651955701626E+00    5.4893260428835200E+00    1.5453736736318561E+01
Ga   -4.1075495819119956E+00    6.5990253757873161E+00    1.6855902637260872E+01
N   -2.7422067606208431E+00    5.8446279431469303E+00    1.8095794286139128E+01
N   -4.7406991123211570E+00    8.4145563465054920E+00   -1.4677146309385725E-01
Ga   -4.7233140398899778E+00    1.0284966139587482E+01    5.1987084964768604E-01
N   -4.6773279783914639E+00    1.0321762951330173E+01    2.4412554695537065E+00
Ga   -4.6848849486562569E+00    8.4573509557938227E+00    3.1508159011045018E+00
N   -4.6344143032908969E+00    8.4847190346676946E+00    5.0778360904256958E+00
Ga   -4.6128236575567954E+00    1.0356050577706398E+01    5.7728648959932345E+00
N   -4.5819871635310578E+00    1.0381788739220973E+01    7.7056290203077680E+00
Ga   -4.5974831462633396E+00    8.5164235211788881E+00    8.3908892686875376E+00
N   -4.5785493732168261E+00    8.5255835130943733E+00    1.0329722150178965E+01
Ga   -4.5697556365353105E+00    1.0396582377588741E+01    1.1009158043422559E+01
N   -4.5195718095224846E+00    1.0425672996935612E+01    1.2946481535246770E+01
Ga   -4.5320437571570853E+00    8.5678142095590335E+00    1.3624312634538846E+01
N   -5.1354281954995509E+00    8.3675241722303184E+00    1.5455072457975801E+01
Ga   -6.0095015799497036E+00    9.8698608491033397E+00    1.6711327438279390E+01
N   -4.4907715849520242E+00    8.5379048506432547E+00    1.6734055459192405E+01
N    3.3500502079497143E+00    4.0840798509372896E-02   -1.4650311609807848E-01
Ga    3.3682959248990882E+00    1.9102240346235755E+00    5.2288112619923888E-01
N    3.4139926260721452E+00    1.9462334536953947E+00    2.4438558596958959E+00
Ga    3.4057599997465506E+00    8.3599202374131765E-02    3.1538636728806484E+00
N    3.4577468604045558E+00    1.1281989993113592E-01    5.0812420568481267E+00
Ga    3.4723891925780568E+00    1.9818996998709122E+00    5.7848382877646038E+00
N    3.5063443082762227E+00    2.0062980513365063E+00    7.7206500557217961E+00
Ga    3.4928109577208692E+00    1.4219437830296769E-01    8.4061655060812246E+00
N    3.5139550231739443E+00    1.5464181843689156E-01    1.0345965063607533E+01
Ga    3.5367535090159206E+00    2.0200373239222951E+00    1.1029239585287934E+01
N    3.5821728264771773E+00    2.0567490936010180E+00    1.2975329667215814E+01
Ga    3.5358625406776860E+00    2.0626138832449481E-01    1.3678701422353193E+01
N    2.9711152297374364E+00   -3.4220833344163898E-02    1.5566242941331613E+01
Ga    1.9545082571034884E+00    1.1002448806671348E+00    1.7631393045674958E+01
N    3.5677836332907304E+00    2.9829102919833683E-01    1.6886102414321044E+01
N    1.7386274772348640E+00    2.8320338386631225E+00   -1.4608938240283675E-01
Ga    1.7555115236000418E+00    4.7017848300301903E+00    5.2171954346234983E-01
N    1.8001087772835971E+00    4.7374893951281640E+00    2.4422599514548917E+00
Ga    1.7943481382376378E+00    2.8748818922304804E+00    3.1502231909355367E+00
N    1.8452702981902827E+00    2.9052209779011253E+00    5.0781822762667117E+00
Ga    1.8597520345025438E+00    4.7717818890367374E+00    5.7853603064757966E+00
N    1.8881446415179219E+00    4.7964970082641747E+00    7.7214534303850870E+00
Ga    1.8850597962134168E+00    2.9316595159723304E+00    8.4041118278796887E+00
N    1.9117333098494829E+00    2.9379088711759849E+00    1.0342634114972956E+01
Ga    1.9143907069971806E+00    4.7946981909549251E+00    1.1038243866095522E+01
N    1.9470839293900191E+00    4.8175229089017053E+00    1.2993792134140090E+01
Ga    1.9564022554978597E+00    2.9432325604901655E+00    1.3682028153522815E+01
N    1.4651017409847671E+00    2.5634268744128459E+00    1.5551320103521180E+01
Ga    3.4073682229668062E-01    3.8932980964957031E+00    1.6434828077030630E+01
N    2.0539446911446122E+00    2.9084043451632411E+00    1.6870212712241813E+01
N    1.2629652995440391E-01    5.6233333658456974E+00   -1.4523910713521335E-01
Ga    1.4382040309928856E-01    7.4924512634843481E+00    5.2156632860907715E-01
N    1.8782444171974816E-01    7.5269344429105756E+00    2.4424512104246734E+00
Ga    1.8265717768536155E-01    5.6653060677933080E+00    3.1559333626428021E+00
N    2.3219014753108988E-01    5.6948908251934132E+00    5.0833804791175456E+00
Ga    2.4596440243378290E-01    7.5628868932829700E+00    5.7866524931201582E+00
N    2.7674871324896050E-01    7.5865888058452384E+00    7.7245309215591869E+00
Ga    2.6799939748139612E-01    5.7218304368332786E+00    8.4127792064807547E+00
N    2.9263344485320458E-01    5.7276227477762536E+00    1.0355923365090442E+01
Ga    3.1117569499734765E-01    7.6017690993735707E+00    1.1028385776131197E+01
N    3.5911778389380861E-01    7.6362819605085601E+00    1.2971676527699604E+01
Ga    3.2614835806237641E-01    5.7828333811678956E+00    1.3652152463283652E+01
N   -1.9516196638942346E-01    5.5102898719395430E+00    1.5522497711121833E+01
Ga   -1.2359471804357591E+00    6.7135498524689323E+00    1.7533993285504945E+01
N    3.7424653552337439E-01    5.8651578990485067E+00    1.6856975123416632E+01
N   -1.4852023668034178E+00    8.4145666021522363E+00   -1.4514680037932032E-01
Ga   -1.4676344399509407E+00    1.0284268561450357E+01    5.2176509817480110E-01
N   -1.4231656699558399E+00    1.0319999769361543E+01    2.4425243609737919E+00
Ga   -1.4296807817329475E+00    8.4575658531548434E+00    3.1538646056338404E+00
N   -1.3804887799868388E+00    8.4863403270931546E+00    5.0822859714338273E+00
Ga   -1.3635252685237926E+00    1.0353927434838536E+01    5.7855237988517638E+00
N   -1.3349744201948335E+00    1.0376855795331299E+01    7.7214675342841446E+00
Ga   -1.3439741465523420E+00    8.5146643242426396E+00    8.4136784000664946E+00
N   -1.3217789422023938E+00    8.5266216061088649E+00    1.0356098634044598E+01
Ga   -1.3181625596277171E+00    1.0392813424021195E+01    1.1041030817663900E+01
N   -1.2854550071747930E+00    1.0416904182434847E+01    1.2997138871361871E+01
Ga   -1.2630345999207380E+00    8.5359454089325624E+00    1.3660716579254247E+01
N   -1.7473295227682764E+00    8.2193735991236156E+00    1.5521935643841871E+01
Ga   -2.8893884715251725E+00    9.4909002774847231E+00    1.6439847220186405E+01
N   -1.1615060109711171E+00    8.5331732055777092E+00    1.6848930120279977E+01
N    6.6052186025782076E+00    4.0577257837949958E-02   -1.4463286613369730E-01
Ga    6.6234379141567228E+00    1.9107206734343434E+00    5.2072700612255529E-01
N    6.6667756223461092E+00    1.9457961196874758E+00    2.4425035565330293E+00
Ga    6.6583816009733985E+00    8.2944101808734114E-02    3.1531871320597959E+00
N    6.7029002527508643E+00    1.0967891188759880E-01    5.0806148438891858E+00
Ga    6.7244992705113447E+00    1.9779865637504561E+00    5.7823553459415695E+00
N    6.7531679831489049E+00    2.0007931525344240E+00    7.7188750786402460E+00
Ga    6.7433761822499445E+00    1.3665828934666399E-01    8.4135362939710490E+00
N    6.7587758640997331E+00    1.4607607914186416E-01    1.0358347022386555E+01
Ga    6.8009434988812059E+00    2.0181200686118870E+00    1.1037833308725812E+01
N    6.8496363512175567E+00    2.0495848232751572E+00    1.2985531802198340E+01
Ga    6.8226414831112674E+00    1.8877069854530296E-01    1.3643827488892766E+01
N    6.2942831545428897E+00   -1.1344081328799188E-01    1.5493392401169828E+01
Ga    5.2488141878123402E+00    1.1497725612201921E+00    1.6580295800632523E+01
N    6.9411696310740627E+00    2.6843202717340281E-01    1.7069217360032074E+01
N    4.9938569926205556E+00    2.8317697634128680E+00   -1.4549085778787246E-01
Ga    5.0125031374152726E+00    4.7012188958079140E+00    5.2049836297982111E-01
N    5.0567683704898014E+00    4.7352150153786612E+00    2.4424462317105355E+00
Ga    5.0492590832096322E+00    2.8738655247489664E+00    3.1575584094593978E+00
N    5.0963368812831256E+00    2.9014989353142893E+00    5.0846048430143131E+00
Ga    5.1125431896884370E+00    4.7714931993861542E+00    5.7798645250901650E+00
N    5.1397381284661190E+00    4.7962023520852464E+00    7.7169394797750046E+00
Ga    5.1390804554002125E+00    2.9341318456212138E+00    8.4170284347597626E+00
N    5.1667912472662190E+00    2.9428632916148389E+00    1.0360714408499327E+01
Ga    5.1784882795813747E+00    4.8188219906329515E+00    1.1030793603657415E+01
N    5.2281338915566113E+00    4.8534563528807331E+00    1.2980598360795025E+01
Ga    5.2401027370859747E+00    2.9954791541838617E+00    1.3633709737434023E+01
N    4.7429574618444841E+00    2.6946322360304586E+00    1.5465487582628185E+01
Ga    3.6514267678391703E+00    3.9029604595488046E+00    1.6566543588918453E+01
N    5.3417427394062118E+00    3.0494158171053698E+00    1.7057394099273228E+01
N    3.3821044925353507E+00    5.6231934378352015E+00   -1.4445388380564433E-01
Ga    3.4007078226758232E+00    7.4930999166627474E+00    5.2019917845140884E-01
N    3.4445009124236083E+00    7.5264923613003356E+00    2.4412444857335025E+00
Ga    3.4369125500552520E+00    5.6627982458611932E+00    3.1526791616171042E+00
N    3.4817869922146265E+00    5.6892083965037346E+00    5.0798324947863556E+00
Ga    3.4983791959291493E+00    7.5593231585796641E+00    5.7752624242431638E+00
N    3.5249493207140201E+00    7.5821914851205063E+00    7.7110490078158609E+00
Ga    3.5187479681033729E+00    5.7226006661511226E+00    8.4136699047826564E+00
N    3.5375129805556171E+00    5.7246613941302149E+00    1.0356062023794616E+01
Ga    3.5721973669757512E+00    7.5993558155965530E+00    1.1031858226276633E+01
N    3.6145210756078971E+00    7.6264669824284361E+00    1.2978059245369581E+01
Ga    3.5979681582849827E+00    5.7644745889591080E+00    1.3643077745410652E+01
N    3.0693841518757554E+00    5.4506784227971279E+00    1.5484302183614128E+01
Ga    2.0486265588585399E+00    6.7314625379558235E+00    1.6585440832347576E+01
N    3.7195260335332829E+00    5.8063616291529376E+00    1.7065537721459791E+01
N    1.7701622161301858E+00    8.4145019285959037E+00   -1.4454334269906424E-01
Ga    1.7889819119052972E+00    1.0285017905084255E+01    5.2048441934242828E-01
N    1.8324063442564007E+00    1.0320357481578791E+01    2.4419307768946954E+00
Ga    1.8237287782276448E+00    8.4552946939139488E+00    3.1502957143522687E+00
N    1.8677061033377855E+00    8.4817427778352954E+00    5.0774262401827572E+00
Ga    1.8858079105794510E+00    1.0351869896341466E+01    5.7725609847777273E+00
N    1.9125364493691044E+00    1.0374424512945430E+01    7.7083435398948836E+00
Ga    1.9112266717180317E+00    8.5142645676212769E+00    8.4090080745711067E+00
N    1.9372706781472913E+00    8.5236880690822492E+00    1.0352372867038026E+01
Ga    1.9529507023015380E+00    1.0397693804122804E+01    1.1031397956882893E+01
N    1.9931806855080823E+00    1.0433405146482569E+01    1.2979612940185582E+01
Ga    2.0147922049721396E+00    8.5775081971409808E+00    1.3644708986982113E+01
N    1.5180111876917017E+00    8.2799087716186541E+00    1.5480814244592411E+01
Ga    4.4766461173932925E-01    9.5237560206334315E+00    1.6585778483614831E+01
N    2.1145615732639582E+00    8.6300577212530296E+00    1.7080364045628880E+01
N    9.8619404029829862E+00    4.0735860190543649E-02   -1.4778683850345362E-01
Ga    9.8800940786396847E+00    1.9103794872277473E+00    5.1950049980232937E-01
N    9.9254274190210730E+00    1.9461587198859458E+00    2.4405967312467109E+00
Ga    9.9157865752438124E+00    8.2711066493900587E-02    3.1498521072280128E+00
N    9.9589215037371854E+00    1.1089009695481851E-01    5.0758005674848414E+00
Ga    9.9840609990815281E+00    1.9822868697109406E+00    5.7728090629799995E+00
N    1.0015180416842854E+01    2.0055406615197318E+00    7.7040749464548508E+00
Ga    9.9954808047687962E+00    1.3548670766082366E-01    8.3795405700586514E+00
N    1.0008542208993752E+01    1.4782419824996082E-01    1.0312903934414569E+01
Ga    1.0038484679601504E+01    2.0079363053127910E+00    1.0999522223772779E+01
N    1.0079356511258952E+01    2.0348544073667196E+00    1.2935358506693312E+01
Ga    1.0119832416051937E+01    1.8877850296457849E-01    1.3658154737739041E+01
N    9.6437596015533398E+00   -7.1952248097421553E-02    1.5537896940455527E+01
Ga    8.5599264957865273E+00    1.1628960521191967E+00    1.6707966926333533E+01
N    1.0315589438824061E+01    2.9192044075870172E-01    1.6886547598175952E+01
N    8.2500837828663851E+00    2.8323724280298812E+00   -1.4665056491921519E-01
Ga    8.2692020944756752E+00    4.7025791001890553E+00    5.2043442754821889E-01
N    8.3144194017837023E+00    4.7381008108411136E+00    2.4423745823214387E+00
Ga    8.3039766629339447E+00    2.8731486596059148E+00    3.1498390078332497E+00
N    8.3499683729937022E+00    2.9004708909644812E+00    5.0777482683025550E+00
Ga    8.3716626843461146E+00    4.7711303734263373E+00    5.7728778790375195E+00
N    8.4035052210790937E+00    4.7973703292823719E+00    7.7063373543973555E+00
Ga    8.3907757155206451E+00    2.9300280224997981E+00    8.3869767605144752E+00
N    8.4117687927703937E+00    2.9352919544449581E+00    1.0325456104052996E+01
Ga    8.4183502041705687E+00    4.8038210473352674E+00    1.0995358675417640E+01
N    8.4466086933683151E+00    4.8286167116764158E+00    1.2917418780089934E+01
Ga    8.5078589499147448E+00    3.0000505689781889E+00    1.3645693479131843E+01
N    8.0869509034641389E+00    2.7456270156729934E+00    1.5541764946011922E+01
Ga    6.9357679868108093E+00    3.9396079556257022E+00    1.6725956604106671E+01
N    8.7003910631749406E+00    3.1082798633646735E+00    1.6916812336825004E+01
N    6.6388222066973581E+00    5.6235376049326202E+00   -1.4633216859052278E-01
Ga    6.6569222503448842E+00    7.4932471769305096E+00    5.1976589101919457E-01
N    6.7028085848772783E+00    7.5278492934822543E+00    2.4407244977463938E+00
Ga    6.6924689215057347E+00    5.6643618758235794E+00    3.1514786253869862E+00
N    6.7400836246281370E+00    5.6912697516803261E+00    5.0786979139884396E+00
Ga    6.7616632284752001E+00    7.5631426662438423E+00    5.7729764458725841E+00
N    6.7928003607865852E+00    7.5877706413164789E+00    7.7049844990165441E+00
Ga    6.7776503871091114E+00    5.7219143834539530E+00    8.3894894376142517E+00
N    6.7946481757720880E+00    5.7310891478507200E+00    1.0325045206901542E+01
Ga    6.8092859431700941E+00    7.6027193194990872E+00    1.0999979498490191E+01
N    6.8482225482409715E+00    7.6335088500461294E+00    1.2937097801761107E+01
Ga    6.8902621244246234E+00    5.7932193060036585E+00    1.3641747155108334E+01
N    6.4658210060661556E+00    5.5468725981769804E+00    1.5539784828529417E+01
Ga    5.3258590913016253E+00    6.7265601506285106E+00    1.6712845298521401E+01
N    7.0996875081076523E+00    5.8797898114972735E+00    1.6907756347365527E+01
N    5.0270257957596467E+00    8.4150740552988772E+00   -1.4766435921326793E-01
Ga    5.0455853189317335E+00    1.0285298004880620E+01    5.1944211195442402E-01
N    5.0912593073226926E+00    1.0321621123758057E+01    2.4412689004996544E+00
Ga    5.0813287459483600E+00    8.4555340003003145E+00    3.1465332195307698E+00
N    5.1268516208066401E+00    8.4788673663255718E+00    5.0728399017653354E+00
Ga    5.1456570574679468E+00    1.0351786841882120E+01    5.7645498935134158E+00
N    5.1732284227231018E+00    1.0375575529085832E+01    7.6950581669098632E+00
Ga    5.1622430245002304E+00    8.5099242521066216E+00    8.3812456511675801E+00
N    5.1818277256131102E+00    8.5123303187252599E+00    1.0312510544482176E+01
Ga    5.1870293655121937E+00    1.0381677747188499E+01    1.0977894364449424E+01
N    5.2112494136066054E+00    1.0396465655136801E+01    1.2887247534618874E+01
Ga    5.2667101956994768E+00    8.5881160221600776E+00    1.3665183086666621E+01
N    4.8108887683908108E+00    8.2950282607009314E+00    1.5533570006177609E+01
Ga    3.7145800752983900E+00    9.5269469948648187E+00    1.6767169490857771E+01
N    5.4623372665040453E+00    8.6806462970893215E+00    1.6877115173631825E+01
H    8.7989210642240412E-02    3.7733278712937045E-02   -1.1764066018077683E+00
H   -1.5243847638070547E+00    2.8295303603035986E+00   -1.1737634699869905E+00
H   -3.1362690208366346E+00    5.6201576778713065E+00   -1.1757655288895006E+00
H   -4.7462159169320630E+00    8.4101210095138086E+00   -1.1737200510783870E+00
H    3.3476988045283487E+00    3.8267844909519511E-02   -1.1733108620701529E+00
H    1.7348711263326151E+00    2.8310794210009833E+00   -1.1728393510107873E+00
H    1.2311240964924487E-01    5.6218424988434279E+00   -1.1720196526973179E+00
H   -1.4886272753637597E+00    8.4124851881319671E+00   -1.1719684079333161E+00
H    6.5988266119020382E+00    3.8069630430377942E-02   -1.1713164355835166E+00
H    4.9889897845048585E+00    2.8293058389355163E+00   -1.1721595054921516E+00
H    3.3765146593487132E+00    5.6197301608342984E+00   -1.1711127651506281E+00
H    1.7635356440025052E+00    8.4106533939983006E+00   -1.1713084777710128E+00
H    9.8543415587015026E+00    3.8046511355936202E-02   -1.1746706952921300E+00
H    8.2429406439987538E+00    2.8293609876684873E+00   -1.1735676933267569E+00
H    6.6324040569810663E+00    5.6190577380055631E+00   -1.1731734564193457E+00
H    5.0202151206328471E+00    8.4100395864674855E+00   -1.1746628204375149E+00
     &END COORD
     &KIND H
       BASIS_SET DZVP-MOLOPT-SR-GTH-q1
       POTENTIAL GTH-PBE-q1
       &POTENTIAL
1
0.2000000000000000E+00 2 -0.4178900440000000E+01  0.7244633100000000E+00
0
       &END POTENTIAL
     &END KIND
     &KIND N
       BASIS_SET DZVP-MOLOPT-SR-GTH
       POTENTIAL GTH-PBE-q5
       &POTENTIAL
2 3
0.2837905100000000E+00 2 -0.1241522559000000E+02  0.1868095920000000E+01
2
0.2554050000000000E+00 1  0.1363026257000000E+02
0.2454945300000000E+00 0
       &END POTENTIAL
     &END KIND
     &KIND Ga
       BASIS_SET DZVP-MOLOPT-SR-GTH
       POTENTIAL GTH-PBE-q13
       &POTENTIAL
2 1 10
0.4900000000000000E+00 0
3
0.4167772300000000E+00 3  0.1047568975000000E+02 -0.4921768140000000E+01  0.8707055900000000E+00
0.7770178090000000E+01 -0.2248152160000000E+01
0.1784415450000000E+01
0.5696265200000000E+00 2  0.1777985340000000E+01  0.1958597600000000E+00
-0.2317443900000000E+00
0.2381265000000000E+00 1 -0.1624868022000000E+02
       &END POTENTIAL
     &END KIND
     &TOPOLOGY
       NUMBER_OF_ATOMS  256
       MULTIPLE_UNIT_CELL  1 1 1
     &END TOPOLOGY
   &END SUBSYS
 &END FORCE_EVAL
