 # Version information for this restart file 
 # current date 2019-06-10 12:07:04.921
 # current working dir /lustre03/project/6037349/rzk/GaN-carbene/444-addat/00-Surface/RKS
 # Program compiled at                              Sun Apr  7 00:48:11 EDT 2019
 # Program compiled on                          beluga2.int.ets1.calculquebec.ca
 # Program compiled for                        Beluga-Linux-x86-64-intel-openmpi
 # Source code revision number                                         svn:18619
 &GLOBAL
   PRINT_LEVEL  MEDIUM
   PROJECT_NAME TEST
   RUN_TYPE  CELL_OPT
 &END GLOBAL
 &MOTION
   &CELL_OPT
     MAX_ITER  300
     STEP_START_VAL  24
     EXTERNAL_PRESSURE     1.0000000000000000E+00
     KEEP_ANGLES  T
     KEEP_SYMMETRY  T
     CONSTRAINT  Z
     PRESSURE_TOLERANCE     5.0000000000000000E+02
   &END CELL_OPT
 &END MOTION
 &FORCE_EVAL
   METHOD  QS
   STRESS_TENSOR  ANALYTICAL
   &DFT
     BASIS_SET_FILE_NAME BASIS_MOLOPT
     POTENTIAL_FILE_NAME GTH_POTENTIALS
     SURFACE_DIPOLE_CORRECTION  T
     SURF_DIP_DIR  Z
     &SCF
       MAX_SCF  100
       EPS_SCF     5.0000000000000004E-06
       &OT  T
         PRECONDITIONER  FULL_ALL
       &END OT
       &OUTER_SCF  T
         OPTIMIZER  NONE
         EPS_SCF     5.0000000000000004E-06
         MAX_SCF  4
       &END OUTER_SCF
       &PRINT
         &RESTART  OFF
           BACKUP_COPIES  1
           &EACH
             JUST_ENERGY  0
             QS_SCF  0
             MD  20
           &END EACH
         &END RESTART
       &END PRINT
     &END SCF
     &QS
       EPS_DEFAULT     1.0000000000000000E-14
       METHOD  GPW
     &END QS
     &MGRID
       NGRIDS  5
       CUTOFF     1.2000000000000000E+03
     &END MGRID
     &XC
       DENSITY_CUTOFF     1.0000000000000000E-10
       GRADIENT_CUTOFF     1.0000000000000000E-10
       TAU_CUTOFF     1.0000000000000000E-10
       &XC_FUNCTIONAL  NO_SHORTCUT
         &PBE  T
         &END PBE
       &END XC_FUNCTIONAL
       &VDW_POTENTIAL
         POTENTIAL_TYPE  PAIR_POTENTIAL
         &PAIR_POTENTIAL
           R_CUTOFF     1.0000000000000004E+01
           TYPE  DFTD3
           PARAMETER_FILE_NAME dftd3.dat
           REFERENCE_FUNCTIONAL PBE
           EPS_CN     9.9999999999999995E-07
           CALCULATE_C9_TERM  T
           REFERENCE_C9_TERM  T
           LONG_RANGE_CORRECTION  F
           VERBOSE_OUTPUT  F
         &END PAIR_POTENTIAL
       &END VDW_POTENTIAL
     &END XC
   &END DFT
   &SUBSYS
     &CELL
       A     1.2846633938698199E+01    0.0000000000000000E+00    0.0000000000000000E+00
       B    -6.4285989961652925E+00    1.1134660082844508E+01    0.0000000000000000E+00
       C     0.0000000000000000E+00    0.0000000000000000E+00    3.2000000000000000E+01
       MULTIPLE_UNIT_CELL  1 1 1
       &CELL_REF
         A     1.2982353780853531E+01    0.0000000000000000E+00    0.0000000000000000E+00
         B    -6.4911768904267628E+00    1.1243048175136114E+01    0.0000000000000000E+00
         C     0.0000000000000000E+00    0.0000000000000000E+00    3.2000000000000000E+01
         MULTIPLE_UNIT_CELL  1 1 1
       &END CELL_REF
     &END CELL
     &COORD
N    1.3134066549010043E-03    1.5461260797085079E-03   -1.8687749030841419E-01
Ga   -1.4211838854608354E-03    1.8539131315987163E+00    4.5404490879557080E-01
N   -1.5528993651525958E-03    1.8532061683951164E+00    2.3647023979674584E+00
Ga    1.2852219595853218E-03    3.5920349979864312E-04    3.0675547895932627E+00
N    4.1528161092692162E-03    1.0978335813506693E-03    4.9937343031733361E+00
Ga    2.5494042765713668E-03    1.8540438902876999E+00    5.7279556852957310E+00
N    1.2684528973226535E-02    1.8517365607383691E+00    7.6745138629089693E+00
Ga    1.5167554085860405E-02   -1.0885387191448040E-03    8.3837024770503135E+00
N    4.5807142495408924E-02   -1.5829563536083358E-04    1.0320696432164647E+01
Ga    5.7902204355758241E-02    1.8542561150098971E+00    1.1039232214772259E+01
N    1.2535133875350782E-01    1.8780884016715562E+00    1.2968542078698404E+01
Ga    1.1874950496258076E-01    2.6788297789671348E-02    1.3680150265097774E+01
N    8.2922128203824236E-03    9.0090051717829411E-02    1.5612035226250397E+01
Ga   -2.1330554003816160E-01    1.8081302255642804E+00    1.6748426208334973E+01
N    1.3310455854718886E+00    8.6977800879671774E-01    1.7522428654074083E+01
N   -1.6058300120964839E+00    2.7852506036540530E+00   -1.8681688507970037E-01
Ga   -1.6086041821876784E+00    4.6377186629862086E+00    4.5400768607397712E-01
N   -1.6088249801725854E+00    4.6371940762458577E+00    2.3646803388788364E+00
Ga   -1.6057962005527819E+00    2.7843374552865297E+00    3.0667533883329292E+00
N   -1.6026188945387325E+00    2.7852115810236255E+00    4.9927234214169056E+00
Ga   -1.6055037801183449E+00    4.6372247124312178E+00    5.7289710343158635E+00
N   -1.5968240741996125E+00    4.6345895460536157E+00    7.6755402329753961E+00
Ga   -1.5894180313927102E+00    2.7809879520488208E+00    8.3839215526195066E+00
N   -1.5539953572881120E+00    2.7805597943515186E+00    1.0321607540952421E+01
Ga   -1.5603322968621776E+00    4.6358224617488180E+00    1.1033852361368320E+01
N   -1.5075205177163853E+00    4.6559519046299105E+00    1.2957104361486175E+01
Ga   -1.4655742852690132E+00    2.8111569931558198E+00    1.3683999821499576E+01
N   -1.4912733190144918E+00    2.9230007849718675E+00    1.5629127105395996E+01
Ga   -1.7919990549956273E+00    4.6473867684171859E+00    1.6687361367838054E+01
N   -2.2753565400188144E-01    3.6726036414409196E+00    1.7476097827342166E+01
N   -3.2129949592031908E+00    5.5688564911473222E+00   -1.8695304096697954E-01
Ga   -3.2156936242678058E+00    7.4212504559195862E+00    4.5401339045405925E-01
N   -3.2157868611595832E+00    7.4204706366511175E+00    2.3646590626940882E+00
Ga   -3.2131028977931764E+00    5.5677546456217710E+00    3.0674582346804145E+00
N   -3.2103105099254252E+00    5.5684419404181167E+00    4.9934275098815517E+00
Ga   -3.2118585520085809E+00    7.4212198024296931E+00    5.7281986465676153E+00
N   -3.2018110926941015E+00    7.4182650393245924E+00    7.6746251503674117E+00
Ga   -3.1996773156548066E+00    5.5654598875480854E+00    8.3838285966920481E+00
N   -3.1694152874689192E+00    5.5642234272767004E+00    1.0320230932396576E+01
Ga   -3.1575980360167821E+00    7.4189163537820972E+00    1.1037947640603962E+01
N   -3.0911820234373293E+00    7.4381447140964232E+00    1.2965308182508887E+01
Ga   -3.1036786759309547E+00    5.5861363529977250E+00    1.3678440096463785E+01
N   -3.2204256169008545E+00    5.6480904771216949E+00    1.5607260423360593E+01
Ga   -3.4119886303337301E+00    7.3755088876748625E+00    1.6740441712671817E+01
N   -1.8620649337461321E+00    6.4596799521911272E+00    1.7531392546785757E+01
N   -4.8201181914069906E+00    8.3525213026100005E+00   -1.8692532715391810E-01
Ga   -4.8229064370090526E+00    1.0205046436150662E+01    4.5388027228276290E-01
N   -4.8231244480032709E+00    1.0204456138302117E+01    2.3645444541390765E+00
Ga   -4.8200149095206273E+00    8.3516972378692511E+00    3.0668948578920765E+00
N   -4.8168903918170800E+00    8.3524976563444362E+00    4.9928364550447393E+00
Ga   -4.8194601095890883E+00    1.0204393492540920E+01    5.7294740105075945E+00
N   -4.8109072022521904E+00    1.0201498806722338E+01    7.6759948991061870E+00
Ga   -4.8040218151215575E+00    8.3476827212181934E+00    8.3845830263420371E+00
N   -4.7691071510935981E+00    8.3466266312391468E+00    1.0321441549553720E+01
Ga   -4.7746935592651818E+00    1.0202473005797239E+01    1.1034821745118196E+01
N   -4.7231950746877400E+00    1.0222274436253798E+01    1.2956770309490155E+01
Ga   -4.6796016184623044E+00    8.3754493789286109E+00    1.3681095149274270E+01
N   -4.6964954737357667E+00    8.4800221074293169E+00    1.5625306762683975E+01
Ga   -5.0111839378835752E+00    1.0192622431709019E+01    1.6690760877119114E+01
N   -3.4393111574819502E+00    9.2394071429857583E+00    1.7478829055586122E+01
N    3.2130245383989973E+00    1.5851870159670949E-03   -1.8698133866114156E-01
Ga    3.2102405679603967E+00    1.8539255930682523E+00    4.5426027503462996E-01
N    3.2100944144039181E+00    1.8531655225045580E+00    2.3648400473110409E+00
Ga    3.2125891954711747E+00    1.2366405163943494E-04    3.0671673151245571E+00
N    3.2151287214454842E+00    5.6477908915381146E-04    4.9931710447691753E+00
Ga    3.2137953803814825E+00    1.8533106487364872E+00    5.7271882515718104E+00
N    3.2235071676435383E+00    1.8496775629413440E+00    7.6733950404048334E+00
Ga    3.2276697514079884E+00   -2.7493300406647150E-03    8.3848766951307194E+00
N    3.2607772384169209E+00   -5.7719772118250716E-03    1.0321297129699891E+01
Ga    3.2698898037149626E+00    1.8459915214334108E+00    1.1043563714173784E+01
N    3.3395372439430875E+00    1.8547208652033151E+00    1.2978274531536693E+01
Ga    3.3316006826868723E+00    6.4941147684407369E-04    1.3697998781656864E+01
N    3.2062379096833844E+00   -1.9598291086278061E-03    1.5644940608800969E+01
Ga    2.9561411733076954E+00    1.7654024165748765E+00    1.6868234249769330E+01
N    4.5730162661827825E+00    8.8629897700276228E-01    1.7429228123114147E+01
N    1.6058929331460483E+00    2.7852702888571166E+00   -1.8689948813798105E-01
Ga    1.6030455485491870E+00    4.6377240303678935E+00    4.5411451313826001E-01
N    1.6027904911781312E+00    4.6371848029919303E+00    2.3647720389431841E+00
Ga    1.6055954241451527E+00    2.7841750669207017E+00    3.0663990505885050E+00
N    1.6085942247343230E+00    2.7848748220640300E+00    4.9924220475013108E+00
Ga    1.6059708558468568E+00    4.6368771193304834E+00    5.7279335887550173E+00
N    1.6145526856711343E+00    4.6335621845206427E+00    7.6742316959790768E+00
Ga    1.6234191411909500E+00    2.7802605070272470E+00    8.3841518940400537E+00
N    1.6617182168410860E+00    2.7784118457645488E+00    1.0321815490541390E+01
Ga    1.6557382539673144E+00    4.6306438580359739E+00    1.1040880690949942E+01
N    1.7135815958809246E+00    4.6411494611664059E+00    1.2969392220712912E+01
Ga    1.7581253185299983E+00    2.7953230639112676E+00    1.3710232053097707E+01
N    1.7099735076162601E+00    2.8456493411530026E+00    1.5669923449829270E+01
Ga    1.4064051113723657E+00    4.6006737325141547E+00    1.6736260770044144E+01
N    2.9934163941943792E+00    3.6558755843485029E+00    1.7402059987265414E+01
N   -1.2941674071844799E-03    5.5689015494313292E+00   -1.8687349575881215E-01
Ga   -4.0493868749070334E-03    7.4212600660982142E+00    4.5418954761742408E-01
N   -4.2002750584354256E-03    7.4205214396596686E+00    2.3648513520373360E+00
Ga   -1.7304450019427254E-03    5.5676029979325152E+00    3.0672342658491960E+00
N    8.0759993354896544E-04    5.5681472571425692E+00    4.9933335599534692E+00
Ga   -3.7007696043360065E-04    7.4210946316554196E+00    5.7273502739156861E+00
N    9.8733496946768178E-03    7.4175559692724233E+00    7.6738149272134715E+00
Ga    1.3257320976239719E-02    5.5648660485658317E+00    8.3841664330297565E+00
N    4.7125557791711473E-02    5.5617625603882335E+00    1.0321485537651307E+01
Ga    5.6364741647558808E-02    7.4143598666941983E+00    1.1042817072896133E+01
N    1.2810015860162910E-01    7.4248093858238153E+00    1.2978640293501531E+01
Ga    1.1988763721462578E-01    5.5710456291831321E+00    1.3698118248182791E+01
N   -5.0868530406375893E-03    5.5701971726568145E+00    1.5643380792027099E+01
Ga   -2.4321331984502598E-01    7.3607049973340182E+00    1.6873977143965835E+01
N    1.3560403172079993E+00    6.4487865270815172E+00    1.7436655010568010E+01
N   -1.6084185379807427E+00    8.3525603247257720E+00   -1.8682784852396037E-01
Ga   -1.6112231281229406E+00    1.0205038653171966E+01    4.5404878675378402E-01
N   -1.6114170039947413E+00    1.0204427604760012E+01    2.3646986526100688E+00
Ga   -1.6087183414269917E+00    8.3514998061961006E+00    3.0665287358385269E+00
N   -1.6057250657513757E+00    8.3520658071076657E+00    4.9925390508239529E+00
Ga   -1.6083968900452006E+00    1.0204169075602092E+01    5.7281918657328621E+00
N   -1.5998745125093266E+00    1.0200408241524610E+01    7.6744147629215682E+00
Ga   -1.5913269564880552E+00    8.3471964965022902E+00    8.3844684688759479E+00
N   -1.5529720287081614E+00    8.3436808664057818E+00    1.0321382557933013E+01
Ga   -1.5607075567264701E+00    1.0196300161946732E+01    1.1041078739310596E+01
N   -1.5053539038311869E+00    1.0204282586781222E+01    1.2969021490724735E+01
Ga   -1.4614463172347074E+00    8.3570700212335698E+00    1.3710466476680276E+01
N   -1.5135428731441778E+00    8.4058373749259481E+00    1.5666377107499525E+01
Ga   -1.8008753382140688E+00    1.0166102899295865E+01    1.6732682760311711E+01
N   -2.0795214584713120E-01    9.2454475616331084E+00    1.7420484550478733E+01
N    6.4246795143986919E+00    1.5693530256929746E-03   -1.8684787034984163E-01
Ga    6.4219198265836956E+00    1.8539273313745748E+00    4.5427478688861184E-01
N    6.4217685317422095E+00    1.8531958683739054E+00    2.3648572107886117E+00
Ga    6.4242938471159690E+00    3.2440436739682627E-04    3.0672799574035023E+00
N    6.4266251277342858E+00    9.0272133671856405E-04    4.9932230542050107E+00
Ga    6.4252212933386490E+00    1.8539255325799056E+00    5.7271151673528831E+00
N    6.4345084050580184E+00    1.8513525780030924E+00    7.6732213053794922E+00
Ga    6.4371139043934029E+00   -1.6507275451561833E-03    8.3827287840405074E+00
N    6.4674798890916145E+00   -1.6510815062133542E-03    1.0319121838783232E+01
Ga    6.4778126694714677E+00    1.8536782845739495E+00    1.1035027122504403E+01
N    6.5430409236271201E+00    1.8719341064161941E+00    1.2961157952550186E+01
Ga    6.5364461836531795E+00    2.3167777866937352E-02    1.3680205965261143E+01
N    6.4268673917071482E+00    7.7456271947748859E-02    1.5611689309499774E+01
Ga    6.2182236335063363E+00    1.8080787204179767E+00    1.6741487647612338E+01
N    7.7682287066410565E+00    8.8952610793085030E-01    1.7524669544482400E+01
N    4.8175292377190431E+00    2.7852552283971534E+00   -1.8674503938035952E-01
Ga    4.8147389245050833E+00    4.6377356579821578E+00    4.5414229470545497E-01
N    4.8144601400038924E+00    4.6372225217082850E+00    2.3647835440657108E+00
Ga    4.8173197791732063E+00    2.7842492254413052E+00    3.0665569689587806E+00
N    4.8199373508436638E+00    2.7849835996807228E+00    4.9924117698843800E+00
Ga    4.8176747148438013E+00    4.6373281653243819E+00    5.7276601262523723E+00
N    4.8255117820518869E+00    4.6349190036481041E+00    7.6739041894368958E+00
Ga    4.8321288198800580E+00    2.7811931178130869E+00    8.3828739181319580E+00
N    4.8666859714261124E+00    2.7815520430064309E+00    1.0319821436391910E+01
Ga    4.8615223420414653E+00    4.6378075943764268E+00    1.1033337811157173E+01
N    4.9127425998200618E+00    4.6569649757544855E+00    1.2954654480774078E+01
Ga    4.9581560293439031E+00    2.8108687024701013E+00    1.3680191587228398E+01
N    4.9456571230833060E+00    2.9125234979776766E+00    1.5625289957930276E+01
Ga    4.6278476382034590E+00    4.6214011573863001E+00    1.6688429881188153E+01
N    6.1989087283580595E+00    3.6728378874791114E+00    1.7478949968426338E+01
N    3.2103824219327937E+00    5.5689146944140768E+00   -1.8683071291263526E-01
Ga    3.2076160908953013E+00    7.4213039815706043E+00    4.5430226846179972E-01
N    3.2074381877227784E+00    7.4206361484099403E+00    2.3648942823652694E+00
Ga    3.2099837744185380E+00    5.5677283970260198E+00    3.0672540539682038E+00
N    3.2122712408877296E+00    5.5685342689129884E+00    4.9933014739923864E+00
Ga    3.2111349735652053E+00    7.4218708330030534E+00    5.7268963552024026E+00
N    3.2207086290220506E+00    7.4198900541582713E+00    7.6733891130640410E+00
Ga    3.2229416852436121E+00    5.5668891202426920E+00    8.3819674839327263E+00
N    3.2529249154147704E+00    5.5685067021461290E+00    1.0318841768749657E+01
Ga    3.2653864102653634E+00    7.4230471115237089E+00    1.1037047605274498E+01
N    3.3326497895039182E+00    7.4454683341475887E+00    1.2965823322238544E+01
Ga    3.3277607012800430E+00    5.5959158972666350E+00    1.3679872187632231E+01
N    3.2184680332523312E+00    5.6489671603097689E+00    1.5615899107644546E+01
Ga    2.9915911358154164E+00    7.3694424121889384E+00    1.6755478595302424E+01
N    4.5404549433586245E+00    6.4375131623537039E+00    1.7516901685959414E+01
N    1.6032412800330873E+00    8.3525941079534292E+00   -1.8676195706972823E-01
Ga    1.6004415144960171E+00    1.0205071371546634E+01    4.5419667228326710E-01
N    1.6001794843644108E+00    1.0204568283869753E+01    2.3647789221987079E+00
Ga    1.6029460280596808E+00    8.3516952161570224E+00    3.0665272995495236E+00
N    1.6056296901554639E+00    8.3525760317589715E+00    4.9923942579519425E+00
Ga    1.6032702430170598E+00    1.0204708381754113E+01    5.7280120364513252E+00
N    1.6114827087066084E+00    1.0202277428329936E+01    7.6743422107624601E+00
Ga    1.6185707978009207E+00    8.3491702337556806E+00    8.3835698255372240E+00
N    1.6537231359078135E+00    8.3499468435162925E+00    1.0321082761518785E+01
Ga    1.6479111922234027E+00    1.0205362810756510E+01    1.1033895812188723E+01
N    1.7004473291647162E+00    1.0224643066336418E+01    1.2957038443047136E+01
Ga    1.7463881708078699E+00    8.3811047358847617E+00    1.3686578172956990E+01
N    1.7287639699900068E+00    8.4879638775063668E+00    1.5635183434514300E+01
Ga    1.4174586004459391E+00    1.0210491302932619E+01    1.6689058231436615E+01
N    2.9757939276180845E+00    9.2358544758172059E+00    1.7472807575121262E+01
N    9.6362856381816044E+00    1.5540632097595915E-03   -1.8672790667362218E-01
Ga    9.6336061186208077E+00    1.8539225530178631E+00    4.5431929412842637E-01
N    9.6335161101414108E+00    1.8532774852334322E+00    2.3649523790593303E+00
Ga    9.6360117611027185E+00    3.2195855357981465E-04    3.0672080965571165E+00
N    9.6385120221538578E+00    9.0106547445703859E-04    4.9931642049133105E+00
Ga    9.6375870846400922E+00    1.8540579942024107E+00    5.7265823195943817E+00
N    9.6477304689637133E+00    1.8513200986302736E+00    7.6727288045603261E+00
Ga    9.6503955641013075E+00   -1.3944743836553097E-03    8.3822817731429389E+00
N    9.6827067669970219E+00   -2.7141764643251378E-03    1.0319834472220196E+01
Ga    9.6909213877142495E+00    1.8503710178498041E+00    1.1040031632569759E+01
N    9.7580644446984977E+00    1.8658034966071324E+00    1.2973892745553384E+01
Ga    9.7520085860634680E+00    1.5402430076041730E-02    1.3694281742433377E+01
N    9.6100769577665837E+00    2.6335065046240832E-02    1.5636494381040576E+01
Ga    9.3734173604510787E+00    1.8162552961638252E+00    1.6841873029936732E+01
N    1.0974683204811495E+01    8.9828202801085288E-01    1.7413220771564383E+01
N    8.0291638818352968E+00    2.7852476972999378E+00   -1.8667684345468274E-01
Ga    8.0264315711226200E+00    4.6377521350736801E+00    4.5423012477693525E-01
N    8.0263066737180786E+00    4.6372322488278153E+00    2.3648379923832903E+00
Ga    8.0289983689705782E+00    2.7842728857859727E+00    3.0665580284515919E+00
N    8.0317924119548696E+00    2.7849824263131397E+00    4.9924617843934662E+00
Ga    8.0296200120528241E+00    4.6375212193918482E+00    5.7275421457932927E+00
N    8.0381440501672152E+00    4.6347884879800318E+00    7.6734073047520051E+00
Ga    8.0455983478384425E+00    2.7811824755190808E+00    8.3815370734562595E+00
N    8.0821232589515262E+00    2.7793918628097947E+00    1.0318398718238511E+01
Ga    8.0734824402470142E+00    4.6320530671545503E+00    1.1037721632483795E+01
N    8.1251490372640998E+00    4.6445645179304851E+00    1.2963134819028902E+01
Ga    8.1669309706623867E+00    2.7996956329155229E+00    1.3701117599689271E+01
N    8.0913731810837888E+00    2.8570569036680467E+00    1.5650047019370884E+01
Ga    7.8260337237136097E+00    4.6134405403659144E+00    1.6713279137389019E+01
N    9.4185748741863708E+00    3.6949656868968903E+00    1.7420888396307930E+01
N    6.4220113945597648E+00    5.5688732201101701E+00   -1.8677376258563066E-01
Ga    6.4192891175795701E+00    7.4212874634219315E+00    4.5431698198566950E-01
N    6.4192254943250759E+00    7.4206132872465052E+00    2.3649322262903549E+00
Ga    6.4217464755597824E+00    5.5676868658712566E+00    3.0671046514251241E+00
N    6.4241957626514887E+00    5.5683912026214992E+00    4.9929291610348123E+00
Ga    6.4232286181397686E+00    7.4214889126665433E+00    5.7269254261395206E+00
N    6.4330181137327660E+00    7.4187196212499282E+00    7.6728836727730911E+00
Ga    6.4358949329387878E+00    5.5660196983281329E+00    8.3818226550131492E+00
N    6.4675587149657954E+00    5.5647901962557516E+00    1.0318391662521842E+01
Ga    6.4766968700500183E+00    7.4161788870031247E+00    1.1042031827824330E+01
N    6.5427195027324849E+00    7.4305295762625310E+00    1.2975350703368775E+01
Ga    6.5352202412951836E+00    5.5785932947132375E+00    1.3693052050432209E+01
N    6.3904870444210475E+00    5.5868166449622301E+00    1.5636574037071828E+01
Ga    6.1520447846893589E+00    7.3523943785900236E+00    1.6843929437980158E+01
N    7.7696256235586505E+00    6.4686935019970466E+00    1.7413489391472741E+01
N    4.8148868099527826E+00    8.3525511880837584E+00   -1.8665187731001212E-01
Ga    4.8121091794870026E+00    1.0205081477072694E+01    4.5419918487123168E-01
N    4.8119739731586133E+00    1.0204628677808435E+01    2.3648624631576731E+00
Ga    4.8147867141189753E+00    8.3517179132079598E+00    3.0664398578806153E+00
N    4.8176769979385146E+00    8.3525620756853876E+00    4.9922850097743421E+00
Ga    4.8154887116971690E+00    1.0204797153481744E+01    5.7277983458852235E+00
N    4.8241456127704314E+00    1.0202215748516602E+01    7.6739449194641525E+00
Ga    4.8320340054837549E+00    8.3490100839957258E+00    8.3827344280004930E+00
N    4.8690652816903217E+00    8.3485401873935317E+00    1.0320428647626656E+01
Ga    4.8624246920375507E+00    1.0201616028159021E+01    1.1039217318611607E+01
N    4.9166442213279922E+00    1.0217432037637735E+01    1.2966703947231856E+01
Ga    4.9604887633693924E+00    8.3728881476101922E+00    1.3703334313698333E+01
N    4.8918524727490054E+00    8.4334390749583328E+00    1.5659210941941785E+01
Ga    4.5983128667028428E+00    1.0180107057364044E+01    1.6722625774361173E+01
N    6.1870969261614794E+00    9.2369061884526271E+00    1.7396391304334163E+01
H    5.5973430498671849E-04    5.2419214593579626E-04   -1.2059309133022467E+00
H   -1.6066020609536218E+00    2.7841671305907756E+00   -1.2058260460516317E+00
H   -3.2137174125448569E+00    5.5678137472207512E+00   -1.2058906940800267E+00
H   -4.8208777459221528E+00    8.3514405286691584E+00   -1.2057455111505355E+00
H    3.2125139221441179E+00    7.1902712179666706E-04   -1.2058847995282143E+00
H    1.6053868558174818E+00    2.7843137567242735E+00   -1.2058406286806960E+00
H   -1.8291118332341215E-03    5.5680022798588800E+00   -1.2059417342954915E+00
H   -1.6089234064370916E+00    8.3516493745645342E+00   -1.2059211359338029E+00
H    6.4241355215293012E+00    6.5664690777820090E-04   -1.2057449519738559E+00
H    4.8169770384649704E+00    2.7842672771036039E+00   -1.2056911535680990E+00
H    3.2098174227995178E+00    5.5679786558046640E+00   -1.2056971076187593E+00
H    1.6026773348707910E+00    8.3516322695127503E+00   -1.2056651111508152E+00
H    9.6355437819936061E+00    5.5026975708079133E-04   -1.2057629303468718E+00
H    8.0284277845834442E+00    2.7841699733663479E+00   -1.2056030445377779E+00
H    6.4212893124046291E+00    5.5678628378902557E+00   -1.2057369977201884E+00
H    4.8141510660342917E+00    8.3514951555801762E+00   -1.2056571118996664E+00
     &END COORD
     &KIND H
       BASIS_SET DZVP-MOLOPT-SR-GTH-q1
       POTENTIAL GTH-PBE-q1
       &POTENTIAL
 1
  0.2000000000000000E+00 2 -0.4178900440000000E+01  0.7244633100000000E+00
 0
         # Potential name:  GTH-PBE-Q1  for symbol:  H
         # Potential read from the potential filename: GTH_POTENTIALS
       &END POTENTIAL
     &END KIND
     &KIND N
       BASIS_SET DZVP-MOLOPT-SR-GTH
       POTENTIAL GTH-PBE-q5
       &POTENTIAL
 2 3
  0.2837905100000000E+00 2 -0.1241522559000000E+02  0.1868095920000000E+01
 2
  0.2554050000000000E+00 1  0.1363026257000000E+02
  0.2454945300000000E+00 0
         # Potential name:  GTH-PBE-Q5  for symbol:  N
         # Potential read from the potential filename: GTH_POTENTIALS
       &END POTENTIAL
     &END KIND
     &KIND Ga
       BASIS_SET DZVP-MOLOPT-SR-GTH
       POTENTIAL GTH-PBE-q13
       &POTENTIAL
 2 1 10
  0.4900000000000000E+00 0
 3
  0.4167772300000000E+00 3  0.1047568975000000E+02 -0.4921768140000000E+01  0.8707055900000000E+00
  0.7770178090000000E+01 -0.2248152160000000E+01
  0.1784415450000000E+01
  0.5696265200000000E+00 2  0.1777985340000000E+01  0.1958597600000000E+00
 -0.2317443900000000E+00
  0.2381265000000000E+00 1 -0.1624868022000000E+02
         # Potential name:  GTH-PBE-Q13  for symbol:  GA
         # Potential read from the potential filename: GTH_POTENTIALS
       &END POTENTIAL
     &END KIND
     &TOPOLOGY
       NUMBER_OF_ATOMS  256
       MULTIPLE_UNIT_CELL  1 1 1
     &END TOPOLOGY
   &END SUBSYS
 &END FORCE_EVAL
