 # Version information for this restart file 
 # current date 2019-06-10 23:45:15.224
 # current working dir /lustre03/project/6037349/rzk/GaN-carbene/444-addat/00-Surface/RKS
 # Program compiled at                              Sun Apr  7 00:48:11 EDT 2019
 # Program compiled on                          beluga2.int.ets1.calculquebec.ca
 # Program compiled for                        Beluga-Linux-x86-64-intel-openmpi
 # Source code revision number                                         svn:18619
 &GLOBAL
   PRINT_LEVEL  MEDIUM
   PROJECT_NAME TEST
   RUN_TYPE  CELL_OPT
 &END GLOBAL
 &MOTION
   &CELL_OPT
     MAX_ITER  300
     STEP_START_VAL  85
     EXTERNAL_PRESSURE     1.0000000000000000E+00
     KEEP_ANGLES  T
     KEEP_SYMMETRY  T
     CONSTRAINT  Z
     PRESSURE_TOLERANCE     5.0000000000000000E+02
   &END CELL_OPT
 &END MOTION
 &FORCE_EVAL
   METHOD  QS
   STRESS_TENSOR  ANALYTICAL
   &DFT
     BASIS_SET_FILE_NAME BASIS_MOLOPT
     POTENTIAL_FILE_NAME GTH_POTENTIALS
     SURFACE_DIPOLE_CORRECTION  T
     SURF_DIP_DIR  Z
     &SCF
       MAX_SCF  100
       EPS_SCF     5.0000000000000004E-06
       &OT  T
         PRECONDITIONER  FULL_ALL
       &END OT
       &OUTER_SCF  T
         OPTIMIZER  NONE
         EPS_SCF     5.0000000000000004E-06
         MAX_SCF  4
       &END OUTER_SCF
       &PRINT
         &RESTART  OFF
           BACKUP_COPIES  1
           &EACH
             JUST_ENERGY  0
             QS_SCF  0
             MD  20
           &END EACH
         &END RESTART
       &END PRINT
     &END SCF
     &QS
       EPS_DEFAULT     1.0000000000000000E-14
       METHOD  GPW
     &END QS
     &MGRID
       NGRIDS  5
       CUTOFF     1.2000000000000000E+03
     &END MGRID
     &XC
       DENSITY_CUTOFF     1.0000000000000000E-10
       GRADIENT_CUTOFF     1.0000000000000000E-10
       TAU_CUTOFF     1.0000000000000000E-10
       &XC_FUNCTIONAL  NO_SHORTCUT
         &PBE  T
         &END PBE
       &END XC_FUNCTIONAL
       &VDW_POTENTIAL
         POTENTIAL_TYPE  PAIR_POTENTIAL
         &PAIR_POTENTIAL
           R_CUTOFF     1.0000000000000005E+01
           TYPE  DFTD3
           PARAMETER_FILE_NAME dftd3.dat
           REFERENCE_FUNCTIONAL PBE
           EPS_CN     9.9999999999999995E-07
           CALCULATE_C9_TERM  T
           REFERENCE_C9_TERM  T
           LONG_RANGE_CORRECTION  F
           VERBOSE_OUTPUT  F
         &END PAIR_POTENTIAL
       &END VDW_POTENTIAL
     &END XC
   &END DFT
   &SUBSYS
     &CELL
       A     1.3018245805136296E+01    0.0000000000000000E+00    0.0000000000000000E+00
       B    -6.4483198099720189E+00    1.1168817534324567E+01    0.0000000000000000E+00
       C     0.0000000000000000E+00    0.0000000000000000E+00    3.2000000000000000E+01
       MULTIPLE_UNIT_CELL  1 1 1
       &CELL_REF
         A     1.2982353780853531E+01    0.0000000000000000E+00    0.0000000000000000E+00
         B    -6.4911768904267628E+00    1.1243048175136114E+01    0.0000000000000000E+00
         C     0.0000000000000000E+00    0.0000000000000000E+00    3.2000000000000000E+01
         MULTIPLE_UNIT_CELL  1 1 1
       &END CELL_REF
     &END CELL
     &COORD
N    1.1047003794430457E-01    5.1565049982658720E-02   -1.5105982014029168E-01
Ga    1.2648406637400555E-01    1.9191977909606828E+00    5.1739633575435728E-01
N    1.7347111724116518E-01    1.9570723726234966E+00    2.4391037588893658E+00
Ga    1.6659450961223335E-01    9.5072988287371540E-02    3.1515553612019205E+00
N    2.0923229051028944E-01    1.1963546369909563E-01    5.0812016654273684E+00
Ga    2.2759268516339246E-01    1.9914817281905832E+00    5.7729491257540566E+00
N    2.4929277644318662E-01    2.0084771047454280E+00    7.7058895300660799E+00
Ga    2.2893507614874420E-01    1.3836082600328703E-01    8.3812576100534102E+00
N    2.4282680423228689E-01    1.4323776771562791E-01    1.0320636440353580E+01
Ga    2.6848148510965980E-01    2.0101669289996664E+00    1.1014001722119504E+01
N    3.0287944621839108E-01    2.0347670935421824E+00    1.2942228666918369E+01
Ga    2.6680137016292638E-01    1.6050519504371569E-01    1.3599190518007461E+01
N   -2.4101313580632489E-01   -1.3090602992805844E-01    1.5352382940927285E+01
Ga   -9.1422490332074402E-01    1.0106775467695550E+00    1.6741011108545557E+01
N    3.8002744257508336E-01    2.0495992978988661E-01    1.8044627601653424E+01
N   -1.5014816437227250E+00    2.8447157584154557E+00   -1.4723768022828324E-01
Ga   -1.4862781038380020E+00    4.7127209380328425E+00    5.2203590507516906E-01
N   -1.4394281300709115E+00    4.7501740081622117E+00    2.4431615624250718E+00
Ga   -1.4462870627115072E+00    2.8862900674754473E+00    3.1508503072628975E+00
N   -1.4039810071458192E+00    2.9137367333454796E+00    5.0801458717450947E+00
Ga   -1.3851454952493201E+00    4.7830302102877464E+00    5.7741285967702831E+00
N   -1.3649409915779305E+00    4.8011592290491505E+00    7.7089737175103714E+00
Ga   -1.3755777660214614E+00    2.9343722962796921E+00    8.3886704299314960E+00
N   -1.3611147653804261E+00    2.9350394470069538E+00    1.0328014973127768E+01
Ga   -1.3548686548318949E+00    4.7998290829153820E+00    1.1026114307634588E+01
N   -1.3248346687048858E+00    4.8309069395974493E+00    1.2961410198439539E+01
Ga   -1.3138814568054840E+00    2.9641446319607359E+00    1.3615453179115816E+01
N   -1.8097695460330110E+00    2.5378968193416243E+00    1.5444159282026565E+01
Ga   -2.7996006398027249E+00    4.2891961329617265E+00    1.6852476801105745E+01
N   -1.3129751672353422E+00    2.9804104255697359E+00    1.6716998551416626E+01
N   -3.1134587707356141E+00    5.6360646384277988E+00   -1.4966879824088511E-01
Ga   -3.0977949846929773E+00    7.5033312501062683E+00    5.2039661627540790E-01
N   -3.0506575633969177E+00    7.5403708428441405E+00    2.4416008526042274E+00
Ga   -3.0589821790166001E+00    5.6786135910890367E+00    3.1536153024790030E+00
N   -3.0154738892273780E+00    5.7044655475227479E+00    5.0826638546335241E+00
Ga   -2.9961663359301838E+00    7.5726395239038453E+00    5.7768484860266538E+00
N   -2.9753988968399696E+00    7.5923201588338793E+00    7.7107872084857085E+00
Ga   -2.9894185042265669E+00    5.7268684641795664E+00    8.3990853072261693E+00
N   -2.9787332413434204E+00    5.7301947309218200E+00    1.0335357740621252E+01
Ga   -2.9639544170549925E+00    7.5952197117896159E+00    1.1031272075525118E+01
N   -2.9272167734490231E+00    7.6121046919911217E+00    1.2967349986349140E+01
Ga   -2.9477469936683631E+00    5.7495881751123443E+00    1.3671694211416551E+01
N   -3.4009056034463723E+00    5.4859322856172792E+00    1.5452468466239942E+01
Ga   -4.1281922572551739E+00    6.5936358221142184E+00    1.6860369544247636E+01
N   -2.7726084201060877E+00    5.8296309632861512E+00    1.8103586491742224E+01
N   -4.7253033038805210E+00    8.4283814637010686E+00   -1.4720200127121125E-01
Ga   -4.7100289834709521E+00    1.0297024647490019E+01    5.1907823993100977E-01
N   -4.6627364967171490E+00    1.0334055460871255E+01    2.4408906823394596E+00
Ga   -4.6701930577388886E+00    8.4701062339086572E+00    3.1512508215657054E+00
N   -4.6263333220161709E+00    8.4950091382591122E+00    5.0806204328280202E+00
Ga   -4.6067178164363325E+00    1.0364789710743416E+01    5.7700285223876540E+00
N   -4.5880296109358509E+00    1.0385712352731590E+01    7.7034942896067582E+00
Ga   -4.5995290766335124E+00    8.5204480394825399E+00    8.3898376148227012E+00
N   -4.5857536009963829E+00    8.5243242528143881E+00    1.0328957568238989E+01
Ga   -4.5752173421698883E+00    1.0393449315310741E+01    1.1010869995777236E+01
N   -4.5376133353003860E+00    1.0419118236637866E+01    1.2943869182636298E+01
Ga   -4.5453239210251111E+00    8.5605680836920790E+00    1.3618626957190916E+01
N   -5.1559329924691220E+00    8.3543238234989570E+00    1.5450374152662398E+01
Ga   -6.0287153772150601E+00    9.8613272549879447E+00    1.6722480154081310E+01
N   -4.5173834488915885E+00    8.5252861312719492E+00    1.6730514818717268E+01
N    3.3651918969592116E+00    5.2080667931493393E-02   -1.4756330703000387E-01
Ga    3.3814835013797566E+00    1.9199742442737044E+00    5.2058029887096058E-01
N    3.4276337126932956E+00    1.9570525033756667E+00    2.4421105022086502E+00
Ga    3.4213075872090810E+00    9.5066744547719850E-02    3.1530791290232378E+00
N    3.4670879651373485E+00    1.2110992978825218E-01    5.0835824876993350E+00
Ga    3.4804589548290275E+00    1.9883147115501587E+00    5.7856727197909112E+00
N    3.5062393139019954E+00    2.0086644801352631E+00    7.7195185584377262E+00
Ga    3.4886983019263873E+00    1.4357534819437487E-01    8.4042186776611345E+00
N    3.5056783053375287E+00    1.5090304526825329E-01    1.0343772025173424E+01
Ga    3.5261776477205635E+00    2.0143032980946440E+00    1.1031186550552981E+01
N    3.5619064681881003E+00    2.0419107253102489E+00    1.2974801012524434E+01
Ga    3.5178867767050526E+00    1.9615384044654458E-01    1.3684300416966384E+01
N    2.9410261882960387E+00   -4.6893832056266724E-02    1.5566120115075687E+01
Ga    1.9250850601209022E+00    1.0854951794928305E+00    1.7617756268158786E+01
N    3.5500044249519389E+00    2.7734471370936953E-01    1.6896645031710030E+01
N    1.7535006414981400E+00    2.8442304873175672E+00   -1.4644224144917248E-01
Ga    1.7681393794514297E+00    4.7122793891755830E+00    5.1940747170557122E-01
N    1.8135468461754285E+00    4.7486442455020264E+00    2.4406410546017803E+00
Ga    1.8087527923674638E+00    2.8869627418883819E+00    3.1510999962562178E+00
N    1.8543109312189774E+00    2.9141549561990052E+00    5.0827093198457618E+00
Ga    1.8660517093058679E+00    4.7796006053148661E+00    5.7850592087296748E+00
N    1.8876208492404030E+00    4.7988755281604494E+00    7.7196529760555990E+00
Ga    1.8812235202385414E+00    2.9316532614430786E+00    8.4020228718136778E+00
N    1.9010903482128680E+00    2.9333643731542978E+00    1.0339153710308029E+01
Ga    1.9063338869969662E+00    4.7904793672634414E+00    1.1040998684483714E+01
N    1.9279368429473420E+00    4.8094528303304429E+00    1.2990706084824900E+01
Ga    1.9369342205499462E+00    2.9348445158610637E+00    1.3682976399945147E+01
N    1.4364298405078548E+00    2.5423920757832703E+00    1.5560866698580551E+01
Ga    3.1973973906742198E-01    3.8758464893443514E+00    1.6427276019045451E+01
N    2.0243131505816976E+00    2.8977623100682015E+00    1.6875249166814932E+01
N    1.4043376420090711E-01    5.6357970668415049E+00   -1.4629194302423057E-01
Ga    1.5590581092573336E-01    7.5035553815840057E+00    5.1964498669701020E-01
N    2.0016788975778932E-01    7.5395074870621741E+00    2.4410006729447606E+00
Ga    1.9687193367846723E-01    5.6785132771538356E+00    3.1547672089064109E+00
N    2.4098602622398313E-01    5.7048125911369318E+00    5.0853494857906894E+00
Ga    2.5237091086473235E-01    7.5707544666091451E+00    5.7873442520765783E+00
N    2.7481146538538315E-01    7.5897234648142993E+00    7.7233826208293657E+00
Ga    2.6483727954546671E-01    5.7237790438392526E+00    8.4130024796725653E+00
N    2.8396515617309359E-01    5.7259416131480405E+00    1.0355224116737098E+01
Ga    3.0222859129873342E-01    7.5984722019121040E+00    1.1027136596389870E+01
N    3.4359386173374828E-01    7.6268459757477585E+00    1.2967995776750293E+01
Ga    3.0846426951817846E-01    5.7769140533687642E+00    1.3651507947834524E+01
N   -2.1895717462560843E-01    5.5012001158207067E+00    1.5521379473621801E+01
Ga   -1.2550272040379977E+00    6.7094770140641566E+00    1.7554761539462561E+01
N    3.4987310132182609E-01    5.8508126719140527E+00    1.6852008081528375E+01
N   -1.4715693476550740E+00    8.4283436297343162E+00   -1.4570556912977584E-01
Ga   -1.4559948674066046E+00    1.0296339227440406E+01    5.1985872937578537E-01
N   -1.4106225357413187E+00    1.0332576281559785E+01    2.4410545096695149E+00
Ga   -1.4161623826740020E+00    8.4711865313026422E+00    3.1540815957408075E+00
N   -1.3720828110451742E+00    8.4972033361292283E+00    5.0854492051976070E+00
Ga   -1.3580023433806001E+00    1.0362703472133019E+01    5.7853560855124497E+00
N   -1.3373472444795838E+00    1.0382128806649455E+01    7.7202667640989322E+00
Ga   -1.3476493560475753E+00    8.5183148659911456E+00    8.4137548981069017E+00
N   -1.3305900409049800E+00    8.5251841655500105E+00    1.0354137738672170E+01
Ga   -1.3273534055494540E+00    1.0391540427834055E+01    1.1043744710886536E+01
N   -1.3019608003004588E+00    1.0412182982090108E+01    1.2995529725766398E+01
Ga   -1.2799318239366273E+00    8.5313566943339421E+00    1.3659129175582571E+01
N   -1.7718334146265216E+00    8.2075095785490024E+00    1.5521807418900622E+01
Ga   -2.9114703313306642E+00    9.4769512887910441E+00    1.6434092956569756E+01
N   -1.1805730807538013E+00    8.5176874793688508E+00    1.6846613749865387E+01
N    6.6186757385101336E+00    5.1805835586819983E-02   -1.4606622351584828E-01
Ga    6.6346139309091869E+00    1.9202922619254625E+00    5.1924720857919660E-01
N    6.6785139338277943E+00    1.9557951715507276E+00    2.4416482481472417E+00
Ga    6.6705464199280851E+00    9.3612364735040712E-02    3.1531917614988267E+00
N    6.7110583225918408E+00    1.1731779623816677E-01    5.0843071723364881E+00
Ga    6.7289040820583859E+00    1.9840479704120222E+00    5.7820418754442997E+00
N    6.7487809173863313E+00    2.0020301183521068E+00    7.7169077257558349E+00
Ga    6.7407040150829873E+00    1.3995818838703586E-01    8.4135386213703391E+00
N    6.7542126815932226E+00    1.4633485389482676E-01    1.0361216929427213E+01
Ga    6.7896772853474223E+00    2.0150286065688401E+00    1.1038546667496080E+01
N    6.8280160955495601E+00    2.0429797662961287E+00    1.2984553471851866E+01
Ga    6.8056783009187001E+00    1.8204116247997978E-01    1.3646533186445355E+01
N    6.2725994881972493E+00   -1.2909013746015804E-01    1.5484549773794178E+01
Ga    5.2249136649977244E+00    1.1330306415389297E+00    1.6576763591650458E+01
N    6.9184034034369093E+00    2.5749759776878839E-01    1.7071879515027373E+01
N    5.0069901212617660E+00    2.8439714350161176E+00   -1.4750040501128489E-01
Ga    5.0232222329355070E+00    4.7114215226642528E+00    5.1984662939265369E-01
N    5.0677578426809111E+00    4.7464592224711142E+00    2.4423687860362819E+00
Ga    5.0615026791953621E+00    2.8852597167901308E+00    3.1559429986735505E+00
N    5.1035013039047126E+00    2.9106235772028533E+00    5.0869580320557244E+00
Ga    5.1166790377381490E+00    4.7780542132921413E+00    5.7799896727904416E+00
N    5.1344648929142851E+00    4.7971043376990306E+00    7.7160368096718388E+00
Ga    5.1360817086619406E+00    2.9364680624133976E+00    8.4173981317711384E+00
N    5.1588712305457260E+00    2.9401618284202189E+00    1.0363053387497128E+01
Ga    5.1685364675362546E+00    4.8134481643361360E+00    1.1033576555674994E+01
N    5.2092332306210425E+00    4.8437128996147942E+00    1.2979724079269596E+01
Ga    5.2211982559883161E+00    2.9881008668242539E+00    1.3633833365185344E+01
N    4.7044371941637682E+00    2.6764192625045933E+00    1.5461880069368449E+01
Ga    3.6230724061008011E+00    3.8935402375449719E+00    1.6560767435939795E+01
N    5.3097701889282085E+00    3.0324493594305055E+00    1.7059007398016206E+01
N    3.3948765679667692E+00    5.6355273472850538E+00   -1.4603492167696241E-01
Ga    3.4110044248827598E+00    7.5037958189808576E+00    5.1741587526762578E-01
N    3.4545657471958449E+00    7.5377640845142713E+00    2.4397703351259161E+00
Ga    3.4481494674718025E+00    5.6753821460356493E+00    3.1527943994300975E+00
N    3.4885280764583628E+00    5.6998572135662355E+00    5.0840076673766239E+00
Ga    3.5024457376100164E+00    7.5671611372161189E+00    5.7757555654804635E+00
N    3.5215085404988011E+00    7.5853137246012494E+00    7.7107819460559570E+00
Ga    3.5157893398595168E+00    5.7261079071782319E+00    8.4117082100805352E+00
N    3.5314746552863272E+00    5.7263243233525385E+00    1.0358169722859273E+01
Ga    3.5604048591527384E+00    7.5974980328211794E+00    1.1035044975971848E+01
N    3.5962188197212468E+00    7.6199767466873229E+00    1.2978486064537877E+01
Ga    3.5826761474381845E+00    5.7602286644980998E+00    1.3643723166777644E+01
N    3.0420874387491645E+00    5.4356362583121429E+00    1.5477071606177990E+01
Ga    2.0305413019889906E+00    6.7245749023189365E+00    1.6579342213835893E+01
N    3.6924441527764507E+00    5.7989029205663574E+00    1.7070304268715933E+01
N    1.7823891907320915E+00    8.4282724664469342E+00   -1.4591786240390459E-01
Ga    1.7986666968598504E+00    1.0297041386006001E+01    5.1907266795324081E-01
N    1.8416514852985253E+00    1.0332713956496773E+01    2.4412930053278590E+00
Ga    1.8351671391393016E+00    8.4684354298313433E+00    3.1499381457594824E+00
N    1.8750274907815696E+00    8.4925765843827357E+00    5.0813963591066305E+00
Ga    1.8894030279325844E+00    1.0360468894361643E+01    5.7736106810203358E+00
N    1.9078676889858064E+00    1.0378443807606299E+01    7.7087219231760287E+00
Ga    1.9072109189100934E+00    8.5184106634160930E+00    8.4075407153099704E+00
N    1.9294354054759177E+00    8.5249350329724045E+00    1.0353245646279326E+01
Ga    1.9415262159166926E+00    1.0394690157183705E+01    1.1034288530435882E+01
N    1.9771132974739476E+00    1.0425883218355896E+01    1.2978623296948522E+01
Ga    1.9995339957586256E+00    8.5741316630705722E+00    1.3645056041181865E+01
N    1.4964682361309931E+00    8.2730985857712867E+00    1.5481530055515469E+01
Ga    4.2878433993282905E-01    9.5145711690231956E+00    1.6578054253767029E+01
N    2.0941880983220456E+00    8.6223462521728589E+00    1.7083698149180723E+01
N    9.8738807848682750E+00    5.1796035586714875E-02   -1.4917156859286854E-01
Ga    9.8900223337466180E+00    1.9200147241367373E+00    5.1702920620855752E-01
N    9.9354897372567130E+00    1.9569167708627364E+00    2.4389629805609001E+00
Ga    9.9264992765415752E+00    9.3940745470069656E-02    3.1477401101882254E+00
N    9.9648476949546740E+00    1.1739682445321706E-01    5.0782872151042762E+00
Ga    9.9884330784559232E+00    1.9872025804499203E+00    5.7709715253706326E+00
N    1.0010123618930715E+01    2.0045570805832589E+00    7.7021975942144802E+00
Ga    9.9912022011604638E+00    1.3648714622300182E-01    8.3808007247528131E+00
N    9.9996048181950243E+00    1.4446180544476570E-01    1.0315434037475052E+01
Ga    1.0027776690907935E+01    2.0053015172377289E+00    1.1002411368297349E+01
N    1.0060966068556061E+01    2.0280600444111561E+00    1.2933729532597773E+01
Ga    1.0099089739374927E+01    1.8189952656905123E-01    1.3657650126862587E+01
N    9.6246218737484082E+00   -8.1617801119787670E-02    1.5538298255331449E+01
Ga    8.5318649758619358E+00    1.1466172514817847E+00    1.6706111459680070E+01
N    1.0291833446058538E+01    2.7985371293063510E-01    1.6887906350590359E+01
N    8.2614650416084032E+00    2.8444310626726090E+00   -1.4744334618236352E-01
Ga    8.2785484872169892E+00    4.7128849616781281E+00    5.1932950436013281E-01
N    8.3238414963841549E+00    4.7485804965794651E+00    2.4413491525093227E+00
Ga    8.3152934075742237E+00    2.8845584529669432E+00    3.1501912479285279E+00
N    8.3557321033810048E+00    2.9085450943087974E+00    5.0818101555713682E+00
Ga    8.3757116537302565E+00    4.7788067200496975E+00    5.7686205800779247E+00
N    8.3960580141103875E+00    4.7986821120440419E+00    7.7027895543676488E+00
Ga    8.3845332372339225E+00    2.9307282198285676E+00    8.3852761755060019E+00
N    8.4005451133786568E+00    2.9307531250806793E+00    1.0323334050585572E+01
Ga    8.4073514278339978E+00    4.8002172568518864E+00    1.0988738500510951E+01
N    8.4317970192448595E+00    4.8223654143172503E+00    1.2915039846545877E+01
Ga    8.4871401982250863E+00    2.9946917965815913E+00    1.3646351610681483E+01
N    8.0563591306392617E+00    2.7377272440170857E+00    1.5537677141138168E+01
Ga    6.9062234154538400E+00    3.9213769582567473E+00    1.6722937580826702E+01
N    8.6715319562100337E+00    3.0968389639766176E+00    1.6920646439483431E+01
N    6.6497154746327789E+00    5.6359797386818729E+00   -1.4734577567619558E-01
Ga    6.6659816324024090E+00    7.5043613634791724E+00    5.1680377106161124E-01
N    6.7124596754174846E+00    7.5396724253346239E+00    2.4388482842931127E+00
Ga    6.7031629319421171E+00    5.6774352411220042E+00    3.1509372345671784E+00
N    6.7444973615907431E+00    5.7014355731946988E+00    5.0819920266925038E+00
Ga    6.7641305068819531E+00    7.5716663414961829E+00    5.7722283212341639E+00
N    6.7847894843072085E+00    7.5913747976612216E+00    7.7038964171431621E+00
Ga    6.7697010673890965E+00    5.7248213968863952E+00    8.3865701894619491E+00
N    6.7823779456607065E+00    5.7321241312872910E+00    1.0324102356075359E+01
Ga    6.7978449197212258E+00    7.6004442061259416E+00    1.1004580465520979E+01
N    6.8306773108721934E+00    7.6269407987454079E+00    1.2935221570108732E+01
Ga    6.8704028511899251E+00    5.7835630499978361E+00    1.3640138889112029E+01
N    6.4409136523943795E+00    5.5324163141471479E+00    1.5536536916586961E+01
Ga    5.3001140870679491E+00    6.7121930945342676E+00    1.6705112786577580E+01
N    7.0701135295408530E+00    5.8625201523973312E+00    1.6909090365625762E+01
N    5.0376456404190808E+00    8.4288424703425733E+00   -1.4851203609565547E-01
Ga    5.0541927329341148E+00    1.0297457212990979E+01    5.1732878413924610E-01
N    5.1000266143416040E+00    1.0333761380843315E+01    2.4401648849040178E+00
Ga    5.0913244543633054E+00    8.4678800688831739E+00    3.1457456114825098E+00
N    5.1306662670211516E+00    8.4891960604898848E+00    5.0771533060821747E+00
Ga    5.1480313414849483E+00    1.0360224482464481E+01    5.7605974108441762E+00
N    5.1668157096288576E+00    1.0379252863823414E+01    7.6933651829757332E+00
Ga    5.1556928171121585E+00    8.5146471171418270E+00    8.3808356848226317E+00
N    5.1715885081155379E+00    8.5110867661921805E+00    1.0314508242700818E+01
Ga    5.1739227291215526E+00    1.0378061299531391E+01    1.0979500336347849E+01
N    5.1887654205499354E+00    1.0388376665913421E+01    1.2891711634738890E+01
Ga    5.2517990562297161E+00    8.5820994071544874E+00    1.3661503683569936E+01
N    4.7893263328556692E+00    8.2834212866763703E+00    1.5539670100810733E+01
Ga    3.6940844617231678E+00    9.5167840940074058E+00    1.6770204820519876E+01
N    5.4387538311357826E+00    8.6720599841149184E+00    1.6878765249210311E+01
H    1.0365257118120452E-01    4.7870462959098983E-02   -1.1781264819784800E+00
H   -1.5090942112624939E+00    2.8404901475532758E+00   -1.1741689144621494E+00
H   -3.1213733088000515E+00    5.6319087758588706E+00   -1.1769359372557320E+00
H   -4.7315208361725496E+00    8.4218071466111990E+00   -1.1741396505937758E+00
H    3.3619199596771661E+00    4.8296903106411319E-02   -1.1745299502372857E+00
H    1.7484355026941154E+00    2.8415858570991799E+00   -1.1732455421418262E+00
H    1.3578043519841687E-01    5.6331855127564925E+00   -1.1731599440364817E+00
H   -1.4764790948242867E+00    8.4243182441128130E+00   -1.1725269743758004E+00
H    6.6109821522912755E+00    4.8096371047445213E-02   -1.1728468557962739E+00
H    5.0009522747577320E+00    2.8396359205170905E+00   -1.1743857678498120E+00
H    3.3879733801191163E+00    5.6311609275485965E+00   -1.1727482109440173E+00
H    1.7742971407620294E+00    8.4224810826067049E+00   -1.1726790407492822E+00
H    9.8659696362858718E+00    4.8687817296369666E-02   -1.1761835400617260E+00
H    8.2539914576079330E+00    2.8406257021928476E+00   -1.1744246253297201E+00
H    6.6434219613472978E+00    5.6310786072618688E+00   -1.1742918241901599E+00
H    5.0305821746230830E+00    8.4224733404452703E+00   -1.1754776671449334E+00
     &END COORD
     &KIND H
       BASIS_SET DZVP-MOLOPT-SR-GTH-q1
       POTENTIAL GTH-PBE-q1
       &POTENTIAL
1
0.2000000000000000E+00 2 -0.4178900440000000E+01  0.7244633100000000E+00
0
       &END POTENTIAL
     &END KIND
     &KIND N
       BASIS_SET DZVP-MOLOPT-SR-GTH
       POTENTIAL GTH-PBE-q5
       &POTENTIAL
2 3
0.2837905100000000E+00 2 -0.1241522559000000E+02  0.1868095920000000E+01
2
0.2554050000000000E+00 1  0.1363026257000000E+02
0.2454945300000000E+00 0
       &END POTENTIAL
     &END KIND
     &KIND Ga
       BASIS_SET DZVP-MOLOPT-SR-GTH
       POTENTIAL GTH-PBE-q13
       &POTENTIAL
2 1 10
0.4900000000000000E+00 0
3
0.4167772300000000E+00 3  0.1047568975000000E+02 -0.4921768140000000E+01  0.8707055900000000E+00
0.7770178090000000E+01 -0.2248152160000000E+01
0.1784415450000000E+01
0.5696265200000000E+00 2  0.1777985340000000E+01  0.1958597600000000E+00
-0.2317443900000000E+00
0.2381265000000000E+00 1 -0.1624868022000000E+02
       &END POTENTIAL
     &END KIND
     &TOPOLOGY
       NUMBER_OF_ATOMS  256
       MULTIPLE_UNIT_CELL  1 1 1
     &END TOPOLOGY
   &END SUBSYS
 &END FORCE_EVAL
