 # Version information for this restart file 
 # current date 2019-06-11 00:37:29.284
 # current working dir /lustre03/project/6037349/rzk/GaN-carbene/444-addat/00-Surface/RKS
 # Program compiled at                              Sun Apr  7 00:48:11 EDT 2019
 # Program compiled on                          beluga2.int.ets1.calculquebec.ca
 # Program compiled for                        Beluga-Linux-x86-64-intel-openmpi
 # Source code revision number                                         svn:18619
 &GLOBAL
   PRINT_LEVEL  MEDIUM
   PROJECT_NAME TEST
   RUN_TYPE  CELL_OPT
 &END GLOBAL
 &MOTION
   &CELL_OPT
     MAX_ITER  300
     STEP_START_VAL  111
     EXTERNAL_PRESSURE     1.0000000000000000E+00
     KEEP_ANGLES  T
     KEEP_SYMMETRY  T
     CONSTRAINT  Z
     PRESSURE_TOLERANCE     5.0000000000000000E+02
   &END CELL_OPT
 &END MOTION
 &FORCE_EVAL
   METHOD  QS
   STRESS_TENSOR  ANALYTICAL
   &DFT
     BASIS_SET_FILE_NAME BASIS_MOLOPT
     POTENTIAL_FILE_NAME GTH_POTENTIALS
     SURFACE_DIPOLE_CORRECTION  T
     SURF_DIP_DIR  Z
     &SCF
       MAX_SCF  100
       EPS_SCF     5.0000000000000004E-06
       &OT  T
         PRECONDITIONER  FULL_ALL
       &END OT
       &OUTER_SCF  T
         OPTIMIZER  NONE
         EPS_SCF     5.0000000000000004E-06
         MAX_SCF  4
       &END OUTER_SCF
       &PRINT
         &RESTART  OFF
           BACKUP_COPIES  1
           &EACH
             JUST_ENERGY  0
             QS_SCF  0
             MD  20
           &END EACH
         &END RESTART
       &END PRINT
     &END SCF
     &QS
       EPS_DEFAULT     1.0000000000000000E-14
       METHOD  GPW
     &END QS
     &MGRID
       NGRIDS  5
       CUTOFF     1.2000000000000000E+03
     &END MGRID
     &XC
       DENSITY_CUTOFF     1.0000000000000000E-10
       GRADIENT_CUTOFF     1.0000000000000000E-10
       TAU_CUTOFF     1.0000000000000000E-10
       &XC_FUNCTIONAL  NO_SHORTCUT
         &PBE  T
         &END PBE
       &END XC_FUNCTIONAL
       &VDW_POTENTIAL
         POTENTIAL_TYPE  PAIR_POTENTIAL
         &PAIR_POTENTIAL
           R_CUTOFF     1.0000000000000005E+01
           TYPE  DFTD3
           PARAMETER_FILE_NAME dftd3.dat
           REFERENCE_FUNCTIONAL PBE
           EPS_CN     9.9999999999999995E-07
           CALCULATE_C9_TERM  T
           REFERENCE_C9_TERM  T
           LONG_RANGE_CORRECTION  F
           VERBOSE_OUTPUT  F
         &END PAIR_POTENTIAL
       &END VDW_POTENTIAL
     &END XC
   &END DFT
   &SUBSYS
     &CELL
       A     1.3027800239653061E+01    0.0000000000000000E+00    0.0000000000000000E+00
       B    -6.4428169347849513E+00    1.1159286274912988E+01    0.0000000000000000E+00
       C     0.0000000000000000E+00    0.0000000000000000E+00    3.2000000000000000E+01
       MULTIPLE_UNIT_CELL  1 1 1
       &CELL_REF
         A     1.2982353780853531E+01    0.0000000000000000E+00    0.0000000000000000E+00
         B    -6.4911768904267628E+00    1.1243048175136114E+01    0.0000000000000000E+00
         C     0.0000000000000000E+00    0.0000000000000000E+00    3.2000000000000000E+01
         MULTIPLE_UNIT_CELL  1 1 1
       &END CELL_REF
     &END CELL
     &COORD
N    2.1560604610133796E-01    1.2028624766710644E-01   -1.5392624899751836E-01
Ga    2.3235180495489019E-01    1.9878853438713908E+00    5.1369402584021928E-01
N    2.3872301263116294E-01    1.9960832467758489E+00    2.4368418672515593E+00
Ga    2.2344576210566125E-01    1.2915837450430992E-01    3.1467902000901211E+00
N    2.2514715309263955E-01    1.2714067203926901E-01    5.0773331220498878E+00
Ga    2.4117039756812264E-01    1.9955801062482468E+00    5.7712464471712686E+00
N    2.4846345860017682E-01    2.0049988360372728E+00    7.7064218067330215E+00
Ga    2.3041468060362624E-01    1.3505700396224862E-01    8.3850930080075674E+00
N    2.2413883651129632E-01    1.2856185463831554E-01    1.0317345121283623E+01
Ga    2.4316367065914199E-01    1.9926966303259281E+00    1.1013910814004950E+01
N    2.5799797608071562E-01    1.9989316992697082E+00    1.2947095358100443E+01
Ga    2.1036015625265606E-01    1.2735066277519241E-01    1.3618781086219048E+01
N   -3.6203936049201985E-01   -2.0370738110927614E-01    1.5351830891095124E+01
Ga   -1.0536211514383649E+00    9.2221773293898368E-01    1.6750336674417738E+01
N    2.7781526892688202E-01    1.2601696183708944E-01    1.8010612900086834E+01
N   -1.3950379659056513E+00    2.9103327934371164E+00   -1.5218784518601280E-01
Ga   -1.3785740796835197E+00    4.7779765180588285E+00    5.1455959933297657E-01
N   -1.3720809500146269E+00    4.7859261063417593E+00    2.4374647045485518E+00
Ga   -1.3878863276780546E+00    2.9193702320329802E+00    3.1475943459289937E+00
N   -1.3859593258196632E+00    2.9190104403329920E+00    5.0778656839142657E+00
Ga   -1.3686933004150925E+00    4.7859531672596862E+00    5.7746208282166176E+00
N   -1.3611797817852789E+00    4.7946844089730707E+00    7.7103508166979458E+00
Ga   -1.3794034650602458E+00    2.9269166386692680E+00    8.3946754186747974E+00
N   -1.3827036380389894E+00    2.9230615702682532E+00    1.0331442933857323E+01
Ga   -1.3724891174050187E+00    4.7875456014373823E+00    1.1031417680262710E+01
N   -1.3671650030607188E+00    4.7991034566599877E+00    1.2971397008237698E+01
Ga   -1.3611869960711862E+00    2.9246680669721710E+00    1.3627207643278963E+01
N   -1.8936465851129847E+00    2.4609299466798511E+00    1.5441717684927879E+01
Ga   -2.9163696859331241E+00    4.2003453578684198E+00    1.6828786762626574E+01
N   -1.4239917734670868E+00    2.9004838953349004E+00    1.6732257855715847E+01
N   -3.0058220530452036E+00    5.7000049052300739E+00   -1.5224064744484828E-01
Ga   -2.9891435804337840E+00    7.5677048876188300E+00    5.1428020199783031E-01
N   -2.9824314904196725E+00    7.5751138851286370E+00    2.4373123128646044E+00
Ga   -2.9985273226913240E+00    5.7086603260297109E+00    3.1485210095117329E+00
N   -2.9969193781090029E+00    5.7068490339054927E+00    5.0796042930387646E+00
Ga   -2.9786354978816889E+00    7.5741717746888293E+00    5.7747177245869610E+00
N   -2.9706009712036074E+00    7.5832954929380758E+00    7.7106717483564315E+00
Ga   -2.9886778159163376E+00    5.7162875265782818E+00    8.3963405521939709E+00
N   -2.9941005094209641E+00    5.7104571678512590E+00    1.0332255838446770E+01
Ga   -2.9803666088034215E+00    7.5724744015156409E+00    1.1033123393040315E+01
N   -2.9721284995190778E+00    7.5783101374757331E+00    1.2974142974798605E+01
Ga   -3.0007272481759966E+00    5.7100818324160114E+00    1.3676868551473493E+01
N   -3.5190242933579983E+00    5.3970578992949285E+00    1.5439123931938221E+01
Ga   -4.2495350133528520E+00    6.5043389206970490E+00    1.6841528860451582E+01
N   -2.9125286846642466E+00    5.7326185955163123E+00    1.8093772697674094E+01
N   -4.6163549951301066E+00    8.4899280122782876E+00   -1.5212374855175026E-01
Ga   -4.5999511064134158E+00    1.0357799757610293E+01    5.1409685333333388E-01
N   -4.5929650089432190E+00    1.0365021669570860E+01    2.4371113763591747E+00
Ga   -4.6087506931255868E+00    8.4980238351305282E+00    3.1476511903386628E+00
N   -4.6057527025954439E+00    8.4964112991741061E+00    5.0780053013970150E+00
Ga   -4.5894488058810472E+00    1.0363639040230369E+01    5.7720012645391368E+00
N   -4.5820096505879704E+00    1.0371864631982756E+01    7.7070392808582975E+00
Ga   -4.5990283466268869E+00    8.5043460766891315E+00    8.3957080648760787E+00
N   -4.6018842375514017E+00    8.4996548398609484E+00    1.0332770477549719E+01
Ga   -4.5934079309433784E+00    1.0369319906728881E+01    1.1015599125873381E+01
N   -4.5848031201017365E+00    1.0386319553233987E+01    1.2949591861654982E+01
Ga   -4.5943847925306329E+00    8.5240522573714870E+00    1.3629515047556884E+01
N   -5.2492581859163705E+00    8.2894045410790795E+00    1.5449177477712553E+01
Ga   -6.1613204876380099E+00    9.7561297221752934E+00    1.6714779105312779E+01
N   -4.6209976257310723E+00    8.4436219339657903E+00    1.6741373148894819E+01
N    3.4726530007512477E+00    1.2051834553570813E-01   -1.5187400283529948E-01
Ga    3.4889584329079844E+00    1.9879829860861919E+00    5.1476726219540070E-01
N    3.4944658816589458E+00    1.9951556843164475E+00    2.4377194930021742E+00
Ga    3.4805594263075963E+00    1.2938173428375130E-01    3.1503128015865856E+00
N    3.4831081937938544E+00    1.2802630054095668E-01    5.0818136299834444E+00
Ga    3.4979160232449704E+00    1.9944931583065142E+00    5.7792247721485479E+00
N    3.5053114700213683E+00    2.0032733252744013E+00    7.7166680541527208E+00
Ga    3.4890273763293673E+00    1.3627573261435183E-01    8.4046852646458365E+00
N    3.4875412548871463E+00    1.3338387629647694E-01    1.0344046797312789E+01
Ga    3.5022323832335203E+00    1.9982056812888123E+00    1.1033518871115405E+01
N    3.5203182047390142E+00    2.0138269173101748E+00    1.2980669803662810E+01
Ga    3.4770643030204904E+00    1.5995632857582720E-01    1.3675557741766124E+01
N    2.8951974818803508E+00   -1.4551420043559418E-01    1.5531509228167250E+01
Ga    1.8060821802965663E+00    1.0064422708888785E+00    1.7518194498881467E+01
N    3.4621989694142457E+00    2.0280038370811238E-01    1.6866900994370873E+01
N    1.8620622414952943E+00    2.9102259182947385E+00   -1.5185823754065278E-01
Ga    1.8780137874108858E+00    4.7776120404985445E+00    5.1511007161587885E-01
N    1.8835250565218120E+00    4.7846388814873970E+00    2.4379000724100179E+00
Ga    1.8696870705685595E+00    2.9189355146076665E+00    3.1503889425548754E+00
N    1.8721083232734936E+00    2.9179008728778584E+00    5.0817390058486280E+00
Ga    1.8862335435045285E+00    4.7843221691153772E+00    5.7789803896648682E+00
N    1.8926906306201881E+00    4.7925593964800965E+00    7.7163830131547897E+00
Ga    1.8784256987520562E+00    2.9258732724585221E+00    8.4041541944214124E+00
N    1.8784795303673154E+00    2.9217458867563439E+00    1.0343125844794798E+01
Ga    1.8855749100742689E+00    4.7842495377522738E+00    1.1042138399900711E+01
N    1.8849359640818808E+00    4.7884081362009372E+00    1.2992264715274047E+01
Ga    1.8907980661786432E+00    2.9089979877601890E+00    1.3670914371492579E+01
N    1.3443323999726273E+00    2.5363859697911599E+00    1.5524640321233919E+01
Ga    2.0311172632284644E-01    3.8135813524167719E+00    1.6439776059895419E+01
N    1.9308275438587885E+00    2.8414206615887077E+00    1.6859737349215692E+01
N    2.5111897197666178E-01    5.7000191467035384E+00   -1.5128142278582934E-01
Ga    2.6737598703508525E-01    7.5675802672820707E+00    5.1499178810180191E-01
N    2.7297547958835072E-01    7.5747174663172103E+00    2.4377582071156523E+00
Ga    2.5876008503601883E-01    5.7090729873102140E+00    3.1505522546881366E+00
N    2.6098881953464914E-01    5.7082803545181857E+00    5.0821640056877335E+00
Ga    2.7648433506638515E-01    7.5742858634363852E+00    5.7807667630239434E+00
N    2.8366772451425043E-01    7.5831401853327582E+00    7.7191262370951561E+00
Ga    2.6765958944189683E-01    5.7156833328515297E+00    8.4084873165536784E+00
N    2.6406272496864203E-01    5.7117982585306670E+00    1.0349153686581186E+01
Ga    2.8373992070270337E-01    7.5795840929089042E+00    1.1030955879734027E+01
N    2.9757726532198991E-01    7.5931146612335807E+00    1.2976110600619720E+01
Ga    2.6062040525402957E-01    5.7405151587691190E+00    1.3671166753612372E+01
N   -3.2686979746430866E-01    5.4448168358531781E+00    1.5519230844201383E+01
Ga   -1.3933334327741651E+00    6.6045789553172591E+00    1.7534512046660627E+01
N    2.3583465611939361E-01    5.7822398816463423E+00    1.6856709451303679E+01
N   -1.3595190680994116E+00    8.4899739399867098E+00   -1.5116246578073142E-01
Ga   -1.3434308506573522E+00    1.0357478957465178E+01    5.1495591968666687E-01
N   -1.3378173537772147E+00    1.0364353021262149E+01    2.4377885296958213E+00
Ga   -1.3518396900928416E+00    8.4985307428737613E+00    3.1510727089718826E+00
N   -1.3491312905170256E+00    8.4971686210566020E+00    5.0827451276481472E+00
Ga   -1.3346259987778044E+00    1.0363329580661880E+01    5.7798195681383602E+00
N   -1.3282009303435365E+00    1.0371455318514332E+01    7.7173232585119962E+00
Ga   -1.3430863963851236E+00    8.5059495084266370E+00    8.4098459359836983E+00
N   -1.3457927740452527E+00    8.5006937203719382E+00    1.0351165595472468E+01
Ga   -1.3368780233639148E+00    1.0365479899706131E+01    1.1045246761496921E+01
N   -1.3368529428248641E+00    1.0370729289544794E+01    1.2996487558146415E+01
Ga   -1.3259019436322992E+00    8.4909585936259955E+00    1.3671223984422596E+01
N   -1.8624417835056537E+00    8.1143439702255318E+00    1.5520629632679663E+01
Ga   -3.0111826926394070E+00    9.3834779502763457E+00    1.6446956813876980E+01
N   -1.2857721535504356E+00    8.4253941230329090E+00    1.6855194157675836E+01
N    6.7287776405768058E+00    1.2024211948736627E-01   -1.5182464580925817E-01
Ga    6.7456049211210267E+00    1.9880071323259856E+00    5.1447888435864242E-01
N    6.7505193428044885E+00    1.9948528306773583E+00    2.4375721060187496E+00
Ga    6.7348976028207881E+00    1.2834562810567207E-01    3.1489013498903051E+00
N    6.7351992683199633E+00    1.2637708304620654E-01    5.0796103155348797E+00
Ga    6.7511753263628025E+00    1.9924607133433010E+00    5.7745839431828383E+00
N    6.7563502136281857E+00    1.9993762475888377E+00    7.7116128724496349E+00
Ga    6.7429127128215400E+00    1.3518169880458025E-01    8.4113392630076724E+00
N    6.7382362045894961E+00    1.2943162456092358E-01    1.0355013851744401E+01
Ga    6.7660999715244445E+00    1.9988464988359529E+00    1.1037241634380301E+01
N    6.7865994243300172E+00    2.0091623282836171E+00    1.2986967494899348E+01
Ga    6.7649094600418724E+00    1.4666021014264394E-01    1.3657678303803650E+01
N    6.1856368955830794E+00   -1.8655654192395424E-01    1.5491079921854448E+01
Ga    5.1382156130783363E+00    1.0687265110171100E+00    1.6588716707977383E+01
N    6.8302400077212582E+00    1.6359796654333766E-01    1.7071004694654707E+01
N    5.1183551269600587E+00    2.9099819523969557E+00   -1.5195277214633116E-01
Ga    5.1350581735312053E+00    4.7775915158595081E+00    5.1484340855249711E-01
N    5.1401916586420207E+00    4.7843521787201535E+00    2.4378281101242267E+00
Ga    5.1246241632961471E+00    2.9179746420237462E+00    3.1498475648469118E+00
N    5.1256299057613832E+00    2.9161251606989032E+00    5.0807413531472587E+00
Ga    5.1404367867161138E+00    4.7826036196969985E+00    5.7744112005408956E+00
N    5.1446801972857186E+00    4.7901769458860475E+00    7.7112719580216140E+00
Ga    5.1355621578769322E+00    2.9261309274894765E+00    8.4101873824848408E+00
N    5.1355762138065062E+00    2.9229039021775471E+00    1.0353824586063523E+01
Ga    5.1515935053741408E+00    4.7940294307497711E+00    1.1035103079059363E+01
N    5.1665736921597123E+00    4.8137161618249564E+00    1.2984856921800956E+01
Ga    5.1784015349326804E+00    2.9521389099902646E+00    1.3645377713392843E+01
N    4.6257231271312813E+00    2.6260159188543328E+00    1.5469726866985004E+01
Ga    3.5368278030236153E+00    3.8299283004225835E+00    1.6581751326601420E+01
N    5.2311311493868686E+00    2.9578670373041791E+00    1.7070516665377252E+01
N    3.5075929446168281E+00    5.6994746060176551E+00   -1.5188818224818904E-01
Ga    3.5242103600447101E+00    7.5673467601438436E+00    5.1351796561034568E-01
N    3.5291198970246720E+00    7.5737904644237615E+00    2.4363722693496603E+00
Ga    3.5138590825986697E+00    5.7074111774684884E+00    3.1486971432329307E+00
N    3.5144818172021899E+00    5.7049210314472436E+00    5.0793151627591691E+00
Ga    3.5293116162403080E+00    7.5713641248517387E+00    5.7713362788803826E+00
N    3.5331621992311222E+00    7.5771726239530794E+00    7.7068149805834487E+00
Ga    3.5217134949851570E+00    5.7142507657096138E+00    8.4098389492313217E+00
N    3.5172054665064980E+00    5.7084856155034789E+00    1.0352760740492702E+01
Ga    3.5430713591105616E+00    7.5783827196256004E+00    1.1034028028184123E+01
N    3.5602477190895434E+00    7.5884189441775831E+00    1.2981585973404608E+01
Ga    3.5405000473406085E+00    5.7295587080227293E+00    1.3653545220342078E+01
N    2.9618049642924467E+00    5.3842368309362367E+00    1.5482548273905056E+01
Ga    1.9152774300493369E+00    6.6415819344190021E+00    1.6578056458171812E+01
N    3.5993189090296780E+00    5.7288581378900947E+00    1.7067885096051803E+01
N    1.8967165632388350E+00    8.4895923253353747E+00   -1.5210597967617684E-01
Ga    1.9133197342192771E+00    1.0357474205825122E+01    5.1377768964866743E-01
N    1.9180212588206149E+00    1.0364249743007505E+01    2.4365970620824964E+00
Ga    1.9033844536349014E+00    8.4976664201662793E+00    3.1482427375664241E+00
N    1.9038147979660465E+00    8.4957907526399499E+00    5.0790565534667316E+00
Ga    1.9180177394882889E+00    1.0362472986861889E+01    5.7714549950247411E+00
N    1.9207143041271080E+00    1.0369863419695264E+01    7.7068955366179717E+00
Ga    1.9150829035091272E+00    8.5070175122166241E+00    8.4068087270739920E+00
N    1.9144014687364435E+00    8.5036743239314010E+00    1.0349162987000966E+01
Ga    1.9302510089636080E+00    1.0372970196462894E+01    1.1036447596333423E+01
N    1.9437721604246976E+00    1.0390691238421486E+01    1.2985058566524717E+01
Ga    1.9560918291254898E+00    8.5310397068791968E+00    1.3647210019044413E+01
N    1.3898247428229353E+00    8.2005328061732730E+00    1.5469234126895431E+01
Ga    3.1688915191247413E-01    9.4214035175814139E+00    1.6580490956351582E+01
N    1.9833338011784170E+00    8.5206896242737749E+00    1.7091924965450819E+01
N    9.9859359938288605E+00    1.2005812318427174E-01   -1.5327476639924817E-01
Ga    1.0002696331306115E+01    1.9880150257038589E+00    5.1289404730189736E-01
N    1.0008214032976348E+01    1.9958617113821322E+00    2.4360782924127498E+00
Ga    9.9918226967181134E+00    1.2869502705783797E-01    3.1461464852996937E+00
N    9.9916965167000651E+00    1.2639498360817542E-01    5.0763812013022482E+00
Ga    1.0011152212952473E+01    1.9953947512410817E+00    5.7665014134374593E+00
N    1.0018657461655465E+01    2.0052707556772189E+00    7.6993984701860549E+00
Ga    9.9940527810660118E+00    1.3740804497931430E-01    8.3786712604356648E+00
N    9.9820402299740429E+00    1.3522131859703698E-01    1.0308383355884363E+01
Ga    1.0012868656029109E+01    1.9934202615768604E+00    1.1006108891805427E+01
N    1.0024187636564339E+01    2.0018093126935517E+00    1.2939795064166020E+01
Ga    1.0064730106873197E+01    1.5516428276633398E-01    1.3660807484341451E+01
N    9.5376301632518388E+00   -1.5263658586958873E-01    1.5526003088348217E+01
Ga    8.4302351866469039E+00    1.0717178418018003E+00    1.6710679563124316E+01
N    1.0174211711674557E+01    1.9308800791438249E-01    1.6891424108993149E+01
N    8.3752334460875311E+00    2.9102048941187983E+00   -1.5245728287230267E-01
Ga    8.3921902784727607E+00    4.7779130294196541E+00    5.1401740555841846E-01
N    8.3977561248181765E+00    4.7851820410747026E+00    2.4370515606954521E+00
Ga    8.3813186781808255E+00    2.9185300391531892E+00    3.1481765133726984E+00
N    8.3811331480006412E+00    2.9165120054426596E+00    5.0788124007994115E+00
Ga    8.4003412088120317E+00    4.7840788209364380E+00    5.7719677227403965E+00
N    8.4061832064339512E+00    4.7919947088007575E+00    7.7071590801430636E+00
Ga    8.3896159945694304E+00    2.9212767984500259E+00    8.3887680009995087E+00
N    8.3857706121466524E+00    2.9135142648945282E+00    1.0323218607216013E+01
Ga    8.3946469569577964E+00    4.7835167903914142E+00    1.0990227832734348E+01
N    8.3896805642100691E+00    4.7858402312597130E+00    1.2910844738592493E+01
Ga    8.4454659090909665E+00    2.9615830179586906E+00    1.3650722154890161E+01
N    7.9620502364960464E+00    2.6566258929663138E+00    1.5524163350657528E+01
Ga    6.8175562711239266E+00    3.8553346938584072E+00    1.6710864960685900E+01
N    8.5728771775136217E+00    3.0136116866287725E+00    1.6906376010409520E+01
N    6.7647323985470287E+00    5.6996305168486892E+00   -1.5243989572247382E-01
Ga    6.7814270117470743E+00    7.5675535749315070E+00    5.1289577037256329E-01
N    6.7874196892937331E+00    7.5744479182343216E+00    2.4360063891830004E+00
Ga    6.7711581661827793E+00    5.7077920419498893E+00    3.1478896813155401E+00
N    6.7716526850421346E+00    5.7047130334578089E+00    5.0785477615793511E+00
Ga    6.7909504622495565E+00    7.5736639784303224E+00    5.7665778490569721E+00
N    6.7992857222452185E+00    7.5822124633099213E+00    7.6994476200646584E+00
Ga    6.7756893050885312E+00    5.7164604858566355E+00    8.3876868502480377E+00
N    6.7691452869014315E+00    5.7131768131785492E+00    1.0322007385605664E+01
Ga    6.7881235952102266E+00    7.5788769196574650E+00    1.1006758660862948E+01
N    6.7966295145260816E+00    7.5920746732839550E+00    1.2940959941814109E+01
Ga    6.8343992485450578E+00    5.7464610798629145E+00    1.3648940771266993E+01
N    6.3391433856871719E+00    5.4633171649994239E+00    1.5523985719981184E+01
Ga    5.2020690532389793E+00    6.6406647095891440E+00    1.6709975652666213E+01
N    6.9662662901319132E+00    5.7925284694881025E+00    1.6900167194012081E+01
N    5.1538860471829464E+00    8.4896731051215717E+00   -1.5310630194474448E-01
Ga    5.1708284484190177E+00    1.0357618861707843E+01    5.1344668690165474E-01
N    5.1765183091168341E+00    1.0364709025185345E+01    2.4363990347111524E+00
Ga    5.1603285131307919E+00    8.4970152520210949E+00    3.1463112608175798E+00
N    5.1605122136863075E+00    8.4941606467647688E+00    5.0765149777596470E+00
Ga    5.1779495078159252E+00    1.0363022308834426E+01    5.7656082115716556E+00
N    5.1819635947107194E+00    1.0370054032508140E+01    7.6992851064794916E+00
Ga    5.1674001980450237E+00    8.4979197896440866E+00    8.3789245784322457E+00
N    5.1615855978341516E+00    8.4847142524099972E+00    1.0308544167174588E+01
Ga    5.1621259254200131E+00    1.0356565938641024E+01    1.0965801880769012E+01
N    5.1533559271323899E+00    1.0355979112992920E+01    1.2870015577382127E+01
Ga    5.2139962648414615E+00    8.5520394929751617E+00    1.3658539264428887E+01
N    4.6933229058147292E+00    8.2204677378232649E+00    1.5521266451102340E+01
Ga    3.5659964692172541E+00    9.4223008653180216E+00    1.6744363164343078E+01
N    5.3181376604667916E+00    8.5870451273173973E+00    1.6882580774408137E+01
H    2.1544248058638485E-01    1.2045940517063262E-01   -1.1811320444544957E+00
H   -1.3955335974435221E+00    2.9110691770422039E+00   -1.1792532077583575E+00
H   -3.0060426130881721E+00    5.7001789065308062E+00   -1.1793428956929823E+00
H   -4.6161032451645045E+00    8.4892488828362467E+00   -1.1791801152891792E+00
H    3.4736055759246862E+00    1.2115767549659853E-01   -1.1789148704025365E+00
H    1.8629071006644264E+00    2.9108866832779294E+00   -1.1788953578274828E+00
H    2.5132506127577697E-01    5.7004340006336980E+00   -1.1783053906816092E+00
H   -1.3592966221184950E+00    8.4901541310728010E+00   -1.1781554852025362E+00
H    6.7275254304239782E+00    1.1959899389353211E-01   -1.1788496715406411E+00
H    5.1171393385083244E+00    2.9093797895641180E+00   -1.1790356967921185E+00
H    3.5062375455621466E+00    5.6992056570382035E+00   -1.1789389236755592E+00
H    1.8952472530692566E+00    8.4887377136603526E+00   -1.1791200569278024E+00
H    9.9844710425414345E+00    1.1987696854364645E-01   -1.1803878084599468E+00
H    8.3744962478918961E+00    2.9101633409885093E+00   -1.1795240590474971E+00
H    6.7643540743190194E+00    5.6992357855266151E+00   -1.1795105040942839E+00
H    5.1528828358069685E+00    8.4884150703478269E+00   -1.1801947994691138E+00
     &END COORD
     &KIND H
       BASIS_SET DZVP-MOLOPT-SR-GTH-q1
       POTENTIAL GTH-PBE-q1
       &POTENTIAL
1
0.2000000000000000E+00 2 -0.4178900440000000E+01  0.7244633100000000E+00
0
       &END POTENTIAL
     &END KIND
     &KIND N
       BASIS_SET DZVP-MOLOPT-SR-GTH
       POTENTIAL GTH-PBE-q5
       &POTENTIAL
2 3
0.2837905100000000E+00 2 -0.1241522559000000E+02  0.1868095920000000E+01
2
0.2554050000000000E+00 1  0.1363026257000000E+02
0.2454945300000000E+00 0
       &END POTENTIAL
     &END KIND
     &KIND Ga
       BASIS_SET DZVP-MOLOPT-SR-GTH
       POTENTIAL GTH-PBE-q13
       &POTENTIAL
2 1 10
0.4900000000000000E+00 0
3
0.4167772300000000E+00 3  0.1047568975000000E+02 -0.4921768140000000E+01  0.8707055900000000E+00
0.7770178090000000E+01 -0.2248152160000000E+01
0.1784415450000000E+01
0.5696265200000000E+00 2  0.1777985340000000E+01  0.1958597600000000E+00
-0.2317443900000000E+00
0.2381265000000000E+00 1 -0.1624868022000000E+02
       &END POTENTIAL
     &END KIND
     &TOPOLOGY
       NUMBER_OF_ATOMS  256
       MULTIPLE_UNIT_CELL  1 1 1
     &END TOPOLOGY
   &END SUBSYS
 &END FORCE_EVAL
