 # Version information for this restart file 
 # current date 2019-06-10 10:38:45.214
 # current working dir /lustre03/project/6037349/rzk/GaN-carbene/444-addat/00-Surface/RKS
 # Program compiled at                              Sun Apr  7 00:48:11 EDT 2019
 # Program compiled on                          beluga2.int.ets1.calculquebec.ca
 # Program compiled for                        Beluga-Linux-x86-64-intel-openmpi
 # Source code revision number                                         svn:18619
 &GLOBAL
   PRINT_LEVEL  MEDIUM
   PROJECT_NAME TEST
   RUN_TYPE  CELL_OPT
 &END GLOBAL
 &MOTION
   &CELL_OPT
     MAX_ITER  300
     STEP_START_VAL  8
     EXTERNAL_PRESSURE     1.0000000000000000E+00
     KEEP_ANGLES  T
     KEEP_SYMMETRY  T
     CONSTRAINT  Z
     PRESSURE_TOLERANCE     5.0000000000000000E+02
   &END CELL_OPT
 &END MOTION
 &FORCE_EVAL
   METHOD  QS
   STRESS_TENSOR  ANALYTICAL
   &DFT
     BASIS_SET_FILE_NAME BASIS_MOLOPT
     POTENTIAL_FILE_NAME GTH_POTENTIALS
     SURFACE_DIPOLE_CORRECTION  T
     SURF_DIP_DIR  Z
     &SCF
       MAX_SCF  100
       EPS_SCF     5.0000000000000004E-06
       &OT  T
         PRECONDITIONER  FULL_ALL
       &END OT
       &OUTER_SCF  T
         OPTIMIZER  NONE
         EPS_SCF     5.0000000000000004E-06
         MAX_SCF  4
       &END OUTER_SCF
       &PRINT
         &RESTART  OFF
           BACKUP_COPIES  1
           &EACH
             JUST_ENERGY  0
             QS_SCF  0
             MD  20
           &END EACH
         &END RESTART
       &END PRINT
     &END SCF
     &QS
       EPS_DEFAULT     1.0000000000000000E-14
       METHOD  GPW
     &END QS
     &MGRID
       NGRIDS  5
       CUTOFF     1.2000000000000000E+03
     &END MGRID
     &XC
       DENSITY_CUTOFF     1.0000000000000000E-10
       GRADIENT_CUTOFF     1.0000000000000000E-10
       TAU_CUTOFF     1.0000000000000000E-10
       &XC_FUNCTIONAL  NO_SHORTCUT
         &PBE  T
         &END PBE
       &END XC_FUNCTIONAL
       &VDW_POTENTIAL
         POTENTIAL_TYPE  PAIR_POTENTIAL
         &PAIR_POTENTIAL
           R_CUTOFF     1.0000000000000004E+01
           TYPE  DFTD3
           PARAMETER_FILE_NAME dftd3.dat
           REFERENCE_FUNCTIONAL PBE
           EPS_CN     9.9999999999999995E-07
           CALCULATE_C9_TERM  T
           REFERENCE_C9_TERM  T
           LONG_RANGE_CORRECTION  F
           VERBOSE_OUTPUT  F
         &END PAIR_POTENTIAL
       &END VDW_POTENTIAL
     &END XC
   &END DFT
   &SUBSYS
     &CELL
       A     1.2926288972229308E+01    0.0000000000000000E+00    0.0000000000000000E+00
       B    -6.4678646272810925E+00    1.1202670150928380E+01    0.0000000000000000E+00
       C     0.0000000000000000E+00    0.0000000000000000E+00    3.2000000000000000E+01
       MULTIPLE_UNIT_CELL  1 1 1
       &CELL_REF
         A     1.2982353780853531E+01    0.0000000000000000E+00    0.0000000000000000E+00
         B    -6.4911768904267628E+00    1.1243048175136114E+01    0.0000000000000000E+00
         C     0.0000000000000000E+00    0.0000000000000000E+00    3.2000000000000000E+01
         MULTIPLE_UNIT_CELL  1 1 1
       &END CELL_REF
     &END CELL
     &COORD
N    5.4343516168634703E-04    8.2348963825791262E-04   -2.6838474410734319E-02
Ga   -1.1913864812863875E-03    1.8662115852202397E+00    6.2966324116220362E-01
N   -1.3611838726006647E-03    1.8660929313728001E+00    2.5528397186515615E+00
Ga    3.9895433111073521E-04    6.8598415756286678E-04    3.2407554275497130E+00
N    6.7105732095550726E-04    1.1328567890386294E-03    5.1653648010489466E+00
Ga   -1.1168973060552592E-03    1.8664542614252564E+00    5.8314614582356841E+00
N   -1.3488969584718074E-03    1.8659894436205897E+00    7.7570749412139675E+00
Ga    5.5913892987238508E-04    4.4410731178269998E-04    8.4054970651301257E+00
N    1.7229958715204016E-03    4.8567168377799730E-04    1.0317682441840899E+01
Ga    1.7783569006875044E-03    1.8658084711646254E+00    1.0925063648872472E+01
N    1.8758213267211325E-02    1.8609806185924693E+00    1.2823629176096219E+01
Ga    1.9382662692188624E-02   -6.4449464606185112E-03    1.3467067877983176E+01
N    3.1403717173153073E-02   -2.7357538380224210E-02    1.5396100338541510E+01
Ga   -4.9045249556340965E-02    1.8719488849642574E+00    1.6447823163570490E+01
N    1.5369022915883075E+00    9.4261443717403581E-01    1.7214126261174965E+01
N   -1.6164122658430411E+00    2.8015113777547724E+00   -2.6863450917884165E-02
Ga   -1.6181785607353996E+00    4.6669009774928529E+00    6.2966779961568409E-01
N   -1.6183233512418427E+00    4.6667257916330875E+00    2.5528515564116470E+00
Ga   -1.6165611309857462E+00    2.8013384543809141E+00    3.2407574416708127E+00
N   -1.6162742527373100E+00    2.8017794999641867E+00    5.1653521997117133E+00
Ga   -1.6181114096279916E+00    4.6671576688406926E+00    5.8315028794314099E+00
N   -1.6183810234234060E+00    4.6666115947466880E+00    7.7570685227824798E+00
Ga   -1.6164436531444879E+00    2.8012110143376145E+00    8.4052623069711689E+00
N   -1.6150694061322719E+00    2.8006883528654680E+00    1.0317637307648219E+01
Ga   -1.6161459021649867E+00    4.6662188708983976E+00    1.0925879831679401E+01
N   -1.6009724807818311E+00    4.6591916650560288E+00    1.2820830809085765E+01
Ga   -1.5967552226432449E+00    2.7943709763078184E+00    1.3472736050816255E+01
N   -1.5428234131935918E+00    2.8014424676991596E+00    1.5403480039211667E+01
Ga   -1.6500724085730689E+00    4.6754159136223885E+00    1.6423986612380176E+01
N   -5.0636589313370353E-02    3.7519210538212242E+00    1.7228155660848209E+01
N   -3.2333860049816718E+00    5.6021806611399185E+00   -2.6857929969575502E-02
Ga   -3.2351451021294073E+00    7.4675558215556173E+00    6.2964450786038961E-01
N   -3.2352896025046562E+00    7.4674036973215747E+00    2.5528478598971405E+00
Ga   -3.2335392163260894E+00    5.6020242575298083E+00    3.2407902671565387E+00
N   -3.2332573576933021E+00    5.6024554540876803E+00    5.1653902719859177E+00
Ga   -3.2350436751681921E+00    7.4678107072874758E+00    5.8315135792520376E+00
N   -3.2353004089991910E+00    7.4673708920662509E+00    7.7570852755497999E+00
Ga   -3.2335092107173704E+00    5.6018843601390422E+00    8.4054983912562022E+00
N   -3.2326098415765716E+00    5.6018201403691776E+00    1.0317467435161946E+01
Ga   -3.2327545995425768E+00    7.4669948263441484E+00    1.0926271190681604E+01
N   -3.2167506713939327E+00    7.4609665492544694E+00    1.2824231274908549E+01
Ga   -3.2153890616989700E+00    5.5931784379613791E+00    1.3469374771188708E+01
N   -3.2002982899980794E+00    5.5755240128815231E+00    1.5396464408227363E+01
Ga   -3.2844038806875395E+00    7.4759143302382300E+00    1.6454311346546511E+01
N   -1.6900030036666223E+00    6.5538940719776111E+00    1.7216836248229118E+01
N   -4.8503442700595221E+00    8.4028264470689784E+00   -2.6900271489787832E-02
Ga   -4.8521289757837804E+00    1.0268243305132478E+01    6.2965396409405006E-01
N   -4.8522505877352957E+00    1.0268058247163561E+01    2.5528512842826010E+00
Ga   -4.8505037071691852E+00    8.4026655723258958E+00    3.2407669005509887E+00
N   -4.8502313541475237E+00    8.4031051996584925E+00    5.1653521344558797E+00
Ga   -4.8520277684306299E+00    1.0268474212111375E+01    5.8314836150471265E+00
N   -4.8523540658894229E+00    1.0267965842111565E+01    7.7570266692878045E+00
Ga   -4.8503315517489698E+00    8.4026544103455887E+00    8.4054041421602435E+00
N   -4.8491507135127474E+00    8.4023536733452353E+00    1.0317719710548536E+01
Ga   -4.8497668365908435E+00    1.0267352626374276E+01    1.0927397788239308E+01
N   -4.8349046176551704E+00    1.0260610460821066E+01    1.2822577542477937E+01
Ga   -4.8316984570532240E+00    8.3947588778652573E+00    1.3473734313521764E+01
N   -4.7835713726170077E+00    8.3981538178161337E+00    1.5406603108906088E+01
Ga   -4.8979143601712281E+00    1.0268762407221240E+01    1.6431266085531590E+01
N   -3.2934280939813965E+00    9.3568530244449093E+00    1.7223622104325919E+01
N    3.2321310153314133E+00    8.2739176825839019E-04   -2.6889844197644210E-02
Ga    3.2303033880789394E+00    1.8661996798035851E+00    6.2969625505849336E-01
N    3.2302118873885983E+00    1.8660933483868360E+00    2.5528886392726466E+00
Ga    3.2319361635479122E+00    6.5931584868961885E-04    3.2407698373873997E+00
N    3.2323529284191492E+00    1.1644246232715792E-03    5.1653650131870714E+00
Ga    3.2304463391071496E+00    1.8664123811708020E+00    5.8314114844997027E+00
N    3.2302277480054093E+00    1.8660502722060783E+00    7.7569164682830625E+00
Ga    3.2319223414050242E+00    4.0238376847205994E-04    8.4053933764864937E+00
N    3.2334439016977132E+00    7.7109516976093194E-04    1.0317161765944622E+01
Ga    3.2326703654984192E+00    1.8654916792255196E+00    1.0924954065628944E+01
N    3.2477141416347135E+00    1.8609427408217831E+00    1.2824693973929437E+01
Ga    3.2491652187323061E+00   -3.8824909731763556E-03    1.3473009018650918E+01
N    3.2620714848445918E+00   -3.4106702180146956E-02    1.5404805001426080E+01
Ga    3.1777382131299343E+00    1.8835654999530733E+00    1.6470606506754873E+01
N    4.7662304117487215E+00    9.5610662705067795E-01    1.7226087658529796E+01
N    1.6151636030593317E+00    2.8014911760595078E+00   -2.6891566594322566E-02
Ga    1.6133568164001173E+00    4.6668578105582048E+00    6.2970474313904468E-01
N    1.6132475676358218E+00    4.6667353948797397E+00    2.5529065989612567E+00
Ga    1.6149858328013786E+00    2.8013064452744767E+00    3.2407463158859007E+00
N    1.6153790039232496E+00    2.8018035868135849E+00    5.1653450247645338E+00
Ga    1.6134420482158507E+00    4.6671239168415530E+00    5.8313998622751031E+00
N    1.6132201232862393E+00    4.6666677060058772E+00    7.7568668006822259E+00
Ga    1.6150821118541507E+00    2.8012857591813218E+00    8.4051471577066916E+00
N    1.6169739401294529E+00    2.8013981534390546E+00    1.0317123636624412E+01
Ga    1.6149718379955151E+00    4.6660472899404359E+00    1.0926759649267169E+01
N    1.6296696442347955E+00    4.6608637629275078E+00    1.2822959499384003E+01
Ga    1.6341355905290180E+00    2.7977717397027764E+00    1.3475286917577655E+01
N    1.6866975079139006E+00    2.7931644749171713E+00    1.5408227233625205E+01
Ga    1.5853920390271825E+00    4.6922327069075882E+00    1.6438232266767848E+01
N    3.1656779036348883E+00    3.7553550633782065E+00    1.7235431368861661E+01
N   -1.8153085462886097E-03    5.6021613028261488E+00   -2.6851175328597866E-02
Ga   -3.6130589080351199E-03    7.4675524548925942E+00    6.2968585710115310E-01
N   -3.7225132351099890E-03    7.4673943246795620E+00    2.5529002544759147E+00
Ga   -1.9892643906129995E-03    5.6020114759819446E+00    3.2407689757856755E+00
N   -1.5848614070697405E-03    5.6024874311716832E+00    5.1653701803822472E+00
Ga   -3.5248729777491226E-03    7.4677758080705692E+00    5.8314322361015334E+00
N   -3.7206670922603608E-03    7.4673887915762585E+00    7.7569023479219545E+00
Ga   -1.9602937808523928E-03    5.6018724003731339E+00    8.4054476146690593E+00
N   -2.9636441209669409E-04    5.6022441418445776E+00    1.0317170099717826E+01
Ga   -1.1264765385788733E-03    7.4669430561127985E+00    1.0926179613758158E+01
N    1.4649085401933385E-02    7.4629822064748454E+00    1.2825906575753530E+01
Ga    1.4926289953957381E-02    5.5972030391315819E+00    1.3471724483379880E+01
N    2.5004759064549593E-02    5.5669880287714291E+00    1.5400982935530497E+01
Ga   -5.0232090503374460E-02    7.4916990638126890E+00    1.6470126157337198E+01
N    1.5317797351376443E+00    6.5589271453735405E+00    1.7224290647839329E+01
N   -1.6187823635153695E+00    8.4028362731390924E+00   -2.6843395582584386E-02
Ga   -1.6205842842772151E+00    1.0268169750634680E+01    6.2968296583081629E-01
N   -1.6206812279149061E+00    1.0268063549316564E+01    2.5529093240059133E+00
Ga   -1.6189626805255819E+00    8.4026537622245048E+00    3.2407557795236421E+00
N   -1.6185535812616993E+00    8.4031444140043856E+00    5.1653416893360111E+00
Ga   -1.6204964555493842E+00    1.0268426474891667E+01    5.8314644539504803E+00
N   -1.6207081435278197E+00    1.0267954434974277E+01    7.7569199879533697E+00
Ga   -1.6188865771294609E+00    8.4025476885893760E+00    8.4055508851655070E+00
N   -1.6169991370087893E+00    8.4025234503674717E+00    1.0317728153893949E+01
Ga   -1.6189431073683405E+00    1.0267628467192216E+01    1.0926811627792752E+01
N   -1.6049954667275188E+00    1.0262318281373528E+01    1.2823681904051659E+01
Ga   -1.6014607227236310E+00    8.3982013293207842E+00    1.3475906478666598E+01
N   -1.5489976196640713E+00    8.3909413457633981E+00    1.5410669822244586E+01
Ga   -1.6541285145487346E+00    1.0295553767043891E+01    1.6445636916525409E+01
N   -6.5231360508086561E-02    9.3615009004372567E+00    1.7234106420657380E+01
N    6.4636717500920398E+00    8.3694114788081361E-04   -2.6883105932325055E-02
Ga    6.4618670956465989E+00    1.8661773427158070E+00    6.2967520999285365E-01
N    6.4616220755033194E+00    1.8659784472345469E+00    2.5529252032650875E+00
Ga    6.4634772056859955E+00    6.1064301799767650E-04    3.2408119283491055E+00
N    6.4638730203309738E+00    1.1205759369295849E-03    5.1653966640813573E+00
Ga    6.4620990030999756E+00    1.8664753299732881E+00    5.8314040430436282E+00
N    6.4617619953126022E+00    1.8660654587676202E+00    7.7568631373801491E+00
Ga    6.4634677557658540E+00    5.8040185321002707E-04    8.4053009908568743E+00
N    6.4647023201064711E+00    1.0444123175376476E-03    1.0317395548982942E+01
Ga    6.4641082673979771E+00    1.8661636968351456E+00    1.0925917279283285E+01
N    6.4781547231768020E+00    1.8618119359316436E+00    1.2824360833058513E+01
Ga    6.4816175609342821E+00   -4.8352805409662145E-03    1.3468387332743276E+01
N    6.4983150876728031E+00   -1.5525710223273922E-02    1.5395802640263799E+01
Ga    6.4085829658501074E+00    1.8764668411835583E+00    1.6452704849624741E+01
N    8.0043932383072018E+00    9.5107200147338877E-01    1.7219265151579425E+01
N    4.8467378843014099E+00    2.8014953301987404E+00   -2.6884329950870603E-02
Ga    4.8449106812428662E+00    4.6668617439869893E+00    6.2968479574469716E-01
N    4.8446434576490160E+00    4.6666180279777185E+00    2.5529372897044889E+00
Ga    4.8465049672627663E+00    2.8012883619955762E+00    3.2407878459149315E+00
N    4.8469195450686735E+00    2.8017643960191423E+00    5.1653961354653140E+00
Ga    4.8451185758066995E+00    4.6671484585071523E+00    5.8313900807911994E+00
N    4.8446678289775758E+00    4.6666877759177208E+00    7.7568598874866197E+00
Ga    4.8466865018858920E+00    2.8013105165207737E+00    8.4051412325929338E+00
N    4.8480395862145151E+00    2.8015056559549363E+00    1.0317372031625199E+01
Ga    4.8466697912570398E+00    4.6664524264422349E+00    1.0925652215644554E+01
N    4.8593454354400256E+00    4.6607410231652082E+00    1.2821228548185458E+01
Ga    4.8640012819583314E+00    2.7961955537890022E+00    1.3471234097071232E+01
N    4.9167621315174062E+00    2.8058231379720029E+00    1.5404102761386506E+01
Ga    4.8049789114016521E+00    4.6744879357618236E+00    1.6423424187831035E+01
N    6.4062543681488080E+00    3.7530929184572983E+00    1.7230716200538399E+01
N    3.2297575255696316E+00    5.6021419383577671E+00   -2.6891940163628520E-02
Ga    3.2279371364715987E+00    7.4675290637440259E+00    6.2969695578575358E-01
N    3.2276706614071711E+00    7.4672901182101690E+00    2.5529225557380997E+00
Ga    3.2295391633186257E+00    5.6019665779466656E+00    3.2407851824517486E+00
N    3.2299365933509954E+00    5.6024575427134931E+00    5.1654059272525288E+00
Ga    3.2281598832481957E+00    7.4678188882238565E+00    5.8313773400028541E+00
N    3.2278177643752062E+00    7.4673757954542603E+00    7.7568693806025237E+00
Ga    3.2295572237247785E+00    5.6019153871174430E+00    8.4052735778529222E+00
N    3.2307088335459810E+00    5.6025945920405169E+00    1.0317557768342210E+01
Ga    3.2308071343836291E+00    7.4680835191441224E+00    1.0924855803106865E+01
N    3.2466137171820844E+00    7.4653278595687791E+00    1.2823763546235538E+01
Ga    3.2475589339507240E+00    5.5983289289793756E+00    1.3464695707429014E+01
N    3.2604595015147586E+00    5.5881680426431339E+00    1.5394523098601253E+01
Ga    3.1780714054622865E+00    7.4757917268858085E+00    1.6449401318604913E+01
N    4.7656559755779666E+00    6.5456478683272215E+00    1.7218320986559188E+01
N    1.6127601288683349E+00    8.4028003820267614E+00   -2.6884995417145008E-02
Ga    1.6110065794442237E+00    1.0268184298467848E+01    6.2971469121816925E-01
N    1.6106951098705296E+00    1.0267939353266494E+01    2.5529321977499109E+00
Ga    1.6125727061734076E+00    8.4026229875102914E+00    3.2407968702534933E+00
N    1.6129798414891896E+00    8.4030824300604525E+00    5.1653751017593033E+00
Ga    1.6111663652467889E+00    1.0268489090286947E+01    5.8313918509542244E+00
N    1.6107923589345146E+00    1.0267993841522113E+01    7.7568773238074709E+00
Ga    1.6126686868014837E+00    8.4026026394681708E+00    8.4051165033722324E+00
N    1.6142755272561269E+00    8.4026856702784833E+00    1.0317417804274823E+01
Ga    1.6128260405589625E+00    1.0268045715923257E+01    1.0925476660642021E+01
N    1.6268285390713670E+00    1.0262217073434259E+01    1.2821132273599797E+01
Ga    1.6319086158863820E+00    8.3986015156703431E+00    1.3471851507546553E+01
N    1.6883500069694983E+00    8.4138189554696510E+00    1.5403067809814527E+01
Ga    1.5768776229447585E+00    1.0280920381400572E+01    1.6423775784329283E+01
N    3.1743451385883499E+00    9.3520667958083052E+00    1.7229263089418332E+01
N    9.6952485938480422E+00    8.1071372490420547E-04   -2.6820576609680572E-02
Ga    9.6934913860159497E+00    1.8661759789078565E+00    6.2964796833568526E-01
N    9.6932079390956947E+00    1.8659687172333581E+00    2.5528787032751681E+00
Ga    9.6950961262171322E+00    6.5145680425060905E-04    3.2407686643310565E+00
N    9.6953611520071163E+00    1.0720541476844576E-03    5.1653707887882216E+00
Ga    9.6937060540387225E+00    1.8665184445422567E+00    5.8313909957505059E+00
N    9.6933089868290221E+00    1.8659704005274573E+00    7.7569412940480467E+00
Ga    9.6952446621862762E+00    6.5616936188665027E-04    8.4052161983414440E+00
N    9.6961569671800785E+00    1.0038298153209619E-03    1.0317489325529110E+01
Ga    9.6956272472768354E+00    1.8661819874274004E+00    1.0926079370748662E+01
N    9.7102475477301819E+00    1.8618814694683190E+00    1.2825304490919974E+01
Ga    9.7116475458856559E+00   -2.7739492998361016E-03    1.3470634676998584E+01
N    9.7230082568609415E+00   -2.8273622013250822E-02    1.5399062084163267E+01
Ga    9.6421670159138841E+00    1.8976132487181969E+00    1.6463984664169509E+01
N    1.1228201591097914E+01    9.6631925916420480E-01    1.7219465940728515E+01
N    8.0783052652143077E+00    2.8014855589153198E+00   -2.6842876763626969E-02
Ga    8.0765148993592124E+00    4.6668648602230611E+00    6.2966207489030124E-01
N    8.0762301151950275E+00    4.6666221761987128E+00    2.5528862934202041E+00
Ga    8.0781366825759324E+00    2.8013024495793126E+00    3.2407573578334330E+00
N    8.0783942590883893E+00    2.8017303090939127E+00    5.1653614632168301E+00
Ga    8.0767498794953418E+00    4.6671775434137306E+00    5.8314330176720430E+00
N    8.0762401431760313E+00    4.6665560627356779E+00    7.7569608283686957E+00
Ga    8.0783723567927925E+00    2.8013179200659359E+00    8.4053378796416141E+00
N    8.0794357758748081E+00    2.8012461647885929E+00    1.0317871855797037E+01
Ga    8.0779172306611926E+00    4.6666685318245653E+00    1.0926156116329368E+01
N    8.0901785578286258E+00    4.6611274904998137E+00    1.2822350496426665E+01
Ga    8.0949086510091703E+00    2.7984476371078242E+00    1.3475590713447284E+01
N    8.1428611744183925E+00    2.7959845315412348E+00    1.5407555356622741E+01
Ga    8.0390778308820554E+00    4.7008690937874880E+00    1.6441223684454744E+01
N    9.6299630109400773E+00    3.7683270991592677E+00    1.7232146512248082E+01
N    6.4612958641470417E+00    5.6021643074887191E+00   -2.6840279917149736E-02
Ga    6.4595277877925703E+00    7.4675158849008927E+00    6.2963927577515821E-01
N    6.4592718447461905E+00    7.4672991842412770E+00    2.5528806357294194E+00
Ga    6.4611678197737330E+00    5.6019816893277152E+00    3.2407825828689676E+00
N    6.4614265749748938E+00    5.6024116068671663E+00    5.1653904229502512E+00
Ga    6.4598059505082661E+00    7.4678431622975809E+00    5.8313872311714974E+00
N    6.4593682799489418E+00    7.4672765900245288E+00    7.7569618462615431E+00
Ga    6.4612946226921641E+00    5.6019107321261661E+00    8.4052529951017636E+00
N    6.4618635052411806E+00    5.6022340216712054E+00    1.0317498508033498E+01
Ga    6.4618177116993332E+00    7.4675472240574345E+00    1.0925395767901781E+01
N    6.4760902266320226E+00    7.4629408167472873E+00    1.2824502410461189E+01
Ga    6.4770615134551281E+00    5.5981349449029274E+00    1.3470368332071542E+01
N    6.4855663000552841E+00    5.5696546435358556E+00    1.5399113868874272E+01
Ga    6.4029275664611394E+00    7.4876684241536529E+00    1.6469151117359193E+01
N    7.9971921879173076E+00    6.5674733478578595E+00    1.7221783327452840E+01
N    4.8443607792558421E+00    8.4027866877252109E+00   -2.6847098278462909E-02
Ga    4.8425803147314577E+00    1.0268213135552271E+01    6.2965070591152705E-01
N    4.8422805446179140E+00    1.0267941986777318E+01    2.5528845649890179E+00
Ga    4.8441847174783232E+00    8.4026304534357230E+00    3.2407686832864711E+00
N    4.8444564049850962E+00    8.4030436601920080E+00    5.1653698517822484E+00
Ga    4.8428019814910321E+00    1.0268534980264636E+01    5.8313915724769556E+00
N    4.8423503061109443E+00    1.0267957647490423E+01    7.7569735590564930E+00
Ga    4.8444975110839197E+00    8.4026841834903987E+00    8.4050877691988504E+00
N    4.8457246932970186E+00    8.4027486558174367E+00    1.0317416184280800E+01
Ga    4.8442282873540652E+00    1.0267983465450861E+01    1.0926060043398081E+01
N    4.8579042048617520E+00    1.0263241725052998E+01    1.2822166133239913E+01
Ga    4.8636186475450218E+00    8.4010122200100206E+00    1.3476034182143524E+01
N    4.9140709402995304E+00    8.4008786223279142E+00    1.5408317018128917E+01
Ga    4.8100604582783451E+00    1.0297173246823242E+01    1.6437975211897950E+01
N    6.3872484644497147E+00    9.3601559870069995E+00    1.7240762562242676E+01
H    1.6474579976583458E-04    3.0762876525583630E-04   -1.0518522395126659E+00
H   -1.6167882396115938E+00    2.8009974057701590E+00   -1.0518493130115159E+00
H   -3.2337638133469264E+00    5.6016564848827057E+00   -1.0518252716951375E+00
H   -4.8507352925502580E+00    8.4023423806484168E+00   -1.0518211096380548E+00
H    3.2317677398893121E+00    3.1404092198461113E-04   -1.0518429643682718E+00
H    1.6148003412045826E+00    2.8009907785312440E+00   -1.0518432289552067E+00
H   -2.1823912070259737E-03    5.6016680246622705E+00   -1.0518592986067172E+00
H   -1.6191461499319748E+00    8.4023324487608217E+00   -1.0518550464257204E+00
H    6.4633556357083011E+00    3.2572472520393564E-04   -1.0518455515093856E+00
H    4.8463882390810964E+00    2.8009985216580824E+00   -1.0518475285371174E+00
H    3.2294128279108913E+00    5.6016726026183203E+00   -1.0518348406662426E+00
H    1.6124461501863612E+00    8.4023588532667493E+00   -1.0518345017521358E+00
H    9.6949084402102024E+00    2.9547380758605400E-04   -1.0518308149690596E+00
H    8.0779468515074822E+00    2.8009859537986781E+00   -1.0518059669678126E+00
H    6.4609723701988857E+00    5.6016549542262712E+00   -1.0518193332970980E+00
H    4.8440079883140337E+00    8.4023316723613419E+00   -1.0518408251394817E+00
     &END COORD
     &KIND H
       BASIS_SET DZVP-MOLOPT-SR-GTH-q1
       POTENTIAL GTH-PBE-q1
       &POTENTIAL
 1
  0.2000000000000000E+00 2 -0.4178900440000000E+01  0.7244633100000000E+00
 0
         # Potential name:  GTH-PBE-Q1  for symbol:  H
         # Potential read from the potential filename: GTH_POTENTIALS
       &END POTENTIAL
     &END KIND
     &KIND N
       BASIS_SET DZVP-MOLOPT-SR-GTH
       POTENTIAL GTH-PBE-q5
       &POTENTIAL
 2 3
  0.2837905100000000E+00 2 -0.1241522559000000E+02  0.1868095920000000E+01
 2
  0.2554050000000000E+00 1  0.1363026257000000E+02
  0.2454945300000000E+00 0
         # Potential name:  GTH-PBE-Q5  for symbol:  N
         # Potential read from the potential filename: GTH_POTENTIALS
       &END POTENTIAL
     &END KIND
     &KIND Ga
       BASIS_SET DZVP-MOLOPT-SR-GTH
       POTENTIAL GTH-PBE-q13
       &POTENTIAL
 2 1 10
  0.4900000000000000E+00 0
 3
  0.4167772300000000E+00 3  0.1047568975000000E+02 -0.4921768140000000E+01  0.8707055900000000E+00
  0.7770178090000000E+01 -0.2248152160000000E+01
  0.1784415450000000E+01
  0.5696265200000000E+00 2  0.1777985340000000E+01  0.1958597600000000E+00
 -0.2317443900000000E+00
  0.2381265000000000E+00 1 -0.1624868022000000E+02
         # Potential name:  GTH-PBE-Q13  for symbol:  GA
         # Potential read from the potential filename: GTH_POTENTIALS
       &END POTENTIAL
     &END KIND
     &TOPOLOGY
       NUMBER_OF_ATOMS  256
       MULTIPLE_UNIT_CELL  1 1 1
     &END TOPOLOGY
   &END SUBSYS
 &END FORCE_EVAL
