 # Version information for this restart file 
 # current date 2019-06-10 15:22:02.640
 # current working dir /lustre03/project/6037349/rzk/GaN-carbene/444-addat/00-Surface/RKS
 # Program compiled at                              Sun Apr  7 00:48:11 EDT 2019
 # Program compiled on                          beluga2.int.ets1.calculquebec.ca
 # Program compiled for                        Beluga-Linux-x86-64-intel-openmpi
 # Source code revision number                                         svn:18619
 &GLOBAL
   PRINT_LEVEL  MEDIUM
   PROJECT_NAME TEST
   RUN_TYPE  CELL_OPT
 &END GLOBAL
 &MOTION
   &CELL_OPT
     MAX_ITER  300
     STEP_START_VAL  41
     EXTERNAL_PRESSURE     1.0000000000000000E+00
     KEEP_ANGLES  T
     KEEP_SYMMETRY  T
     CONSTRAINT  Z
     PRESSURE_TOLERANCE     5.0000000000000000E+02
   &END CELL_OPT
 &END MOTION
 &FORCE_EVAL
   METHOD  QS
   STRESS_TENSOR  ANALYTICAL
   &DFT
     BASIS_SET_FILE_NAME BASIS_MOLOPT
     POTENTIAL_FILE_NAME GTH_POTENTIALS
     SURFACE_DIPOLE_CORRECTION  T
     SURF_DIP_DIR  Z
     &SCF
       MAX_SCF  100
       EPS_SCF     5.0000000000000004E-06
       &OT  T
         PRECONDITIONER  FULL_ALL
       &END OT
       &OUTER_SCF  T
         OPTIMIZER  NONE
         EPS_SCF     5.0000000000000004E-06
         MAX_SCF  4
       &END OUTER_SCF
       &PRINT
         &RESTART  OFF
           BACKUP_COPIES  1
           &EACH
             JUST_ENERGY  0
             QS_SCF  0
             MD  20
           &END EACH
         &END RESTART
       &END PRINT
     &END SCF
     &QS
       EPS_DEFAULT     1.0000000000000000E-14
       METHOD  GPW
     &END QS
     &MGRID
       NGRIDS  5
       CUTOFF     1.2000000000000000E+03
     &END MGRID
     &XC
       DENSITY_CUTOFF     1.0000000000000000E-10
       GRADIENT_CUTOFF     1.0000000000000000E-10
       TAU_CUTOFF     1.0000000000000000E-10
       &XC_FUNCTIONAL  NO_SHORTCUT
         &PBE  T
         &END PBE
       &END XC_FUNCTIONAL
       &VDW_POTENTIAL
         POTENTIAL_TYPE  PAIR_POTENTIAL
         &PAIR_POTENTIAL
           R_CUTOFF     1.0000000000000004E+01
           TYPE  DFTD3
           PARAMETER_FILE_NAME dftd3.dat
           REFERENCE_FUNCTIONAL PBE
           EPS_CN     9.9999999999999995E-07
           CALCULATE_C9_TERM  T
           REFERENCE_C9_TERM  T
           LONG_RANGE_CORRECTION  F
           VERBOSE_OUTPUT  F
         &END PAIR_POTENTIAL
       &END VDW_POTENTIAL
     &END XC
   &END DFT
   &SUBSYS
     &CELL
       A     1.3069383177696125E+01    0.0000000000000000E+00    0.0000000000000000E+00
       B    -6.4632808465299156E+00    1.1194730809776583E+01    0.0000000000000000E+00
       C     0.0000000000000000E+00    0.0000000000000000E+00    3.2000000000000000E+01
       MULTIPLE_UNIT_CELL  1 1 1
       &CELL_REF
         A     1.2982353780853531E+01    0.0000000000000000E+00    0.0000000000000000E+00
         B    -6.4911768904267628E+00    1.1243048175136114E+01    0.0000000000000000E+00
         C     0.0000000000000000E+00    0.0000000000000000E+00    3.2000000000000000E+01
         MULTIPLE_UNIT_CELL  1 1 1
       &END CELL_REF
     &END CELL
     &COORD
N    1.4311251602367550E-03   -4.4015417082975761E-03   -1.1101410719886635E-01
Ga    1.8177780971117767E-02    1.8689764042930919E+00    5.1577951777756259E-01
N    2.8150783197272822E-02    1.8711176861995908E+00    2.4289413285947745E+00
Ga    1.1531288727590891E-02   -5.7888421124285428E-03    3.1358904760146831E+00
N    3.0971151438598007E-02   -7.0347104569769775E-03    5.0884274272464651E+00
Ga    5.2251497766014086E-02    1.8691760430115369E+00    5.7837071065604624E+00
N    9.6395662346859659E-02    1.8910887846145956E+00    7.7352571912815682E+00
Ga    9.0310738565501925E-02    2.2937989816299745E-02    8.3943394577133574E+00
N    1.5745949146817440E-01    8.4976837717738354E-02    1.0347212934791127E+01
Ga    1.7879710299715820E-01    1.9743527951903319E+00    1.1012107536853200E+01
N    3.7718041506807565E-01    2.0937278535525969E+00    1.2967434912269784E+01
Ga    3.7185879500164842E-01    2.2432217238554075E-01    1.3578672104795999E+01
N   -4.1743555900110880E-03   -5.7337617787370102E-04    1.5372242156615973E+01
Ga   -6.5631566313600243E-01    1.3312049409195252E+00    1.6651077928662428E+01
N    8.9082708389129139E-01    5.0270404071096952E-01    1.7546256829976603E+01
N   -1.6143495542910899E+00    2.7941936651465489E+00   -1.1131826991811627E-01
Ga   -1.5977712948202507E+00    4.6675531513298019E+00    5.1543609570068893E-01
N   -1.5877819165503040E+00    4.6698165923075132E+00    2.4286407531800309E+00
Ga   -1.6035755731503769E+00    2.7933814683060159E+00    3.1355015728629496E+00
N   -1.5834507528145449E+00    2.7920044742849655E+00    5.0874623235148864E+00
Ga   -1.5629820154675862E+00    4.6683576248040781E+00    5.7834252699211959E+00
N   -1.5185011460237059E+00    4.6912664915621409E+00    7.7330902639990944E+00
Ga   -1.5280932804959655E+00    2.8234677073014236E+00    8.3850324602833464E+00
N   -1.4606302602681021E+00    2.8895211655968023E+00    1.0337720505275241E+01
Ga   -1.4216946198225315E+00    4.7737647662945948E+00    1.1020888515500287E+01
N   -1.2106960847733153E+00    4.9131321911268175E+00    1.2980875778293203E+01
Ga   -1.2023172669660385E+00    3.0671577707385405E+00    1.3632453326611447E+01
N   -1.3810183208605626E+00    2.9156184099510236E+00    1.5566976252317509E+01
Ga   -2.4177503477570821E+00    4.5040792810058550E+00    1.6641555941404636E+01
N   -8.1989337252110517E-01    3.3167658989517328E+00    1.6901325596612246E+01
N   -3.2302755411338726E+00    5.5928937225083368E+00   -1.1111524387024199E-01
Ga   -3.2134761407505490E+00    7.4660937367580056E+00    5.1577596237660606E-01
N   -3.2035927517965104E+00    7.4680102293497637E+00    2.4288743647105573E+00
Ga   -3.2196596007755924E+00    5.5910628687023527E+00    3.1363454481084299E+00
N   -3.1997959468609674E+00    5.5896550624909107E+00    5.0885560392144447E+00
Ga   -3.1791309530412741E+00    7.4663772748100898E+00    5.7818552670483703E+00
N   -3.1351467565631634E+00    7.4889740661137276E+00    7.7322820688455796E+00
Ga   -3.1410932354879968E+00    5.6208848197251369E+00    8.3919982013532390E+00
N   -3.0752964723644212E+00    5.6832799003246919E+00    1.0342245186378628E+01
Ga   -3.0482196905369885E+00    7.5744198002487417E+00    1.1012471264443279E+01
N   -2.8429146645904617E+00    7.6996593761451075E+00    1.2960204015552311E+01
Ga   -2.8828108845448051E+00    5.8120258158326843E+00    1.3543201731307290E+01
N   -3.2454060763964296E+00    5.5898757731430253E+00    1.5321203502555152E+01
Ga   -3.7731572837792871E+00    6.8563383495077668E+00    1.6660448253303301E+01
N   -2.3529594228634250E+00    6.1027674111491317E+00    1.7828655834928817E+01
N   -4.8460387360994188E+00    8.3915114225374570E+00   -1.1109557312251191E-01
Ga   -4.8293671163444865E+00    1.0264925446939344E+01    5.1530522042745608E-01
N   -4.8195639763381557E+00    1.0267397037468417E+01    2.4285328896681131E+00
Ga   -4.8354224105342949E+00    8.3905267326870518E+00    3.1350363356501481E+00
N   -4.8156783849903695E+00    8.3895959307304171E+00    5.0870813950552920E+00
Ga   -4.7954464749400101E+00    1.0266484804878848E+01    5.7816854050204860E+00
N   -4.7511335869590736E+00    1.0290013735992849E+01    7.7315032226156948E+00
Ga   -4.7589203499583705E+00    8.4223884604263599E+00    8.3809935590137030E+00
N   -4.6905801677655203E+00    8.4915790681969838E+00    1.0333770891880880E+01
Ga   -4.6537905207164494E+00    1.0369899515432047E+01    1.1025921659279145E+01
N   -4.4441669796983465E+00    1.0510360551782469E+01    1.2997139271002371E+01
Ga   -4.4190089912659225E+00    8.6469352080683439E+00    1.3627063933926470E+01
N   -4.5968614816745950E+00    8.5123104794169624E+00    1.5568787044831680E+01
Ga   -5.6609426437467274E+00    9.9542898693211637E+00    1.6632457830777877E+01
N   -4.0189909875191931E+00    8.8515962758201692E+00    1.6899720558784068E+01
N    3.2689649212169209E+00   -4.3932247077938984E-03   -1.1091317039655635E-01
Ga    3.2854131779357925E+00    1.8689051388672198E+00    5.1638079800313630E-01
N    3.2957304189127496E+00    1.8712692803678956E+00    2.4298572371616007E+00
Ga    3.2792990577567087E+00   -6.1479010860565004E-03    3.1358488115670040E+00
N    3.2994371782764875E+00   -7.0099770177344282E-03    5.0884949169750575E+00
Ga    3.3190467533587844E+00    1.8699308337600102E+00    5.7807303482902341E+00
N    3.3607900174270675E+00    1.8940764466263891E+00    7.7329113577317869E+00
Ga    3.3516146837133958E+00    2.4031024078733254E-02    8.3856178156917327E+00
N    3.4154845934129807E+00    9.5559031508310494E-02    1.0337289971810875E+01
Ga    3.4482835279703958E+00    1.9794464444565705E+00    1.1000097764913241E+01
N    3.6533857658110680E+00    2.1208469591447066E+00    1.2967405424386232E+01
Ga    3.6794693762010975E+00    2.8617998838937464E-01    1.3660170944555153E+01
N    3.4907285677633233E+00    2.1107400914217048E-01    1.5577713488956938E+01
Ga    2.3660515680511094E+00    1.4126569547228491E+00    1.6909223876269511E+01
N    4.1236791884829511E+00    5.4100930429759686E-01    1.6954423055183167E+01
N    1.6531860078996483E+00    2.7942201234156130E+00   -1.1153280319430799E-01
Ga    1.6696754653673249E+00    4.6674221761555019E+00    5.1553877595975295E-01
N    1.6801766721952367E+00    4.6697076080682560E+00    2.4290631837313263E+00
Ga    1.6631133717265187E+00    2.7931388254886800E+00    3.1362373676907516E+00
N    1.6827018371270006E+00    2.7919404033705475E+00    5.0889829228009287E+00
Ga    1.7042749101882784E+00    4.6683519888037575E+00    5.7837863716367766E+00
N    1.7463215540216519E+00    4.6918556618937988E+00    7.7348866868897632E+00
Ga    1.7346295049111387E+00    2.8244951649939876E+00    8.3925192843669159E+00
N    1.7986302809589589E+00    2.8975333871684956E+00    1.0345707987120766E+01
Ga    1.8190037642849364E+00    4.7884873667163941E+00    1.1009921512728345E+01
N    2.0202596622320974E+00    4.9260415563068642E+00    1.2981592962406200E+01
Ga    2.0417050945726194E+00    3.0576370245465236E+00    1.3599391789587461E+01
N    1.8299507976770339E+00    2.9241232544561493E+00    1.5585220802822265E+01
Ga    7.9902573525914111E-01    4.2109865234581960E+00    1.6740236953186791E+01
N    2.5319414786643581E+00    3.3088305141889203E+00    1.7007131380980422E+01
N    3.7291638697784006E-02    5.5930056975904918E+00   -1.1104677671022632E-01
Ga    5.3947229789335721E-02    7.4662033079332275E+00    5.1635244573419914E-01
N    6.4497652627974564E-02    7.4684061080061923E+00    2.4296946768939334E+00
Ga    4.7780445076771726E-02    5.5909366000508198E+00    3.1361753672432449E+00
N    6.8065327728936753E-02    5.5899439318778903E+00    5.0890009635311939E+00
Ga    8.8525608858825058E-02    7.4671036881362669E+00    5.7812448002435719E+00
N    1.3149738556002702E-01    7.4915853832875472E+00    7.7322372154064496E+00
Ga    1.2020187234420890E-01    5.6227709433194404E+00    8.3861085956715407E+00
N    1.8523800709895633E-01    5.6958311814208500E+00    1.0334345199552352E+01
Ga    2.1316311249457975E-01    7.5755873553391897E+00    1.1008632028255663E+01
N    4.1837735413798921E-01    7.7150155599786778E+00    1.2973916465286329E+01
Ga    4.3519315191218222E-01    5.8825764664271940E+00    1.3671942239370658E+01
N    2.5169581373231154E-01    5.7991881406687460E+00    1.5586883588446243E+01
Ga   -9.1979196213697312E-01    6.9565559235424788E+00    1.7025237152514787E+01
N    8.7725639391489230E-01    6.1393670657805979E+00    1.6941768175180911E+01
N   -1.5784655322087877E+00    8.3915597480154940E+00   -1.1133554008020821E-01
Ga   -1.5619927904340158E+00    1.0264782432872448E+01    5.1589682192347697E-01
N   -1.5514974458015545E+00    1.0267180485716207E+01    2.4292715275435999E+00
Ga   -1.5682131642543153E+00    8.3900284912150038E+00    3.1351382944087516E+00
N   -1.5483698351217112E+00    8.3888675944555366E+00    5.0877582121166354E+00
Ga   -1.5271920250189939E+00    1.0265253625308528E+01    5.7818878807540637E+00
N   -1.4855626520298391E+00    1.0288847726201224E+01    7.7326810933282051E+00
Ga   -1.4952193613941134E+00    8.4203961202563811E+00    8.3871097436176854E+00
N   -1.4291392673578731E+00    8.4932355061195999E+00    1.0337802169886016E+01
Ga   -1.4084004052460317E+00    1.0378420288440156E+01    1.1010042734086911E+01
N   -1.2068938815965600E+00    1.0515896499658528E+01    1.2979718493705247E+01
Ga   -1.1822978790933807E+00    8.6522984082814478E+00    1.3616153742726306E+01
N   -1.3566314799804411E+00    8.5736779916963339E+00    1.5582604399758543E+01
Ga   -2.4272784488868924E+00    9.8171321522900410E+00    1.6761065104174442E+01
N   -7.0214812491442902E-01    8.8568650925636536E+00    1.6928814201817978E+01
N    6.5359959274301431E+00   -4.5054091439360316E-03   -1.1130981416990222E-01
Ga    6.5525587763507174E+00    1.8687946851023645E+00    5.1523584008011503E-01
N    6.5624054243396870E+00    1.8707464288996485E+00    2.4288772481498198E+00
Ga    6.5472422159565866E+00   -6.0239240055048908E-03    3.1365591470139411E+00
N    6.5673967641920408E+00   -8.2076782716111098E-03    5.0891734948482528E+00
Ga    6.5867872372611123E+00    1.8675943704960829E+00    5.7819328204695664E+00
N    6.6287118146658610E+00    1.8864817359409547E+00    7.7316962540109779E+00
Ga    6.6199378720333852E+00    1.8072737832653271E-02    8.3916654597299054E+00
N    6.6849704323349446E+00    8.1046518691470462E-02    1.0344136791498094E+01
Ga    6.7180979929484508E+00    1.9646873987500570E+00    1.1010737851176371E+01
N    6.9185449350555936E+00    2.0909682752911594E+00    1.2979510787830147E+01
Ga    6.9348661572524799E+00    2.4486618611850705E-01    1.3658648965717063E+01
N    6.7025159018064890E+00    1.2008351321731442E-01    1.5551115746538745E+01
Ga    5.7680351996978310E+00    1.4143343041743281E+00    1.6650190803111787E+01
N    7.4047318998017424E+00    4.5381259879382180E-01    1.7135798175455115E+01
N    4.9201632917843270E+00    2.7942106745983719E+00   -1.1170191027867984E-01
Ga    4.9367109527699347E+00    4.6674857007659325E+00    5.1477633441215842E-01
N    4.9465972436003209E+00    4.6696565427077346E+00    2.4285439453518469E+00
Ga    4.9312168353153822E+00    2.7933980766543618E+00    3.1360596025464287E+00
N    4.9508372754024990E+00    2.7914634159829999E+00    5.0888612871811079E+00
Ga    4.9704374068035184E+00    4.6678643507351163E+00    5.7832110874799145E+00
N    5.0117983104078832E+00    4.6892280997163391E+00    7.7325263587900945E+00
Ga    5.0057673445711171E+00    2.8204881764560450E+00    8.3841403185914931E+00
N    5.0756247629406239E+00    2.8881472991336090E+00    1.0337891840627060E+01
Ga    5.1020991470765154E+00    4.7749811232348103E+00    1.1011941473161869E+01
N    5.3080213857186624E+00    4.9204124466597525E+00    1.2985259787646662E+01
Ga    5.3334781377225768E+00    3.0610371205247753E+00    1.3617415125991995E+01
N    5.1242397864899569E+00    2.9611173038863261E+00    1.5541934182124283E+01
Ga    4.1230567164392093E+00    4.1816665335616454E+00    1.6629424786989841E+01
N    5.8230044998509944E+00    3.2777753685969460E+00    1.7115478094667729E+01
N    3.3043627502197750E+00    5.5930139414450011E+00   -1.1152914407445146E-01
Ga    3.3209906925607067E+00    7.4662738641913107E+00    5.1532584329520803E-01
N    3.3309886583877426E+00    7.4683394011782003E+00    2.4290632596984447E+00
Ga    3.3151315695461196E+00    5.5915458956683732E+00    3.1367142826786467E+00
N    3.3349112798780314E+00    5.5897947312468492E+00    5.0895448079783936E+00
Ga    3.3544934026856139E+00    7.4655907465303990E+00    5.7839861231241123E+00
N    3.3967234221405853E+00    7.4853047099028576E+00    7.7351773472422112E+00
Ga    3.3878728164706411E+00    5.6166063458032829E+00    8.3943033903001325E+00
N    3.4523813932043326E+00    5.6785064407241173E+00    1.0345955174543107E+01
Ga    3.4831321271023068E+00    7.5596765740353060E+00    1.1004638038585576E+01
N    3.6799918339125792E+00    7.6870986119368316E+00    1.2968710881566714E+01
Ga    3.7004150065882908E+00    5.8425098339589701E+00    1.3660450757333638E+01
N    3.4714905224647317E+00    5.7331281304598134E+00    1.5543598867620362E+01
Ga    2.5233803651898286E+00    7.0237192412559626E+00    1.6642179667271108E+01
N    4.1745322273623851E+00    6.0581207546763212E+00    1.7088710391142438E+01
N    1.6886006120723671E+00    8.3916179526757748E+00   -1.1173328891487658E-01
Ga    1.7051358629535296E+00    1.0264794721929510E+01    5.1501726974721085E-01
N    1.7153365022152174E+00    1.0267000140844932E+01    2.4287494329122707E+00
Ga    1.6996887347972232E+00    8.3906580543628912E+00    3.1363082688930457E+00
N    1.7195913692816718E+00    8.3888476370860801E+00    5.0889612538210267E+00
Ga    1.7395383335560999E+00    1.0264113302970648E+01    5.7843901408819125E+00
N    1.7816812348764566E+00    1.0284674003116841E+01    7.7347681892934039E+00
Ga    1.7735729078002305E+00    8.4172202726074996E+00    8.3904802960544629E+00
N    1.8425701219901311E+00    8.4838053396179394E+00    1.0343651418385409E+01
Ga    1.8711364506581318E+00    1.0371998084092517E+01    1.1012490925071525E+01
N    2.0803380037912671E+00    1.0517511438870899E+01    1.2985618212155769E+01
Ga    2.0969261269270834E+00    8.6565663643145765E+00    1.3620841120416220E+01
N    1.8794293602460628E+00    8.5467501380719320E+00    1.5533672601435052E+01
Ga    9.0191923841211386E-01    9.7840578432619196E+00    1.6632514135761831E+01
N    2.5876745546109938E+00    8.8813023195805627E+00    1.7118739809824540E+01
N    9.8034644402440616E+00   -4.3860205999987452E-03   -1.1123795597537051E-01
Ga    9.8200625794446044E+00    1.8688529849814266E+00    5.1619173125858475E-01
N    9.8298358746412777E+00    1.8706197908207658E+00    2.4296881727075688E+00
Ga    9.8134657906231642E+00   -6.5556122948858975E-03    3.1364516892620302E+00
N    9.8328045571740201E+00   -8.5002545352118770E-03    5.0893825812485369E+00
Ga    9.8556426641349439E+00    1.8702072477777612E+00    5.7781499415998532E+00
N    9.8998621103328137E+00    1.8933472726874527E+00    7.7268751283150285E+00
Ga    9.8845168346015448E+00    2.5730680022064918E-02    8.3809977412245544E+00
N    9.9435575298681336E+00    9.5585101281504187E-02    1.0328357691686504E+01
Ga    9.9854657129152944E+00    1.9779777495597382E+00    1.1003466186571218E+01
N    1.0189276433703263E+01    2.1126870716808925E+00    1.2974324416726001E+01
Ga    1.0221027632470546E+01    2.7198668981206620E-01    1.3647939003088032E+01
N    1.0101783784913904E+01    1.7151963081097288E-01    1.5579968176674560E+01
Ga    8.9700602348054872E+00    1.4066959201746592E+00    1.6806779650905863E+01
N    1.0702811549015697E+01    5.4917619090600855E-01    1.6950007783693327E+01
N    8.1876972882934780E+00    2.7942624805794076E+00   -1.1173165513566372E-01
Ga    8.2041767936935397E+00    4.6675090130691856E+00    5.1566431334881002E-01
N    8.2139009496413014E+00    4.6695618509752332E+00    2.4290779215293679E+00
Ga    8.1974428328627535E+00    2.7928181783012564E+00    3.1354737886404940E+00
N    8.2163804786931305E+00    2.7909518196776264E+00    5.0880605250715778E+00
Ga    8.2398225503448579E+00    4.6682378542087957E+00    5.7825276401510921E+00
N    8.2822011336914283E+00    4.6907874079694549E+00    7.7335616209398435E+00
Ga    8.2716148836169694E+00    2.8163882938760687E+00    8.3794089261233573E+00
N    8.3340148228596238E+00    2.8730406887636915E+00    1.0323447486864900E+01
Ga    8.3433995557016445E+00    4.7625777837842742E+00    1.0958538618651167E+01
N    8.5054420535534110E+00    4.8716660851271119E+00    1.2877270453632535E+01
Ga    8.5913288754893404E+00    3.0679138330000302E+00    1.3612848724309602E+01
N    8.4574868634052116E+00    2.9405444932327884E+00    1.5574700843900539E+01
Ga    7.3534335891538793E+00    4.2053519901408380E+00    1.6728482920029695E+01
N    9.1119021057719927E+00    3.3567716913664301E+00    1.6907980589929739E+01
N    6.5718546278596541E+00    5.5930257123423157E+00   -1.1127696839783215E-01
Ga    6.5882133539177454E+00    7.4662268898424680E+00    5.1641535389442905E-01
N    6.5976564272505183E+00    7.4680783455924971E+00    2.4298721794525528E+00
Ga    6.5817777224003313E+00    5.5906825233010311E+00    3.1363037515378434E+00
N    6.6011948569207064E+00    5.5892386497195767E+00    5.0891919661268634E+00
Ga    6.6232532279351695E+00    7.4680151660995611E+00    5.7783162155122545E+00
N    6.6663394647369278E+00    7.4929530245544065E+00    7.7273039814777364E+00
Ga    6.6522127160995597E+00    5.6234321597304131E+00    8.3781183003754229E+00
N    6.7066100003107492E+00    5.6942534461920298E+00    1.0320194838616517E+01
Ga    6.7586662421188546E+00    7.5731923219865793E+00    1.0990950686891370E+01
N    6.9646650892436126E+00    7.7080263641183064E+00    1.2964848964165665E+01
Ga    6.9988866544272899E+00    5.8616948250680041E+00    1.3643285713052551E+01
N    6.8584580539777704E+00    5.7963603341654899E+00    1.5569935775832391E+01
Ga    5.7363594327928382E+00    7.0111003151746498E+00    1.6781948631972448E+01
N    7.5028443454576168E+00    6.1713019768567605E+00    1.6907928551744767E+01
N    4.9560686978173276E+00    8.3915989881598794E+00   -1.1179614149782581E-01
Ga    4.9725227217145136E+00    1.0264760634676998E+01    5.1540476146057101E-01
N    4.9820428388847642E+00    1.0266856561925826E+01    2.4290148449643314E+00
Ga    4.9655800161336670E+00    8.3903914386912941E+00    3.1361269456180980E+00
N    4.9842516017676655E+00    8.3887786010304648E+00    5.0891121045784820E+00
Ga    5.0078365866838350E+00    1.0266116145468478E+01    5.7833020420905115E+00
N    5.0503265155960744E+00    1.0288445850067417E+01    7.7355234684727003E+00
Ga    5.0383898364937458E+00    8.4162113991317735E+00    8.3844386646087621E+00
N    5.1015625620985636E+00    8.4775236854055684E+00    1.0333566115350596E+01
Ga    5.1184336176492966E+00    1.0369236143139913E+01    1.0970166906873233E+01
N    5.2974871031617399E+00    1.0485463281821545E+01    1.2917634423259242E+01
Ga    5.3512987887802339E+00    8.6465605204526153E+00    1.3591069194049403E+01
N    5.1776196136786385E+00    8.5253071380330390E+00    1.5569738856429765E+01
Ga    4.1247077433017836E+00    9.7777812056437039E+00    1.6710442914668256E+01
N    5.8667180056757520E+00    8.9327710645593488E+00    1.6989816151222556E+01
H    1.4714679359513188E-03   -2.1667562129668682E-03   -1.1322847454047278E+00
H   -1.6142730489452497E+00    2.7964125761446952E+00   -1.1326404931165532E+00
H   -3.2303447119552446E+00    5.5953458148444817E+00   -1.1323757768997951E+00
H   -4.8459399933419274E+00    8.3940805671280465E+00   -1.1324190653071071E+00
H    3.2685264478893088E+00   -2.5762261360011474E-03   -1.1322015073186964E+00
H    1.6527413791833012E+00    2.7965073239456726E+00   -1.1328584031307873E+00
H    3.7102089482473746E-02    5.5951309749487885E+00   -1.1323277473687079E+00
H   -1.5788224116861596E+00    8.3938088609634516E+00   -1.1326629013918830E+00
H    6.5352943003150052E+00   -2.5059036746920920E-03   -1.1325766689689407E+00
H    4.9197401756644377E+00    2.7963961449347972E+00   -1.1329870221756539E+00
H    3.3037451947852730E+00    5.5949897330168064E+00   -1.1327937061324984E+00
H    1.6880545180635353E+00    8.3936294419189608E+00   -1.1330335613727542E+00
H    9.8036514146778426E+00   -1.9989789643063104E-03   -1.1324961182369846E+00
H    8.1878676341505390E+00    2.7965887148275175E+00   -1.1330676911688884E+00
H    6.5718016568495941E+00    5.5953562368238066E+00   -1.1325510735807511E+00
H    4.9561955329036431E+00    8.3941376164279085E+00   -1.1331282882068601E+00
     &END COORD
     &KIND H
       BASIS_SET DZVP-MOLOPT-SR-GTH-q1
       POTENTIAL GTH-PBE-q1
       &POTENTIAL
 1
  0.2000000000000000E+00 2 -0.4178900440000000E+01  0.7244633100000000E+00
 0
         # Potential name:  GTH-PBE-Q1  for symbol:  H
         # Potential read from the potential filename: GTH_POTENTIALS
       &END POTENTIAL
     &END KIND
     &KIND N
       BASIS_SET DZVP-MOLOPT-SR-GTH
       POTENTIAL GTH-PBE-q5
       &POTENTIAL
 2 3
  0.2837905100000000E+00 2 -0.1241522559000000E+02  0.1868095920000000E+01
 2
  0.2554050000000000E+00 1  0.1363026257000000E+02
  0.2454945300000000E+00 0
         # Potential name:  GTH-PBE-Q5  for symbol:  N
         # Potential read from the potential filename: GTH_POTENTIALS
       &END POTENTIAL
     &END KIND
     &KIND Ga
       BASIS_SET DZVP-MOLOPT-SR-GTH
       POTENTIAL GTH-PBE-q13
       &POTENTIAL
 2 1 10
  0.4900000000000000E+00 0
 3
  0.4167772300000000E+00 3  0.1047568975000000E+02 -0.4921768140000000E+01  0.8707055900000000E+00
  0.7770178090000000E+01 -0.2248152160000000E+01
  0.1784415450000000E+01
  0.5696265200000000E+00 2  0.1777985340000000E+01  0.1958597600000000E+00
 -0.2317443900000000E+00
  0.2381265000000000E+00 1 -0.1624868022000000E+02
         # Potential name:  GTH-PBE-Q13  for symbol:  GA
         # Potential read from the potential filename: GTH_POTENTIALS
       &END POTENTIAL
     &END KIND
     &TOPOLOGY
       NUMBER_OF_ATOMS  256
       MULTIPLE_UNIT_CELL  1 1 1
     &END TOPOLOGY
   &END SUBSYS
 &END FORCE_EVAL
