 # Version information for this restart file 
 # current date 2019-06-10 12:24:02.306
 # current working dir /lustre03/project/6037349/rzk/GaN-carbene/444-addat/00-Surface/RKS
 # Program compiled at                              Sun Apr  7 00:48:11 EDT 2019
 # Program compiled on                          beluga2.int.ets1.calculquebec.ca
 # Program compiled for                        Beluga-Linux-x86-64-intel-openmpi
 # Source code revision number                                         svn:18619
 &GLOBAL
   PRINT_LEVEL  MEDIUM
   PROJECT_NAME TEST
   RUN_TYPE  CELL_OPT
 &END GLOBAL
 &MOTION
   &CELL_OPT
     MAX_ITER  300
     STEP_START_VAL  25
     EXTERNAL_PRESSURE     1.0000000000000000E+00
     KEEP_ANGLES  T
     KEEP_SYMMETRY  T
     CONSTRAINT  Z
     PRESSURE_TOLERANCE     5.0000000000000000E+02
   &END CELL_OPT
 &END MOTION
 &FORCE_EVAL
   METHOD  QS
   STRESS_TENSOR  ANALYTICAL
   &DFT
     BASIS_SET_FILE_NAME BASIS_MOLOPT
     POTENTIAL_FILE_NAME GTH_POTENTIALS
     SURFACE_DIPOLE_CORRECTION  T
     SURF_DIP_DIR  Z
     &SCF
       MAX_SCF  100
       EPS_SCF     5.0000000000000004E-06
       &OT  T
         PRECONDITIONER  FULL_ALL
       &END OT
       &OUTER_SCF  T
         OPTIMIZER  NONE
         EPS_SCF     5.0000000000000004E-06
         MAX_SCF  4
       &END OUTER_SCF
       &PRINT
         &RESTART  OFF
           BACKUP_COPIES  1
           &EACH
             JUST_ENERGY  0
             QS_SCF  0
             MD  20
           &END EACH
         &END RESTART
       &END PRINT
     &END SCF
     &QS
       EPS_DEFAULT     1.0000000000000000E-14
       METHOD  GPW
     &END QS
     &MGRID
       NGRIDS  5
       CUTOFF     1.2000000000000000E+03
     &END MGRID
     &XC
       DENSITY_CUTOFF     1.0000000000000000E-10
       GRADIENT_CUTOFF     1.0000000000000000E-10
       TAU_CUTOFF     1.0000000000000000E-10
       &XC_FUNCTIONAL  NO_SHORTCUT
         &PBE  T
         &END PBE
       &END XC_FUNCTIONAL
       &VDW_POTENTIAL
         POTENTIAL_TYPE  PAIR_POTENTIAL
         &PAIR_POTENTIAL
           R_CUTOFF     1.0000000000000004E+01
           TYPE  DFTD3
           PARAMETER_FILE_NAME dftd3.dat
           REFERENCE_FUNCTIONAL PBE
           EPS_CN     9.9999999999999995E-07
           CALCULATE_C9_TERM  T
           REFERENCE_C9_TERM  T
           LONG_RANGE_CORRECTION  F
           VERBOSE_OUTPUT  F
         &END PAIR_POTENTIAL
       &END VDW_POTENTIAL
     &END XC
   &END DFT
   &SUBSYS
     &CELL
       A     1.2596633938698199E+01    0.0000000000000000E+00    0.0000000000000000E+00
       B    -6.5112745535687813E+00    1.1277858348811424E+01    0.0000000000000000E+00
       C     0.0000000000000000E+00    0.0000000000000000E+00    3.2000000000000000E+01
       MULTIPLE_UNIT_CELL  1 1 1
       &CELL_REF
         A     1.2982353780853531E+01    0.0000000000000000E+00    0.0000000000000000E+00
         B    -6.4911768904267628E+00    1.1243048175136114E+01    0.0000000000000000E+00
         C     0.0000000000000000E+00    0.0000000000000000E+00    3.2000000000000000E+01
         MULTIPLE_UNIT_CELL  1 1 1
       &END CELL_REF
     &END CELL
     &COORD
N   -3.9624896198279420E-03   -7.9945588667588493E-03   -2.0684326813744552E-01
Ga   -3.1077194050762275E-02    1.8875520517913347E+00    5.2308049978698257E-01
N   -3.2920472214111492E-02    1.8830097840991344E+00    2.3447697179297413E+00
Ga   -8.2762103354454177E-04   -4.6482439921993850E-03    3.0685023866448695E+00
N    1.8550305984859565E-03   -6.0392902021444055E-03    4.9949043241292221E+00
Ga   -2.6674584758113108E-02    1.8836331686368588E+00    5.6690924180779838E+00
N   -1.4454198458531336E-02    1.8839928077519241E+00    7.6273823401427316E+00
Ga    1.3877207323260313E-02   -8.9724823184358857E-03    8.4552279052009158E+00
N    4.7922961019365780E-02   -9.7818155081058483E-03    1.0354715484427588E+01
Ga    3.3205586944682085E-02    1.8896036454720524E+00    1.0927061938592544E+01
N    1.2112788761997183E-01    1.9199827635320921E+00    1.3007420676371879E+01
Ga    1.1445234361429592E-01    3.2387656739712986E-02    1.3794154298509000E+01
N    1.0944998527360737E-01    1.6535349546549830E-01    1.5534229454661983E+01
Ga   -3.0347087295648778E-01    1.7937281726033938E+00    1.6784487536557929E+01
N    1.2124168471307439E+00    7.8101700043875244E-01    1.7535467021696338E+01
N   -1.6314614426942211E+00    2.8109586546947063E+00   -2.0647800457363899E-01
Ga   -1.6589286226072255E+00    4.7065884334737671E+00    5.2376703236534505E-01
N   -1.6608787600057280E+00    4.7023490513262125E+00    2.3448057267918627E+00
Ga   -1.6285798943289727E+00    2.8151514234706312E+00    3.0684347877515448E+00
N   -1.6260171577514715E+00    2.8138076423806653E+00    4.9946781546977599E+00
Ga   -1.6551884605594176E+00    4.7027689773333776E+00    5.6704439144133749E+00
N   -1.6452061089017682E+00    4.7030315889581642E+00    7.6299640997661120E+00
Ga   -1.6113584354899937E+00    2.8098533338176455E+00    8.4599930745179268E+00
N   -1.5772030699315056E+00    2.8126164832996028E+00    1.0351756523359565E+01
Ga   -1.6039754198397889E+00    4.7057002875172325E+00    1.0910119212775673E+01
N   -1.5331137559553207E+00    4.7382869625083783E+00    1.3008385389801166E+01
Ga   -1.4659913628428956E+00    2.8748327340518260E+00    1.3784757700246164E+01
N   -1.4580395536658008E+00    2.9847896686821977E+00    1.5574743075123989E+01
Ga   -1.9398055849320690E+00    4.6883062582073256E+00    1.6765495315006763E+01
N   -3.6170971397067980E-01    3.6305428564970219E+00    1.7432962969497467E+01
N   -3.2593978811525037E+00    5.6309914209534986E+00   -2.0626346961996347E-01
Ga   -3.2867945116908310E+00    7.5260168174610458E+00    5.2343626785617414E-01
N   -3.2885576999574422E+00    7.5222168852843554E+00    2.3447397095653852E+00
Ga   -3.2565370071652038E+00    5.6341618219426115E+00    3.0683170608312760E+00
N   -3.2543158478534631E+00    5.6332994509987602E+00    4.9954692445081825E+00
Ga   -3.2825176090953603E+00    7.5221742016316728E+00    5.6682768639454553E+00
N   -3.2709484481158007E+00    7.5228051386668069E+00    7.6288538518667703E+00
Ga   -3.2416309043522862E+00    5.6289343993280676E+00    8.4542502501473038E+00
N   -3.2137488095064488E+00    5.6331810578534407E+00    1.0356376700439482E+01
Ga   -3.2211419929400051E+00    7.5203482119206129E+00    1.0911554497945996E+01
N   -3.1389897263784161E+00    7.5527498882330404E+00    1.3014743815234414E+01
Ga   -3.1423924070243889E+00    5.6557391526303888E+00    1.3764091325858217E+01
N   -3.1493744422772072E+00    5.7837204351861482E+00    1.5541984343958859E+01
Ga   -3.5530740307089146E+00    7.4270044256417753E+00    1.6786067418976526E+01
N   -2.0318114371712492E+00    6.4463106184701831E+00    1.7547344647922881E+01
N   -4.8873066584827640E+00    8.4503883817223056E+00   -2.0585697227253208E-01
Ga   -4.9142002491339793E+00    1.0345034309716592E+01    5.2393347839089677E-01
N   -4.9162884993556570E+00    1.0341261252404493E+01    2.3446613782503669E+00
Ga   -4.8843627962723923E+00    8.4537149113186985E+00    3.0678924933053779E+00
N   -4.8810458004315036E+00    8.4526321692340236E+00    4.9950636927289196E+00
Ga   -4.9115396316193838E+00    1.0341725242226360E+01    5.6714015778198199E+00
N   -4.8996420820875288E+00    1.0341044117145765E+01    7.6307996579497939E+00
Ga   -4.8666250124164243E+00    8.4491030963141398E+00    8.4564815553685726E+00
N   -4.8301582291223086E+00    8.4519818974213710E+00    1.0357631785954229E+01
Ga   -4.8622634663936921E+00    1.0345849909355874E+01    1.0895147882177431E+01
N   -4.7807897799682140E+00    1.0366389599754379E+01    1.3012434480649858E+01
Ga   -4.7229308239199401E+00    8.5058006368177690E+00    1.3788900403035125E+01
N   -4.7076421460425077E+00    8.6236887783603500E+00    1.5556449837728755E+01
Ga   -5.1889477153064414E+00    1.0297694655215102E+01    1.6774229328567881E+01
N   -3.6159199889434244E+00    9.2748527194353745E+00    1.7434163410265388E+01
N    3.1453588244222930E+00   -8.0330072899700913E-03   -2.0622136518754042E-01
Ga    3.1185992445272670E+00    1.8873866294118531E+00    5.2289846716465704E-01
N    3.1163922284021037E+00    1.8827683849098567E+00    2.3446118172796968E+00
Ga    3.1478429673618757E+00   -4.8792171141465602E-03    3.0683983283686294E+00
N    3.1500719258304342E+00   -7.0237574882941346E-03    4.9951088192141180E+00
Ga    3.1213431072026880E+00    1.8832373699875484E+00    5.6669152608044193E+00
N    3.1339609501054886E+00    1.8815508210068768E+00    7.6277835015382056E+00
Ga    3.1659650173030984E+00   -1.0272386655386202E-02    8.4520839382672062E+00
N    3.1965796178233816E+00   -1.3909323798437749E-02    1.0365353890236205E+01
Ga    3.1791747335249934E+00    1.8825151100109387E+00    1.0924348846741992E+01
N    3.2630565540915470E+00    1.9031762720779040E+00    1.3026949680340033E+01
Ga    3.2539233699681378E+00    3.5074058483073258E-03    1.3792337917593139E+01
N    3.2943866600977194E+00    1.5791193414711760E-01    1.5591501191772123E+01
Ga    2.8276246037534092E+00    1.7024453317880612E+00    1.6885373590924626E+01
N    4.3796680731898494E+00    8.9457282853964848E-01    1.7426199202768306E+01
N    1.5174912850845230E+00    2.8112294838540763E+00   -2.0626523895456911E-01
Ga    1.4906784562945374E+00    4.7067563924486375E+00    5.2339936292521627E-01
N    1.4882857326368262E+00    4.7023546737161706E+00    2.3445826883189231E+00
Ga    1.5202532868549430E+00    2.8148486176143934E+00    3.0693208930178471E+00
N    1.5227220156768051E+00    2.8127969694222479E+00    4.9940916362737129E+00
Ga    1.4932567854576753E+00    4.7021540240077186E+00    5.6699474806261323E+00
N    1.5038443980562484E+00    4.7008280112768910E+00    7.6295856618614719E+00
Ga    1.5403949800540708E+00    2.8118928278914659E+00    8.4572412278555831E+00
N    1.5799682858166721E+00    2.8108131283788738E+00    1.0358119670310169E+01
Ga    1.5454394183329694E+00    4.7013520571738621E+00    1.0904503279541622E+01
N    1.6171174908755328E+00    4.7309089264177340E+00    1.3036857445197491E+01
Ga    1.6713567906019324E+00    2.8484725070973118E+00    1.3799755008333333E+01
N    1.7006507233091259E+00    2.9714993579664286E+00    1.5612271062301307E+01
Ga    1.2161236010375829E+00    4.6140852949097795E+00    1.6812767542204931E+01
N    2.7640159528059729E+00    3.7049535317537630E+00    1.7367203206132324E+01
N   -1.1019484838186730E-01    5.6311699342636743E+00   -2.0679292385886330E-01
Ga   -1.3731095147812863E-01    7.5259504267812023E+00    5.2337625559851564E-01
N   -1.3929966478675057E-01    7.5222972143533866E+00    2.3442847912974090E+00
Ga   -1.0778637329557209E-01    5.6339396731365685E+00    3.0688265452974246E+00
N   -1.0621082944873046E-01    5.6327673997193699E+00    4.9948385127150017E+00
Ga   -1.3367049866979885E-01    7.5215921313006682E+00    5.6675576993924999E+00
N   -1.2242475239821426E-01    7.5218180563490273E+00    7.6276967169541798E+00
Ga   -8.8557893268937538E-02    5.6295520952722580E+00    8.4518915780992465E+00
N   -5.7740969037073320E-02    5.6289716208064737E+00    1.0364111416855748E+01
Ga   -7.1445204284955585E-02    7.5201829519416954E+00    1.0923226331348088E+01
N    4.2144590612067795E-03    7.5479288356877010E+00    1.3032248738192564E+01
Ga    2.7115576321228969E-03    5.6397656254683950E+00    1.3757392776594036E+01
N    3.4001634581835791E-02    5.8154904733303709E+00    1.5628764218430460E+01
Ga   -3.9314974285315057E-01    7.3702231885035907E+00    1.6885327879635664E+01
N    1.1151575785791743E+00    6.5266847337146370E+00    1.7433127431939177E+01
N   -1.7379468315618647E+00    8.4501952899190815E+00   -2.0685413252419008E-01
Ga   -1.7650998284201098E+00    1.0345794673897140E+01    5.2360368709343319E-01
N   -1.7673331640632755E+00    1.0341262312320909E+01    2.3444381424946688E+00
Ga   -1.7353932574802748E+00    8.4535156025409997E+00    3.0688788781636935E+00
N   -1.7333852696836378E+00    8.4521218846565667E+00    4.9946281898035148E+00
Ga   -1.7622538597367130E+00    1.0340948345990281E+01    5.6687100417485130E+00
N   -1.7520739921959156E+00    1.0339875120011948E+01    7.6300854329211054E+00
Ga   -1.7144333703440424E+00    8.4489187824983940E+00    8.4548063378016405E+00
N   -1.6811029100030186E+00    8.4483707584796548E+00    1.0362686009064479E+01
Ga   -1.7072326408455132E+00    1.0338019793978528E+01    1.0903139984042923E+01
N   -1.6389197479015696E+00    1.0359397201285665E+01    1.3031878376945963E+01
Ga   -1.5891790701126265E+00    8.4774603135253361E+00    1.3789099721441055E+01
N   -1.5539002476662049E+00    8.5985178241434159E+00    1.5610495757610931E+01
Ga   -2.0160957442510474E+00    1.0242946130428471E+01    1.6816662138677593E+01
N   -4.9620860322519617E-01    9.3869013129737056E+00    1.7396426769016106E+01
N    6.2946282588235949E+00   -8.4702113010586572E-03   -2.0585234431879634E-01
Ga    6.2674129877792275E+00    1.8874526434672176E+00    5.2338412185059280E-01
N    6.2656674350331025E+00    1.8832262091706924E+00    2.3443917468791491E+00
Ga    6.2969824749921663E+00   -4.6447003088896256E-03    3.0684495130349703E+00
N    6.2989640203696604E+00   -6.2304846548329202E-03    4.9950023926501634E+00
Ga    6.2703218112689054E+00    1.8832154024349472E+00    5.6676433490158047E+00
N    6.2817460093303579E+00    1.8839858437146486E+00    7.6283646202484583E+00
Ga    6.3119794071247570E+00   -9.3960039140556090E-03    8.4515575981057438E+00
N    6.3356707226088513E+00   -8.2445301958469046E-03    1.0360792218475135E+01
Ga    6.3335407456254611E+00    1.8858263215743436E+00    1.0906643480134509E+01
N    6.4063922893778571E+00    1.9046162425947697E+00    1.3012296637874641E+01
Ga    6.4294179860182554E+00    3.9412566703817931E-02    1.3731909817942201E+01
N    6.4227201999857106E+00    8.3896285691489922E-02    1.5603152654590556E+01
Ga    5.9997917386424851E+00    1.8117373304274387E+00    1.6809284185316510E+01
N    7.5057474764594385E+00    8.4202497840576029E-01    1.7498022666874245E+01
N    4.6664194112968058E+00    2.8112502051429700E+00   -2.0601345708186380E-01
Ga    4.6394849449787774E+00    4.7064275898320895E+00    5.2408933860450346E-01
N    4.6379874583714997E+00    4.7025702731857582E+00    2.3439541745819148E+00
Ga    4.6693864196888013E+00    2.8150124372330234E+00    3.0688859276453502E+00
N    4.6717229084155418E+00    2.8135471695571401E+00    4.9940724165099919E+00
Ga    4.6415597220694824E+00    4.7026020690962547E+00    5.6697173476321536E+00
N    4.6538501149457296E+00    4.7023731595627831E+00    7.6292755511691492E+00
Ga    4.6867244829413508E+00    2.8110774331379522E+00    8.4542195738490449E+00
N    4.7187248885605255E+00    2.8130712077005855E+00    1.0358522161023293E+01
Ga    4.6934649530763579E+00    4.7106226190315850E+00    1.0890956041049131E+01
N    4.7616685553847846E+00    4.7291302224986849E+00    1.3014767226446478E+01
Ga    4.8376771412564281E+00    2.8803145158315413E+00    1.3777626540191701E+01
N    4.8637649010442994E+00    2.9514871449552884E+00    1.5568148937397252E+01
Ga    4.3821792913631867E+00    4.6596743455991740E+00    1.6786485729344907E+01
N    5.9294241450816711E+00    3.6847590405833786E+00    1.7408833766716203E+01
N    3.0386373671085978E+00    5.6309850065462861E+00   -2.0578856029885234E-01
Ga    3.0116458857299930E+00    7.5258656170962306E+00    5.2304775576790530E-01
N    3.0099570897822279E+00    7.5227299318358183E+00    2.3444877557097028E+00
Ga    3.0415541909658965E+00    5.6341369449602947E+00    3.0689316447190702E+00
N    3.0437782516457998E+00    5.6332757049942810E+00    4.9941886695754860E+00
Ga    3.0150362353787439E+00    7.5224645883368648E+00    5.6678613374196098E+00
N    3.0275423845342377E+00    7.5245244755950420E+00    7.6268219956350096E+00
Ga    3.0556475797478395E+00    5.6306503260744671E+00    8.4531148603087267E+00
N    3.0847646917343297E+00    5.6301789074817616E+00    1.0358572116236772E+01
Ga    3.0768174211326711E+00    7.5304914810128967E+00    1.0916573534744497E+01
N    3.1545799926620810E+00    7.5514014440595751E+00    1.3012407044733516E+01
Ga    3.1723942170358321E+00    5.6819053087994646E+00    1.3771434197418683E+01
N    3.1668669389769275E+00    5.7518283024017682E+00    1.5581088208422395E+01
Ga    2.7305928117540592E+00    7.4444103476756807E+00    1.6804512273083009E+01
N    4.2457925186221317E+00    6.4481577418836347E+00    1.7494779512717788E+01
N    1.4111208903374801E+00    8.4504611155546385E+00   -2.0597258213626526E-01
Ga    1.3834688293111728E+00    1.0345389384730479E+01    5.2337754412982052E-01
N    1.3823228414848507E+00    1.0341550203704456E+01    2.3444483358075385E+00
Ga    1.4137902928462660E+00    8.4535576759194537E+00    3.0687953360524003E+00
N    1.4158687835426069E+00    8.4529621469325704E+00    4.9944106706978308E+00
Ga    1.3864422636270386E+00    1.0341404954796840E+01    5.6700666786732707E+00
N    1.3971673559525444E+00    1.0342451422191951E+01    7.6294103837701366E+00
Ga    1.4313884774925183E+00    8.4494870372012016E+00    8.4578183506584299E+00
N    1.4620473015357238E+00    8.4516725337145076E+00    1.0358249177484637E+01
Ga    1.4407939157432947E+00    1.0348435841990879E+01    1.0905949780675430E+01
N    1.4991175881170009E+00    1.0373744080882336E+01    1.3015140070498919E+01
Ga    1.5871883314290858E+00    8.5236400594645119E+00    1.3770431582075995E+01
N    1.6099169316112691E+00    8.5856180432486280E+00    1.5595743791405484E+01
Ga    1.1215612654648313E+00    1.0326477716321175E+01    1.6779045367354186E+01
N    2.6734731387052011E+00    9.3133225913276725E+00    1.7406930174006941E+01
N    9.4439697454473492E+00   -8.1364289278030109E-03   -2.0658506450924694E-01
Ga    9.4165682201308005E+00    1.8876372332842704E+00    5.2324468908502730E-01
N    9.4152911496236769E+00    1.8833729097453942E+00    2.3443681481499690E+00
Ga    9.4461867452633470E+00   -4.8365257800837723E-03    3.0688267597176040E+00
N    9.4486349199617763E+00   -5.7023151062842821E-03    4.9941931421997756E+00
Ga    9.4194892999516266E+00    1.8827892603115777E+00    5.6678498013573666E+00
N    9.4322852352523494E+00    1.8840208870777644E+00    7.6258660094965265E+00
Ga    9.4628376377227355E+00   -8.6382864053378104E-03    8.4535277954770827E+00
N    9.4917243952208121E+00   -8.0678678533374418E-03    1.0354327680731425E+01
Ga    9.4803371372898226E+00    1.8825589895749728E+00    1.0925456656950153E+01
N    9.5505037008263258E+00    1.9117173921808273E+00    1.3017036879412267E+01
Ga    9.5663389860453325E+00    1.9212650075005316E-02    1.3763319134595106E+01
N    9.5352944627311249E+00    8.7661768436875787E-02    1.5611606325392739E+01
Ga    9.1088241020764524E+00    1.8156746270902737E+00    1.6854412960918619E+01
N    1.0670209274063684E+01    7.7952521767212812E-01    1.7421952711259529E+01
N    7.8160099513535402E+00    2.8112388595450128E+00   -2.0593151172303362E-01
Ga    7.7886020019746489E+00    4.7067042223244648E+00    5.2347998175026655E-01
N    7.7873567352395110E+00    4.7028466135923184E+00    2.3445652405717321E+00
Ga    7.8183532683355770E+00    2.8147937948875619E+00    3.0690429645802286E+00
N    7.8214771081641219E+00    2.8139086695745332E+00    4.9937009145843820E+00
Ga    7.7907264068465283E+00    4.7020307954994278E+00    5.6683727877881669E+00
N    7.8024975393164544E+00    4.7031977836715457E+00    7.6281706830250720E+00
Ga    7.8375106450092336E+00    2.8097306554664696E+00    8.4540773448634425E+00
N    7.8693467194825262E+00    2.8108980862084012E+00    1.0353451483661521E+01
Ga    7.8426312991764071E+00    4.7011557401054569E+00    1.0909465510482487E+01
N    7.9063698933087441E+00    4.7221868916189091E+00    1.3012098021548024E+01
Ga    7.9745387999460640E+00    2.8572167781930204E+00    1.3787768235482412E+01
N    7.9412909821735083E+00    2.9107260346782518E+00    1.5590956926887424E+01
Ga    7.4904010180350769E+00    4.6842636543573377E+00    1.6788218667138292E+01
N    9.0739797573911058E+00    3.6483608516647394E+00    1.7406410545968733E+01
N    6.1883280804011012E+00    5.6308453006852890E+00   -2.0621203294994980E-01
Ga    6.1613826588219496E+00    7.5261265396017869E+00    5.2356919159706783E-01
N    6.1598079549310301E+00    7.5225572476425482E+00    2.3442743408634219E+00
Ga    6.1902804298607581E+00    5.6341385772087422E+00    3.0687293077944351E+00
N    6.1934058095577518E+00    5.6331563679545607E+00    4.9945120440210644E+00
Ga    6.1632831710301472E+00    7.5219575588805272E+00    5.6667217051162462E+00
N    6.1772493599212641E+00    7.5227957081460062E+00    7.6263082340304296E+00
Ga    6.2059407717388737E+00    5.6294209265652180E+00    8.4527017302423815E+00
N    6.2345280497338402E+00    5.6295778291284195E+00    1.0355772051916201E+01
Ga    6.2204260172566563E+00    7.5210525378249864E+00    1.0922886742969123E+01
N    6.3031545959121313E+00    7.5450565865811985E+00    1.3017773015356662E+01
Ga    6.3049700781275462E+00    5.6534104466719066E+00    1.3795552484618620E+01
N    6.2794491124085070E+00    5.7182699062182305E+00    1.5570729876432964E+01
Ga    5.8357392210023740E+00    7.4108803676394208E+00    1.6853599301910421E+01
N    7.4239077207726121E+00    6.4173108598779853E+00    1.7426240881181929E+01
N    4.5601454541702298E+00    8.4508615768680464E+00   -2.0625184359920845E-01
Ga    4.5331032767333923E+00    1.0345232138172616E+01    5.2367840031799529E-01
N    4.5315197983379099E+00    1.0341913236286299E+01    2.3442203877182344E+00
Ga    4.5629412072721536E+00    8.4534404668375913E+00    3.0693163456645629E+00
N    4.5660835184665025E+00    8.4529896053621929E+00    4.9940498604428543E+00
Ga    4.5354355241937112E+00    1.0340885064158089E+01    5.6698954988093186E+00
N    4.5474750431010875E+00    1.0341756799329637E+01    7.6282498637498790E+00
Ga    4.5810568085008336E+00    8.4503827860661396E+00    8.4576215386306153E+00
N    4.6187933491099029E+00    8.4516340176238547E+00    1.0353556231193565E+01
Ga    4.5853107846747516E+00    1.0342567235151893E+01    1.0914750551503067E+01
N    4.6551176757453252E+00    1.0368288827079363E+01    1.3016913743974008E+01
Ga    4.7222127611471318E+00    8.5042710056485031E+00    1.3808262952647292E+01
N    4.7046612355630586E+00    8.5604522307319790E+00    1.5589826267892684E+01
Ga    4.2111387296200009E+00    1.0326500636808493E+01    1.6783380082709787E+01
N    5.8195233471913275E+00    9.2498637378545645E+00    1.7372146251362437E+01
H    5.6025698904080485E-04    4.6476431139081217E-04   -1.2559708402889374E+00
H   -1.6272650535448843E+00    2.8198916769330173E+00   -1.2558522337693867E+00
H   -3.2550700274464957E+00    5.6393170201691971E+00   -1.2563098926306524E+00
H   -4.8828633129271060E+00    8.4587334043786893E+00   -1.2564890304470406E+00
H    3.1499740454582019E+00    6.4327718297775560E-04   -1.2563957415877005E+00
H    1.5221935927701309E+00    2.8200108514994935E+00   -1.2560817799494113E+00
H   -1.0569883614528254E-01    5.6394755241384766E+00   -1.2559094192004971E+00
H   -1.7334658370081539E+00    8.4589452336438224E+00   -1.2557301900079822E+00
H    6.2990937026585367E+00    6.0098769724723812E-04   -1.2564151300433164E+00
H    4.6712872581515974E+00    2.8199456183611975E+00   -1.2560171942560998E+00
H    3.0434344846231007E+00    5.6395118166649132E+00   -1.2564386439312094E+00
H    1.4156570584027919E+00    8.4589153721994599E+00   -1.2561024920451414E+00
H    9.4480485458236849E+00    5.0847183972341269E-04   -1.2556566537033980E+00
H    7.8202946920461240E+00    2.8199037140332606E+00   -1.2558539945999776E+00
H    6.1924728445172557E+00    5.6394067554841749E+00   -1.2559081617871013E+00
H    4.5646612721663988E+00    8.4587804427884414E+00   -1.2556405025366895E+00
     &END COORD
     &KIND H
       BASIS_SET DZVP-MOLOPT-SR-GTH-q1
       POTENTIAL GTH-PBE-q1
       &POTENTIAL
 1
  0.2000000000000000E+00 2 -0.4178900440000000E+01  0.7244633100000000E+00
 0
         # Potential name:  GTH-PBE-Q1  for symbol:  H
         # Potential read from the potential filename: GTH_POTENTIALS
       &END POTENTIAL
     &END KIND
     &KIND N
       BASIS_SET DZVP-MOLOPT-SR-GTH
       POTENTIAL GTH-PBE-q5
       &POTENTIAL
 2 3
  0.2837905100000000E+00 2 -0.1241522559000000E+02  0.1868095920000000E+01
 2
  0.2554050000000000E+00 1  0.1363026257000000E+02
  0.2454945300000000E+00 0
         # Potential name:  GTH-PBE-Q5  for symbol:  N
         # Potential read from the potential filename: GTH_POTENTIALS
       &END POTENTIAL
     &END KIND
     &KIND Ga
       BASIS_SET DZVP-MOLOPT-SR-GTH
       POTENTIAL GTH-PBE-q13
       &POTENTIAL
 2 1 10
  0.4900000000000000E+00 0
 3
  0.4167772300000000E+00 3  0.1047568975000000E+02 -0.4921768140000000E+01  0.8707055900000000E+00
  0.7770178090000000E+01 -0.2248152160000000E+01
  0.1784415450000000E+01
  0.5696265200000000E+00 2  0.1777985340000000E+01  0.1958597600000000E+00
 -0.2317443900000000E+00
  0.2381265000000000E+00 1 -0.1624868022000000E+02
         # Potential name:  GTH-PBE-Q13  for symbol:  GA
         # Potential read from the potential filename: GTH_POTENTIALS
       &END POTENTIAL
     &END KIND
     &TOPOLOGY
       NUMBER_OF_ATOMS  256
       MULTIPLE_UNIT_CELL  1 1 1
     &END TOPOLOGY
   &END SUBSYS
 &END FORCE_EVAL
