 # Version information for this restart file 
 # current date 2019-06-10 23:30:06.919
 # current working dir /lustre03/project/6037349/rzk/GaN-carbene/444-addat/00-Surface/RKS
 # Program compiled at                              Sun Apr  7 00:48:11 EDT 2019
 # Program compiled on                          beluga2.int.ets1.calculquebec.ca
 # Program compiled for                        Beluga-Linux-x86-64-intel-openmpi
 # Source code revision number                                         svn:18619
 &GLOBAL
   PRINT_LEVEL  MEDIUM
   PROJECT_NAME TEST
   RUN_TYPE  CELL_OPT
 &END GLOBAL
 &MOTION
   &CELL_OPT
     MAX_ITER  300
     STEP_START_VAL  77
     EXTERNAL_PRESSURE     1.0000000000000000E+00
     KEEP_ANGLES  T
     KEEP_SYMMETRY  T
     CONSTRAINT  Z
     PRESSURE_TOLERANCE     5.0000000000000000E+02
   &END CELL_OPT
 &END MOTION
 &FORCE_EVAL
   METHOD  QS
   STRESS_TENSOR  ANALYTICAL
   &DFT
     BASIS_SET_FILE_NAME BASIS_MOLOPT
     POTENTIAL_FILE_NAME GTH_POTENTIALS
     SURFACE_DIPOLE_CORRECTION  T
     SURF_DIP_DIR  Z
     &SCF
       MAX_SCF  100
       EPS_SCF     5.0000000000000004E-06
       &OT  T
         PRECONDITIONER  FULL_ALL
       &END OT
       &OUTER_SCF  T
         OPTIMIZER  NONE
         EPS_SCF     5.0000000000000004E-06
         MAX_SCF  4
       &END OUTER_SCF
       &PRINT
         &RESTART  OFF
           BACKUP_COPIES  1
           &EACH
             JUST_ENERGY  0
             QS_SCF  0
             MD  20
           &END EACH
         &END RESTART
       &END PRINT
     &END SCF
     &QS
       EPS_DEFAULT     1.0000000000000000E-14
       METHOD  GPW
     &END QS
     &MGRID
       NGRIDS  5
       CUTOFF     1.2000000000000000E+03
     &END MGRID
     &XC
       DENSITY_CUTOFF     1.0000000000000000E-10
       GRADIENT_CUTOFF     1.0000000000000000E-10
       TAU_CUTOFF     1.0000000000000000E-10
       &XC_FUNCTIONAL  NO_SHORTCUT
         &PBE  T
         &END PBE
       &END XC_FUNCTIONAL
       &VDW_POTENTIAL
         POTENTIAL_TYPE  PAIR_POTENTIAL
         &PAIR_POTENTIAL
           R_CUTOFF     1.0000000000000005E+01
           TYPE  DFTD3
           PARAMETER_FILE_NAME dftd3.dat
           REFERENCE_FUNCTIONAL PBE
           EPS_CN     9.9999999999999995E-07
           CALCULATE_C9_TERM  T
           REFERENCE_C9_TERM  T
           LONG_RANGE_CORRECTION  F
           VERBOSE_OUTPUT  F
         &END PAIR_POTENTIAL
       &END VDW_POTENTIAL
     &END XC
   &END DFT
   &SUBSYS
     &CELL
       A     1.3037065654760722E+01    0.0000000000000000E+00    0.0000000000000000E+00
       B    -6.4464687709911290E+00    1.1165611440762781E+01    0.0000000000000000E+00
       C     0.0000000000000000E+00    0.0000000000000000E+00    3.2000000000000000E+01
       MULTIPLE_UNIT_CELL  1 1 1
       &CELL_REF
         A     1.2982353780853531E+01    0.0000000000000000E+00    0.0000000000000000E+00
         B    -6.4911768904267628E+00    1.1243048175136114E+01    0.0000000000000000E+00
         C     0.0000000000000000E+00    0.0000000000000000E+00    3.2000000000000000E+01
         MULTIPLE_UNIT_CELL  1 1 1
       &END CELL_REF
     &END CELL
     &COORD
N    5.4406615530663421E-02    1.6372606562634822E-02   -1.4336925570746137E-01
Ga    7.4479422992874716E-02    1.8878309461874561E+00    5.1968690231801185E-01
N    1.1540536649691623E-01    1.9173639722714433E+00    2.4420340737254373E+00
Ga    1.0578176942521934E-01    5.3317650358112798E-02    3.1528054216283921E+00
N    1.6401223914335167E-01    8.8335897987872100E-02    5.0855415472767964E+00
Ga    1.8648242299515272E-01    1.9628365576440210E+00    5.7743827104573366E+00
N    2.4886623739128386E-01    2.0063023092356502E+00    7.7078738727386753E+00
Ga    2.3955441216907028E-01    1.3783804381407189E-01    8.3787476066876980E+00
N    2.6772930591151650E-01    1.5562675347830437E-01    1.0311823154552052E+01
Ga    2.9403685582191391E-01    2.0219928857846123E+00    1.1011144488019314E+01
N    3.6611719688322664E-01    2.0610599977148802E+00    1.2942039193415431E+01
Ga    3.1279860581540164E-01    1.9133651123448575E-01    1.3616437221923084E+01
N   -2.1897986352898707E-01   -1.1118199822725555E-01    1.5348465813024379E+01
Ga   -8.6527595277141622E-01    1.0497936543830317E+00    1.6718984283637905E+01
N    4.5552184568924625E-01    2.4557951203254683E-01    1.7994361815437024E+01
N   -1.5573897897987030E+00    2.8078170057462777E+00   -1.4397180745132840E-01
Ga   -1.5374450647544020E+00    4.6793117541628835E+00    5.1885975725660627E-01
N   -1.4970951163341133E+00    4.7097510502962416E+00    2.4413703703885683E+00
Ga   -1.5054060266050266E+00    2.8462011586865428E+00    3.1512693498658546E+00
N   -1.4464515035698255E+00    2.8803421037251637E+00    5.0824085660252996E+00
Ga   -1.4249934863566323E+00    4.7509115978127117E+00    5.7819032775747248E+00
N   -1.3635354725419784E+00    4.7936094026573208E+00    7.7159073260286704E+00
Ga   -1.3754148312902414E+00    2.9284195194983575E+00    8.3976621649831191E+00
N   -1.3385239665138489E+00    2.9493040469117755E+00    1.0333796614392812E+01
Ga   -1.3232099715407999E+00    4.8213511949580354E+00    1.1033440499216887E+01
N   -1.2658655682403765E+00    4.8630733639262642E+00    1.2970975739265770E+01
Ga   -1.2537217780559109E+00    2.9862320439868291E+00    1.3628233387611962E+01
N   -1.7217089803578558E+00    2.5696553662542834E+00    1.5465371337654059E+01
Ga   -2.7232884519195464E+00    4.3310599056027872E+00    1.6828007892043448E+01
N   -1.2388946058439374E+00    3.0274193283942163E+00    1.6747406171822885E+01
N   -3.1691703014307908E+00    5.5990884516158825E+00   -1.4308600751915079E-01
Ga   -3.1484973403450205E+00    7.4701535168135669E+00    5.2031942163523193E-01
N   -3.1077181781824379E+00    7.4995121289090827E+00    2.4425535091567392E+00
Ga   -3.1177941050645388E+00    5.6361179877584098E+00    3.1569311129703390E+00
N   -3.0604866866314686E+00    5.6701048374828575E+00    5.0900681116917905E+00
Ga   -3.0375627364297730E+00    7.5440192556601939E+00    5.7814080636797591E+00
N   -2.9756780912214884E+00    7.5844457004653423E+00    7.7159614941812773E+00
Ga   -2.9852933902688683E+00    5.7192157017948331E+00    8.3995513721355888E+00
N   -2.9524252309263339E+00    5.7399427359289321E+00    1.0334728500062305E+01
Ga   -2.9355199547990636E+00    7.6086998376624342E+00    1.1034042452015502E+01
N   -2.8750812538811319E+00    7.6456977057522026E+00    1.2969545507786725E+01
Ga   -2.9009154160331252E+00    5.7772741993973380E+00    1.3665543909011914E+01
N   -3.3537278345809929E+00    5.5083258758843234E+00    1.5437149271078010E+01
Ga   -4.0523222042954679E+00    6.6360171179130836E+00    1.6839097572675399E+01
N   -2.7140564857808296E+00    5.8688958392775188E+00    1.8076173216665239E+01
N   -4.7802456737448606E+00    8.3901479208230541E+00   -1.4391664266491563E-01
Ga   -4.7602879584588145E+00    1.0261661919901231E+01    5.1816505062023355E-01
N   -4.7196128265644441E+00    1.0292064013705383E+01    2.4406184955218442E+00
Ga   -4.7279488903986335E+00    8.4285800450545949E+00    3.1512182330716731E+00
N   -4.6694140714222856E+00    8.4628517489729056E+00    5.0823241421071117E+00
Ga   -4.6468500312763465E+00    1.0333707382004452E+01    5.7766172234501854E+00
N   -4.5821118509462702E+00    1.0374042565574074E+01    7.7100616412562717E+00
Ga   -4.5989384427087758E+00    8.5099260368060605E+00    8.3988410721651956E+00
N   -4.5645797739973411E+00    8.5341705430516974E+00    1.0335013510700117E+01
Ga   -4.5475445955100362E+00    1.0409837510262033E+01    1.1016052781562703E+01
N   -4.4832068978252924E+00    1.0462081629961146E+01    1.2948844114002075E+01
Ga   -4.4929922955473716E+00    8.5963841035250237E+00    1.3630394274334810E+01
N   -5.0841410720821001E+00    8.4063951676178519E+00    1.5471311651943333E+01
Ga   -5.9780581149803602E+00    9.8828021830307318E+00    1.6696043925884986E+01
N   -4.4365327040474387E+00    8.5667797046414957E+00    1.6751512929524129E+01
N    3.3145157192391657E+00    1.6512538642723229E-02   -1.4208206669503473E-01
Ga    3.3332055690572355E+00    1.8873363467914406E+00    5.2239829195237764E-01
N    3.3747569953039798E+00    1.9173930614928336E+00    2.4442795855320818E+00
Ga    3.3637701105174997E+00    5.3257091947809726E-02    3.1548238288543540E+00
N    3.4230217546205624E+00    8.9015406959533888E-02    5.0869382432890955E+00
Ga    3.4453634529999131E+00    1.9611775065801660E+00    5.7788484304748726E+00
N    3.5070173961682722E+00    2.0025023473130021E+00    7.7149279152330150E+00
Ga    3.4991346036043391E+00    1.3828275946024804E-01    8.4058075759454542E+00
N    3.5327427569289789E+00    1.6405229627387555E-01    1.0345036870869739E+01
Ga    3.5589367376816554E+00    2.0345062886462304E+00    1.1032191981457238E+01
N    3.6373692089006400E+00    2.0842465638074215E+00    1.2980162700123822E+01
Ga    3.5845249224429145E+00    2.3545075317002584E-01    1.3671940856232560E+01
N    3.0601888669540864E+00   -1.3739848391948587E-02    1.5542092474702677E+01
Ga    1.9991848699611046E+00    1.1392381089456647E+00    1.7623151840294138E+01
N    3.6327179800517215E+00    3.4391947279043694E-01    1.6848270710288052E+01
N    1.7026457242571453E+00    2.8079949570369069E+00   -1.4299990842568169E-01
Ga    1.7214575699581469E+00    4.6787176249717710E+00    5.2250134904987189E-01
N    1.7621960652247022E+00    4.7090752753189760E+00    2.4444082855139460E+00
Ga    1.7529961760254145E+00    2.8445009896499762E+00    3.1541428156896516E+00
N    1.8119667514391575E+00    2.8792730295295099E+00    5.0860843253156398E+00
Ga    1.8330568769424211E+00    4.7514007668646592E+00    5.7794346839379562E+00
N    1.8914453910804245E+00    4.7927901464776816E+00    7.7156221071138225E+00
Ga    1.8860360081752039E+00    2.9298005613301812E+00    8.4066111012373046E+00
N    1.9239974378935192E+00    2.9501605634252668E+00    1.0345236095065092E+01
Ga    1.9314152393741908E+00    4.8182867736349877E+00    1.1049366507304063E+01
N    1.9879084725245579E+00    4.8510886803769360E+00    1.2994988127318457E+01
Ga    2.0031328087177140E+00    2.9694165085528375E+00    1.3659862044923074E+01
N    1.5214779275182744E+00    2.6405196914713884E+00    1.5546837093278334E+01
Ga    3.9197561236705586E-01    3.9313340954908065E+00    1.6456971676400247E+01
N    2.1237926862530347E+00    2.9400550641431775E+00    1.6846511238389510E+01
N    9.0906362664459811E-02    5.5996279814523735E+00   -1.4198499542190188E-01
Ga    1.0993568464939128E-01    7.4702864388814323E+00    5.2325332110604061E-01
N    1.5106247536437331E-01    7.5002985200006451E+00    2.4448184513716371E+00
Ga    1.3987011341176570E-01    5.6360770536177931E+00    3.1560109118264950E+00
N    1.9901719689231973E-01    5.6708989679780277E+00    5.0888499724255203E+00
Ga    2.2034578625430337E-01    7.5430887835288143E+00    5.7824559327119980E+00
N    2.7929390656778302E-01    7.5838303043683544E+00    7.7186205744289165E+00
Ga    2.7132173203483567E-01    5.7200355157584317E+00    8.4086113420346233E+00
N    3.0577568385206672E-01    5.7433315783652228E+00    1.0348926398580351E+01
Ga    3.2810518480183448E-01    7.6137421613337102E+00    1.1034345574805785E+01
N    3.9808352766184524E-01    7.6584755504801212E+00    1.2979393266101605E+01
Ga    3.6848596240834280E-01    5.8054765114515732E+00    1.3670237500306271E+01
N   -1.4605843866570689E-01    5.5487964453630045E+00    1.5524768361539222E+01
Ga   -1.2052039408087007E+00    6.7344068204289904E+00    1.7469427980478994E+01
N    4.3361503469350532E-01    5.8942514697402171E+00    1.6865148994378014E+01
N   -1.5206360054755996E+00    8.3906504574504233E+00   -1.4262461829295678E-01
Ga   -1.5015274976500279E+00    1.0261196167684973E+01    5.2279605762089509E-01
N   -1.4608753992252563E+00    1.0291260464259681E+01    2.4445917044101879E+00
Ga   -1.4709843148054293E+00    8.4267233557812506E+00    3.1553990393617424E+00
N   -1.4127140184963460E+00    8.4612694567409150E+00    5.0879411619236956E+00
Ga   -1.3902387883694023E+00    1.0333968634536756E+01    5.7799440467610363E+00
N   -1.3299852615838925E+00    1.0372679999580777E+01    7.7164824954620075E+00
Ga   -1.3411272822694267E+00    8.5097887451380601E+00    8.4109865945184232E+00
N   -1.3055204581662208E+00    8.5316606030835178E+00    1.0351445777255257E+01
Ga   -1.2930029255679445E+00    1.0401793298038355E+01    1.1051370158475336E+01
N   -1.2418615230094774E+00    1.0443470267053284E+01    1.2999679224850247E+01
Ga   -1.2254802340294930E+00    8.5609704389465229E+00    1.3665943473778560E+01
N   -1.7101681088243801E+00    8.2482919756846051E+00    1.5527217618183109E+01
Ga   -2.8322392529898712E+00    9.5177454833354371E+00    1.6456360944987914E+01
N   -1.1098445600237254E+00    8.5689543046927756E+00    1.6869704435523669E+01
N    6.5725485806207669E+00    1.6308066806700865E-02   -1.4105998554519436E-01
Ga    6.5929647051875522E+00    1.8877240462046179E+00    5.2209336493510372E-01
N    6.6341175424167069E+00    1.9183023056558213E+00    2.4434038937903928E+00
Ga    6.6237523413997099E+00    5.3729993498767205E-02    3.1520894010667195E+00
N    6.6798020650159469E+00    8.8599908580806394E-02    5.0842924303790635E+00
Ga    6.7035594245134948E+00    1.9594419015964393E+00    5.7792270445796792E+00
N    6.7626976840776667E+00    1.9974372698793577E+00    7.7145617022709878E+00
Ga    6.7491089168386385E+00    1.3312629392507008E-01    8.4069210988765981E+00
N    6.7829587293682856E+00    1.5457847908808497E-01    1.0353528292060300E+01
Ga    6.8214486199511049E+00    2.0293912869904887E+00    1.1030827335875596E+01
N    6.9003058860100248E+00    2.0696561760890702E+00    1.2983495474976166E+01
Ga    6.8688446808518755E+00    2.0726824450005377E-01    1.3657088550196196E+01
N    6.3550318889087816E+00   -7.0775221915862149E-02    1.5508854665510059E+01
Ga    5.3243013823468450E+00    1.1954450709470963E+00    1.6599199582341853E+01
N    7.0228520459265562E+00    2.8895031752688127E-01    1.7060329643660012E+01
N    4.9611841153737846E+00    2.8076816592669664E+00   -1.4002701573931506E-01
Ga    4.9812308920214159E+00    4.6791646061875554E+00    5.2116888283248841E-01
N    5.0226022999108766E+00    4.7091550257455950E+00    2.4426042336947060E+00
Ga    5.0123351594920695E+00    2.8452051210751770E+00    3.1543387955828108E+00
N    5.0703091692414821E+00    2.8795253022094940E+00    5.0875128377627137E+00
Ga    5.0911625664025912E+00    4.7516786026592488E+00    5.7796568616017456E+00
N    5.1496999534164312E+00    4.7922232266710694E+00    7.7145926254348369E+00
Ga    5.1437498614667181E+00    2.9284092779956921E+00    8.4029341569467437E+00
N    5.1872842165786643E+00    2.9556692341860393E+00    1.0349683298028525E+01
Ga    5.2052908051247373E+00    4.8307326485154896E+00    1.1033867549704054E+01
N    5.2742274971956924E+00    4.8872761182126530E+00    1.2983318149451886E+01
Ga    5.3036328372973882E+00    3.0253851350635168E+00    1.3629424386333261E+01
N    4.8299314178084760E+00    2.7562149744658959E+00    1.5485558578974153E+01
Ga    3.7255779691587527E+00    3.9422007268404737E+00    1.6587245263524800E+01
N    5.4392280911654982E+00    3.0904258019133799E+00    1.7061126446537628E+01
N    3.3493854210098122E+00    5.5992141542133584E+00   -1.4083428121065730E-01
Ga    3.3691527948748199E+00    7.4707772495020368E+00    5.2182844740939960E-01
N    3.4100401106200366E+00    7.5012231408283760E+00    2.4436149382596621E+00
Ga    3.4009712815354551E+00    5.6360508799150288E+00    3.1519845116775635E+00
N    3.4583154027117700E+00    5.6687735890868103E+00    5.0843383301645675E+00
Ga    3.4771833362731304E+00    7.5405368280478982E+00    5.7715885489774346E+00
N    3.5319363909498231E+00    7.5769829167384701E+00    7.7056148481873112E+00
Ga    3.5267542765087820E+00    5.7158870612883188E+00    8.4060395224637521E+00
N    3.5611808893636296E+00    5.7380003805256505E+00    1.0353827155540548E+01
Ga    3.5901281180846136E+00    7.6120959035146605E+00    1.1030041662972616E+01
N    3.6611957784894593E+00    7.6508643893471415E+00    1.2978697664996130E+01
Ga    3.6482778357428054E+00    5.7954136306481150E+00    1.3649524123847822E+01
N    3.1412025912041943E+00    5.4946405076087554E+00    1.5502133207785269E+01
Ga    2.1024496912967252E+00    6.7608403319800274E+00    1.6591483460097514E+01
N    3.7884666138326279E+00    5.8506166586398560E+00    1.7056792657670286E+01
N    1.7375446681202111E+00    8.3903450003633466E+00   -1.4142177650371937E-01
Ga    1.7577820710913610E+00    1.0261467681642870E+01    5.2084319077209973E-01
N    1.7990273511974111E+00    1.0291249062354455E+01    2.4426076474754415E+00
Ga    1.7877726785786958E+00    8.4274734199674359E+00    3.1527856032629038E+00
N    1.8443560513756461E+00    8.4605093150409889E+00    5.0845368231816392E+00
Ga    1.8648909315822253E+00    1.0332921104676323E+01    5.7728607882151586E+00
N    1.9184424074114717E+00    1.0370803567693381E+01    7.7064747129323541E+00
Ga    1.9167429915355081E+00    8.5094614434975053E+00    8.4038208658575542E+00
N    1.9559418382103391E+00    8.5337485489338789E+00    1.0348984507335471E+01
Ga    1.9763490252700193E+00    1.0407879512550087E+01    1.1032929089006144E+01
N    2.0449162392843325E+00    1.0457981245737434E+01    1.2981576395069325E+01
Ga    2.0633246672279864E+00    8.5992453696753302E+00    1.3637047102938729E+01
N    1.5587816201658891E+00    8.3185173871008029E+00    1.5488370767713104E+01
Ga    4.9733581032648111E-01    9.5456515056089053E+00    1.6592979119615425E+01
N    2.1711169549936318E+00    8.6430720899422848E+00    1.7081839430791984E+01
N    9.8313294838244367E+00    1.6246573092649000E-02   -1.4259002732863055E-01
Ga    9.8519277248895083E+00    1.8880348641223250E+00    5.2030222943205906E-01
N    9.8927268800797421E+00    1.9184673735355424E+00    2.4427366846897232E+00
Ga    9.8828380316644324E+00    5.3720586570809185E-02    3.1518680455872170E+00
N    9.9388709734729250E+00    8.7831748003441276E-02    5.0843804469645884E+00
Ga    9.9635569685687830E+00    1.9646682861524636E+00    5.7676884267499355E+00
N    1.0023829971332926E+01    2.0071748290152240E+00    7.7000123200624735E+00
Ga    1.0000431045152096E+01    1.3981035424447508E-01    8.3727699137537357E+00
N    1.0026476352974425E+01    1.6203280879781806E-01    1.0303717592781567E+01
Ga    1.0070715625120858E+01    2.0239204977679872E+00    1.1007651142143715E+01
N    1.0137666398600286E+01    2.0622362770384939E+00    1.2942340953563605E+01
Ga    1.0180119262074415E+01    2.1538007540362453E-01    1.3652597816988768E+01
N    9.7085191854433575E+00   -4.5327644881689728E-02    1.5533332267568163E+01
Ga    8.6262536998150470E+00    1.1988458095495940E+00    1.6718026123449043E+01
N    1.0366159145009442E+01    3.1867460217800814E-01    1.6884374191975606E+01
N    8.2198999722641339E+00    2.8077238436711549E+00   -1.4280616380036512E-01
Ga    8.2406254018589227E+00    4.6791315003358003E+00    5.2067017294001960E-01
N    8.2818703982480670E+00    4.7096286568674879E+00    2.4425721545550698E+00
Ga    8.2706792227572876E+00    2.8461868029943300E+00    3.1523631723530579E+00
N    8.3262629990559862E+00    2.8799902756146718E+00    5.0844494834057663E+00
Ga    8.3510693842126589E+00    4.7512915303147318E+00    5.7797582066554263E+00
N    8.4113737178264234E+00    4.7912370490820191E+00    7.7139693772023676E+00
Ga    8.4005744733071204E+00    2.9242002258030690E+00    8.3962168514438051E+00
N    8.4381171741240699E+00    2.9450707055103313E+00    1.0329663703237523E+01
Ga    8.4504240742648573E+00    4.8191294349640801E+00    1.1001406479907191E+01
N    8.4899778985081600E+00    4.8462402528098227E+00    1.2924015984983530E+01
Ga    8.5631676889782007E+00    3.0233660423042905E+00    1.3653540991161085E+01
N    8.1464541064823113E+00    2.7697897752730305E+00    1.5536730505004570E+01
Ga    7.0301930095881078E+00    3.9967122153857435E+00    1.6721836138851597E+01
N    8.7719949942158362E+00    3.1449441752193157E+00    1.6913806681094655E+01
N    6.6085703184166240E+00    5.5987468203540223E+00   -1.4269366365843872E-01
Ga    6.6289145235087448E+00    7.4704982262566615E+00    5.2041671494020803E-01
N    6.6698401228064927E+00    7.5008050135984154E+00    2.4430365104451641E+00
Ga    6.6600387726795356E+00    5.6354328574798798E+00    3.1522722606163054E+00
N    6.7164382294416454E+00    5.6682512478578984E+00    5.0846809328047673E+00
Ga    6.7428612586083840E+00    7.5428820672216110E+00    5.7662485905159713E+00
N    6.8047471878612926E+00    7.5829386089989299E+00    7.6986169133927076E+00
Ga    6.7878388062926707E+00    5.7213935683304564E+00    8.3919604221463580E+00
N    6.8203696421188402E+00    5.7470998009405951E+00    1.0327683917609699E+01
Ga    6.8411161090879764E+00    7.6179071226986208E+00    1.1008014417383391E+01
N    6.9027357484297580E+00    7.6661001729324845E+00    1.2942213260471382E+01
Ga    6.9437771683252052E+00    5.8232926120390953E+00    1.3656456486766688E+01
N    6.5119211530529064E+00    5.5872302104541172E+00    1.5542421963428442E+01
Ga    5.3976087188570547E+00    6.7695703354325731E+00    1.6727016205831330E+01
N    7.1627793382714877E+00    5.9333671238357155E+00    1.6910984086351394E+01
N    4.9966415291967934E+00    8.3899718549468680E+00   -1.4317627036314862E-01
Ga    5.0171536795943128E+00    1.0261721957219217E+01    5.1897137627997680E-01
N    5.0582058615257974E+00    1.0292220175841752E+01    2.4415237373673464E+00
Ga    5.0477346561744847E+00    8.4286203171320917E+00    3.1518185888896637E+00
N    5.1040616149662101E+00    8.4614947812769135E+00    5.0840561446784927E+00
Ga    5.1282521176758378E+00    1.0335089909975661E+01    5.7707520062873794E+00
N    5.1852066239849695E+00    1.0372930091176524E+01    7.7036123925008706E+00
Ga    5.1741403150693950E+00    8.4981164084746474E+00    8.3739523800313069E+00
N    5.2060181592503225E+00    8.5139567185946969E+00    1.0306263340239738E+01
Ga    5.2111299956102348E+00    1.0393256929311725E+01    1.0950086765750862E+01
N    5.2575609314262302E+00    1.0425471137546067E+01    1.2858200444077971E+01
Ga    5.3193610625219270E+00    8.6285306025427904E+00    1.3642878435993024E+01
N    4.8531153055019720E+00    8.3350186696058284E+00    1.5535730565678405E+01
Ga    3.7561132060670297E+00    9.5534645798654232E+00    1.6752035610097391E+01
N    5.5043071934174685E+00    8.7153244270681327E+00    1.6880470442388596E+01
H    5.1249481311513807E-02    1.3732656038293654E-02   -1.1702334485627439E+00
H   -1.5607084291606867E+00    2.8060463452916657E+00   -1.1710166573300071E+00
H   -3.1723983663226019E+00    5.5964652095556255E+00   -1.1700197026621728E+00
H   -4.7836149675604407E+00    8.3886668181578958E+00   -1.1709630761601320E+00
H    3.3123995212590915E+00    1.5242850919533034E-02   -1.1690066459148403E+00
H    1.7012761623056758E+00    2.8069035522824319E+00   -1.1700552087967993E+00
H    8.9242071567073575E-02    5.5979033942633736E+00   -1.1689782955043213E+00
H   -1.5221611880554800E+00    8.3896911433462851E+00   -1.1697288749388204E+00
H    6.5693889422016545E+00    1.4195462368402152E-02   -1.1680471995017103E+00
H    4.9578041032713651E+00    2.8058928654978961E+00   -1.1668878449491862E+00
H    3.3462245462975875E+00    5.5965549521884945E+00   -1.1677956952642117E+00
H    1.7344482464803006E+00    8.3886759028609763E+00   -1.1683652893733862E+00
H    9.8263725606032430E+00    1.2504057682820112E-02   -1.1695198460424268E+00
H    8.2148352573699395E+00    2.8045409195634710E+00   -1.1698315064614657E+00
H    6.6032143721345573E+00    5.5950708190874812E+00   -1.1697058066554695E+00
H    4.9915860219320889E+00    8.3872127347741792E+00   -1.1701859926137137E+00
     &END COORD
     &KIND H
       BASIS_SET DZVP-MOLOPT-SR-GTH-q1
       POTENTIAL GTH-PBE-q1
       &POTENTIAL
1
0.2000000000000000E+00 2 -0.4178900440000000E+01  0.7244633100000000E+00
0
       &END POTENTIAL
     &END KIND
     &KIND N
       BASIS_SET DZVP-MOLOPT-SR-GTH
       POTENTIAL GTH-PBE-q5
       &POTENTIAL
2 3
0.2837905100000000E+00 2 -0.1241522559000000E+02  0.1868095920000000E+01
2
0.2554050000000000E+00 1  0.1363026257000000E+02
0.2454945300000000E+00 0
       &END POTENTIAL
     &END KIND
     &KIND Ga
       BASIS_SET DZVP-MOLOPT-SR-GTH
       POTENTIAL GTH-PBE-q13
       &POTENTIAL
2 1 10
0.4900000000000000E+00 0
3
0.4167772300000000E+00 3  0.1047568975000000E+02 -0.4921768140000000E+01  0.8707055900000000E+00
0.7770178090000000E+01 -0.2248152160000000E+01
0.1784415450000000E+01
0.5696265200000000E+00 2  0.1777985340000000E+01  0.1958597600000000E+00
-0.2317443900000000E+00
0.2381265000000000E+00 1 -0.1624868022000000E+02
       &END POTENTIAL
     &END KIND
     &TOPOLOGY
       NUMBER_OF_ATOMS  256
       MULTIPLE_UNIT_CELL  1 1 1
     &END TOPOLOGY
   &END SUBSYS
 &END FORCE_EVAL
