 # Version information for this restart file 
 # current date 2019-06-10 09:47:00.910
 # current working dir /lustre03/project/6037349/rzk/GaN-carbene/444-addat/00-Surface/RKS
 # Program compiled at                              Sun Apr  7 00:48:11 EDT 2019
 # Program compiled on                          beluga2.int.ets1.calculquebec.ca
 # Program compiled for                        Beluga-Linux-x86-64-intel-openmpi
 # Source code revision number                                         svn:18619
 &GLOBAL
   PRINT_LEVEL  MEDIUM
   PROJECT_NAME TEST
   RUN_TYPE  CELL_OPT
 &END GLOBAL
 &MOTION
   &CELL_OPT
     MAX_ITER  300
     STEP_START_VAL  3
     EXTERNAL_PRESSURE     1.0000000000000000E+00
     KEEP_ANGLES  T
     KEEP_SYMMETRY  T
     CONSTRAINT  Z
     PRESSURE_TOLERANCE     5.0000000000000000E+02
   &END CELL_OPT
 &END MOTION
 &FORCE_EVAL
   METHOD  QS
   STRESS_TENSOR  ANALYTICAL
   &DFT
     BASIS_SET_FILE_NAME BASIS_MOLOPT
     POTENTIAL_FILE_NAME GTH_POTENTIALS
     SURFACE_DIPOLE_CORRECTION  T
     SURF_DIP_DIR  Z
     &SCF
       MAX_SCF  100
       EPS_SCF     5.0000000000000004E-06
       &OT  T
         PRECONDITIONER  FULL_ALL
       &END OT
       &OUTER_SCF  T
         OPTIMIZER  NONE
         EPS_SCF     5.0000000000000004E-06
         MAX_SCF  4
       &END OUTER_SCF
       &PRINT
         &RESTART  OFF
           BACKUP_COPIES  1
           &EACH
             JUST_ENERGY  0
             QS_SCF  0
             MD  20
           &END EACH
         &END RESTART
       &END PRINT
     &END SCF
     &QS
       EPS_DEFAULT     1.0000000000000000E-14
       METHOD  GPW
     &END QS
     &MGRID
       NGRIDS  5
       CUTOFF     1.2000000000000000E+03
     &END MGRID
     &XC
       DENSITY_CUTOFF     1.0000000000000000E-10
       GRADIENT_CUTOFF     1.0000000000000000E-10
       TAU_CUTOFF     1.0000000000000000E-10
       &XC_FUNCTIONAL  NO_SHORTCUT
         &PBE  T
         &END PBE
       &END XC_FUNCTIONAL
       &VDW_POTENTIAL
         POTENTIAL_TYPE  PAIR_POTENTIAL
         &PAIR_POTENTIAL
           R_CUTOFF     1.0000000000000004E+01
           TYPE  DFTD3
           PARAMETER_FILE_NAME dftd3.dat
           REFERENCE_FUNCTIONAL PBE
           EPS_CN     9.9999999999999995E-07
           CALCULATE_C9_TERM  T
           REFERENCE_C9_TERM  T
           LONG_RANGE_CORRECTION  F
           VERBOSE_OUTPUT  F
         &END PAIR_POTENTIAL
       &END VDW_POTENTIAL
     &END XC
   &END DFT
   &SUBSYS
     &CELL
       A     1.3069148725528581E+01    0.0000000000000000E+00    0.0000000000000000E+00
       B    -6.5442010235862691E+00    1.1334888667795676E+01    0.0000000000000000E+00
       C     0.0000000000000000E+00    0.0000000000000000E+00    3.2000000000000000E+01
       MULTIPLE_UNIT_CELL  1 1 1
       &CELL_REF
         A     1.2982353780853531E+01    0.0000000000000000E+00    0.0000000000000000E+00
         B    -6.4911768904267628E+00    1.1243048175136114E+01    0.0000000000000000E+00
         C     0.0000000000000000E+00    0.0000000000000000E+00    3.2000000000000000E+01
         MULTIPLE_UNIT_CELL  1 1 1
       &END CELL_REF
     &END CELL
     &COORD
N    9.7789636016013288E-05    1.9416294934780591E-04    5.5351731080836323E-03
Ga   -1.6951859420549574E-03    1.8889906319700573E+00    6.5386870153794807E-01
N   -1.7213579585100979E-03    1.8890009494168720E+00    2.5483187163842058E+00
Ga    6.0532268044577252E-05    1.5329854550988901E-04    3.2483134941462648E+00
N    6.9350589495814743E-05    2.0289051632448453E-04    5.1587488988898960E+00
Ga   -1.6695932802064581E-03    1.8890092118262156E+00    5.8327966578018344E+00
N   -1.7278994457920525E-03    1.8889801222543385E+00    7.7561300760435259E+00
Ga    8.3194666913130559E-05    1.5641817095205667E-04    8.4213037939560635E+00
N    6.7429490845460110E-05    1.3238075515079563E-04    1.0350202572589385E+01
Ga   -1.4945567727733470E-03    1.8890089177127245E+00    1.1007811953312661E+01
N    3.2033318890883395E-04    1.8887963342911693E+00    1.2928848894281785E+01
Ga    4.4881142718188266E-03    7.5513365640485978E-04    1.3554609598814936E+01
N    1.2293559083833115E-02   -1.3468988449390151E-02    1.5380675862238672E+01
Ga   -1.4515161534023950E-02    1.8905739944490616E+00    1.6288872572365676E+01
N    1.5948994182935152E+00    9.6573997893254160E-01    1.7002998012570334E+01
N   -1.6359324788688856E+00    2.8339454308285594E+00    5.5473439433788166E-03
Ga   -1.6377567715519254E+00    4.7227271239733204E+00    6.5388810335004999E-01
N   -1.6377809271323651E+00    4.7227469349637721E+00    2.5483129270138551E+00
Ga   -1.6359854183974583E+00    2.8339042444443172E+00    3.2483104934823839E+00
N   -1.6359668389861179E+00    2.8339311546781523E+00    5.1587683107933389E+00
Ga   -1.6377133196232296E+00    4.7227489983441586E+00    5.8327916701437168E+00
N   -1.6377982002486520E+00    4.7227359487971157E+00    7.7561350414848027E+00
Ga   -1.6359447544518841E+00    2.8338971672544120E+00    8.4213418111643943E+00
N   -1.6361474678798584E+00    2.8339421912610625E+00    1.0350044861554309E+01
Ga   -1.6375007327264521E+00    4.7224729888294421E+00    1.1007412708030744E+01
N   -1.6365018232313324E+00    4.7222846328092585E+00    1.2929706811635198E+01
Ga   -1.6321283671386311E+00    2.8315761862261102E+00    1.3554321149764679E+01
N   -1.6106785021081733E+00    2.8305185409940026E+00    1.5382851108743619E+01
Ga   -1.6481397271990776E+00    4.7294551547527881E+00    1.6282302693222750E+01
N   -3.1721684858975953E-02    3.7924188714455775E+00    1.7007910999375870E+01
N   -3.2720061661006365E+00    5.6676491465832877E+00    5.5469321574306901E-03
Ga   -3.2738046097930136E+00    7.5564484297131598E+00    6.5389827701999859E-01
N   -3.2738326750683244E+00    7.5564448518466625E+00    2.5483224653581722E+00
Ga   -3.2720259012680564E+00    5.6676183962771383E+00    3.2483066273886916E+00
N   -3.2720327857404916E+00    5.6676633220271855E+00    5.1587555165162442E+00
Ga   -3.2737721623546383E+00    7.5564961510501467E+00    5.8327752574484890E+00
N   -3.2738427095599167E+00    7.5564465199059319E+00    7.7561725608215735E+00
Ga   -3.2719928810260330E+00    5.6676184119172959E+00    8.4212812893470197E+00
N   -3.2721725452090746E+00    5.6676527413222102E+00    1.0350230159703132E+01
Ga   -3.2736331977080320E+00    7.5563505009853440E+00    1.1007467262480375E+01
N   -3.2723066064446762E+00    7.5560514495955564E+00    1.2929543036882313E+01
Ga   -3.2671638363619997E+00    5.6667821423785005E+00    1.3553471909182745E+01
N   -3.2561949354616999E+00    5.6532438602734389E+00    1.5381653210118973E+01
Ga   -3.2863913147322439E+00    7.5586108270971764E+00    1.6292697211197506E+01
N   -1.6772535368737322E+00    6.6354636665419067E+00    1.7004756806458140E+01
N   -4.9080675980145747E+00    8.5013981539612438E+00    5.5461010678876091E-03
Ga   -4.9098485502128488E+00    1.0390149983924129E+01    6.5389488248222405E-01
N   -4.9098872757905392E+00    1.0390175861314475E+01    2.5483087826045128E+00
Ga   -4.9080749196747337E+00    8.5013455111008529E+00    3.2482993602122070E+00
N   -4.9080649548964210E+00    8.5013845081520145E+00    5.1587594294342489E+00
Ga   -4.9098417313648435E+00    1.0390196276064041E+01    5.8327886057998848E+00
N   -4.9098741363484555E+00    1.0390178197465664E+01    7.7561479494693462E+00
Ga   -4.9080701677105223E+00    8.5013722687136841E+00    8.4212831317113448E+00
N   -4.9081831130813312E+00    8.5014065682322286E+00    1.0350189538726813E+01
Ga   -4.9096300201808649E+00    1.0390038195366188E+01    1.1007270512072939E+01
N   -4.9083364767190734E+00    1.0389269396963384E+01    1.2930665955849042E+01
Ga   -4.9043960047664434E+00    8.4984532265161068E+00    1.3554189995859145E+01
N   -4.8890727477869973E+00    8.4966841350074809E+00    1.5385911119010702E+01
Ga   -4.9295649947217548E+00    1.0392635726354424E+01    1.6286858717278644E+01
N   -3.3074388637451411E+00    9.4604725289007305E+00    1.7007438718598831E+01
N    3.2673727517821827E+00    1.8210153758588650E-04    5.5487411124800741E-03
Ga    3.2656194191414141E+00    1.8889822421171523E+00    6.5385243770170454E-01
N    3.2656253098663424E+00    1.8890059477325987E+00    2.5483169732824300E+00
Ga    3.2673569342366395E+00    1.5083011634919082E-04    3.2483018892254898E+00
N    3.2673743417617707E+00    2.0099245081679824E-04    5.1587675046246497E+00
Ga    3.2656113839670615E+00    1.8889867897312074E+00    5.8327870299105413E+00
N    3.2656139518134917E+00    1.8889771830386519E+00    7.7561542029929909E+00
Ga    3.2673484617221007E+00    1.2859423592196208E-04    8.4212542316537089E+00
N    3.2674088361792570E+00    1.8688601098000427E-04    1.0350258037592129E+01
Ga    3.2656877210674802E+00    1.8889403733094436E+00    1.1007440561876034E+01
N    3.2675180496175056E+00    1.8884597887296137E+00    1.2929179838137223E+01
Ga    3.2715053380704715E+00    2.9744574207370389E-04    1.3552722622558569E+01
N    3.2794455400595521E+00   -1.2875516840001319E-02    1.5384720078123868E+01
Ga    3.2560165868246718E+00    1.8917239106565791E+00    1.6296111910734503E+01
N    4.8562163701204044E+00    9.6759291655157242E-01    1.7005580275793751E+01
N    1.6313353391679646E+00    2.8339262615088017E+00    5.5451837068657920E-03
Ga    1.6295532620471562E+00    4.7227093933100877E+00    6.5387378764397741E-01
N    1.6295493413318847E+00    4.7227400200552196E+00    2.5483178657791803E+00
Ga    1.6313072027200817E+00    2.8338813652258459E+00    3.2482959685783315E+00
N    1.6313537607320252E+00    2.8339337656651251E+00    5.1587815452733636E+00
Ga    1.6295498808410742E+00    4.7227256774829947E+00    5.8327923942878543E+00
N    1.6295317795803745E+00    4.7227425600910937E+00    7.7561096417685622E+00
Ga    1.6312880149491427E+00    2.8338871815549536E+00    8.4213075154831856E+00
N    1.6313393711084021E+00    2.8340190664904865E+00    1.0350089678402290E+01
Ga    1.6297335025137343E+00    4.7224988104153445E+00    1.1007128727246766E+01
N    1.6308355306522742E+00    4.7219719059374299E+00    1.2930502177045019E+01
Ga    1.6346272859262814E+00    2.8314189295381964E+00    1.3553574469932816E+01
N    1.6529191357129707E+00    2.8272449569358331E+00    1.5386481180624720E+01
Ga    1.6225091216051075E+00    4.7322864321966440E+00    1.6284211849853538E+01
N    3.2320124771821575E+00    3.7865806757805966E+00    1.7009041114094380E+01
N   -4.7189165458413765E-03    5.6676441124178423E+00    5.5542345263545423E-03
Ga   -6.5080802703412610E-03    7.5564202158096716E+00    6.5387698304276032E-01
N   -6.5096015689236290E-03    7.5564590419464519E+00    2.5483127900085401E+00
Ga   -4.7588295644911422E-03    5.6676019204469883E+00    3.2483146096495727E+00
N   -4.7178638027821646E-03    5.6676597919143772E+00    5.1587557847497250E+00
Ga   -6.4990080159287589E-03    7.5564529525819895E+00    5.8327903072467295E+00
N   -6.5340838396651486E-03    7.5564564698399712E+00    7.7561491169063075E+00
Ga   -4.7614918907452897E-03    5.6676073325577061E+00    8.4212855754446654E+00
N   -4.6973829286435214E-03    5.6676578574222853E+00    1.0350192386651893E+01
Ga   -6.2432985376557537E-03    7.5563619064397276E+00    1.1007419511433159E+01
N   -4.8763151416896739E-03    7.5560142465982683E+00    1.2929783347239034E+01
Ga   -5.0988732488857990E-04    5.6671057059330465E+00    1.3552772699223709E+01
N    5.7911740922619989E-03    5.6522977401586338E+00    1.5383516892805634E+01
Ga   -1.6798915860747644E-02    7.5610412191570768E+00    1.6293328526572321E+01
N    1.5898507474742267E+00    6.6331853451421301E+00    1.7005601474177070E+01
N   -1.6407735405599724E+00    8.5013592827764590E+00    5.5553502811779764E-03
Ga   -1.6425494327682064E+00    1.0390160510270926E+01    6.5387606584832436E-01
N   -1.6425581194289209E+00    1.0390193392907488E+01    2.5482961981666286E+00
Ga   -1.6408036867047695E+00    8.5013402245714840E+00    3.2483023288353188E+00
N   -1.6407636248810069E+00    8.5013786182457771E+00    5.1587660140057485E+00
Ga   -1.6425377455685308E+00    1.0390161600748899E+01    5.8327804927900866E+00
N   -1.6425784448532812E+00    1.0390174979831901E+01    7.7561684874593890E+00
Ga   -1.6407935382027738E+00    8.5013249741163008E+00    8.4212621669016308E+00
N   -1.6408549251444928E+00    8.5014648913017847E+00    1.0350270570815157E+01
Ga   -1.6423204220700225E+00    1.0390031348348240E+01    1.1007074823160274E+01
N   -1.6414064427028290E+00    1.0389429517185844E+01    1.2930551536786435E+01
Ga   -1.6378140723839645E+00    8.4993516422272926E+00    1.3552963442361058E+01
N   -1.6195950707711904E+00    8.4946051810236423E+00    1.5385388629869386E+01
Ga   -1.6491145288981301E+00    1.0399443434552500E+01    1.6288400647076159E+01
N   -4.2100231831800734E-02    9.4608856692592926E+00    1.7007996098768725E+01
N    6.5346777545191808E+00    1.7831566549449002E-04    5.5500117005199455E-03
Ga    6.5329077927774799E+00    1.8889902293745693E+00    6.5386570654752885E-01
N    6.5328693554207931E+00    1.8889869317027386E+00    2.5483089003354156E+00
Ga    6.5346359046273301E+00    1.7474245689132675E-04    3.2482961951390630E+00
N    6.5346845216728999E+00    2.0674782665202384E-04    5.1587731744577745E+00
Ga    6.5329314794685400E+00    1.8890075533133250E+00    5.8327771565250561E+00
N    6.5328813626972266E+00    1.8889723283935045E+00    7.7561541487741517E+00
Ga    6.5346336607683249E+00    1.5272083327239698E-04    8.4212665866493062E+00
N    6.5346323090677627E+00    2.7359211915957903E-04    1.0350233419064148E+01
Ga    6.5330286599593137E+00    1.8890265511183451E+00    1.1007233758520613E+01
N    6.5343165814993815E+00    1.8887215536181248E+00    1.2929855011398242E+01
Ga    6.5393706670230412E+00   -4.1748464022155294E-04    1.3553225108157788E+01
N    6.5506980692467005E+00   -1.1776332863417649E-02    1.5381824338709963E+01
Ga    6.5205753017413288E+00    1.8910206014460094E+00    1.6292641538364553E+01
N    8.1277272486733487E+00    9.6805546893039229E-01    1.7005545375463480E+01
N    4.8986153512788464E+00    2.8339111242199415E+00    5.5509192234926815E-03
Ga    4.8968193533978122E+00    4.7227091620804744E+00    6.5388555880436461E-01
N    4.8968153699813834E+00    4.7227359227508865E+00    2.5483318340438630E+00
Ga    4.8986232064276249E+00    2.8338823645024971E+00    3.2482884321673446E+00
N    4.8986455482945335E+00    2.8339454447556744E+00    5.1587789690093722E+00
Ga    4.8968531079972983E+00    4.7227559493616482E+00    5.8327735504221589E+00
N    4.8968197563448959E+00    4.7226979139001743E+00    7.7561301356527430E+00
Ga    4.8985698669963211E+00    2.8338844334658710E+00    8.4212670570686257E+00
N    4.8986319897509203E+00    2.8340129684686870E+00    1.0350185896125323E+01
Ga    4.8969658711407940E+00    4.7226868249088758E+00    1.1007022037204166E+01
N    4.8980784031085047E+00    4.7219221142512433E+00    1.2930743501651301E+01
Ga    4.9012726292272069E+00    2.8315780680670928E+00    1.3553155093813924E+01
N    4.9179001282616079E+00    2.8303237044903002E+00    1.5385231792446449E+01
Ga    4.8864430594409116E+00    4.7301940270842753E+00    1.6284182349329512E+01
N    6.4997917211492959E+00    3.7943015012787908E+00    1.7009487468267118E+01
N    3.2625550539593826E+00    5.6676676414139626E+00    5.5472385453005750E-03
Ga    3.2607870541815984E+00    7.5564263156463465E+00    6.5386433146134537E-01
N    3.2607656476820961E+00    7.5564410243969151E+00    2.5483234213822130E+00
Ga    3.2625414880771513E+00    5.6676214727712537E+00    3.2483051298852712E+00
N    3.2625948442924653E+00    5.6676548523312160E+00    5.1587619960935589E+00
Ga    3.2608110775431269E+00    7.5564774116023177E+00    5.8327855107130029E+00
N    3.2607716202111914E+00    7.5564297433930072E+00    7.7561336000057155E+00
Ga    3.2624843751702586E+00    5.6676320013644483E+00    8.4212659514185653E+00
N    3.2626119539608363E+00    5.6676256239759653E+00    1.0350188927287174E+01
Ga    3.2609787206518623E+00    7.5566229181321329E+00    1.1007451619772738E+01
N    3.2628561758026295E+00    7.5563000761092738E+00    1.2929616110573706E+01
Ga    3.2667636131080142E+00    5.6681791359824292E+00    1.3553380693958804E+01
N    3.2736216673028271E+00    5.6606926706404179E+00    1.5379174847282963E+01
Ga    3.2483843502015639E+00    7.5584949612235750E+00    1.6290107701683066E+01
N    4.8553752369593379E+00    6.6327501673872806E+00    1.7004171347086896E+01
N    1.6265332580046685E+00    8.5013854654368775E+00    5.5557741924876355E-03
Ga    1.6246982180613412E+00    1.0390145581337974E+01    6.5386557260820166E-01
N    1.6247205792421986E+00    1.0390180811106905E+01    2.5483161253894133E+00
Ga    1.6264783382670176E+00    8.5013280312025579E+00    3.2482918086106154E+00
N    1.6265398048699846E+00    8.5013884219074303E+00    5.1587797602262881E+00
Ga    1.6247672757286868E+00    1.0390186057721657E+01    5.8327898756072925E+00
N    1.6246960542211331E+00    1.0390161977849365E+01    7.7561208854002759E+00
Ga    1.6264552582977994E+00    8.5013480206970780E+00    8.4212973610781141E+00
N    1.6264460134189682E+00    8.5014351392508427E+00    1.0350082668269378E+01
Ga    1.6250280730581019E+00    1.0390048747532875E+01    1.1007225547790886E+01
N    1.6257853283060939E+00    1.0389667539151764E+01    1.2930049084550191E+01
Ga    1.6297431965012801E+00    8.4992739321163047E+00    1.3554086233803474E+01
N    1.6524432804468525E+00    8.5020135502821432E+00    1.5383053935645632E+01
Ga    1.6149752580387677E+00    1.0396817643299183E+01    1.6282262504975790E+01
N    3.2286280880516443E+00    9.4594262292219948E+00    1.7007381966374396E+01
N    9.8019722473714328E+00    1.7284687371237954E-04    5.5520786612690233E-03
Ga    9.8002154575446312E+00    1.8889862045041463E+00    6.5385902387376249E-01
N    9.8001484482983958E+00    1.8889845047434681E+00    2.5483054396921192E+00
Ga    9.8019388444360622E+00    1.5505915335337826E-04    3.2483059944167567E+00
N    9.8019595625111116E+00    1.8813003683380708E-04    5.1587701550849996E+00
Ga    9.8002331115183647E+00    1.8889967584225231E+00    5.8327923800363992E+00
N    9.8001322517267297E+00    1.8889611499429497E+00    7.7561005114652950E+00
Ga    9.8019760016620712E+00    1.5944499976642911E-04    8.4212764655506156E+00
N    9.8018878356171406E+00    2.3214645268322274E-04    1.0350148438199488E+01
Ga    9.8004791481751088E+00    1.8890104430066468E+00    1.1007415296515987E+01
N    9.8014008032200888E+00    1.8885559060563715E+00    1.2929645706723214E+01
Ga    9.8067667126963247E+00   -2.7102819347752505E-04    1.3553076119687637E+01
N    9.8141115992367816E+00   -1.4019377693979452E-02    1.5382881436357723E+01
Ga    9.7905561573259927E+00    1.8938419591044480E+00    1.6291347689917895E+01
N    1.1393995119749313E+01    9.6828305203741427E-01    1.7004982410028685E+01
N    8.1659319730312241E+00    2.8339115180558223E+00    5.5716692568937793E-03
Ga    8.1641281390380485E+00    4.7227073087598610E+00    6.5386501395038388E-01
N    8.1640917215241942E+00    4.7227103033814126E+00    2.5483166190254773E+00
Ga    8.1658907693861060E+00    2.8338798106767844E+00    3.2482991951269509E+00
N    8.1659303130978422E+00    2.8339098457429479E+00    5.1587811914249055E+00
Ga    8.1641558922173125E+00    4.7227380041334017E+00    5.8327780121394808E+00
N    8.1640954274693733E+00    4.7226863002573234E+00    7.7561365395106430E+00
Ga    8.1659531748593217E+00    2.8338849075837711E+00    8.4212451539415838E+00
N    8.1657918590032654E+00    2.8339732779746876E+00    1.0350212489924612E+01
Ga    8.1643355614631510E+00    4.7227022939720857E+00    1.1007107910863528E+01
N    8.1649189296952027E+00    4.7218202295543650E+00    1.2930452041525250E+01
Ga    8.1693138189848060E+00    2.8320848786270347E+00    1.3552791716688231E+01
N    8.1881205722474064E+00    2.8283943254908714E+00    1.5385447534858558E+01
Ga    8.1575255793217831E+00    4.7328579118121263E+00    1.6287241151443236E+01
N    9.7625700435863170E+00    3.7963969333907803E+00    1.7008548501119733E+01
N    6.5298844156649309E+00    5.6676444847125609E+00    5.5538191778169398E-03
Ga    6.5280945801802144E+00    7.5564471927371484E+00    6.5388263516225376E-01
N    6.5280379020576733E+00    7.5564099739741675E+00    2.5483171573417431E+00
Ga    6.5298427753338082E+00    5.6676096521571493E+00    3.2482915293029180E+00
N    6.5298580628169072E+00    5.6676351675334926E+00    5.1587732652971816E+00
Ga    6.5281113878374457E+00    7.5564875073450271E+00    5.8327808042655747E+00
N    6.5280512315494814E+00    7.5563974777508376E+00    7.7561230558936387E+00
Ga    6.5298668657375671E+00    5.6676181953802471E+00    8.4212335189303289E+00
N    6.5298210459652406E+00    5.6676163768248831E+00    1.0350238556716219E+01
Ga    6.5282386812581672E+00    7.5565318996931321E+00    1.1007389847817985E+01
N    6.5297169267788036E+00    7.5556804584924615E+00    1.2929443184727027E+01
Ga    6.5340726424937605E+00    5.6678447386883999E+00    1.3552652170135879E+01
N    6.5402831678494007E+00    5.6534988844216967E+00    1.5383034426592388E+01
Ga    6.5202522482437404E+00    7.5595046229200387E+00    1.6296578158316898E+01
N    8.1195499690839590E+00    6.6375535769399105E+00    1.7005159280249018E+01
N    4.8938121579778810E+00    8.5013770521617626E+00    5.5536480312370611E-03
Ga    4.8920329833030323E+00    1.0390118732422167E+01    6.5388005049532494E-01
N    4.8919926355735948E+00    1.0390149348844618E+01    2.5483110422931645E+00
Ga    4.8937976949618589E+00    8.5013340614409589E+00    3.2483047360824102E+00
N    4.8938176667987978E+00    8.5013722274889822E+00    5.1587864561997483E+00
Ga    4.8920618322300085E+00    1.0390185620530113E+01    5.8327990910572671E+00
N    4.8919761193957987E+00    1.0390133271592520E+01    7.7561024162630545E+00
Ga    4.8938053630872176E+00    8.5013888083707183E+00    8.4212718031036040E+00
N    4.8937760051773758E+00    8.5013999277118746E+00    1.0350094415264408E+01
Ga    4.8922848390931417E+00    1.0390141816617351E+01    1.1007304669218124E+01
N    4.8930248484601657E+00    1.0389127916918319E+01    1.2929953283489008E+01
Ga    4.8979979406307868E+00    8.4999544386941768E+00    1.3552965464656504E+01
N    4.9163424890878478E+00    8.4977031698982461E+00    1.5387050196285054E+01
Ga    4.8863204892438619E+00    1.0400782476952408E+01    1.6284791614670830E+01
N    6.4788329194679450E+00    9.4444911158105178E+00    1.7026930417537574E+01
H   -4.4498396805782074E-07    1.4446889221767399E-05   -1.0303761046709317E+00
H   -1.6360515034534833E+00    2.8337443349124314E+00   -1.0303629305039315E+00
H   -3.2721046012621620E+00    5.6674726307979313E+00   -1.0303649215394581E+00
H   -4.9081603747808842E+00    8.5012157587944763E+00   -1.0303713373963526E+00
H    3.2673116824090731E+00    1.6307029519674860E-05   -1.0303671642261596E+00
H    1.6312522106340812E+00    2.8337416236361221E+00   -1.0303680719615573E+00
H   -4.8137448767442649E-03    5.6674806773270294E+00   -1.0303594958020537E+00
H   -1.6408616086887036E+00    8.5012135831015705E+00   -1.0303543867636951E+00
H    6.5346083158270245E+00    2.3513566710948503E-05   -1.0303572240248711E+00
H    4.8985542171637357E+00    2.8337471845362998E+00   -1.0303615756063320E+00
H    3.2624971063000023E+00    5.6674801545740392E+00   -1.0303628899271480E+00
H    1.6264398114523970E+00    8.5012248028921000E+00   -1.0303559116398995E+00
H    9.8019019165642156E+00    1.4491477120579332E-05   -1.0303589682990451E+00
H    8.1658491873614967E+00    2.8337505902430964E+00   -1.0303372633337140E+00
H    6.5297914855382118E+00    5.6674787689466495E+00   -1.0303612976725438E+00
H    4.8937398988675662E+00    8.5012159597256094E+00   -1.0303605434500194E+00
     &END COORD
     &KIND H
       BASIS_SET DZVP-MOLOPT-SR-GTH-q1
       POTENTIAL GTH-PBE-q1
       &POTENTIAL
 1
  0.2000000000000000E+00 2 -0.4178900440000000E+01  0.7244633100000000E+00
 0
         # Potential name:  GTH-PBE-Q1  for symbol:  H
         # Potential read from the potential filename: GTH_POTENTIALS
       &END POTENTIAL
     &END KIND
     &KIND N
       BASIS_SET DZVP-MOLOPT-SR-GTH
       POTENTIAL GTH-PBE-q5
       &POTENTIAL
 2 3
  0.2837905100000000E+00 2 -0.1241522559000000E+02  0.1868095920000000E+01
 2
  0.2554050000000000E+00 1  0.1363026257000000E+02
  0.2454945300000000E+00 0
         # Potential name:  GTH-PBE-Q5  for symbol:  N
         # Potential read from the potential filename: GTH_POTENTIALS
       &END POTENTIAL
     &END KIND
     &KIND Ga
       BASIS_SET DZVP-MOLOPT-SR-GTH
       POTENTIAL GTH-PBE-q13
       &POTENTIAL
 2 1 10
  0.4900000000000000E+00 0
 3
  0.4167772300000000E+00 3  0.1047568975000000E+02 -0.4921768140000000E+01  0.8707055900000000E+00
  0.7770178090000000E+01 -0.2248152160000000E+01
  0.1784415450000000E+01
  0.5696265200000000E+00 2  0.1777985340000000E+01  0.1958597600000000E+00
 -0.2317443900000000E+00
  0.2381265000000000E+00 1 -0.1624868022000000E+02
         # Potential name:  GTH-PBE-Q13  for symbol:  GA
         # Potential read from the potential filename: GTH_POTENTIALS
       &END POTENTIAL
     &END KIND
     &TOPOLOGY
       NUMBER_OF_ATOMS  256
       MULTIPLE_UNIT_CELL  1 1 1
     &END TOPOLOGY
   &END SUBSYS
 &END FORCE_EVAL
