 # Version information for this restart file 
 # current date 2019-06-10 14:00:56.702
 # current working dir /lustre03/project/6037349/rzk/GaN-carbene/444-addat/00-Surface/RKS
 # Program compiled at                              Sun Apr  7 00:48:11 EDT 2019
 # Program compiled on                          beluga2.int.ets1.calculquebec.ca
 # Program compiled for                        Beluga-Linux-x86-64-intel-openmpi
 # Source code revision number                                         svn:18619
 &GLOBAL
   PRINT_LEVEL  MEDIUM
   PROJECT_NAME TEST
   RUN_TYPE  CELL_OPT
 &END GLOBAL
 &MOTION
   &CELL_OPT
     MAX_ITER  300
     STEP_START_VAL  33
     EXTERNAL_PRESSURE     1.0000000000000000E+00
     KEEP_ANGLES  T
     KEEP_SYMMETRY  T
     CONSTRAINT  Z
     PRESSURE_TOLERANCE     5.0000000000000000E+02
   &END CELL_OPT
 &END MOTION
 &FORCE_EVAL
   METHOD  QS
   STRESS_TENSOR  ANALYTICAL
   &DFT
     BASIS_SET_FILE_NAME BASIS_MOLOPT
     POTENTIAL_FILE_NAME GTH_POTENTIALS
     SURFACE_DIPOLE_CORRECTION  T
     SURF_DIP_DIR  Z
     &SCF
       MAX_SCF  100
       EPS_SCF     5.0000000000000004E-06
       &OT  T
         PRECONDITIONER  FULL_ALL
       &END OT
       &OUTER_SCF  T
         OPTIMIZER  NONE
         EPS_SCF     5.0000000000000004E-06
         MAX_SCF  4
       &END OUTER_SCF
       &PRINT
         &RESTART  OFF
           BACKUP_COPIES  1
           &EACH
             JUST_ENERGY  0
             QS_SCF  0
             MD  20
           &END EACH
         &END RESTART
       &END PRINT
     &END SCF
     &QS
       EPS_DEFAULT     1.0000000000000000E-14
       METHOD  GPW
     &END QS
     &MGRID
       NGRIDS  5
       CUTOFF     1.2000000000000000E+03
     &END MGRID
     &XC
       DENSITY_CUTOFF     1.0000000000000000E-10
       GRADIENT_CUTOFF     1.0000000000000000E-10
       TAU_CUTOFF     1.0000000000000000E-10
       &XC_FUNCTIONAL  NO_SHORTCUT
         &PBE  T
         &END PBE
       &END XC_FUNCTIONAL
       &VDW_POTENTIAL
         POTENTIAL_TYPE  PAIR_POTENTIAL
         &PAIR_POTENTIAL
           R_CUTOFF     1.0000000000000004E+01
           TYPE  DFTD3
           PARAMETER_FILE_NAME dftd3.dat
           REFERENCE_FUNCTIONAL PBE
           EPS_CN     9.9999999999999995E-07
           CALCULATE_C9_TERM  T
           REFERENCE_C9_TERM  T
           LONG_RANGE_CORRECTION  F
           VERBOSE_OUTPUT  F
         &END PAIR_POTENTIAL
       &END VDW_POTENTIAL
     &END XC
   &END DFT
   &SUBSYS
     &CELL
       A     1.2927785878919886E+01    0.0000000000000000E+00    0.0000000000000000E+00
       B    -6.4687430295304198E+00    1.1204191588253686E+01    0.0000000000000000E+00
       C     0.0000000000000000E+00    0.0000000000000000E+00    3.2000000000000000E+01
       MULTIPLE_UNIT_CELL  1 1 1
       &CELL_REF
         A     1.2982353780853531E+01    0.0000000000000000E+00    0.0000000000000000E+00
         B    -6.4911768904267628E+00    1.1243048175136114E+01    0.0000000000000000E+00
         C     0.0000000000000000E+00    0.0000000000000000E+00    3.2000000000000000E+01
         MULTIPLE_UNIT_CELL  1 1 1
       &END CELL_REF
     &END CELL
     &COORD
N    2.5214185241748681E-03    2.2173794637004936E-03   -4.0913074423396456E-01
Ga   -1.0116923830853605E-03    1.8641018590892824E+00    3.2099188125111594E-01
N    9.6520247858939096E-04    1.8624501721153939E+00    2.2953482049848595E+00
Ga    5.5566473380885047E-03   -1.6707522813455233E-04    3.0722488990224903E+00
N    1.6896426365340854E-02    5.5246022178810801E-04    5.0510293690759704E+00
Ga    1.8040769400708964E-02    1.8632944434377361E+00    5.7821209820829305E+00
N    5.0383977470943420E-02    1.8612389058648660E+00    7.7497999392685344E+00
Ga    5.5791861938302462E-02    1.5523665839911390E-04    8.4657877882946231E+00
N    1.1646859652269753E-01    2.5682290891680913E-02    1.0434223058937038E+01
Ga    1.3778698221184157E-01    1.9032464717580995E+00    1.1117786124915742E+01
N    2.4648354487692495E-01    2.0089439952993233E+00    1.3083919153620977E+01
Ga    2.4690572838364391E-01    1.5751208795389784E-01    1.3737474663528621E+01
N    1.9925277217722723E-01    1.9157340250110139E-01    1.5638058317656645E+01
Ga   -6.0945782217463929E-01    1.5264448904209376E+00    1.6821610846048134E+01
N    1.0016497473899670E+00    6.5987087371859843E-01    1.7567721066730822E+01
N   -1.6145637733997271E+00    2.8031787813493660E+00   -4.0841636157684391E-01
Ga   -1.6182897778881165E+00    4.6652723367799833E+00    3.2098772910640960E-01
N   -1.6166879555827354E+00    4.6637650970701410E+00    2.2953311958208289E+00
Ga   -1.6111639117381742E+00    2.8006629179722262E+00    3.0725202890748919E+00
N   -1.5991820138388304E+00    2.8013047580913404E+00    5.0512250770591010E+00
Ga   -1.5997700531584693E+00    4.6642521332518765E+00    5.7811920872307505E+00
N   -1.5682093509022643E+00    4.6624916769145601E+00    7.7494555317800353E+00
Ga   -1.5579093862949576E+00    2.8001445352211620E+00    8.4644913965810940E+00
N   -1.4921357435003146E+00    2.8258119678062674E+00    1.0430258063679819E+01
Ga   -1.4855175242349867E+00    4.6988365340074481E+00    1.1111312058432594E+01
N   -1.3983691915856544E+00    4.8079077760933968E+00    1.3079455192157177E+01
Ga   -1.3305196496975766E+00    2.9693184627053628E+00    1.3788703863242773E+01
N   -1.2528242593135286E+00    3.0817202862195501E+00    1.5716297702967889E+01
Ga   -2.2478000356571424E+00    4.4860655320789560E+00    1.6810280440866499E+01
N   -5.9697246379321034E-01    3.4586329842797716E+00    1.7155125640907627E+01
N   -3.2318725764134109E+00    5.6043080790832214E+00   -4.0894440163957640E-01
Ga   -3.2353900239133289E+00    7.4662955967994247E+00    3.2103054997952296E-01
N   -3.2335764713107999E+00    7.4647814848692908E+00    2.2953671717732216E+00
Ga   -3.2288610324936404E+00    5.6018878017590845E+00    3.0717339917183830E+00
N   -3.2174002490384850E+00    5.6022714470079791E+00    5.0505085749354608E+00
Ga   -3.2167711666528969E+00    7.4648507587488098E+00    5.7819031065565518E+00
N   -3.1849251014934969E+00    7.4625348725479848E+00    7.7491527420253501E+00
Ga   -3.1781824198289317E+00    5.5999125313510660E+00    8.4628253889492395E+00
N   -3.1176460062151605E+00    5.6241180525719781E+00    1.0430020149464246E+01
Ga   -3.0975975535138449E+00    7.5019006037879166E+00    1.1108608428125379E+01
N   -2.9931305936558283E+00    7.6053933238810485E+00    1.3068379248498250E+01
Ga   -2.9976228994472236E+00    5.7523228838537257E+00    1.3721290753320813E+01
N   -3.0411596643128429E+00    5.7881979084791704E+00    1.5606361328753557E+01
Ga   -3.8116173874820407E+00    7.1251213531045181E+00    1.6816263708426348E+01
N   -2.2098062232797284E+00    6.2918879276988244E+00    1.7625114985426979E+01
N   -4.8489571396732085E+00    8.4053768510833979E+00   -4.0850018662519028E-01
Ga   -4.8527385580299605E+00    1.0267314572354664E+01    3.2119130438471261E-01
N   -4.8512392238136464E+00    1.0265813302747253E+01    2.2955983178902448E+00
Ga   -4.8456957382248662E+00    8.4027782497313535E+00    3.0727923714868366E+00
N   -4.8338488870195890E+00    8.4033396936532725E+00    5.0514392643205532E+00
Ga   -4.8350688249950071E+00    1.0266364775528919E+01    5.7816176661155483E+00
N   -4.8049345538014432E+00    1.0265008194208669E+01    7.7494429560793039E+00
Ga   -4.7933538761992178E+00    8.4023387694255725E+00    8.4636336195326685E+00
N   -4.7278425857960862E+00    8.4290056696324083E+00    1.0427786344575697E+01
Ga   -4.7217344488805288E+00    1.0302282739911556E+01    1.1107388004510156E+01
N   -4.6328340155423282E+00    1.0410875355362856E+01    1.3080774451405306E+01
Ga   -4.5638212221418240E+00    8.5659478406852436E+00    1.3778398502560854E+01
N   -4.4749718537343659E+00    8.6832735824645102E+00    1.5704426207784589E+01
Ga   -5.4948009001029652E+00    1.0036029635003938E+01    1.6798529575719016E+01
N   -3.8285710727541979E+00    9.0691782188805945E+00    1.7146871900965603E+01
N    3.2342927793300715E+00    2.0720811554059988E-03   -4.0888786085250406E-01
Ga    3.2308785365587913E+00    1.8640345916201064E+00    3.2080509119018624E-01
N    3.2321730427505666E+00    1.8621962408986217E+00    2.2953161843740721E+00
Ga    3.2369136819353104E+00   -7.6482825210878096E-04    3.0722495503757199E+00
N    3.2489659260161545E+00   -2.7859915606652692E-04    5.0511176142857108E+00
Ga    3.2500969971278364E+00    1.8623519132466737E+00    5.7820812423209542E+00
N    3.2823414144765550E+00    1.8585817133032689E+00    7.7487850673142269E+00
Ga    3.2919982543834401E+00   -2.3500972363036006E-03    8.4666924909197618E+00
N    3.3577930061790031E+00    2.2163880660766196E-02    1.0433952959966620E+01
Ga    3.3685111372635452E+00    1.8925646158327065E+00    1.1134561496641410E+01
N    3.4730989875019072E+00    2.0036925338759315E+00    1.3100658675189555E+01
Ga    3.4838895841246829E+00    1.6466759659790084E-01    1.3795746771043479E+01
N    3.5176420513304012E+00    3.0793612101893353E-01    1.5753702933645766E+01
Ga    2.5298443477558705E+00    1.5175686989153143E+00    1.6964307245928513E+01
N    4.2738886507943503E+00    6.9014043544743464E-01    1.7259528203762919E+01
N    1.6172233566718934E+00    2.8031730263553345E+00   -4.0849167100518952E-01
Ga    1.6135946713095866E+00    4.6652443335692810E+00    3.2112069984432562E-01
N    1.6150702995566202E+00    4.6633545305210449E+00    2.2956428140724601E+00
Ga    1.6202702847399573E+00    2.8002150701479800E+00    3.0726134229817079E+00
N    1.6329571242374450E+00    2.8008932327873781E+00    5.0515521239332841E+00
Ga    1.6321680271594809E+00    4.6638181859496131E+00    5.7811213200886247E+00
N    1.6639149042575405E+00    4.6603596899129283E+00    7.7489064682742592E+00
Ga    1.6782935828274050E+00    2.7995231154353055E+00    8.4671726883600229E+00
N    1.7472934197744514E+00    2.8243839482050279E+00    1.0434796103516792E+01
Ga    1.7430061462974911E+00    4.6908498073167566E+00    1.1133706433052089E+01
N    1.8230708398008648E+00    4.8004396583822011E+00    1.3120163819138849E+01
Ga    1.8942356234628028E+00    2.9525406770415561E+00    1.3810701351654753E+01
N    1.9752419127833087E+00    3.0219814205537392E+00    1.5739478272365501E+01
Ga    9.5095445723333760E-01    4.4153157873948823E+00    1.6867603288314108E+01
N    2.6760719722663922E+00    3.4353738023995777E+00    1.7047595384933864E+01
N    4.6595073333785164E-06    5.6042399093861821E+00   -4.0890167278121442E-01
Ga   -3.6027718981137330E-03    7.4661554233313945E+00    3.2095220266930463E-01
N   -2.0942420635087305E-03    7.4644583964809019E+00    2.2954738774389409E+00
Ga    2.7565516511550516E-03    5.6014166916029096E+00    3.0720748723080558E+00
N    1.5068552317974689E-02    5.6018578331216702E+00    5.0507702020946468E+00
Ga    1.6516358063281486E-02    7.4638430323606322E+00    5.7820595693781645E+00
N    4.9492394812090675E-02    7.4596208554564338E+00    7.7486609033952512E+00
Ga    5.9357646589909080E-02    5.6000521334412943E+00    8.4699114956132053E+00
N    1.2539285782709805E-01    5.6250569717111878E+00    1.0438418363315558E+01
Ga    1.3647735042068926E-01    7.4951161382934792E+00    1.1139652139726099E+01
N    2.4131731145840102E-01    7.6077511473136248E+00    1.3107307121437323E+01
Ga    2.4466388510688858E-01    5.7692267856230215E+00    1.3803582235684056E+01
N    2.6231525034307435E-01    5.9091390023983701E+00    1.5772446023799494E+01
Ga   -7.0612786439348341E-01    7.1568890805818004E+00    1.6975469918085725E+01
N    1.0291716468835250E+00    6.2841868608501823E+00    1.7285528990516760E+01
N   -1.6171306794422913E+00    8.4052375571590403E+00   -4.0865103659353275E-01
Ga   -1.6207972218795110E+00    1.0267268631076076E+01    3.2113971202336639E-01
N   -1.6195126997465150E+00    1.0265294460499620E+01    2.2956669149571831E+00
Ga   -1.6140873146098829E+00    8.4021275321941129E+00    3.0729927594236783E+00
N   -1.6013208802621799E+00    8.4023334936069478E+00    5.0519379868385315E+00
Ga   -1.6025125789035988E+00    1.0265460248789156E+01    5.7805336107226104E+00
N   -1.5712752149632894E+00    1.0261561518470931E+01    7.7475238902527979E+00
Ga   -1.5552517510865334E+00    8.3996247851817714E+00    8.4654383291179780E+00
N   -1.4859644991302072E+00    8.4230631344752034E+00    1.0431739034251706E+01
Ga   -1.4936935347977249E+00    1.0289173257609027E+01    1.1126057752811892E+01
N   -1.4147208657496946E+00    1.0393309707632531E+01    1.3106083138191467E+01
Ga   -1.3489197608923060E+00    8.5471329857482310E+00    1.3806226028621079E+01
N   -1.2643168862923424E+00    8.6294319654450966E+00    1.5747685167959764E+01
Ga   -2.2592815358463714E+00    1.0011829912036077E+01    1.6860661747549528E+01
N   -5.5027727746336608E-01    9.0567417274378457E+00    1.7096132331114564E+01
N    6.4662977578335337E+00    2.1525908692270382E-03   -4.0895505009544242E-01
Ga    6.4628499503219103E+00    1.8641952000108610E+00    3.2070395908445148E-01
N    6.4643657232901255E+00    1.8625941717716736E+00    2.2949854162785819E+00
Ga    6.4687558637071758E+00   -3.2546842489261565E-04    3.0715259849141763E+00
N    6.4804983427692600E+00    5.0227035549751714E-04    5.0505556314427533E+00
Ga    6.4807327493013975E+00    1.8631989651883705E+00    5.7817901316937368E+00
N    6.5125757613744293E+00    1.8604384372847964E+00    7.7495108972642210E+00
Ga    6.5202499847756252E+00   -2.1074412006688035E-03    8.4663325748934462E+00
N    6.5806824064502880E+00    1.9060143234918007E-02    1.0433238806514352E+01
Ga    6.6008077209154497E+00    1.8959136163071739E+00    1.1108133233593257E+01
N    6.7075483432518448E+00    1.9949146869777277E+00    1.3065981462235516E+01
Ga    6.7182863607224625E+00    1.5509743860959582E-01    1.3744866678208680E+01
N    6.6791320287113622E+00    1.7788740817439000E-01    1.5663043595869263E+01
Ga    5.8876603808670369E+00    1.5737364937557441E+00    1.6813968305503529E+01
N    7.4746639819569278E+00    6.9578337721581107E-01    1.7495491257459474E+01
N    4.8491422381242861E+00    2.8032310444551256E+00   -4.0844930772369120E-01
Ga    4.8454391220207604E+00    4.6653125228559542E+00    3.2083830034924260E-01
N    4.8466910888084414E+00    4.6638364355404542E+00    2.2951456139444226E+00
Ga    4.8518669874873712E+00    2.8004762110850403E+00    3.0720624269498193E+00
N    4.8638399767264557E+00    2.8015615996861141E+00    5.0509150462921708E+00
Ga    4.8624518258422862E+00    4.6645240742185479E+00    5.7810130902563381E+00
N    4.8928092334994648E+00    4.6625545059657769E+00    7.7491412585144364E+00
Ga    4.9050974177370268E+00    2.8004515400082806E+00    8.4669098551971960E+00
N    4.9703246675108019E+00    2.8244766800018422E+00    1.0431248455638693E+01
Ga    4.9763953766174724E+00    4.6982478359690409E+00    1.1108241850488016E+01
N    5.0654607958850661E+00    4.8033424145984132E+00    1.3076182570066187E+01
Ga    5.1360272025821994E+00    2.9608682862139868E+00    1.3784028031792342E+01
N    5.2305698781618695E+00    3.0468903118430521E+00    1.5680675114776024E+01
Ga    4.2536547634910029E+00    4.4193956809027748E+00    1.6810345812041646E+01
N    5.8941060557599210E+00    3.4882345465669675E+00    1.7153846136097272E+01
N    3.2318691490399498E+00    5.6043409276950262E+00   -4.0889679928245171E-01
Ga    3.2285239353305966E+00    7.4662935595339999E+00    3.2063863516948177E-01
N    3.2301436309634601E+00    7.4647898082732356E+00    2.2949374552069410E+00
Ga    3.2344185355494082E+00    5.6020862189718006E+00    3.0716809353654724E+00
N    3.2460538346267396E+00    5.6032879962676132E+00    5.0506563768843780E+00
Ga    3.2471027693687873E+00    7.4655816512183009E+00    5.7827399792950063E+00
N    3.2796262743365685E+00    7.4631030389442623E+00    7.7508509974436697E+00
Ga    3.2855752719402038E+00    5.6016169353970442E+00    8.4695716803135852E+00
N    3.3463212202174426E+00    5.6252641984046488E+00    1.0437039966627781E+01
Ga    3.3686628784345034E+00    7.5021045147838832E+00    1.1120414293498110E+01
N    3.4810905467324820E+00    7.6050423327281980E+00    1.3083537969429200E+01
Ga    3.4900699713842660E+00    5.7634509667651459E+00    1.3762528031588968E+01
N    3.4464356664704434E+00    5.7837653254041195E+00    1.5681433553124114E+01
Ga    2.6330740780860027E+00    7.1666792873802931E+00    1.6825807714245215E+01
N    4.2250426856087522E+00    6.2740703561868809E+00    1.7470061488587156E+01
N    1.6148381196570010E+00    8.4053459997274782E+00   -4.0844313983508412E-01
Ga    1.6110863350360691E+00    1.0267446472582940E+01    3.2066850507584271E-01
N    1.6125243891522187E+00    1.0265871109651554E+01    2.2950744109365844E+00
Ga    1.6177849513368390E+00    8.4025801693849420E+00    3.0722351340942193E+00
N    1.6300978570256566E+00    8.4034939156007233E+00    5.0513954613786698E+00
Ga    1.6290995660989951E+00    1.0266562678697449E+01    5.7810163064636315E+00
N    1.6605738477478260E+00    1.0264482657496856E+01    7.7497005467708577E+00
Ga    1.6717371978643838E+00    8.4018675023168843E+00    8.4681100105606522E+00
N    1.7376345949789664E+00    8.4255354475191080E+00    1.0434628888778056E+01
Ga    1.7441519905080438E+00    1.0298207960440623E+01    1.1112230627836757E+01
N    1.8342094025361739E+00    1.0405497881464949E+01    1.3078144651877611E+01
Ga    1.9035004052663054E+00    8.5677588181618205E+00    1.3798114936923021E+01
N    1.9934544633454105E+00    8.6468197852821866E+00    1.5694153977825987E+01
Ga    1.0234965617448650E+00    1.0058972157666030E+01    1.6827324320755238E+01
N    2.6528309509084327E+00    9.0805776436726227E+00    1.7149082418758159E+01
N    9.6984664513721253E+00    2.2514661012890060E-03   -4.0887821940190711E-01
Ga    9.6948566290024001E+00    1.8642951332492039E+00    3.2110926596848871E-01
N    9.6962387619505925E+00    1.8626075445651535E+00    2.2954082669556759E+00
Ga    9.7011128527410779E+00   -4.2634455306053107E-04    3.0713806825969625E+00
N    9.7127577370588760E+00    6.3227381530329678E-05    5.0500061363799142E+00
Ga    9.7141293644071638E+00    1.8625649769577768E+00    5.7812072172131668E+00
N    9.7457632248519417E+00    1.8587517490571346E+00    7.7473027240591312E+00
Ga    9.7553041680488075E+00   -2.8957086655275073E-04    8.4677916538024682E+00
N    9.8199853176659104E+00    2.5059612262583228E-02    1.0434354158013086E+01
Ga    9.8340275303459883E+00    1.8964085760216796E+00    1.1129278904513956E+01
N    9.9433287909994412E+00    2.0079666142077750E+00    1.3096027682631243E+01
Ga    9.9432781562681924E+00    1.6329105901364852E-01    1.3784338157316904E+01
N    9.8958507244488771E+00    2.3040402633654541E-01    1.5727067579556888E+01
Ga    9.0436973872795452E+00    1.5456321124079559E+00    1.6914387970728136E+01
N    1.0717671705525740E+01    6.6765124576666346E-01    1.7285743840808070E+01
N    8.0812852232713102E+00    2.8032637959231370E+00   -4.0850940725492685E-01
Ga    8.0775747713782220E+00    4.6652754292857237E+00    3.2108786877570372E-01
N    8.0788652120104114E+00    4.6635197890896087E+00    2.2954032439493681E+00
Ga    8.0839937838150231E+00    2.8003640289779534E+00    3.0721662163920138E+00
N    8.0960145915836801E+00    2.8006709416110005E+00    5.0507992375154522E+00
Ga    8.0950040437013282E+00    4.6639800165133067E+00    5.7792037952261817E+00
N    8.1246049601473960E+00    4.6601826509959592E+00    7.7460461358501549E+00
Ga    8.1410194157000788E+00    2.7986563231278998E+00    8.4639918801010889E+00
N    8.2092375315533239E+00    2.8219508500225077E+00    1.0427748659187619E+01
Ga    8.2015651569670300E+00    4.6904644389534829E+00    1.1116548167323268E+01
N    8.2770893457976200E+00    4.7888043249736967E+00    1.3081025680877097E+01
Ga    8.3485499658040414E+00    2.9467881229901844E+00    1.3785021445322984E+01
N    8.3642581303813461E+00    2.9632869698313113E+00    1.5709492035423997E+01
Ga    7.4796434468852908E+00    4.3914696189941163E+00    1.6810976996800814E+01
N    9.1414928269794373E+00    3.4492333788190295E+00    1.7109150278159891E+01
N    6.4640339803009361E+00    5.6043291926733536E+00   -4.0879473083071893E-01
Ga    6.4605701215719273E+00    7.4664098405840305E+00    3.2096920889820441E-01
N    6.4618938556432148E+00    7.4648382558000224E+00    2.2953129572069892E+00
Ga    6.4663976404142698E+00    5.6018618329817178E+00    3.0713581337759246E+00
N    6.4776383139723492E+00    5.6022971015590084E+00    5.0499142453912169E+00
Ga    6.4789503630533254E+00    7.4650829942311514E+00    5.7810094884679959E+00
N    6.5098163430720231E+00    7.4614856777462073E+00    7.7471756595369250E+00
Ga    6.5190696445933805E+00    5.6014508304356356E+00    8.4653353456076381E+00
N    6.5833470055645336E+00    5.6269745576100840E+00    1.0429926098405412E+01
Ga    6.5980304618028631E+00    7.4986217236016115E+00    1.1127882942969149E+01
N    6.7094114953930717E+00    7.6079705637781210E+00    1.3093243757105403E+01
Ga    6.7103420227837649E+00    5.7609291621806884E+00    1.3773669283995758E+01
N    6.6594985143891066E+00    5.8177020523580909E+00    1.5706027184065391E+01
Ga    5.8086357168570322E+00    7.0996768814722495E+00    1.6914155458421725E+01
N    7.4999232728334064E+00    6.2756861510973687E+00    1.7281188457943081E+01
N    4.8469030810439486E+00    8.4055120986578018E+00   -4.0852299701976663E-01
Ga    4.8433385571596457E+00    1.0267428851132509E+01    3.2116235130779469E-01
N    4.8447997930799422E+00    1.0265748581776386E+01    2.2954598684649739E+00
Ga    4.8496413885018237E+00    8.4026965615861204E+00    3.0721308048637952E+00
N    4.8615136526992391E+00    8.4034268352177257E+00    5.0510224911323620E+00
Ga    4.8611575814976575E+00    1.0266380534305775E+01    5.7806933131650595E+00
N    4.8913666210733684E+00    1.0263380100254516E+01    7.7481990416997384E+00
Ga    4.9064586344977057E+00    8.4027636947296678E+00    8.4672009759753433E+00
N    4.9745085999207284E+00    8.4288088167064377E+00    1.0432571479924915E+01
Ga    4.9698018016351382E+00    1.0295963715019166E+01    1.1125566522796525E+01
N    5.0492294129458566E+00    1.0401121501301354E+01    1.3098522502149695E+01
Ga    5.1259819245593548E+00    8.5557221255321547E+00    1.3798410591482373E+01
N    5.1667736158357096E+00    8.5725495147242849E+00    1.5707272373914840E+01
Ga    4.2199468363574750E+00    9.9936962271847634E+00    1.6821202000933795E+01
N    5.8875371799433420E+00    9.0273945849864710E+00    1.7052829912660247E+01
H    1.6609908672739222E-03    1.2865648244081407E-03   -1.4478894176650436E+00
H   -1.6154427726326628E+00    2.8022868835760715E+00   -1.4471979715220000E+00
H   -3.2326478953408948E+00    5.6033187649873435E+00   -1.4478269801332602E+00
H   -4.8497647942164397E+00    8.4042934628527171E+00   -1.4474411193717109E+00
H    3.2337774394810981E+00    1.3634572642851415E-03   -1.4477661665174018E+00
H    1.6166759937329518E+00    2.8023279222147663E+00   -1.4472560789973434E+00
H   -6.8663285026088477E-04    5.6034237976356351E+00   -1.4476540475767798E+00
H   -1.6176878472228959E+00    8.4043808127113699E+00   -1.4473275886454817E+00
H    6.4656691519852920E+00    1.3852809913748802E-03   -1.4478619615635213E+00
H    4.8485364063749294E+00    2.8022666197473147E+00   -1.4472412190611055E+00
H    3.2312309928537091E+00    5.6035562166872497E+00   -1.4477860061072114E+00
H    1.6141980583232647E+00    8.4044575831133255E+00   -1.4472431693703285E+00
H    9.6979729746074046E+00    1.5638824381243555E-03   -1.4475666766551170E+00
H    8.0808608172955605E+00    2.8024974427856852E+00   -1.4472583800847032E+00
H    6.4636214892898360E+00    5.6036797298442158E+00   -1.4475599409307456E+00
H    4.8464983611424337E+00    8.4046620036058268E+00   -1.4472032214604094E+00
     &END COORD
     &KIND H
       BASIS_SET DZVP-MOLOPT-SR-GTH-q1
       POTENTIAL GTH-PBE-q1
       &POTENTIAL
 1
  0.2000000000000000E+00 2 -0.4178900440000000E+01  0.7244633100000000E+00
 0
         # Potential name:  GTH-PBE-Q1  for symbol:  H
         # Potential read from the potential filename: GTH_POTENTIALS
       &END POTENTIAL
     &END KIND
     &KIND N
       BASIS_SET DZVP-MOLOPT-SR-GTH
       POTENTIAL GTH-PBE-q5
       &POTENTIAL
 2 3
  0.2837905100000000E+00 2 -0.1241522559000000E+02  0.1868095920000000E+01
 2
  0.2554050000000000E+00 1  0.1363026257000000E+02
  0.2454945300000000E+00 0
         # Potential name:  GTH-PBE-Q5  for symbol:  N
         # Potential read from the potential filename: GTH_POTENTIALS
       &END POTENTIAL
     &END KIND
     &KIND Ga
       BASIS_SET DZVP-MOLOPT-SR-GTH
       POTENTIAL GTH-PBE-q13
       &POTENTIAL
 2 1 10
  0.4900000000000000E+00 0
 3
  0.4167772300000000E+00 3  0.1047568975000000E+02 -0.4921768140000000E+01  0.8707055900000000E+00
  0.7770178090000000E+01 -0.2248152160000000E+01
  0.1784415450000000E+01
  0.5696265200000000E+00 2  0.1777985340000000E+01  0.1958597600000000E+00
 -0.2317443900000000E+00
  0.2381265000000000E+00 1 -0.1624868022000000E+02
         # Potential name:  GTH-PBE-Q13  for symbol:  GA
         # Potential read from the potential filename: GTH_POTENTIALS
       &END POTENTIAL
     &END KIND
     &TOPOLOGY
       NUMBER_OF_ATOMS  256
       MULTIPLE_UNIT_CELL  1 1 1
     &END TOPOLOGY
   &END SUBSYS
 &END FORCE_EVAL
