 # Version information for this restart file 
 # current date 2019-06-10 23:52:46.012
 # current working dir /lustre03/project/6037349/rzk/GaN-carbene/444-addat/00-Surface/RKS
 # Program compiled at                              Sun Apr  7 00:48:11 EDT 2019
 # Program compiled on                          beluga2.int.ets1.calculquebec.ca
 # Program compiled for                        Beluga-Linux-x86-64-intel-openmpi
 # Source code revision number                                         svn:18619
 &GLOBAL
   PRINT_LEVEL  MEDIUM
   PROJECT_NAME TEST
   RUN_TYPE  CELL_OPT
 &END GLOBAL
 &MOTION
   &CELL_OPT
     MAX_ITER  300
     STEP_START_VAL  88
     EXTERNAL_PRESSURE     1.0000000000000000E+00
     KEEP_ANGLES  T
     KEEP_SYMMETRY  T
     CONSTRAINT  Z
     PRESSURE_TOLERANCE     5.0000000000000000E+02
   &END CELL_OPT
 &END MOTION
 &FORCE_EVAL
   METHOD  QS
   STRESS_TENSOR  ANALYTICAL
   &DFT
     BASIS_SET_FILE_NAME BASIS_MOLOPT
     POTENTIAL_FILE_NAME GTH_POTENTIALS
     SURFACE_DIPOLE_CORRECTION  T
     SURF_DIP_DIR  Z
     &SCF
       MAX_SCF  100
       EPS_SCF     5.0000000000000004E-06
       &OT  T
         PRECONDITIONER  FULL_ALL
       &END OT
       &OUTER_SCF  T
         OPTIMIZER  NONE
         EPS_SCF     5.0000000000000004E-06
         MAX_SCF  4
       &END OUTER_SCF
       &PRINT
         &RESTART  OFF
           BACKUP_COPIES  1
           &EACH
             JUST_ENERGY  0
             QS_SCF  0
             MD  20
           &END EACH
         &END RESTART
       &END PRINT
     &END SCF
     &QS
       EPS_DEFAULT     1.0000000000000000E-14
       METHOD  GPW
     &END QS
     &MGRID
       NGRIDS  5
       CUTOFF     1.2000000000000000E+03
     &END MGRID
     &XC
       DENSITY_CUTOFF     1.0000000000000000E-10
       GRADIENT_CUTOFF     1.0000000000000000E-10
       TAU_CUTOFF     1.0000000000000000E-10
       &XC_FUNCTIONAL  NO_SHORTCUT
         &PBE  T
         &END PBE
       &END XC_FUNCTIONAL
       &VDW_POTENTIAL
         POTENTIAL_TYPE  PAIR_POTENTIAL
         &PAIR_POTENTIAL
           R_CUTOFF     1.0000000000000005E+01
           TYPE  DFTD3
           PARAMETER_FILE_NAME dftd3.dat
           REFERENCE_FUNCTIONAL PBE
           EPS_CN     9.9999999999999995E-07
           CALCULATE_C9_TERM  T
           REFERENCE_C9_TERM  T
           LONG_RANGE_CORRECTION  F
           VERBOSE_OUTPUT  F
         &END PAIR_POTENTIAL
       &END VDW_POTENTIAL
     &END XC
   &END DFT
   &SUBSYS
     &CELL
       A     1.3016435478083494E+01    0.0000000000000000E+00    0.0000000000000000E+00
       B    -6.4494838262052321E+00    1.1170833669581361E+01    0.0000000000000000E+00
       C     0.0000000000000000E+00    0.0000000000000000E+00    3.2000000000000000E+01
       MULTIPLE_UNIT_CELL  1 1 1
       &CELL_REF
         A     1.2982353780853531E+01    0.0000000000000000E+00    0.0000000000000000E+00
         B    -6.4911768904267628E+00    1.1243048175136114E+01    0.0000000000000000E+00
         C     0.0000000000000000E+00    0.0000000000000000E+00    3.2000000000000000E+01
         MULTIPLE_UNIT_CELL  1 1 1
       &END CELL_REF
     &END CELL
     &COORD
N    1.3403480525814024E-01    6.6307559121535992E-02   -1.5177412436257642E-01
Ga    1.5042703939895774E-01    1.9364287759191154E+00    5.1382065925716658E-01
N    1.9376850018473221E-01    1.9717982529308991E+00    2.4379745006505300E+00
Ga    1.8623607848883447E-01    1.0826624139054521E-01    3.1474499309002941E+00
N    2.1625089882415358E-01    1.2549033709589111E-01    5.0796814287004022E+00
Ga    2.3378399294399921E-01    1.9943332285501398E+00    5.7685770142239612E+00
N    2.4634825020121451E-01    2.0058084581256805E+00    7.7043370409928187E+00
Ga    2.2873112192424125E-01    1.4040443419408172E-01    8.3923355922155629E+00
N    2.3935918268611356E-01    1.4121264446918264E-01    1.0324571066241564E+01
Ga    2.6010133303951111E-01    2.0086980601131392E+00    1.1012683701916243E+01
N    2.8994088125910844E-01    2.0195908735829509E+00    1.2944396974243498E+01
Ga    2.3458677602296094E-01    1.4355034272744926E-01    1.3610860640827594E+01
N   -2.6333174504961898E-01   -1.4243466130802254E-01    1.5370449845145783E+01
Ga   -9.5633970983586292E-01    9.8957917969488796E-01    1.6751200892601194E+01
N    3.4352667445487634E-01    1.8245783767866294E-01    1.8042498407153332E+01
N   -1.4786517660444674E+00    2.8598738780896040E+00   -1.4752483021062135E-01
Ga   -1.4622840011066240E+00    4.7291670162354285E+00    5.1809535873754609E-01
N   -1.4184661270880607E+00    4.7628429501432850E+00    2.4412564566307702E+00
Ga   -1.4271299249593221E+00    2.8992165688541855E+00    3.1506389211294956E+00
N   -1.3943338002041665E+00    2.9187927086459684E+00    5.0829845790084747E+00
Ga   -1.3787158107769264E+00    4.7888817200956026E+00    5.7730131314195008E+00
N   -1.3677605862186852E+00    4.8005760160764792E+00    7.7099607006093329E+00
Ga   -1.3785620997841130E+00    2.9321049581956240E+00    8.3915844910201240E+00
N   -1.3661069326933144E+00    2.9341789516435299E+00    1.0326239247115588E+01
Ga   -1.3620474966478497E+00    4.8010530200659876E+00    1.1026229297336752E+01
N   -1.3401706162129168E+00    4.8309815706655463E+00    1.2962795435826330E+01
Ga   -1.3315041697624934E+00    2.9536469383600790E+00    1.3615520840196154E+01
N   -1.8370444739271201E+00    2.5226394022005643E+00    1.5432981389148578E+01
Ga   -2.8249686173463018E+00    4.2697916287487514E+00    1.6852579989299262E+01
N   -1.3516087997195143E+00    2.9541801439247659E+00    1.6718061419925082E+01
N   -3.0910204876717358E+00    5.6514721550397269E+00   -1.4926174451654248E-01
Ga   -3.0746459371331829E+00    7.5215729248165966E+00    5.1663426911692967E-01
N   -3.0309331286197705E+00    7.5564722877301325E+00    2.4399457081044216E+00
Ga   -3.0392955776807029E+00    5.6930471277925347E+00    3.1477381576770300E+00
N   -3.0066754799830981E+00    5.7120763505773144E+00    5.0800856313973428E+00
Ga   -2.9901705084009951E+00    7.5799568197314890E+00    5.7726873643320911E+00
N   -2.9780560507721425E+00    7.5944674868764332E+00    7.7092613132163459E+00
Ga   -2.9923856283158607E+00    5.7279012987743849E+00    8.3956595559994724E+00
N   -2.9809187023728509E+00    5.7286223498115572E+00    1.0327237013896180E+01
Ga   -2.9687596311209763E+00    7.5901894538220827E+00    1.1031480768762195E+01
N   -2.9368182285545239E+00    7.6023621081211035E+00    1.2965766207684510E+01
Ga   -2.9668036214439053E+00    5.7415463490523537E+00    1.3674957577789598E+01
N   -3.4184157745668444E+00    5.4749663438441303E+00    1.5461606904548931E+01
Ga   -4.1603470552849151E+00    6.5767870143536538E+00    1.6859523701399457E+01
N   -2.8221627999754642E+00    5.8078574563266958E+00    1.8111753159223692E+01
N   -4.7028243481960956E+00    8.4444312793899527E+00   -1.4762813687356918E-01
Ga   -4.6866556226086153E+00    1.0314871545677848E+01    5.1600589894444271E-01
N   -4.6420894271852609E+00    1.0347682584095342E+01    2.4400294725749565E+00
Ga   -4.6517563908142696E+00    8.4837636695453487E+00    3.1508679441921390E+00
N   -4.6194261156375678E+00    8.5032857653043905E+00    5.0832165200091977E+00
Ga   -4.6033597840994069E+00    1.0373400721406286E+01    5.7677973784490799E+00
N   -4.5947050246865198E+00    1.0388058489689687E+01    7.7049298400596138E+00
Ga   -4.6040329960746540E+00    8.5201644604222384E+00    8.3930264444101450E+00
N   -4.5917826829382218E+00    8.5195706824557735E+00    1.0328441327008449E+01
Ga   -4.5786376229182295E+00    1.0389780208384899E+01    1.1012560264135850E+01
N   -4.5593784691547290E+00    1.0416485838223478E+01    1.2945442064417019E+01
Ga   -4.5596306546229277E+00    8.5482350871750210E+00    1.3618777130323418E+01
N   -5.1824778986478508E+00    8.3337238592127818E+00    1.5443160514350485E+01
Ga   -6.0658204036458629E+00    9.8394626313594706E+00    1.6732837592274741E+01
N   -4.5510765293058171E+00    8.5068799690481125E+00    1.6727298251039461E+01
N    3.3881617471043008E+00    6.6706669783142047E-02   -1.4841924647427915E-01
Ga    3.4046111332288493E+00    1.9364843341315054E+00    5.1599602907758757E-01
N    3.4471216459787124E+00    1.9703309374415645E+00    2.4395404944754295E+00
Ga    3.4416248293277114E+00    1.0826900726834986E-01    3.1528187257095364E+00
N    3.4742961539505242E+00    1.2810651716397323E-01    5.0872886799361323E+00
Ga    3.4905567799860280E+00    1.9955321608023229E+00    5.7816692279305135E+00
N    3.5061454039839273E+00    2.0104192026881704E+00    7.7196226923437079E+00
Ga    3.4854231443323758E+00    1.4222462579487549E-01    8.4017044277016257E+00
N    3.4999404581374258E+00    1.4475716965672500E-01    1.0337311538471493E+01
Ga    3.5133446329419993E+00    2.0069786770812699E+00    1.1034241900611354E+01
N    3.5408094095396936E+00    2.0269315131491838E+00    1.2980229926254399E+01
Ga    3.4985244157952153E+00    1.8214767593155989E-01    1.3693482003808521E+01
N    2.9169370546196243E+00   -7.2728792783329374E-02    1.5564532917723408E+01
Ga    1.8809636719649829E+00    1.0636485438215866E+00    1.7579480175384777E+01
N    3.5298677753713124E+00    2.4526133504552222E-01    1.6893574871326429E+01
N    1.7761360726147994E+00    2.8593571275764171E+00   -1.4703569335969810E-01
Ga    1.7912610294819777E+00    4.7290310383283360E+00    5.1599575760523264E-01
N    1.8338913719562402E+00    4.7620318180257648E+00    2.4394653526279351E+00
Ga    1.8283926501465424E+00    2.9002479501733305E+00    3.1550755295243462E+00
N    1.8623464409201709E+00    2.9191074143608402E+00    5.0895793703889227E+00
Ga    1.8740053974720940E+00    4.7879877885172304E+00    5.7814380296909791E+00
N    1.8875155389022382E+00    4.8000039528015703E+00    7.7191352869998786E+00
Ga    1.8758609731531715E+00    2.9307411481903669E+00    8.3993977668469597E+00
N    1.8898932039274152E+00    2.9293697040856754E+00    1.0335647146597575E+01
Ga    1.8987106389248454E+00    4.7910933770496760E+00    1.1044757770702933E+01
N    1.9083455739730428E+00    4.8013423359802454E+00    1.2992551925668764E+01
Ga    1.9155935689688004E+00    2.9197529141947425E+00    1.3682112487787782E+01
N    1.4035824422672798E+00    2.5248973455435957E+00    1.5555334670761971E+01
Ga    2.8701343243843580E-01    3.8638854629333861E+00    1.6426476208309772E+01
N    1.9951985449621186E+00    2.8834165270248429E+00    1.6881899165645784E+01
N    1.6263340220280995E-01    5.6513589196449088E+00   -1.4764808591878412E-01
Ga    1.7864618307098348E-01    7.5213087735257007E+00    5.1704491395397023E-01
N    2.2043521209335237E-01    7.5552330203029960E+00    2.4398951880043893E+00
Ga    2.1595651014731176E-01    5.6936233645148624E+00    3.1534284686475864E+00
N    2.4879630423787077E-01    5.7129182463506600E+00    5.0879039550210603E+00
Ga    2.6205497263326488E-01    7.5793488320560636E+00    5.7848114458858948E+00
N    2.7416884186023599E-01    7.5918437981557672E+00    7.7239235425254913E+00
Ga    2.6211435976720654E-01    5.7225838212532008E+00    8.4113695299183249E+00
N    2.7401046794745837E-01    5.7235149327174764E+00    1.0348243928057954E+01
Ga    2.9383742816801411E-01    7.5946117064637884E+00    1.1025777292686996E+01
N    3.2789814975737269E-01    7.6198751868304395E+00    1.2971449660739561E+01
Ga    2.8865830594562686E-01    5.7669903082898282E+00    1.3662351191902932E+01
N   -2.4706530173585511E-01    5.4900545518114647E+00    1.5519335435585237E+01
Ga   -1.2865875645036993E+00    6.6888993155709695E+00    1.7579083449645719E+01
N    3.1747828106711423E-01    5.8371109720793939E+00    1.6841776992367539E+01
N   -1.4496779844684968E+00    8.4444553834214577E+00   -1.4672247972058403E-01
Ga   -1.4335349823970318E+00    1.0314331778166629E+01    5.1662262485144805E-01
N   -1.3908810392029844E+00    1.0346988644009585E+01    2.4399588008886450E+00
Ga   -1.3968963195589701E+00    8.4851954733097816E+00    3.1552815296259262E+00
N   -1.3632884451547729E+00    8.5042944620099945E+00    5.0892315074683800E+00
Ga   -1.3502055370958450E+00    1.0371740544455907E+01    5.7827832604915690E+00
N   -1.3374263487973148E+00    1.0386348571838504E+01    7.7210237561381421E+00
Ga   -1.3515777230221280E+00    8.5201208624906428E+00    8.4108345763550396E+00
N   -1.3383018365592971E+00    8.5199041914963587E+00    1.0349494759817643E+01
Ga   -1.3313613123863892E+00    1.0389468419794348E+01    1.1049006623225932E+01
N   -1.3214834260396240E+00    1.0406712797984863E+01    1.2998421507116358E+01
Ga   -1.2946729603669478E+00    8.5221915493387712E+00    1.3659653425729882E+01
N   -1.8030422861514011E+00    8.1867783146893629E+00    1.5522922547955616E+01
Ga   -2.9420752274766606E+00    9.4560094707713631E+00    1.6432316777088950E+01
N   -1.2009870249416379E+00    8.4941928667216438E+00    1.6844760488634599E+01
N    6.6407098998899423E+00    6.6572632854519864E-02   -1.4823273592144667E-01
Ga    6.6572263575820365E+00    1.9364159576987769E+00    5.1716265746821188E-01
N    6.6993111743035412E+00    1.9686114751495882E+00    2.4402664872494411E+00
Ga    6.6898504550747315E+00    1.0577554393001132E-01    3.1542165623822713E+00
N    6.7224532789731875E+00    1.2473147177049591E-01    5.0876030499167237E+00
Ga    6.7367922902041606E+00    1.9917893396479007E+00    5.7781228651275409E+00
N    6.7479215393918404E+00    2.0040735863197017E+00    7.7151702413731398E+00
Ga    6.7390526177799979E+00    1.4176006223246634E-01    8.4167232018436522E+00
N    6.7516426099213724E+00    1.4324759793731900E-01    1.0358118396982038E+01
Ga    6.7788477416240447E+00    2.0127375411180504E+00    1.1036773601695010E+01
N    6.8100411226597366E+00    2.0355953440881045E+00    1.2986528818616678E+01
Ga    6.7923306366297824E+00    1.7272023453783697E-01    1.3647023349180868E+01
N    6.2432582310996336E+00   -1.4805651199513281E-01    1.5484519674468299E+01
Ga    5.1983246356246626E+00    1.1168597837546039E+00    1.6578499048934791E+01
N    6.8973448375709276E+00    2.3111521554645476E-01    1.7070932307975113E+01
N    5.0292497172905808E+00    2.8592021529715428E+00   -1.4973819219312295E-01
Ga    5.0452615446294402E+00    4.7283599497847666E+00    5.1853405392053631E-01
N    5.0868274591380622E+00    4.7615580127120376E+00    2.4414337471565575E+00
Ga    5.0799718519905648E+00    2.8983888520420020E+00    3.1540625255350423E+00
N    5.1126902678567818E+00    2.9183026347549195E+00    5.0877252468030312E+00
Ga    5.1244939325699272E+00    4.7849588387391977E+00    5.7786464639610449E+00
N    5.1335823061593873E+00    4.7966437286323851E+00    7.7157848347387228E+00
Ga    5.1330287098457417E+00    2.9354481780170039E+00    8.4159559337957361E+00
N    5.1477975597308170E+00    2.9367526956849641E+00    1.0357068294763566E+01
Ga    5.1626242068919330E+00    4.8079605692004623E+00    1.1034817395331837E+01
N    5.1900600922590563E+00    4.8376894419752663E+00    1.2983668280302044E+01
Ga    5.2002041526019740E+00    2.9733571715912883E+00    1.3634688446092907E+01
N    4.6590873350359132E+00    2.6521214785950482E+00    1.5459413964027441E+01
Ga    3.5879205355860107E+00    3.8852679536911094E+00    1.6565174935772884E+01
N    5.2764301474696866E+00    3.0068488904347435E+00    1.7062990731654470E+01
N    3.4169403840386954E+00    5.6505330752889691E+00   -1.4864827739681133E-01
Ga    3.4324930741031943E+00    7.5206987190918158E+00    5.1439002846753124E-01
N    3.4727619523440465E+00    7.5525053394861832E+00    2.4375516423506780E+00
Ga    3.4660268784895751E+00    5.6905002931601452E+00    3.1542032190620217E+00
N    3.4987806892905815E+00    5.7098671192386199E+00    5.0879669850864957E+00
Ga    3.5107385473023913E+00    7.5767490175898402E+00    5.7742238103847621E+00
N    3.5220335139554040E+00    7.5883978748048584E+00    7.7105607431671208E+00
Ga    3.5149962866488780E+00    5.7259258686511885E+00    8.4132953160307959E+00
N    3.5276673610662792E+00    5.7261489487230079E+00    1.0355851690746105E+01
Ga    3.5483610283713625E+00    7.5963696784333727E+00    1.1036951532103036E+01
N    3.5849265550279141E+00    7.6120486711115216E+00    1.2985289219228001E+01
Ga    3.5672086075142024E+00    5.7552373328692417E+00    1.3642229713078480E+01
N    3.0119593522472403E+00    5.4151089511997821E+00    1.5474249047153730E+01
Ga    1.9968387827747085E+00    6.7147692868296547E+00    1.6572443268860784E+01
N    3.6636423348417670E+00    5.7895317749209445E+00    1.7072219977824787E+01
N    1.8036210490541440E+00    8.4442180372246085E+00   -1.4822790588497869E-01
Ga    1.8197114223341864E+00    1.0314519406670998E+01    5.1639792349045521E-01
N    1.8595241555715170E+00    1.0346282014425602E+01    2.4393326796075092E+00
Ga    1.8536379717781704E+00    8.4829077008493741E+00    3.1527281574796975E+00
N    1.8856656759951256E+00    8.5015773862893909E+00    5.0871726779207203E+00
Ga    1.8979890419323489E+00    1.0369683020119389E+01    5.7749154448754281E+00
N    1.9065572261756418E+00    1.0382693690399448E+01    7.7118640716962261E+00
Ga    1.9051358964436136E+00    8.5199627069172443E+00    8.4095549828719385E+00
N    1.9229599724550475E+00    8.5234791551228621E+00    1.0347583423185066E+01
Ga    1.9338171620169029E+00    1.0391193935209060E+01    1.1036537191335437E+01
N    1.9629424094317909E+00    1.0421981818729110E+01    1.2983643801837868E+01
Ga    1.9862553434267840E+00    8.5638832397112221E+00    1.3642424109940002E+01
N    1.4720810315875070E+00    8.2621929723270870E+00    1.5476866049107233E+01
Ga    3.9987333545731119E-01    9.4978544426786904E+00    1.6568510681105437E+01
N    2.0713951109951010E+00    8.6001507479046939E+00    1.7093315500830624E+01
N    9.8949888168086240E+00    6.6303525490696888E-02   -1.5031781889665874E-01
Ga    9.9120935612548440E+00    1.9368219953194714E+00    5.1354261784887711E-01
N    9.9542777348544345E+00    1.9706538365443713E+00    2.4371121447214770E+00
Ga    9.9436891042274187E+00    1.0590144657054078E-01    3.1475024999745291E+00
N    9.9742986076351539E+00    1.2175099642729363E-01    5.0801843355019489E+00
Ga    9.9959547357384135E+00    1.9916455466149208E+00    5.7655570855604292E+00
N    1.0008159145221784E+01    2.0047532188445092E+00    7.7000737846160661E+00
Ga    9.9879758450193812E+00    1.3930100690032554E-01    8.3847006123665118E+00
N    9.9927212947599138E+00    1.4159957090775374E-01    1.0311435735666560E+01
Ga    1.0021625032751938E+01    2.0045424442877020E+00    1.1004832373652901E+01
N    1.0045660483681010E+01    2.0231911091407428E+00    1.2937009612437507E+01
Ga    1.0083785517533686E+01    1.8004945690254692E-01    1.3657990438351503E+01
N    9.6097763094865485E+00   -9.7694968661609385E-02    1.5536256060535804E+01
Ga    8.5001827642375467E+00    1.1327834856223076E+00    1.6704533877387345E+01
N    1.0257642628948583E+01    2.6138395285793919E-01    1.6888397238884796E+01
N    8.2825459115955731E+00    2.8593482949632132E+00   -1.4817984703784723E-01
Ga    8.3000620090808130E+00    4.7291364085498104E+00    5.1669476785413504E-01
N    8.3418891683174241E+00    4.7612345547776540E+00    2.4400543682921163E+00
Ga    8.3333129568671200E+00    2.8971734218393745E+00    3.1530210188098127E+00
N    8.3640789493855454E+00    2.9145158546525263E+00    5.0854985568161784E+00
Ga    8.3832727253328621E+00    4.7869232414015395E+00    5.7658940352961476E+00
N    8.3917707541285065E+00    4.7986792309546553E+00    7.7029975125874985E+00
Ga    8.3820508283102537E+00    2.9276445701270348E+00    8.3862778026394729E+00
N    8.3940754079695825E+00    2.9254381348749590E+00    1.0316845781875717E+01
Ga    8.4016606505740103E+00    4.7978490703596526E+00    1.0986465583418168E+01
N    8.4169983397491261E+00    4.8121842707342193E+00    1.2910549726533317E+01
Ga    8.4710703687017954E+00    2.9899971736157798E+00    1.3648286310801657E+01
N    8.0213538479576503E+00    2.7220006996577673E+00    1.5533395467018284E+01
Ga    6.8726986141310826E+00    3.9017606302452612E+00    1.6716117100001952E+01
N    8.6428718516330161E+00    3.0813453959684631E+00    1.6917717590224449E+01
N    6.6705771055622893E+00    5.6507485999523768E+00   -1.4843690168605664E-01
Ga    6.6878627790423471E+00    7.5215303187622267E+00    5.1312439595584003E-01
N    6.7308909687905931E+00    7.5542343582376086E+00    2.4366163484860444E+00
Ga    6.7208233089069198E+00    5.6915878370344331E+00    3.1518201972109523E+00
N    6.7505408977509767E+00    5.7098631769854489E+00    5.0848544543002019E+00
Ga    6.7697454113615487E+00    7.5803489858097057E+00    5.7675623277993395E+00
N    6.7813797237878273E+00    7.5944298910404013E+00    7.7012481716530186E+00
Ga    6.7640176462526815E+00    5.7282347124307282E+00    8.3858198620442188E+00
N    6.7733130992053949E+00    5.7330295116664720E+00    1.0318801160674887E+01
Ga    6.7937722905351530E+00    7.5980826701000410E+00    1.1005567226690198E+01
N    6.8195088954572984E+00    7.6175184094878441E+00    1.2937368545123359E+01
Ga    6.8599094817056825E+00    5.7709922731086509E+00    1.3643072442641856E+01
N    6.4086811822687073E+00    5.5101231800429264E+00    1.5530035756384832E+01
Ga    5.2704987424460574E+00    6.6927685521705564E+00    1.6698455290856984E+01
N    7.0426997062898415E+00    5.8431188115003634E+00    1.6905920165793400E+01
N    5.0582651485945860E+00    8.4442945984610009E+00   -1.4934961152335821E-01
Ga    5.0754868187772200E+00    1.0315116748075701E+01    5.1382614444014851E-01
N    5.1175129929299388E+00    1.0346860059933526E+01    2.4370535185245252E+00
Ga    5.1079457226540788E+00    8.4810254170937416E+00    3.1489299937995252E+00
N    5.1375833923722718E+00    8.4988487889513937E+00    5.0819946835103744E+00
Ga    5.1555058894354540E+00    1.0369905808821859E+01    5.7595199454613599E+00
N    5.1654903372453305E+00    1.0382783423756852E+01    7.6972845353475785E+00
Ga    5.1541849397779060E+00    8.5136329456758641E+00    8.3827660642845725E+00
N    5.1653630792656333E+00    8.5048478913406012E+00    1.0310910730641289E+01
Ga    5.1644986436335145E+00    1.0374245884887680E+01    1.0978623287291940E+01
N    5.1645097326263025E+00    1.0379856609377528E+01    1.2878086313648417E+01
Ga    5.2410356587023985E+00    8.5740072057603083E+00    1.3657047073396566E+01
N    4.7662756725401731E+00    8.2719598121938720E+00    1.5537809777667448E+01
Ga    3.6620312702378857E+00    9.5009526205702368E+00    1.6772670082259719E+01
N    5.4084695441301198E+00    8.6530407764637722E+00    1.6886057387747623E+01
H    1.2811785806259540E-01    6.3327163906231110E-02   -1.1793642860688118E+00
H   -1.4848100578338326E+00    2.8574906621958802E+00   -1.1746886583631562E+00
H   -3.0969542399172894E+00    5.6485721013951640E+00   -1.1767276783384319E+00
H   -4.7073911206726944E+00    8.4387866406476917E+00   -1.1747374020143952E+00
H    3.3847861631470693E+00    6.3949700365702009E-02   -1.1757871576709351E+00
H    1.7716659377563559E+00    2.8568091742792010E+00   -1.1742323483107140E+00
H    1.5720431838788165E-01    5.6487489344458828E+00   -1.1749012064019166E+00
H   -1.4551022196506724E+00    8.4405602175874872E+00   -1.1738337963059060E+00
H    6.6338662256588750E+00    6.3605253331961681E-02   -1.1755035826272597E+00
H    5.0234439709068059E+00    2.8551675058655652E+00   -1.1772532618320062E+00
H    3.4106669733429551E+00    5.6470546660791312E+00   -1.1758909304008827E+00
H    1.7962567801657920E+00    8.4393732170979412E+00   -1.1753496218220587E+00
H    9.8896450365122917E+00    6.4525863851461765E-02   -1.1777344732443751E+00
H    8.2769918531494646E+00    2.8573194210815944E+00   -1.1754146659745461E+00
H    6.6665789034044431E+00    5.6478259750985771E+00   -1.1757445885313378E+00
H    5.0534673823389626E+00    8.4402216310553282E+00   -1.1765332868154212E+00
     &END COORD
     &KIND H
       BASIS_SET DZVP-MOLOPT-SR-GTH-q1
       POTENTIAL GTH-PBE-q1
       &POTENTIAL
1
0.2000000000000000E+00 2 -0.4178900440000000E+01  0.7244633100000000E+00
0
       &END POTENTIAL
     &END KIND
     &KIND N
       BASIS_SET DZVP-MOLOPT-SR-GTH
       POTENTIAL GTH-PBE-q5
       &POTENTIAL
2 3
0.2837905100000000E+00 2 -0.1241522559000000E+02  0.1868095920000000E+01
2
0.2554050000000000E+00 1  0.1363026257000000E+02
0.2454945300000000E+00 0
       &END POTENTIAL
     &END KIND
     &KIND Ga
       BASIS_SET DZVP-MOLOPT-SR-GTH
       POTENTIAL GTH-PBE-q13
       &POTENTIAL
2 1 10
0.4900000000000000E+00 0
3
0.4167772300000000E+00 3  0.1047568975000000E+02 -0.4921768140000000E+01  0.8707055900000000E+00
0.7770178090000000E+01 -0.2248152160000000E+01
0.1784415450000000E+01
0.5696265200000000E+00 2  0.1777985340000000E+01  0.1958597600000000E+00
-0.2317443900000000E+00
0.2381265000000000E+00 1 -0.1624868022000000E+02
       &END POTENTIAL
     &END KIND
     &TOPOLOGY
       NUMBER_OF_ATOMS  256
       MULTIPLE_UNIT_CELL  1 1 1
     &END TOPOLOGY
   &END SUBSYS
 &END FORCE_EVAL
