 # Version information for this restart file 
 # current date 2019-06-10 15:30:06.093
 # current working dir /lustre03/project/6037349/rzk/GaN-carbene/444-addat/00-Surface/RKS
 # Program compiled at                              Sun Apr  7 00:48:11 EDT 2019
 # Program compiled on                          beluga2.int.ets1.calculquebec.ca
 # Program compiled for                        Beluga-Linux-x86-64-intel-openmpi
 # Source code revision number                                         svn:18619
 &GLOBAL
   PRINT_LEVEL  MEDIUM
   PROJECT_NAME TEST
   RUN_TYPE  CELL_OPT
 &END GLOBAL
 &MOTION
   &CELL_OPT
     MAX_ITER  300
     STEP_START_VAL  42
     EXTERNAL_PRESSURE     1.0000000000000000E+00
     KEEP_ANGLES  T
     KEEP_SYMMETRY  T
     CONSTRAINT  Z
     PRESSURE_TOLERANCE     5.0000000000000000E+02
   &END CELL_OPT
 &END MOTION
 &FORCE_EVAL
   METHOD  QS
   STRESS_TENSOR  ANALYTICAL
   &DFT
     BASIS_SET_FILE_NAME BASIS_MOLOPT
     POTENTIAL_FILE_NAME GTH_POTENTIALS
     SURFACE_DIPOLE_CORRECTION  T
     SURF_DIP_DIR  Z
     &SCF
       MAX_SCF  100
       EPS_SCF     5.0000000000000004E-06
       &OT  T
         PRECONDITIONER  FULL_ALL
       &END OT
       &OUTER_SCF  T
         OPTIMIZER  NONE
         EPS_SCF     5.0000000000000004E-06
         MAX_SCF  4
       &END OUTER_SCF
       &PRINT
         &RESTART  OFF
           BACKUP_COPIES  1
           &EACH
             JUST_ENERGY  0
             QS_SCF  0
             MD  20
           &END EACH
         &END RESTART
       &END PRINT
     &END SCF
     &QS
       EPS_DEFAULT     1.0000000000000000E-14
       METHOD  GPW
     &END QS
     &MGRID
       NGRIDS  5
       CUTOFF     1.2000000000000000E+03
     &END MGRID
     &XC
       DENSITY_CUTOFF     1.0000000000000000E-10
       GRADIENT_CUTOFF     1.0000000000000000E-10
       TAU_CUTOFF     1.0000000000000000E-10
       &XC_FUNCTIONAL  NO_SHORTCUT
         &PBE  T
         &END PBE
       &END XC_FUNCTIONAL
       &VDW_POTENTIAL
         POTENTIAL_TYPE  PAIR_POTENTIAL
         &PAIR_POTENTIAL
           R_CUTOFF     1.0000000000000004E+01
           TYPE  DFTD3
           PARAMETER_FILE_NAME dftd3.dat
           REFERENCE_FUNCTIONAL PBE
           EPS_CN     9.9999999999999995E-07
           CALCULATE_C9_TERM  T
           REFERENCE_C9_TERM  T
           LONG_RANGE_CORRECTION  F
           VERBOSE_OUTPUT  F
         &END PAIR_POTENTIAL
       &END VDW_POTENTIAL
     &END XC
   &END DFT
   &SUBSYS
     &CELL
       A     1.3084170340438140E+01    0.0000000000000000E+00    0.0000000000000000E+00
       B    -6.4588985614064214E+00    1.1187140469289437E+01    0.0000000000000000E+00
       C     0.0000000000000000E+00    0.0000000000000000E+00    3.2000000000000000E+01
       MULTIPLE_UNIT_CELL  1 1 1
       &CELL_REF
         A     1.2982353780853531E+01    0.0000000000000000E+00    0.0000000000000000E+00
         B    -6.4911768904267628E+00    1.1243048175136114E+01    0.0000000000000000E+00
         C     0.0000000000000000E+00    0.0000000000000000E+00    3.2000000000000000E+01
         MULTIPLE_UNIT_CELL  1 1 1
       &END CELL_REF
     &END CELL
     &COORD
N    3.9712607325494238E-03   -8.1865844813747352E-04   -1.0402188083679256E-01
Ga    1.8796630505116742E-02    1.8644732779529134E+00    5.1953622489026219E-01
N    2.9792080649674865E-02    1.8668220952447492E+00    2.4335886503870259E+00
Ga    1.5419614207558352E-02   -1.9295181074615855E-03    3.1442663642485722E+00
N    3.5417893623394613E-02   -3.0248153103555084E-03    5.0910146060150021E+00
Ga    5.5467202297029221E-02    1.8655297014701462E+00    5.7864826565270215E+00
N    1.0188540401795068E-01    1.8907015911522278E+00    7.7280373563609421E+00
Ga    9.8307791881060161E-02    3.0529574332504372E-02    8.4005071062679733E+00
N    1.7066664555779021E-01    9.5226588640435733E-02    1.0345268721209992E+01
Ga    1.9218685362761501E-01    1.9771960493730145E+00    1.1006547905465416E+01
N    3.9521909490512780E-01    2.1006513179529311E+00    1.2959612345108603E+01
Ga    3.8909693207426327E-01    2.3822045033559078E-01    1.3575631884164467E+01
N   -3.1377262288478987E-02   -1.7919859743816761E-02    1.5348071983539018E+01
Ga   -6.5957122134685708E-01    1.2841048583900747E+00    1.6634069702675795E+01
N    8.7108509593763650E-01    4.8608682234361322E-01    1.7593722521762100E+01
N   -1.6107139264905181E+00    2.7957900007103316E+00   -1.0429424453000498E-01
Ga   -1.5959880396463977E+00    4.6611933684915838E+00    5.1924069721573729E-01
N   -1.5850076787178011E+00    4.6638600029009272E+00    2.4334265786539615E+00
Ga   -1.5985923593225324E+00    2.7952992179617504E+00    3.1434555938283144E+00
N   -1.5777767307578268E+00    2.7941380731802514E+00    5.0897226209507114E+00
Ga   -1.5589807598789653E+00    4.6629834640857499E+00    5.7851350641814880E+00
N   -1.5119600374450297E+00    4.6898649064724358E+00    7.7250681556025489E+00
Ga   -1.5198040854350641E+00    2.8291772934794333E+00    8.3908298317600671E+00
N   -1.4484836910279506E+00    2.8985698881771227E+00    1.0337841261536036E+01
Ga   -1.4086832230632569E+00    4.7775614602430432E+00    1.1017942587797609E+01
N   -1.1982149647858333E+00    4.9234599019057796E+00    1.2972238190449492E+01
Ga   -1.1838109814101068E+00    3.0803460850090079E+00    1.3632054947682329E+01
N   -1.3961460255110221E+00    2.9056590188024205E+00    1.5556487127934826E+01
Ga   -2.4509211129211121E+00    4.5124510365613038E+00    1.6641871774608930E+01
N   -8.6405314723700699E-01    3.2956473409998930E+00    1.6883916029750075E+01
N   -3.2255421695640947E+00    5.5926318531169565E+00   -1.0418765560259868E-01
Ga   -3.2106548805395203E+00    7.4577753892300516E+00    5.1956520490628710E-01
N   -3.1998600454414841E+00    7.4600329403715575E+00    2.4334865460843069E+00
Ga   -3.2136617773080314E+00    5.5911176128693318E+00    3.1444887963786976E+00
N   -3.1931757348700214E+00    5.5899068967564185E+00    5.0909084614541680E+00
Ga   -3.1738672844498437E+00    7.4588410517581138E+00    5.7843840275102769E+00
N   -3.1276585864830770E+00    7.4848995647985443E+00    7.7247008350859572E+00
Ga   -3.1311582043120763E+00    5.6248956147966469E+00    8.3980202381952083E+00
N   -3.0605284694621044E+00    5.6901787497190979E+00    1.0341349797468506E+01
Ga   -3.0323322022598638E+00    7.5731006224354394E+00    1.1006399655049790E+01
N   -2.8216436236231086E+00    7.6997777756894896E+00    1.2950501829958611E+01
Ga   -2.8653508788594948E+00    5.8216327982173297E+00    1.3533698343125783E+01
N   -3.2557614568348372E+00    5.5760826928521050E+00    1.5312222023825157E+01
Ga   -3.7758923162109421E+00    6.8099880490636604E+00    1.6651807914425333E+01
N   -2.3700480452562802E+00    6.0837658017812517E+00    1.7869176194807633E+01
N   -4.8402304051202298E+00    8.3893160309410533E+00   -1.0405749074263484E-01
Ga   -4.8254282416763461E+00    1.0254718967566022E+01    5.1915006266419128E-01
N   -4.8147336474966123E+00    1.0257623289302972E+01    2.4333186092692496E+00
Ga   -4.8282709993873434E+00    8.3886788207522276E+00    3.1431976927327416E+00
N   -4.8078186130414329E+00    8.3879147036514290E+00    5.0893285062132581E+00
Ga   -4.7891132173296453E+00    1.0257286412222077E+01    5.7834893889703194E+00
N   -4.7427174286560252E+00    1.0284901055864120E+01    7.7234185190453664E+00
Ga   -4.7478331902861770E+00    8.4245607127484465E+00    8.3874966869268270E+00
N   -4.6745551441418023E+00    8.4966346089368159E+00    1.0334344029351957E+01
Ga   -4.6389326057688987E+00    1.0370827416678472E+01    1.1022667445007576E+01
N   -4.4265060615161032E+00    1.0513960266659479E+01    1.2988735768063014E+01
Ga   -4.3986727291766741E+00    8.6579302175761086E+00    1.3626742513607121E+01
N   -4.6170912370441322E+00    8.5037646461886869E+00    1.5558160560802690E+01
Ga   -5.6962056748976071E+00    9.9621773348307432E+00    1.6617911117734753E+01
N   -4.0489430725267086E+00    8.8212440154162266E+00    1.6881553572324560E+01
N    3.2751848691026337E+00   -8.4251532376187284E-04   -1.0387806877814885E-01
Ga    3.2899069770175267E+00    1.8644727068794515E+00    5.2019177791936111E-01
N    3.3009092632014481E+00    1.8670845352921983E+00    2.4342770959125120E+00
Ga    3.2867444503226602E+00   -2.3334894263380198E-03    3.1441026842059121E+00
N    3.3073738402396549E+00   -2.9477490586510310E-03    5.0909289075716977E+00
Ga    3.3253524037399416E+00    1.8663824427041669E+00    5.7841228009553340E+00
N    3.3691992390187981E+00    1.8942997260001218E+00    7.7264970421806991E+00
Ga    3.3619767110144356E+00    3.1275672490260933E-02    8.3915217581615025E+00
N    3.4315898082632614E+00    1.0498615403213853E-01    1.0337252867715625E+01
Ga    3.4652511461890549E+00    1.9841514291321949E+00    1.1000469375060188E+01
N    3.6732663191264767E+00    2.1300835419760697E+00    1.2962026761692750E+01
Ga    3.7004242395788878E+00    2.9889935967290654E-01    1.3657581326967444E+01
N    3.4487252701641022E+00    1.8144576624556885E-01    1.5569092800579368E+01
Ga    2.3274326609452678E+00    1.3742801665337954E+00    1.6898916101802939E+01
N    4.1058685329197937E+00    5.1276860083403841E-01    1.6946413153633600E+01
N    1.6604897556887421E+00    2.7958228497655724E+00   -1.0445537916502844E-01
Ga    1.6752046373904501E+00    4.6611427987495189E+00    5.1937751695498158E-01
N    1.6864538139108165E+00    4.6637330986446681E+00    2.4337227558080476E+00
Ga    1.6716050197867096E+00    2.7950366300851663E+00    3.1443671359008132E+00
N    1.6916221769866386E+00    2.7940053022715032E+00    5.0913301052141025E+00
Ga    1.7118248428744509E+00    4.6627069381234794E+00    5.7860261920562150E+00
N    1.7560461851495079E+00    4.6904298218167080E+00    7.7277267697768064E+00
Ga    1.7464780160186730E+00    2.8302150330249538E+00    8.3983051072151529E+00
N    1.8153138926344008E+00    2.9061323729240289E+00    1.0344770502668268E+01
Ga    1.8390142156050193E+00    4.7900036055840820E+00    1.1006814294077214E+01
N    2.0437881771784432E+00    4.9297939199492946E+00    1.2982040487958884E+01
Ga    2.0620194529688831E+00    3.0660333608496586E+00    1.3625115208851549E+01
N    1.8188733123707683E+00    2.8970918342780259E+00    1.5596459659278441E+01
Ga    7.7048177090425929E-01    4.2001340177770183E+00    1.6713744837463651E+01
N    2.5075475699266891E+00    3.2928890349189901E+00    1.6986512094601242E+01
N    4.5713126845784657E-02    5.5927613365035338E+00   -1.0399988701878313E-01
Ga    6.0544782964999815E-02    7.4578499546693280E+00    5.2012063079393756E-01
N    7.1858553314253781E-02    7.4603181189684715E+00    2.4340865266248750E+00
Ga    5.7420590344051600E-02    5.5910351708998123E+00    3.1446381005751287E+00
N    7.8035138004697802E-02    5.5903921241272663E+00    5.0916992167439856E+00
Ga    9.7217920884291931E-02    7.4597816104326995E+00    5.7844022957724359E+00
N    1.4219225036368219E-01    7.4876325787148765E+00    7.7252444864792675E+00
Ga    1.3295345556418892E-01    5.6263568409320275E+00    8.3904225959049956E+00
N    2.0313750897394639E-01    5.7022788229300287E+00    1.0333823327793645E+01
Ga    2.3293028633961105E-01    7.5768365005739096E+00    1.1008454437244801E+01
N    4.4149835018552741E-01    7.7197202022238427E+00    1.2967086385802505E+01
Ga    4.5837035861632708E-01    5.8913868456229164E+00    1.3665564545391691E+01
N    2.0856018447749120E-01    5.7767231245523778E+00    1.5579012076839282E+01
Ga   -9.6136886645278141E-01    6.9197042309280157E+00    1.7049255027186479E+01
N    8.5623838078997860E-01    6.1112891770802058E+00    1.6926139142845976E+01
N   -1.5689391628039702E+00    8.3893204938992625E+00   -1.0423373155838880E-01
Ga   -1.5542373478118883E+00    1.0254692684343194E+01    5.1973491264902860E-01
N   -1.5429599226052391E+00    1.0257354596320541E+01    2.4337695901694474E+00
Ga   -1.5574635128928587E+00    8.3881106492143900E+00    3.1433317842742627E+00
N   -1.5371177700309466E+00    8.3871521072716355E+00    5.0902334279712020E+00
Ga   -1.5175083984106224E+00    1.0256024412423116E+01    5.7843912627561309E+00
N   -1.4736806553128299E+00    1.0284004385934290E+01    7.7255044093841034E+00
Ga   -1.4814173182695654E+00    8.4224657317553575E+00    8.3923153114405640E+00
N   -1.4107095248119572E+00    8.4984970585398756E+00    1.0338027127675636E+01
Ga   -1.3859175473234111E+00    1.0377801788625806E+01    1.1008390235636494E+01
N   -1.1796298644015255E+00    1.0517008380236174E+01    1.2978585585566229E+01
Ga   -1.1593033294762001E+00    8.6566841397876892E+00    1.3630130290424111E+01
N   -1.3798718831849188E+00    8.5338042567670662E+00    1.5585057211079198E+01
Ga   -2.4537864483351250E+00    9.8040676526714332E+00    1.6739588037513695E+01
N   -7.1509721257080749E-01    8.8257821103127547E+00    1.6904124145393190E+01
N    6.5459582888332539E+00   -9.9779759027400082E-04   -1.0432424150443706E-01
Ga    6.5606311654385898E+00    1.8643000662375333E+00    5.1918608527415555E-01
N    6.5713575383441434E+00    1.8664610766022796E+00    2.4332790021380801E+00
Ga    6.5582173777886048E+00   -2.2932239171311996E-03    3.1448735139149053E+00
N    6.5786365017871118E+00   -4.6048199610626847E-03    5.0912884802165017E+00
Ga    6.5969434131034399E+00    1.8636237439448795E+00    5.7841229377742058E+00
N    6.6411739917402830E+00    1.8859675700846439E+00    7.7231788694559365E+00
Ga    6.6344799270252395E+00    2.6048999995930185E-02    8.3985515564704905E+00
N    6.7044141704645543E+00    9.2553023825548267E-02    1.0342915738124738E+01
Ga    6.7398879914361824E+00    1.9682918112204619E+00    1.1012928843434587E+01
N    6.9499036323450349E+00    2.0992080742809702E+00    1.2976080789804616E+01
Ga    6.9650696555228988E+00    2.6199685759602309E-01    1.3666456879483672E+01
N    6.6996150799501208E+00    1.1273678163056802E-01    1.5538626516407898E+01
Ga    5.7529965952591269E+00    1.3950933365365898E+00    1.6627789630032915E+01
N    7.3974482883517299E+00    4.4415373722318768E-01    1.7116426409663077E+01
N    4.9311522926216815E+00    2.7958132889350202E+00   -1.0468859379625993E-01
Ga    4.9458574363530330E+00    4.6610879978099469E+00    5.1881665994587445E-01
N    4.9566056837951056E+00    4.6636215770584384E+00    2.4331107394977285E+00
Ga    4.9433793037569629E+00    2.7951221390732588E+00    3.1442967399333304E+00
N    4.9632614761871165E+00    2.7931949290913805E+00    5.0909507989849407E+00
Ga    4.9816099741826614E+00    4.6622274168279700E+00    5.7847139695977621E+00
N    5.0250054780645179E+00    4.6878393510270024E+00    7.7234994827947467E+00
Ga    5.0222204286099847E+00    2.8266633478581586E+00    8.3917054661365231E+00
N    5.0965323603886317E+00    2.8979356738675333E+00    1.0337847304268676E+01
Ga    5.1240891181705646E+00    4.7802424191962434E+00    1.1012818723095128E+01
N    5.3377908058167316E+00    4.9302232711609637E+00    1.2983612669572080E+01
Ga    5.3605867439129380E+00    3.0738248382093545E+00    1.3627775064102225E+01
N    5.1098169772708717E+00    2.9419689304693049E+00    1.5523435907752923E+01
Ga    4.1005301120307172E+00    4.1669853868612003E+00    1.6607484683161971E+01
N    5.8112920883713839E+00    3.2647747611007776E+00    1.7121289994042954E+01
N    3.3164575020447411E+00    5.5927606716426670E+00   -1.0453992879992910E-01
Ga    3.3312655796602910E+00    7.4578935136134152E+00    5.1925917185112158E-01
N    3.3421758383560891E+00    7.4602164630078862E+00    2.4335373912925453E+00
Ga    3.3283584571096707E+00    5.5914395143145592E+00    3.1451592928193537E+00
N    3.3483954970412468E+00    5.5897735117971656E+00    5.0917878433923658E+00
Ga    3.3668548297538745E+00    7.4579102441797591E+00    5.7864160387461681E+00
N    3.4116174092234970E+00    7.4807624028445057E+00    7.7272477363835774E+00
Ga    3.4048740135240716E+00    5.6199438806275994E+00    8.4006767824921518E+00
N    3.4744393044028463E+00    5.6845785367853994E+00    1.0343105287282542E+01
Ga    3.5068002574403940E+00    7.5605137825330520E+00    1.1003188865633344E+01
N    3.7118594760209636E+00    7.6919884703702781E+00    1.2964454941185451E+01
Ga    3.7318611257480576E+00    5.8543722648549110E+00    1.3669259500452165E+01
N    3.4648296342430287E+00    5.7240421025916337E+00    1.5525432608341582E+01
Ga    2.5134940178485583E+00    6.9978929491220434E+00    1.6618308016773991E+01
N    4.1686715565123977E+00    6.0399377826513376E+00    1.7077613508878258E+01
N    1.7018226607242519E+00    8.3894348496875963E+00   -1.0467853217864270E-01
Ga    1.7164373569464120E+00    1.0254680710653581E+01    5.1888362446753000E-01
N    1.7276471777717171E+00    1.0257216351873151E+01    2.4332945235049830E+00
Ga    1.7139441411293592E+00    8.3885558891799779E+00    3.1443610152839363E+00
N    1.7342345567699708E+00    8.3867256923007449E+00    5.0910909806129521E+00
Ga    1.7527562063972604E+00    1.0254636618094192E+01    5.7860644522060607E+00
N    1.7974420759663430E+00    1.0279743624518783E+01    7.7262698662761249E+00
Ga    1.7914820287703299E+00    8.4196325384278570E+00    8.3964332344391153E+00
N    1.8636735188410900E+00    8.4897122190910039E+00    1.0342375070626039E+01
Ga    1.8951775887668818E+00    1.0373000720732922E+01    1.1014704236504045E+01
N    2.1094720176504929E+00    1.0522949996378884E+01    1.2984154377343080E+01
Ga    2.1271515756931172E+00    8.6655686182837357E+00    1.3630559924862784E+01
N    1.8743057321943504E+00    8.5264025794039817E+00    1.5512760229920152E+01
Ga    8.7703428042064757E-01    9.7587448842782418E+00    1.6613116494594713E+01
N    2.5712858901607962E+00    8.8591312136675029E+00    1.7126549334081396E+01
N    9.8171611979069002E+00   -7.9131225079406148E-04   -1.0421660885233595E-01
Ga    9.8318448828515130E+00    1.8643861891063844E+00    5.2013946912737907E-01
N    9.8424289543095060E+00    1.8663332531003576E+00    2.4341379838655253E+00
Ga    9.8284191400582817E+00   -2.6660523540447279E-03    3.1448406554568611E+00
N    9.8483007523538646E+00   -4.4490348362838921E-03    5.0917322678132999E+00
Ga    9.8697287801114051E+00    1.8667039360686037E+00    5.7808489195864281E+00
N    9.9165151167827190E+00    1.8932116512655530E+00    7.7187964718097852E+00
Ga    9.9021361683198030E+00    3.3300565307499135E-02    8.3859112846850490E+00
N    9.9663714152966207E+00    1.0651230260716307E-01    1.0325694739483602E+01
Ga    1.0008217456398169E+01    1.9811052010366965E+00    1.1003689474729983E+01
N    1.0218542723310016E+01    2.1229419290936939E+00    1.2971107391083576E+01
Ga    1.0253847896847956E+01    2.8267958419268946E-01    1.3645176427337482E+01
N    1.0079365632931390E+01    1.6232333770541510E-01    1.5573559704140006E+01
Ga    8.9507039984725072E+00    1.3871156929075932E+00    1.6788578258058386E+01
N    1.0699901020913172E+01    5.2842539553710643E-01    1.6929203646124588E+01
N    8.2025007877247731E+00    2.7959010119324987E+00   -1.0464177928878182E-01
Ga    8.2170444886976313E+00    4.6611472280011137E+00    5.1958089708788491E-01
N    8.2276658540158518E+00    4.6635187937172704E+00    2.4335626132100310E+00
Ga    8.2134251117903556E+00    2.7947859294736319E+00    3.1437925997654910E+00
N    8.2329800006116720E+00    2.7931791726021529E+00    5.0902367647829978E+00
Ga    8.2549682163322640E+00    4.6628529180596425E+00    5.7853146966429438E+00
N    8.2997123906764507E+00    4.6892871443853270E+00    7.7266318027819976E+00
Ga    8.2904924737220416E+00    2.8209485949011519E+00    8.3844118618957317E+00
N    8.3579418261262841E+00    2.8790738836450491E+00    1.0319692771293656E+01
Ga    8.3654279224007553E+00    4.7627347459261831E+00    1.0952192730390541E+01
N    8.5307546647879029E+00    4.8778485225776711E+00    1.2861657530205544E+01
Ga    8.6209791588812319E+00    3.0807947528666162E+00    1.3619253370312776E+01
N    8.4447496278935397E+00    2.9123218573599816E+00    1.5573759716472726E+01
Ga    7.3519619316714371E+00    4.1973827987526180E+00    1.6714545736924421E+01
N    9.1222708745706296E+00    3.3427447811803983E+00    1.6882378407102273E+01
N    6.5877886537172801E+00    5.5927875944623731E+00   -1.0426791894107779E-01
Ga    6.6022247236637490E+00    7.4579472971328418E+00    5.2031652795039174E-01
N    6.6125000859166416E+00    7.4600944281019412E+00    2.4342344450979363E+00
Ga    6.5989381245757954E+00    5.5907687213640775E+00    3.1447939714741091E+00
N    6.6189738936482918E+00    5.5895905899255638E+00    5.0914538484646750E+00
Ga    6.6394941308440556E+00    7.4607667421722299E+00    5.7809009113908854E+00
N    6.6851139738517205E+00    7.4893891559874213E+00    7.7193616976426878E+00
Ga    6.6713756450259343E+00    5.6270479240450317E+00    8.3828349605400341E+00
N    6.7304010325173271E+00    5.7004065845409579E+00    1.0315229604492064E+01
Ga    6.7834817424110048E+00    7.5716814222601778E+00    1.0992058792787732E+01
N    6.9966292561073526E+00    7.7124148245053039E+00    1.2964039004533227E+01
Ga    7.0347013442573090E+00    5.8693254974338060E+00    1.3640718314923186E+01
N    6.8417460590088330E+00    5.7798614714978269E+00    1.5556714274577290E+01
Ga    5.7228317206705936E+00    6.9799415531544717E+00    1.6761201600484906E+01
N    7.5076822145641389E+00    6.1473039924297632E+00    1.6883667351081403E+01
N    4.9730143800575251E+00    8.3894727196890919E+00   -1.0471255903825191E-01
Ga    4.9876027799872924E+00    1.0254595971469001E+01    5.1933797405014115E-01
N    4.9979352277040485E+00    1.0257057088108796E+01    2.4336558357769831E+00
Ga    4.9837944034517720E+00    8.3884558654763826E+00    3.1443091851097695E+00
N    5.0028968167702521E+00    8.3870895950144604E+00    5.0912581921086737E+00
Ga    5.0252732227677788E+00    1.0256703200250998E+01    5.7861451406803939E+00
N    5.0702039656902649E+00    1.0283198490979549E+01    7.7287051357290588E+00
Ga    5.0599965875260962E+00    8.4175364876179710E+00    8.3897873602860003E+00
N    5.1287439001165183E+00    8.4813345190959009E+00    1.0329921691669224E+01
Ga    5.1449289683089612E+00    1.0365584063518634E+01    1.0966073486174757E+01
N    5.3265094148625032E+00    1.0486294190809954E+01    1.2908616347858466E+01
Ga    5.3831134263551794E+00    8.6550627985685917E+00    1.3610812043796363E+01
N    5.1812569044701657E+00    8.5055278608804716E+00    1.5574487215678753E+01
Ga    4.1187724067704208E+00    9.7648851090487430E+00    1.6688502181284179E+01
N    5.8640855077948597E+00    8.9052996259959336E+00    1.6964985988622768E+01
H    1.3060388733001525E-03   -3.0767652175817954E-03   -1.1244541921658113E+00
H   -1.6133452701796651E+00    2.7935363600718834E+00   -1.1247662924759867E+00
H   -3.2283029765734841E+00    5.5906117482209075E+00   -1.1245752004843041E+00
H   -4.8428533216962295E+00    8.3873737905295300E+00   -1.1244883764749427E+00
H    3.2721815674463270E+00   -3.4140523127229707E-03   -1.1242912676215733E+00
H    1.6574850885341617E+00    2.7936353593274452E+00   -1.1249221869531931E+00
H    4.2906311996675654E-02    5.5904736064406251E+00   -1.1244143564085263E+00
H   -1.5718939302933623E+00    8.3871808066428386E+00   -1.1247140426185884E+00
H    6.5425571263838771E+00   -3.4580411467501227E-03   -1.1246743319995096E+00
H    4.9280364060557869E+00    2.7934918644836411E+00   -1.1250960745806249E+00
H    3.3131841951628744E+00    5.5903029519560574E+00   -1.1248992732155143E+00
H    1.6985758459571665E+00    8.3869735739732825E+00   -1.1251084555359792E+00
H    9.8145752205219274E+00   -2.9091684567049379E-03   -1.1246665781688971E+00
H    8.1999261817267417E+00    2.7937219038836725E+00   -1.1251268567684922E+00
H    6.5849583215765355E+00    5.5906977559291002E+00   -1.1247096792964002E+00
H    4.9704546455558054E+00    8.3874442518351131E+00   -1.1252165921994002E+00
     &END COORD
     &KIND H
       BASIS_SET DZVP-MOLOPT-SR-GTH-q1
       POTENTIAL GTH-PBE-q1
       &POTENTIAL
 1
  0.2000000000000000E+00 2 -0.4178900440000000E+01  0.7244633100000000E+00
 0
         # Potential name:  GTH-PBE-Q1  for symbol:  H
         # Potential read from the potential filename: GTH_POTENTIALS
       &END POTENTIAL
     &END KIND
     &KIND N
       BASIS_SET DZVP-MOLOPT-SR-GTH
       POTENTIAL GTH-PBE-q5
       &POTENTIAL
 2 3
  0.2837905100000000E+00 2 -0.1241522559000000E+02  0.1868095920000000E+01
 2
  0.2554050000000000E+00 1  0.1363026257000000E+02
  0.2454945300000000E+00 0
         # Potential name:  GTH-PBE-Q5  for symbol:  N
         # Potential read from the potential filename: GTH_POTENTIALS
       &END POTENTIAL
     &END KIND
     &KIND Ga
       BASIS_SET DZVP-MOLOPT-SR-GTH
       POTENTIAL GTH-PBE-q13
       &POTENTIAL
 2 1 10
  0.4900000000000000E+00 0
 3
  0.4167772300000000E+00 3  0.1047568975000000E+02 -0.4921768140000000E+01  0.8707055900000000E+00
  0.7770178090000000E+01 -0.2248152160000000E+01
  0.1784415450000000E+01
  0.5696265200000000E+00 2  0.1777985340000000E+01  0.1958597600000000E+00
 -0.2317443900000000E+00
  0.2381265000000000E+00 1 -0.1624868022000000E+02
         # Potential name:  GTH-PBE-Q13  for symbol:  GA
         # Potential read from the potential filename: GTH_POTENTIALS
       &END POTENTIAL
     &END KIND
     &TOPOLOGY
       NUMBER_OF_ATOMS  256
       MULTIPLE_UNIT_CELL  1 1 1
     &END TOPOLOGY
   &END SUBSYS
 &END FORCE_EVAL
