 # Version information for this restart file 
 # current date 2019-06-10 23:11:12.617
 # current working dir /lustre03/project/6037349/rzk/GaN-carbene/444-addat/00-Surface/RKS
 # Program compiled at                              Sun Apr  7 00:48:11 EDT 2019
 # Program compiled on                          beluga2.int.ets1.calculquebec.ca
 # Program compiled for                        Beluga-Linux-x86-64-intel-openmpi
 # Source code revision number                                         svn:18619
 &GLOBAL
   PRINT_LEVEL  MEDIUM
   PROJECT_NAME TEST
   RUN_TYPE  CELL_OPT
 &END GLOBAL
 &MOTION
   &CELL_OPT
     MAX_ITER  300
     STEP_START_VAL  66
     EXTERNAL_PRESSURE     1.0000000000000000E+00
     KEEP_ANGLES  T
     KEEP_SYMMETRY  T
     CONSTRAINT  Z
     PRESSURE_TOLERANCE     5.0000000000000000E+02
   &END CELL_OPT
 &END MOTION
 &FORCE_EVAL
   METHOD  QS
   STRESS_TENSOR  ANALYTICAL
   &DFT
     BASIS_SET_FILE_NAME BASIS_MOLOPT
     POTENTIAL_FILE_NAME GTH_POTENTIALS
     SURFACE_DIPOLE_CORRECTION  T
     SURF_DIP_DIR  Z
     &SCF
       MAX_SCF  100
       EPS_SCF     5.0000000000000004E-06
       &OT  T
         PRECONDITIONER  FULL_ALL
       &END OT
       &OUTER_SCF  T
         OPTIMIZER  NONE
         EPS_SCF     5.0000000000000004E-06
         MAX_SCF  4
       &END OUTER_SCF
       &PRINT
         &RESTART  OFF
           BACKUP_COPIES  1
           &EACH
             JUST_ENERGY  0
             QS_SCF  0
             MD  20
           &END EACH
         &END RESTART
       &END PRINT
     &END SCF
     &QS
       EPS_DEFAULT     1.0000000000000000E-14
       METHOD  GPW
     &END QS
     &MGRID
       NGRIDS  5
       CUTOFF     1.2000000000000000E+03
     &END MGRID
     &XC
       DENSITY_CUTOFF     1.0000000000000000E-10
       GRADIENT_CUTOFF     1.0000000000000000E-10
       TAU_CUTOFF     1.0000000000000000E-10
       &XC_FUNCTIONAL  NO_SHORTCUT
         &PBE  T
         &END PBE
       &END XC_FUNCTIONAL
       &VDW_POTENTIAL
         POTENTIAL_TYPE  PAIR_POTENTIAL
         &PAIR_POTENTIAL
           R_CUTOFF     1.0000000000000005E+01
           TYPE  DFTD3
           PARAMETER_FILE_NAME dftd3.dat
           REFERENCE_FUNCTIONAL PBE
           EPS_CN     9.9999999999999995E-07
           CALCULATE_C9_TERM  T
           REFERENCE_C9_TERM  T
           LONG_RANGE_CORRECTION  F
           VERBOSE_OUTPUT  F
         &END PAIR_POTENTIAL
       &END VDW_POTENTIAL
     &END XC
   &END DFT
   &SUBSYS
     &CELL
       A     1.3038510805088205E+01    0.0000000000000000E+00    0.0000000000000000E+00
       B    -6.4423195578397223E+00    1.1158424792773054E+01    0.0000000000000000E+00
       C     0.0000000000000000E+00    0.0000000000000000E+00    3.2000000000000000E+01
       MULTIPLE_UNIT_CELL  1 1 1
       &CELL_REF
         A     1.2982353780853531E+01    0.0000000000000000E+00    0.0000000000000000E+00
         B    -6.4911768904267628E+00    1.1243048175136114E+01    0.0000000000000000E+00
         C     0.0000000000000000E+00    0.0000000000000000E+00    3.2000000000000000E+01
         MULTIPLE_UNIT_CELL  1 1 1
       &END CELL_REF
     &END CELL
     &COORD
N    2.3414063961390615E-02   -1.7366896956188583E-03   -1.4375747500090769E-01
Ga    4.3998370429093665E-02    1.8681926052170299E+00    5.2122391737534379E-01
N    7.3869039596826766E-02    1.8875247562538802E+00    2.4421386406703056E+00
Ga    6.0607639339140214E-02    2.2564403417439923E-02    3.1537540174212362E+00
N    1.1051342052283737E-01    5.1752853195838847E-02    5.0829558174281271E+00
Ga    1.3517277439651951E-01    1.9252427252487918E+00    5.7802664706166302E+00
N    2.2119017470095495E-01    1.9846261965712253E+00    7.7109492778477176E+00
Ga    2.1587698143977338E-01    1.2129217678278037E-01    8.3918089734484660E+00
N    3.0765220544644090E-01    1.8128385324199744E-01    1.0326794640598440E+01
Ga    3.4112491588718397E-01    2.0572867729123270E+00    1.1019716031942639E+01
N    4.3346922882782407E-01    2.1134590377788092E+00    1.2952108647171581E+01
Ga    3.7114429769618973E-01    2.2953553442078029E-01    1.3578021492224618E+01
N   -2.1132298185561277E-01   -1.0571776672723887E-01    1.5310909480361733E+01
Ga   -8.4359157847049093E-01    1.0518240428339505E+00    1.6717302106678090E+01
N    5.1150444299303721E-01    2.9080136165002157E-01    1.7966391296348615E+01
N   -1.5869203661439562E+00    2.7877270911631773E+00   -1.4313300422892311E-01
Ga   -1.5663703206580335E+00    4.6581209126624605E+00    5.2124840269944550E-01
N   -1.5363714828974315E+00    4.6771226904596732E+00    2.4425633008616137E+00
Ga   -1.5497918019147718E+00    2.8112737169658346E+00    3.1532227300353108E+00
N   -1.4994293927561755E+00    2.8406401020648095E+00    5.0817063023196942E+00
Ga   -1.4756222879297740E+00    4.7139281499925261E+00    5.7781509335883259E+00
N   -1.3896210741612145E+00    4.7735085673661573E+00    7.7108611222949746E+00
Ga   -1.3968134125022711E+00    2.9126682968966793E+00    8.3979238236357023E+00
N   -1.3001505001545683E+00    2.9692740259895665E+00    1.0334941349519509E+01
Ga   -1.2776406035108914E+00    4.8431085717940165E+00    1.1029358234186436E+01
N   -1.1986713819341983E+00    4.9083307579528865E+00    1.2970679289343231E+01
Ga   -1.1813462721995398E+00    3.0409062555982396E+00    1.3638189861861960E+01
N   -1.6475732499928732E+00    2.5909546041911695E+00    1.5466644903450286E+01
Ga   -2.6804036452318902E+00    4.3553594801593096E+00    1.6805547119124061E+01
N   -1.1809475290561056E+00    3.0512749529253771E+00    1.6747920037547811E+01
N   -3.1976080031909477E+00    5.5775677662341350E+00   -1.4352757881801254E-01
Ga   -3.1771651856730880E+00    7.4477764378591358E+00    5.2095708124147888E-01
N   -3.1472572325239900E+00    7.4666818526613170E+00    2.4418429869671359E+00
Ga   -3.1612553890027071E+00    5.6010803744528364E+00    3.1529683722018413E+00
N   -3.1113107157101187E+00    5.6303070961839978E+00    5.0826987755873718E+00
Ga   -3.0850523229716149E+00    7.5022836708228855E+00    5.7818993364868811E+00
N   -2.9989045523975406E+00    7.5614754631218926E+00    7.7132142325556226E+00
Ga   -3.0040931417609698E+00    5.7014519142601694E+00    8.3999534622483694E+00
N   -2.9137047494557899E+00    5.7597707058660923E+00    1.0334341232630383E+01
Ga   -2.8874979786269002E+00    7.6334140026007651E+00    1.1035598194979636E+01
N   -2.8024955236313933E+00    7.6852568399713324E+00    1.2975419528752164E+01
Ga   -2.8394956516916992E+00    5.8135357102638778E+00    1.3654611237147865E+01
N   -3.3437081486395468E+00    5.5149184391456663E+00    1.5422265321233544E+01
Ga   -4.0105410443766285E+00    6.6651265841547680E+00    1.6814713827737190E+01
N   -2.6830687788910836E+00    5.8893647476924400E+00    1.8061560282510886E+01
N   -4.8083006677242084E+00    8.3672705758164305E+00   -1.4316618821223598E-01
Ga   -4.7878328724756694E+00    1.0237405055442654E+01    5.2144763730219434E-01
N   -4.7578890523960089E+00    1.0256248722427385E+01    2.4429244512525332E+00
Ga   -4.7710275778351097E+00    8.3898716052229734E+00    3.1531385238340475E+00
N   -4.7197007502283075E+00    8.4174458630441880E+00    5.0816549861918503E+00
Ga   -4.6949143424801205E+00    1.0291098854519587E+01    5.7757794399347864E+00
N   -4.6083999110601841E+00    1.0349760713814165E+01    7.7083317383168515E+00
Ga   -4.6155340777995839E+00    8.4894508061903604E+00    8.3989074353567084E+00
N   -4.5226981888030036E+00    8.5494099478370025E+00    1.0335376821710833E+01
Ga   -4.4937435386039750E+00    1.0426822865527857E+01    1.1013502436976770E+01
N   -4.4088579807855313E+00    1.0494063133260518E+01    1.2947759194054866E+01
Ga   -4.4145611214553098E+00    8.6353555925157508E+00    1.3638490461280648E+01
N   -5.0332196704481369E+00    8.4551226683430905E+00    1.5466961761488205E+01
Ga   -5.9524668568959607E+00    9.9062673849090821E+00    1.6697942877965801E+01
N   -4.3941195621627518E+00    8.6012399196271865E+00    1.6752843158161255E+01
N    3.2833837822750604E+00   -1.3108764341135677E-03   -1.4331406008732100E-01
Ga    3.3032397194450960E+00    1.8681438173579266E+00    5.2270658367490741E-01
N    3.3322548341538996E+00    1.8868685356241841E+00    2.4440457985350119E+00
Ga    3.3213723112857707E+00    2.2534106326323536E-02    3.1579040287004005E+00
N    3.3727580263468644E+00    5.1819454775343360E-02    5.0880606410681155E+00
Ga    3.3944140526453452E+00    1.9228853618995634E+00    5.7900278314367437E+00
N    3.4836284117686627E+00    1.9821718856358921E+00    7.7220297894738001E+00
Ga    3.4744841026300577E+00    1.2106510381091196E-01    8.4091765664381395E+00
N    3.5768796556131535E+00    1.8835442028871238E-01    1.0347762126478942E+01
Ga    3.5962121150811286E+00    2.0589574102760899E+00    1.1037539683740150E+01
N    3.6903950411456337E+00    2.1193704702806202E+00    1.2986928342951648E+01
Ga    3.6566389012632317E+00    2.6926404558658157E-01    1.3684620587239550E+01
N    3.1132453979603731E+00    1.6830663501484433E-02    1.5555620724290169E+01
Ga    2.0150316915715973E+00    1.1470072033046534E+00    1.7345163629646290E+01
N    3.7280131558631506E+00    3.4747336397450462E-01    1.6904443729247401E+01
N    1.6729596592299647E+00    2.7878897980848172E+00   -1.4291789216513384E-01
Ga    1.6925594349911135E+00    4.6577478192827906E+00    5.2223363502663900E-01
N    1.7214079393914212E+00    4.6761774951742963E+00    2.4438583579385402E+00
Ga    1.7101373370257342E+00    2.8116067774945193E+00    3.1575743075277800E+00
N    1.7609567170476530E+00    2.8404112036367364E+00    5.0884164278351474E+00
Ga    1.7815609260312883E+00    4.7126643454240389E+00    5.7894779737543178E+00
N    1.8667205144902910E+00    4.7732390804551974E+00    7.7214819697806032E+00
Ga    1.8649159911118269E+00    2.9111534818640799E+00    8.4040325573819832E+00
N    1.9666946467401325E+00    2.9738345959253980E+00    1.0342640322601447E+01
Ga    1.9805595753729102E+00    4.8388576841334112E+00    1.1055943577875825E+01
N    2.0536853302653659E+00    4.8977340337686206E+00    1.3007054499783886E+01
Ga    2.0735165609453268E+00    3.0224482375173705E+00    1.3684852196266894E+01
N    1.5779900484978606E+00    2.6636033049009664E+00    1.5549676265451508E+01
Ga    4.5250426626208917E-01    3.9572534942257906E+00    1.6512442166737916E+01
N    2.1883234334121040E+00    3.0196274104682908E+00    1.6893077238383235E+01
N    6.2513372605552620E-02    5.5778443307822938E+00   -1.4326233583664907E-01
Ga    8.2459595962071738E-02    7.4474336922155207E+00    5.2188443229173875E-01
N    1.1170837286027660E-01    7.4658021594793098E+00    2.4433367552496366E+00
Ga    1.0004055912324354E-01    5.6019095413868714E+00    3.1584120713676782E+00
N    1.4981686449359466E-01    5.6312686745292488E+00    5.0886926373375179E+00
Ga    1.7195668609248455E-01    7.5015761014083129E+00    5.7922054041689854E+00
N    2.5813947613035215E-01    7.5598438480715053E+00    7.7250904347871909E+00
Ga    2.5079845065445311E-01    5.6986830398341031E+00    8.4139954306723297E+00
N    3.5249695044236368E-01    5.7604151900746796E+00    1.0353947179579730E+01
Ga    3.7307549046024352E-01    7.6356886839382998E+00    1.1034277593773256E+01
N    4.6293566572420525E-01    7.6962713590636520E+00    1.2982445587107289E+01
Ga    4.2949461434458019E-01    5.8491418649684883E+00    1.3690317254837767E+01
N   -1.3022898405053013E-01    5.5838036252269543E+00    1.5558219160935529E+01
Ga   -1.1540688082373667E+00    6.7568841733774931E+00    1.7578231987181685E+01
N    4.6524848452946643E-01    5.9263275421756889E+00    1.6867887959176070E+01
N   -1.5480428989466655E+00    8.3673489939206078E+00   -1.4294719395434621E-01
Ga   -1.5287373613439585E+00    1.0237127754234866E+01    5.2189784435141195E-01
N   -1.4997669874225483E+00    1.0255563088665932E+01    2.4434344263541385E+00
Ga   -1.5105592943407447E+00    8.3906380910128977E+00    3.1573132295207937E+00
N   -1.4605820028959047E+00    8.4187411739678204E+00    5.0886273475622916E+00
Ga   -1.4382645530273606E+00    1.0290446377391213E+01    5.7904853533061003E+00
N   -1.3520443202195347E+00    1.0350002516166374E+01    7.7226901780254309E+00
Ga   -1.3593335296931528E+00    8.4893428130664503E+00    8.4089019671711114E+00
N   -1.2617151079957434E+00    8.5523219626435765E+00    1.0348939006251145E+01
Ga   -1.2420787876211645E+00    1.0421144999281093E+01    1.1055672666212576E+01
N   -1.1659148946125424E+00    1.0473335665058970E+01    1.3008758704879982E+01
Ga   -1.1551395407520906E+00    8.5931065625286003E+00    1.3690692903504129E+01
N   -1.6676063982586959E+00    8.2336886363850397E+00    1.5552055856470966E+01
Ga   -2.7790048088319508E+00    9.5504210339854190E+00    1.6511486817306569E+01
N   -1.0609726688776728E+00    8.5679522224208924E+00    1.6864512329135419E+01
N    6.5426553730737389E+00   -2.0537480165745926E-03   -1.4347763386321138E-01
Ga    6.5620376490743855E+00    1.8677026390686142E+00    5.2200316032403726E-01
N    6.5898834003788620E+00    1.8859744690729765E+00    2.4438607131619303E+00
Ga    6.5772746590960436E+00    2.1067538559145331E-02    3.1576860212446745E+00
N    6.6254014493352278E+00    4.9049456272953304E-02    5.0882989744379872E+00
Ga    6.6499149834069122E+00    1.9209949910512967E+00    5.7851514472548358E+00
N    6.7337071756035041E+00    1.9777291171874327E+00    7.7173590763356748E+00
Ga    6.7307207558386981E+00    1.1958938005010755E-01    8.4148325727711395E+00
N    6.8241991944557929E+00    1.8115515647672206E-01    1.0361791950821758E+01
Ga    6.8634675889607690E+00    2.0573164506834258E+00    1.1041606756631881E+01
N    6.9582636040190184E+00    2.1187995414492402E+00    1.2990182851892383E+01
Ga    6.9437066249960200E+00    2.5486255580199196E-01    1.3653178888653512E+01
N    6.4083740781709944E+00   -4.1515239551592843E-02    1.5499159383085066E+01
Ga    5.3906888116452238E+00    1.2280038508025211E+00    1.6610703909469112E+01
N    7.0603670697464285E+00    3.0882068007587521E-01    1.7076843889872848E+01
N    4.9317821802618278E+00    2.7876047373749286E+00   -1.4381793929579340E-01
Ga    4.9514810412823209E+00    4.6573943732046610E+00    5.2208762995503888E-01
N    4.9794318546107839E+00    4.6755603363159794E+00    2.4443784050630777E+00
Ga    4.9672023066599733E+00    2.8103031863260028E+00    3.1575731822655344E+00
N    5.0163191861874559E+00    2.8375693401695266E+00    5.0880002163593607E+00
Ga    5.0394864107813842E+00    4.7103124301038592E+00    5.7816760667620182E+00
N    5.1223151327604635E+00    4.7678041244154192E+00    7.7150115923573805E+00
Ga    5.1249136422738921E+00    2.9114038188517704E+00    8.4166089119745742E+00
N    5.2250631927252282E+00    2.9751279256853045E+00    1.0362452988118587E+01
Ga    5.2492924948151538E+00    4.8519716869524139E+00    1.1038102556723727E+01
N    5.3417605423220662E+00    4.9189003162186085E+00    1.2985180071880016E+01
Ga    5.3503283529098349E+00    3.0583311076050776E+00    1.3645661732469229E+01
N    4.8604756324902718E+00    2.7781999637648025E+00    1.5495287325900097E+01
Ga    3.7926092516129084E+00    3.9916420950502896E+00    1.6612785044479534E+01
N    5.4952799662445662E+00    3.1268332155025074E+00    1.7068778938163383E+01
N    3.3212365014258358E+00    5.5775677963779673E+00   -1.4363241480628827E-01
Ga    3.3408120155672285E+00    7.4471213603872215E+00    5.2229604638043448E-01
N    3.3684171121399760E+00    7.4649628509050903E+00    2.4441779150577929E+00
Ga    3.3562106908176412E+00    5.6000117123001605E+00    3.1576748697351702E+00
N    3.4044501061151462E+00    5.6279302914181262E+00    5.0881954982736417E+00
Ga    3.4285504399719553E+00    7.5002555992642019E+00    5.7844311021618733E+00
N    3.5124607034010475E+00    7.5570232030209672E+00    7.7160161630384838E+00
Ga    3.5096834372340293E+00    5.6982614316173299E+00    8.4136600532291848E+00
N    3.6040868197419553E+00    5.7578243357452692E+00    1.0361857922955911E+01
Ga    3.6424001619976467E+00    7.6367226778933057E+00    1.1031448452443419E+01
N    3.7327740766197905E+00    7.6945379434255354E+00    1.2977233263019674E+01
Ga    3.7212552116941322E+00    5.8403211198281246E+00    1.3644614790767283E+01
N    3.1906051557506663E+00    5.5327789588858565E+00    1.5495392648993775E+01
Ga    2.1446646708201653E+00    6.7831946639299767E+00    1.6577923079147663E+01
N    3.8308119869206352E+00    5.8886140832091494E+00    1.7086025347349999E+01
N    1.7109964100744999E+00    8.3670059731051403E+00   -1.4399431215506980E-01
Ga    1.7305646612512569E+00    1.0236371857036660E+01    5.2241312867794221E-01
N    1.7582203124584321E+00    1.0254238041943747E+01    2.4444932944700155E+00
Ga    1.7457532742681259E+00    8.3892158035004272E+00    3.1576796271572918E+00
N    1.7938943955737592E+00    8.4167346806134429E+00    5.0883209892828702E+00
Ga    1.8175817112286434E+00    1.0290197871101451E+01    5.7823630315411618E+00
N    1.9000079345295378E+00    1.0348722765400421E+01    7.7147442086571631E+00
Ga    1.9010942257139392E+00    8.4906510437144522E+00    8.4112931149329846E+00
N    2.0018260818832081E+00    8.5532860365975552E+00    1.0355802454396002E+01
Ga    2.0285397403500753E+00    1.0431905627068497E+01    1.1030263146280525E+01
N    2.1169933626299406E+00    1.0495796786448240E+01    1.2975220030854391E+01
Ga    2.1297276294460237E+00    8.6373359065430826E+00    1.3631980450709847E+01
N    1.5998145709794307E+00    8.3357954089340467E+00    1.5473557239567642E+01
Ga    5.4111622666372716E-01    9.5659529968170691E+00    1.6572011567843212E+01
N    2.2062146888600851E+00    8.6626406755092962E+00    1.7096011823317493E+01
N    9.8019919269084834E+00   -2.1668361096390289E-03   -1.4308829442616802E-01
Ga    9.8224003951090122E+00    1.8677407795785890E+00    5.2137108139246002E-01
N    9.8509802890921154E+00    1.8861980568995722E+00    2.4428578459702179E+00
Ga    9.8370141846601502E+00    2.0797759249977125E-02    3.1548928381970378E+00
N    9.8850840267196016E+00    4.9307807594443982E-02    5.0846191765407731E+00
Ga    9.9148152114619776E+00    1.9245785892217597E+00    5.7753676215374012E+00
N    1.0001175561355543E+01    1.9839038753739235E+00    7.7032334247570873E+00
Ga    9.9855954402944214E+00    1.2382576094018535E-01    8.3854932139705767E+00
N    1.0072436557529176E+01    1.8888628271869917E-01    1.0315487980606136E+01
Ga    1.0114665890175369E+01    2.0535621721681712E+00    1.1015088718514603E+01
N    1.0206782256028379E+01    2.1113864683180026E+00    1.2949156853462064E+01
Ga    1.0244828156634359E+01    2.6344654863341993E-01    1.3653845029244986E+01
N    9.7343214479011042E+00   -1.1538607085579225E-02    1.5516710260682077E+01
Ga    8.6638708491857503E+00    1.2174439835440862E+00    1.6722287990622828E+01
N    1.0394538446253739E+01    3.3360875686219610E-01    1.6876467042478914E+01
N    8.1914662975260857E+00    2.7873094158948124E+00   -1.4317877292523312E-01
Ga    8.2114292186585356E+00    4.6575982701654244E+00    5.2071983246870512E-01
N    8.2394316746154654E+00    4.6758248495730097E+00    2.4423181510955385E+00
Ga    8.2265731626699257E+00    2.8101860833013728E+00    3.1544038190930306E+00
N    8.2746467494994640E+00    2.8379956797035177E+00    5.0852418673964142E+00
Ga    8.3034867932705563E+00    4.7132854895559317E+00    5.7784054079544687E+00
N    8.3871102363811190E+00    4.7720768931355018E+00    7.7107650878444742E+00
Ga    8.3805092271482149E+00    2.9039213755519957E+00    8.3853940337823438E+00
N    8.4747496151295891E+00    2.9563386676385170E+00    1.0320951722867946E+01
Ga    8.4870825054339480E+00    4.8348164678149201E+00    1.0973491712320017E+01
N    8.5566513835318485E+00    4.8854461849768489E+00    1.2893935817149549E+01
Ga    8.6274933994785297E+00    3.0744316368903388E+00    1.3643100119799930E+01
N    8.1990286204382610E+00    2.7962996505938724E+00    1.5519555049025110E+01
Ga    7.0822326810192449E+00    4.0156898534190759E+00    1.6698661298203163E+01
N    8.8240613745199639E+00    3.1524906011473894E+00    1.6888665019778607E+01
N    6.5806124153521779E+00    5.5774359532794771E+00   -1.4324712946975210E-01
Ga    6.6010246289156562E+00    7.4473582495843074E+00    5.2127790447584610E-01
N    6.6295471622967099E+00    7.4654721730393616E+00    2.4427366118887788E+00
Ga    6.6161415477520951E+00    5.6002387311544570E+00    3.1554010167648219E+00
N    6.6650182608272086E+00    5.6283483719164629E+00    5.0858090134955800E+00
Ga    6.6941501238464696E+00    7.5034222329428282E+00    5.7766913521515209E+00
N    6.7818123226454183E+00    7.5622843313289403E+00    7.7043100918467893E+00
Ga    6.7641062504919462E+00    5.7023807420761283E+00    8.3881279349144044E+00
N    6.8531111403365950E+00    5.7672158943650782E+00    1.0323899981306957E+01
Ga    6.8890101432074218E+00    7.6391929835175700E+00    1.1014229223527707E+01
N    6.9756378246669373E+00    7.7048597673910244E+00    1.2947900559124864E+01
Ga    7.0191244057385367E+00    5.8562494182062412E+00    1.3640237161559165E+01
N    6.5682241158652985E+00    5.6217684348212353E+00    1.5522520464046845E+01
Ga    5.4367206365491523E+00    6.7873210704466613E+00    1.6716897314441042E+01
N    7.2063017483233551E+00    5.9577592405566362E+00    1.6887001402111498E+01
N    4.9700978437317973E+00    8.3668631156856286E+00   -1.4277076249703702E-01
Ga    4.9905525233903747E+00    1.0236917694288847E+01    5.2164181712518543E-01
N    5.0191278457997921E+00    1.0255170995090792E+01    2.4434220655114629E+00
Ga    5.0053701898627656E+00    8.3888312492231893E+00    3.1539577463619595E+00
N    5.0541220765831305E+00    8.4159265032083201E+00    5.0842759426277730E+00
Ga    5.0811439138353824E+00    1.0291707395976749E+01    5.7740521755897207E+00
N    5.1639140712260891E+00    1.0350268743424955E+01    7.7052787393453377E+00
Ga    5.1602237609431958E+00    8.4835767183031567E+00    8.3811392705807499E+00
N    5.2532189249152124E+00    8.5321837942477021E+00    1.0311874886304103E+01
Ga    5.2587369236448840E+00    1.0408425941020527E+01    1.0951297400532965E+01
N    5.3126912636748589E+00    1.0449965375340321E+01    1.2857564083640506E+01
Ga    5.3949883128229512E+00    8.6621716627917884E+00    1.3656056470299189E+01
N    4.8985635090824076E+00    8.3543646761761217E+00    1.5523117374962018E+01
Ga    3.7807947379106697E+00    9.5648641427472132E+00    1.6709979342276629E+01
N    5.5439138364277483E+00    8.7365750679321774E+00    1.6866592666864175E+01
H    2.1866245500898707E-02   -1.1662975665894125E-03   -1.1698517470433547E+00
H   -1.5883130060949679E+00    2.7878718775750349E+00   -1.1692254422094057E+00
H   -3.1992613335447144E+00    5.5779201352260008E+00   -1.1697853164171264E+00
H   -4.8098371254437309E+00    8.3674949305027884E+00   -1.1693181170277693E+00
H    3.2823403246927447E+00   -6.8049046933552342E-04   -1.1693774173803306E+00
H    1.6716606753563887E+00    2.7883827637906187E+00   -1.1688968811279687E+00
H    6.1238872768276789E-02    5.5784385433236823E+00   -1.1694169186335439E+00
H   -1.5493856523138771E+00    8.3679317277184140E+00   -1.1690917505588378E+00
H    6.5406632571864671E+00   -1.9454489470748385E-03   -1.1697137774224831E+00
H    4.9298648244475549E+00    2.7875465813188742E+00   -1.1700543119747369E+00
H    3.3192786738791895E+00    5.5777142410424752E+00   -1.1699080511828281E+00
H    1.7092081875064935E+00    8.3671013756610151E+00   -1.1703076076271404E+00
H    9.8008566529679086E+00   -1.4173719708116676E-03   -1.1692947213234643E+00
H    8.1903791352576594E+00    2.7879864676243833E+00   -1.1693930762544442E+00
H    6.5797479475269265E+00    5.5781675396269010E+00   -1.1694531997974522E+00
H    4.9690697175737535E+00    8.3673111821548165E+00   -1.1690083486503602E+00
     &END COORD
     &KIND H
       BASIS_SET DZVP-MOLOPT-SR-GTH-q1
       POTENTIAL GTH-PBE-q1
       &POTENTIAL
1
0.2000000000000000E+00 2 -0.4178900440000000E+01  0.7244633100000000E+00
0
       &END POTENTIAL
     &END KIND
     &KIND N
       BASIS_SET DZVP-MOLOPT-SR-GTH
       POTENTIAL GTH-PBE-q5
       &POTENTIAL
2 3
0.2837905100000000E+00 2 -0.1241522559000000E+02  0.1868095920000000E+01
2
0.2554050000000000E+00 1  0.1363026257000000E+02
0.2454945300000000E+00 0
       &END POTENTIAL
     &END KIND
     &KIND Ga
       BASIS_SET DZVP-MOLOPT-SR-GTH
       POTENTIAL GTH-PBE-q13
       &POTENTIAL
2 1 10
0.4900000000000000E+00 0
3
0.4167772300000000E+00 3  0.1047568975000000E+02 -0.4921768140000000E+01  0.8707055900000000E+00
0.7770178090000000E+01 -0.2248152160000000E+01
0.1784415450000000E+01
0.5696265200000000E+00 2  0.1777985340000000E+01  0.1958597600000000E+00
-0.2317443900000000E+00
0.2381265000000000E+00 1 -0.1624868022000000E+02
       &END POTENTIAL
     &END KIND
     &TOPOLOGY
       NUMBER_OF_ATOMS  256
       MULTIPLE_UNIT_CELL  1 1 1
     &END TOPOLOGY
   &END SUBSYS
 &END FORCE_EVAL
