 # Version information for this restart file 
 # current date 2019-06-11 00:23:21.529
 # current working dir /lustre03/project/6037349/rzk/GaN-carbene/444-addat/00-Surface/RKS
 # Program compiled at                              Sun Apr  7 00:48:11 EDT 2019
 # Program compiled on                          beluga2.int.ets1.calculquebec.ca
 # Program compiled for                        Beluga-Linux-x86-64-intel-openmpi
 # Source code revision number                                         svn:18619
 &GLOBAL
   PRINT_LEVEL  MEDIUM
   PROJECT_NAME TEST
   RUN_TYPE  CELL_OPT
 &END GLOBAL
 &MOTION
   &CELL_OPT
     MAX_ITER  300
     STEP_START_VAL  103
     EXTERNAL_PRESSURE     1.0000000000000000E+00
     KEEP_ANGLES  T
     KEEP_SYMMETRY  T
     CONSTRAINT  Z
     PRESSURE_TOLERANCE     5.0000000000000000E+02
   &END CELL_OPT
 &END MOTION
 &FORCE_EVAL
   METHOD  QS
   STRESS_TENSOR  ANALYTICAL
   &DFT
     BASIS_SET_FILE_NAME BASIS_MOLOPT
     POTENTIAL_FILE_NAME GTH_POTENTIALS
     SURFACE_DIPOLE_CORRECTION  T
     SURF_DIP_DIR  Z
     &SCF
       MAX_SCF  100
       EPS_SCF     5.0000000000000004E-06
       &OT  T
         PRECONDITIONER  FULL_ALL
       &END OT
       &OUTER_SCF  T
         OPTIMIZER  NONE
         EPS_SCF     5.0000000000000004E-06
         MAX_SCF  4
       &END OUTER_SCF
       &PRINT
         &RESTART  OFF
           BACKUP_COPIES  1
           &EACH
             JUST_ENERGY  0
             QS_SCF  0
             MD  20
           &END EACH
         &END RESTART
       &END PRINT
     &END SCF
     &QS
       EPS_DEFAULT     1.0000000000000000E-14
       METHOD  GPW
     &END QS
     &MGRID
       NGRIDS  5
       CUTOFF     1.2000000000000000E+03
     &END MGRID
     &XC
       DENSITY_CUTOFF     1.0000000000000000E-10
       GRADIENT_CUTOFF     1.0000000000000000E-10
       TAU_CUTOFF     1.0000000000000000E-10
       &XC_FUNCTIONAL  NO_SHORTCUT
         &PBE  T
         &END PBE
       &END XC_FUNCTIONAL
       &VDW_POTENTIAL
         POTENTIAL_TYPE  PAIR_POTENTIAL
         &PAIR_POTENTIAL
           R_CUTOFF     1.0000000000000005E+01
           TYPE  DFTD3
           PARAMETER_FILE_NAME dftd3.dat
           REFERENCE_FUNCTIONAL PBE
           EPS_CN     9.9999999999999995E-07
           CALCULATE_C9_TERM  T
           REFERENCE_C9_TERM  T
           LONG_RANGE_CORRECTION  F
           VERBOSE_OUTPUT  F
         &END PAIR_POTENTIAL
       &END VDW_POTENTIAL
     &END XC
   &END DFT
   &SUBSYS
     &CELL
       A     1.3027644003783291E+01    0.0000000000000000E+00    0.0000000000000000E+00
       B    -6.4433843034229579E+00    1.1160268986220629E+01    0.0000000000000000E+00
       C     0.0000000000000000E+00    0.0000000000000000E+00    3.2000000000000000E+01
       MULTIPLE_UNIT_CELL  1 1 1
       &CELL_REF
         A     1.2982353780853531E+01    0.0000000000000000E+00    0.0000000000000000E+00
         B    -6.4911768904267628E+00    1.1243048175136114E+01    0.0000000000000000E+00
         C     0.0000000000000000E+00    0.0000000000000000E+00    3.2000000000000000E+01
         MULTIPLE_UNIT_CELL  1 1 1
       &END CELL_REF
     &END CELL
     &COORD
N    2.0849612093110123E-01    1.1544966610128708E-01   -1.5359396255495752E-01
Ga    2.2554343587789449E-01    1.9831841172133227E+00    5.1263874300572632E-01
N    2.3902641251423734E-01    1.9951049539170651E+00    2.4352877320593254E+00
Ga    2.2447050053407916E-01    1.3064752965020554E-01    3.1489064608731669E+00
N    2.2855112006286829E-01    1.3138446879064966E-01    5.0804897038764887E+00
Ga    2.4411611561310026E-01    1.9997642941416689E+00    5.7716708482589523E+00
N    2.5008398635823281E-01    2.0071709112781990E+00    7.7066965810676127E+00
Ga    2.3343933772872574E-01    1.3730297325779239E-01    8.3848846749819828E+00
N    2.2385263127384586E-01    1.2899095737394684E-01    1.0317028145336446E+01
Ga    2.4106351262596704E-01    1.9907180419494377E+00    1.1016750127529461E+01
N    2.5474899665229717E-01    1.9979114255178427E+00    1.2948898310062184E+01
Ga    2.1152167329668409E-01    1.2679504691547974E-01    1.3629753398679682E+01
N   -3.5517965748457225E-01   -2.0192047292636239E-01    1.5362326776921380E+01
Ga   -1.0513693832210895E+00    9.2339580425206957E-01    1.6756482688038673E+01
N    2.8224642455474319E-01    1.3106211516333918E-01    1.8023438348137436E+01
N   -1.4023906893440137E+00    2.9058539663987948E+00   -1.5218615134425079E-01
Ga   -1.3855442208836832E+00    4.7737521791153048E+00    5.1603265943502463E-01
N   -1.3722850721275215E+00    4.7862309006310566E+00    2.4382884845693145E+00
Ga   -1.3859933028850910E+00    2.9195725600428934E+00    3.1450682827575598E+00
N   -1.3824609046087459E+00    2.9215819685832378E+00    5.0763734758216739E+00
Ga   -1.3659136470659812E+00    4.7886464773819002E+00    5.7730359706857906E+00
N   -1.3587909757532015E+00    4.7973106887826766E+00    7.7094325564961492E+00
Ga   -1.3773378475436895E+00    2.9300471232399650E+00    8.3929381504602638E+00
N   -1.3815608929659859E+00    2.9238663890857821E+00    1.0329548077155938E+01
Ga   -1.3701196472831865E+00    4.7888509807354094E+00    1.1029341538946287E+01
N   -1.3637636641725404E+00    4.8019218550849141E+00    1.2969234059777115E+01
Ga   -1.3625060998236906E+00    2.9290798157796134E+00    1.3627784056636491E+01
N   -1.8985130870822802E+00    2.4681262818001732E+00    1.5443746677198956E+01
Ga   -2.9164086397290547E+00    4.2048580506678812E+00    1.6833946388178529E+01
N   -1.4257270008821947E+00    2.9020233540633940E+00    1.6734875738125584E+01
N   -3.0130463779741556E+00    5.6957188453980745E+00   -1.5100944024111862E-01
Ga   -2.9961725586731549E+00    7.5635841919725708E+00    5.1547692313926141E-01
N   -2.9823927431290929E+00    7.5759160116375295E+00    2.4375304621417282E+00
Ga   -2.9977315435518728E+00    5.7106649283813100E+00    3.1483536490069950E+00
N   -2.9939241794469860E+00    5.7114758936199657E+00    5.0799499160759112E+00
Ga   -2.9765421136098986E+00    7.5787196393779785E+00    5.7740358510896508E+00
N   -2.9689956854361061E+00    7.5862838174540466E+00    7.7102027765503367E+00
Ga   -2.9860160203608217E+00    5.7192400338173739E+00    8.3949907582401302E+00
N   -2.9916804990293877E+00    5.7130198621122288E+00    1.0330839504629143E+01
Ga   -2.9779692686479979E+00    7.5746771036174056E+00    1.1031210858992434E+01
N   -2.9671151537325828E+00    7.5801771659162931E+00    1.2973000527686855E+01
Ga   -2.9954384016440865E+00    5.7128582233285021E+00    1.3678549039117728E+01
N   -3.4978405576833254E+00    5.4110946897078485E+00    1.5444828954512085E+01
Ga   -4.2480721225526423E+00    6.5075716904943377E+00    1.6844105461888706E+01
N   -2.9177415805781370E+00    5.7361190032051317E+00    1.8106214281069196E+01
N   -4.6236815971157474E+00    8.4855040771863237E+00   -1.5215644203426748E-01
Ga   -4.6073523415624758E+00    1.0354131705898794E+01    5.1348293215850971E-01
N   -4.5940844358542616E+00    1.0366512435761852E+01    2.4363118983106422E+00
Ga   -4.6079755690159381E+00    8.5006227340522766E+00    3.1453921907985736E+00
N   -4.6033251757494709E+00    8.5002360347059120E+00    5.0765551073088515E+00
Ga   -4.5862665619708389E+00    1.0367207974097846E+01    5.7712488220519242E+00
N   -4.5793916354080499E+00    1.0374209871498339E+01    7.7072968817583458E+00
Ga   -4.5965928600856518E+00    8.5070666201640801E+00    8.3947615995250668E+00
N   -4.6007291224336120E+00    8.5000625824469189E+00    1.0331176497070594E+01
Ga   -4.5963598718320435E+00    1.0369710190409506E+01    1.1017370391518874E+01
N   -4.5866233129497482E+00    1.0384703228256287E+01    1.2951656933433647E+01
Ga   -4.5912909458554578E+00    8.5216656735988252E+00    1.3631051273239947E+01
N   -5.2467898524938787E+00    8.2836558015540760E+00    1.5450738445525587E+01
Ga   -6.1585238032304082E+00    9.7614528528848474E+00    1.6727045241151298E+01
N   -4.6223730182913192E+00    8.4476529246317984E+00    1.6742541930388107E+01
N    3.4653630794384171E+00    1.1557216213127938E-01   -1.5168663670375662E-01
Ga    3.4820784883986438E+00    1.9833845277170428E+00    5.1534935037023488E-01
N    3.4949282131086452E+00    1.9952932947361113E+00    2.4377452456481090E+00
Ga    3.4811636271650968E+00    1.3022592844421535E-01    3.1482472712613152E+00
N    3.4858110824557871E+00    1.3137806422506382E-01    5.0806634267514106E+00
Ga    3.4991291320318347E+00    1.9968474114905173E+00    5.7804510190832703E+00
N    3.5058887118973336E+00    2.0044069665955404E+00    7.7178919382694060E+00
Ga    3.4915047646240835E+00    1.3787695704695249E-01    8.4056680054583950E+00
N    3.4869777199263563E+00    1.3371744663302498E-01    1.0344925277491337E+01
Ga    3.5026824076831207E+00    1.9995281474603741E+00    1.1032379049150734E+01
N    3.5211346773504788E+00    2.0139528317598829E+00    1.2979511170557474E+01
Ga    3.4766449489544486E+00    1.5789307468702707E-01    1.3675109166082809E+01
N    2.9025704868675359E+00   -1.5129132907207324E-01    1.5529018839615782E+01
Ga    1.8056838976801068E+00    1.0077645960613764E+00    1.7509791752993117E+01
N    3.4634401460718833E+00    1.9559873895991697E-01    1.6868643871531244E+01
N    1.8546478264870689E+00    2.9054178687108752E+00   -1.5151783095624574E-01
Ga    1.8710024666794294E+00    4.7733741086612351E+00    5.1444401774022241E-01
N    1.8838974160641933E+00    4.7851496781568796E+00    2.4369556019397649E+00
Ga    1.8700436474294615E+00    2.9200903315254529E+00    3.1480626800881355E+00
N    1.8743414340753692E+00    2.9206992161886891E+00    5.0806852578479100E+00
Ga    1.8888174442417225E+00    4.7870132142836930E+00    5.7785823609453919E+00
N    1.8927748616770543E+00    4.7938314876855745E+00    7.7167673507197794E+00
Ga    1.8793349888664923E+00    2.9280198672598066E+00    8.4037615893585116E+00
N    1.8765331258222329E+00    2.9207282744401009E+00    1.0343027254817647E+01
Ga    1.8837880444637536E+00    4.7835564232148888E+00    1.1041620896868904E+01
N    1.8861981590490478E+00    4.7893930066571686E+00    1.2992215542277220E+01
Ga    1.8894213288153958E+00    2.9080927201876396E+00    1.3667904768957211E+01
N    1.3399990311332113E+00    2.5446125823894574E+00    1.5523701688629972E+01
Ga    2.0047296692069463E-01    3.8168982111024108E+00    1.6441499611628821E+01
N    1.9274965916591165E+00    2.8446870255217274E+00    1.6861057489462322E+01
N    2.4325202842768026E-01    5.6954956589131349E+00   -1.5051986130601797E-01
Ga    2.6029416414820439E-01    7.5634966043045564E+00    5.1520664911081793E-01
N    2.7298564254633767E-01    7.5754912045755374E+00    2.4375486923276832E+00
Ga    2.6011675752136276E-01    5.7104768297005499E+00    3.1494880272980561E+00
N    2.6387956011897001E-01    5.7117930046957257E+00    5.0818372705731569E+00
Ga    2.7797337454873156E-01    7.5774057699912021E+00    5.7806333171613256E+00
N    2.8488427191123755E-01    7.5854764447816354E+00    7.7192604363866701E+00
Ga    2.6911954974660135E-01    5.7188840864535351E+00    8.4072210084604180E+00
N    2.6579258679539347E-01    5.7146671424924618E+00    1.0348010899383418E+01
Ga    2.8749936141844562E-01    7.5827752652730105E+00    1.1033331728565322E+01
N    3.0571254790965591E-01    7.5966110101091600E+00    1.2978682211311655E+01
Ga    2.6580839629098424E-01    5.7430056075531937E+00    1.3671215608546238E+01
N   -3.2309185203829710E-01    5.4516918265132448E+00    1.5520432658983555E+01
Ga   -1.3964545961404071E+00    6.6052291088901516E+00    1.7539763844560476E+01
N    2.3432833438956588E-01    5.7868094589289276E+00    1.6858753087667580E+01
N   -1.3674396567781013E+00    8.4854032556362693E+00   -1.5040492816326034E-01
Ga   -1.3507302692854624E+00    1.0353598720361621E+01    5.1510626665589421E-01
N   -1.3378755179786452E+00    1.0365584948857265E+01    2.4374139706466993E+00
Ga   -1.3509516691539449E+00    8.5006706916247108E+00    3.1491384721681546E+00
N   -1.3469878072345436E+00    8.5010001376487878E+00    5.0816889797668932E+00
Ga   -1.3326855891913976E+00    1.0367415198011352E+01    5.7795098428034821E+00
N   -1.3274739123710209E+00    1.0373969328570450E+01    7.7177384382760481E+00
Ga   -1.3414150033204053E+00    8.5086551239742452E+00    8.4084522653254261E+00
N   -1.3435179771869976E+00    8.5029656882835205E+00    1.0349583996987139E+01
Ga   -1.3378998959547936E+00    1.0366734928533910E+01    1.1044844298287437E+01
N   -1.3365051154295637E+00    1.0372254189947229E+01    1.2996681993070077E+01
Ga   -1.3214289049578554E+00    8.4917336207787208E+00    1.3671879502102593E+01
N   -1.8581752724969751E+00    8.1161023303510991E+00    1.5522130901977581E+01
Ga   -3.0083301917890157E+00    9.3799921286353882E+00    1.6449824584218948E+01
N   -1.2810245169767975E+00    8.4256760528860717E+00    1.6856005283946175E+01
N    6.7212726228826325E+00    1.1495956322194234E-01   -1.5162828141446175E-01
Ga    6.7388086924075532E+00    1.9833604833778649E+00    5.1369568194319926E-01
N    6.7513794502411795E+00    1.9955073980128262E+00    2.4364098005521271E+00
Ga    6.7369191026420827E+00    1.3033528573600855E-01    3.1476940993834566E+00
N    6.7381244866324028E+00    1.2981037380739210E-01    5.0796683537613996E+00
Ga    6.7528782267137863E+00    1.9951830882943167E+00    5.7758702516942018E+00
N    6.7563480247496761E+00    2.0005267981770340E+00    7.7124958887100190E+00
Ga    6.7437456596613794E+00    1.3677865265245168E-01    8.4108615520946106E+00
N    6.7369753993132084E+00    1.3066623684695389E-01    1.0353104456608115E+01
Ga    6.7639035386413742E+00    1.9994923349609059E+00    1.1038581891718893E+01
N    6.7840377035872237E+00    2.0096301970713975E+00    1.2988276160570873E+01
Ga    6.7640383773174717E+00    1.4660038154015620E-01    1.3658469379338275E+01
N    6.1853571030646695E+00   -1.8178144128257209E-01    1.5491897796849818E+01
Ga    5.1362497937865861E+00    1.0656021112794960E+00    1.6592962163718052E+01
N    6.8377348435869880E+00    1.6847756622521573E-01    1.7067118924149874E+01
N    5.1106741338511066E+00    2.9050905696499938E+00   -1.5082712478787214E-01
Ga    5.1279631391413982E+00    4.7733961584382145E+00    5.1390936871910009E-01
N    5.1405527919283616E+00    4.7848545342125046E+00    2.4367638885141010E+00
Ga    5.1264745694375593E+00    2.9196206696523048E+00    3.1497002497788462E+00
N    5.1275304458972029E+00    2.9189961746439415E+00    5.0816984544383805E+00
Ga    5.1422934176858437E+00    4.7855464712428857E+00    5.7749124515563794E+00
N    5.1455113643385930E+00    4.7916335489434090E+00    7.7117570971039884E+00
Ga    5.1361268029389713E+00    2.9279340715369400E+00    8.4075727757716638E+00
N    5.1355814867763003E+00    2.9235063939113930E+00    1.0349678354714314E+01
Ga    5.1510691179858297E+00    4.7924522784414121E+00    1.1035523055216061E+01
N    5.1658959425250162E+00    4.8108023975547809E+00    1.2985142358241303E+01
Ga    5.1743626413136363E+00    2.9502317400707723E+00    1.3649121928831368E+01
N    4.6227643718894926E+00    2.6292150985885478E+00    1.5475713385501471E+01
Ga    3.5342570422446307E+00    3.8302688471963120E+00    1.6587030670787804E+01
N    5.2322950153645547E+00    2.9555264689875438E+00    1.7069654841269898E+01
N    3.4996757999129047E+00    5.6950990628361176E+00   -1.5135299848512529E-01
Ga    3.5168005974906777E+00    7.5636841876123757E+00    5.1291732388291589E-01
N    3.5293177193506682E+00    7.5753168055706110E+00    2.4359008105441728E+00
Ga    3.5156121683912271E+00    5.7097252642292657E+00    3.1476782085169606E+00
N    3.5171636524727155E+00    5.7085542798175624E+00    5.0796583865390463E+00
Ga    3.5301751742325473E+00    7.5742463636262860E+00    5.7731583180695898E+00
N    3.5333260975530836E+00    7.5789771877180057E+00    7.7087871550995892E+00
Ga    3.5222673907698772E+00    5.7154733483920843E+00    8.4093641092543070E+00
N    3.5167518060210607E+00    5.7070629950878402E+00    1.0351153412909259E+01
Ga    3.5468087847421543E+00    7.5776021679522243E+00    1.1034867399291207E+01
N    3.5625157482713510E+00    7.5855052724229948E+00    1.2981405590182245E+01
Ga    3.5399536085641867E+00    5.7255746381625130E+00    1.3654194109767456E+01
N    2.9615355734967674E+00    5.3884128038476176E+00    1.5483925199495621E+01
Ga    1.9158433434204156E+00    6.6444680852791222E+00    1.6576655922867300E+01
N    3.6044775832322191E+00    5.7286963138300857E+00    1.7061683379947016E+01
N    1.8884453257472820E+00    8.4849578917425070E+00   -1.5252475531729032E-01
Ga    1.9062056526415740E+00    1.0353278143739802E+01    5.1358629112225229E-01
N    1.9185733521010575E+00    1.0365213352206530E+01    2.4366541207387522E+00
Ga    1.9044416303995595E+00    8.4995634622866199E+00    3.1473134374149643E+00
N    1.9056661869918043E+00    8.4985861744374827E+00    5.0790625941374268E+00
Ga    1.9190677532563658E+00    1.0364984751002334E+01    5.7728161510662099E+00
N    1.9206994810120981E+00    1.0371819834320467E+01    7.7088010366694668E+00
Ga    1.9159725431101426E+00    8.5092695830776979E+00    8.4079381949881284E+00
N    1.9187358980770453E+00    8.5074479441306643E+00    1.0350164254672928E+01
Ga    1.9302173809595340E+00    1.0378816277374519E+01    1.1036418143816650E+01
N    1.9424407384328068E+00    1.0394143662621566E+01    1.2984642141235796E+01
Ga    1.9631513988749201E+00    8.5347998714168671E+00    1.3647319943561216E+01
N    1.3968729341956327E+00    8.2094196884002333E+00    1.5471606841209709E+01
Ga    3.2203683150034784E-01    9.4258273014274696E+00    1.6579768338874764E+01
N    1.9894020692263281E+00    8.5223012285896811E+00    1.7095038601577908E+01
N    9.9782141459889093E+00    1.1510907872555445E-01   -1.5376715367923752E-01
Ga    9.9962212074683787E+00    1.9831260312543280E+00    5.1254716790743782E-01
N    1.0009158027856961E+01    1.9957371992900457E+00    2.4353268492916182E+00
Ga    9.9938685116908577E+00    1.3000803826591137E-01    3.1466716871467075E+00
N    9.9935997531872633E+00    1.2995832070540878E-01    5.0786535182034891E+00
Ga    1.0013600886408648E+01    1.9996766950673204E+00    5.7672860085044624E+00
N    1.0019022509021756E+01    2.0087511951537769E+00    7.7006539385119952E+00
Ga    9.9961799472655990E+00    1.3943592726250778E-01    8.3793441797020431E+00
N    9.9852539392686754E+00    1.3650365888320620E-01    1.0308450588092473E+01
Ga    1.0012778881620150E+01    1.9942636405830836E+00    1.1005025281587981E+01
N    1.0023125342232259E+01    2.0016138814009148E+00    1.2938421144140785E+01
Ga    1.0064407852912908E+01    1.5538187247423060E-01    1.3662272620261108E+01
N    9.5375215588580780E+00   -1.4985663629811968E-01    1.5527606365663242E+01
Ga    8.4343327991357580E+00    1.0780568448201127E+00    1.6706121378571424E+01
N    1.0174430129496159E+01    1.9708265858858737E-01    1.6894627340277079E+01
N    8.3679410029045833E+00    2.9053433869649883E+00   -1.5190765201583220E-01
Ga    8.3854944253701937E+00    4.7737281792301038E+00    5.1418746575661867E-01
N    8.3985111485439283E+00    4.7857875754606169E+00    2.4369965882971334E+00
Ga    8.3830012448043085E+00    2.9192443421880765E+00    3.1456890977529355E+00
N    8.3829950887376743E+00    2.9185647849832623E+00    5.0776175554529690E+00
Ga    8.4017772181917607E+00    4.7871466230550377E+00    5.7695963425513481E+00
N    8.4082667817915286E+00    4.7944816393065324E+00    7.7059934144532827E+00
Ga    8.3888939727350866E+00    2.9246335500181573E+00    8.3881447610389710E+00
N    8.3852253579869274E+00    2.9152498257164714E+00    1.0323070307990150E+01
Ga    8.3963781617329545E+00    4.7855552174467295E+00    1.0990017241652017E+01
N    8.3927289950340196E+00    4.7878359489027069E+00    1.2912038737056434E+01
Ga    8.4445074536924363E+00    2.9612635084934928E+00    1.3646723605714667E+01
N    7.9643265997538384E+00    2.6634530143351531E+00    1.5522274134101492E+01
Ga    6.8166810947692262E+00    3.8571723412725847E+00    1.6709635200040122E+01
N    8.5735124686307138E+00    3.0195953202783388E+00    1.6904972972687037E+01
N    6.7571797305114734E+00    5.6952668710659813E+00   -1.5207783294512309E-01
Ga    6.7741649057043380E+00    7.5640327734430794E+00    5.1256980980638944E-01
N    6.7876440070590807E+00    7.5762065243194785E+00    2.4354082799499865E+00
Ga    6.7717956862241033E+00    5.7101771488609447E+00    3.1460296463658701E+00
N    6.7725246040763158E+00    5.7088858543023697E+00    5.0778780871038114E+00
Ga    6.7938314817156620E+00    7.5769441550626491E+00    5.7671848576010287E+00
N    6.8018733223295733E+00    7.5831829737311018E+00    7.7008339440922375E+00
Ga    6.7775625384613463E+00    5.7169237804635022E+00    8.3884481753387199E+00
N    6.7696309489967570E+00    5.7131734369330482E+00    1.0322058381268143E+01
Ga    6.7891942500359530E+00    7.5787473545459090E+00    1.1005035017414203E+01
N    6.7976851359283330E+00    7.5901992827621276E+00    1.2938790045837109E+01
Ga    6.8336982347365689E+00    5.7456430811694128E+00    1.3645359206498551E+01
N    6.3411557024765850E+00    5.4630997500761689E+00    1.5522200430420554E+01
Ga    5.2058698261265146E+00    6.6440842337013466E+00    1.6701562044819447E+01
N    6.9704750950389220E+00    5.7921164208544154E+00    1.6899876650532907E+01
N    5.1458834375922198E+00    8.4850315014386730E+00   -1.5364326834516273E-01
Ga    5.1634459418401315E+00    1.0353746979395943E+01    5.1229441852536117E-01
N    5.1769904280309893E+00    1.0366306633505840E+01    2.4362447553750335E+00
Ga    5.1612139744470147E+00    8.4997633707968490E+00    3.1464763187042384E+00
N    5.1623563138864164E+00    8.4968923279307713E+00    5.0783578439998420E+00
Ga    5.1796383472313714E+00    1.0366443385151326E+01    5.7663835371469530E+00
N    5.1838206028280229E+00    1.0372740634703902E+01    7.7005086489828054E+00
Ga    5.1691432621146598E+00    8.5003512961122567E+00    8.3794457397728799E+00
N    5.1646389159194390E+00    8.4872486026194824E+00    1.0308418185128952E+01
Ga    5.1633055192283370E+00    1.0357677054756094E+01    1.0969492724866985E+01
N    5.1516359784299786E+00    1.0354936191853014E+01    1.2874743751639478E+01
Ga    5.2130993635978875E+00    8.5488756525062186E+00    1.3660485459884351E+01
N    4.6915319115904266E+00    8.2211238309289261E+00    1.5522840717433613E+01
Ga    3.5705296588694497E+00    9.4263235097907927E+00    1.6745952942472659E+01
N    5.3202775442354531E+00    8.5902337254087602E+00    1.6885938708376823E+01
H    2.0859337742507705E-01    1.1543323056537969E-01   -1.1804351853633677E+00
H   -1.4035274812146570E+00    2.9052638543474245E+00   -1.1790656549174494E+00
H   -3.0146453413637917E+00    5.6947376699931835E+00   -1.1778177059619326E+00
H   -4.6243249621720244E+00    8.4837753051316582E+00   -1.1790234954584591E+00
H    3.4664056279581437E+00    1.1542283624926687E-01   -1.1785268683573125E+00
H    1.8551276459236807E+00    2.9057784222571885E+00   -1.1783148184818839E+00
H    2.4375233743876859E-01    5.6952622476084214E+00   -1.1772816877827270E+00
H   -1.3675034710265277E+00    8.4851356056454570E+00   -1.1771590096435676E+00
H    6.7187481085261540E+00    1.1418235946137506E-01   -1.1784186428660532E+00
H    5.1096874568563546E+00    2.9039918536114908E+00   -1.1775404770644433E+00
H    3.4979449590285512E+00    5.6929523679413556E+00   -1.1780678926304640E+00
H    1.8862609093760754E+00    8.4830124119042640E+00   -1.1793001174021893E+00
H    9.9755970202754174E+00    1.1490928427483606E-01   -1.1806664759110712E+00
H    8.3659870292693661E+00    2.9047248750291401E+00   -1.1787006683588181E+00
H    6.7562634418240410E+00    5.6934030263738720E+00   -1.1789045301248176E+00
H    5.1447239501987445E+00    8.4819214970352572E+00   -1.1804996759339510E+00
     &END COORD
     &KIND H
       BASIS_SET DZVP-MOLOPT-SR-GTH-q1
       POTENTIAL GTH-PBE-q1
       &POTENTIAL
1
0.2000000000000000E+00 2 -0.4178900440000000E+01  0.7244633100000000E+00
0
       &END POTENTIAL
     &END KIND
     &KIND N
       BASIS_SET DZVP-MOLOPT-SR-GTH
       POTENTIAL GTH-PBE-q5
       &POTENTIAL
2 3
0.2837905100000000E+00 2 -0.1241522559000000E+02  0.1868095920000000E+01
2
0.2554050000000000E+00 1  0.1363026257000000E+02
0.2454945300000000E+00 0
       &END POTENTIAL
     &END KIND
     &KIND Ga
       BASIS_SET DZVP-MOLOPT-SR-GTH
       POTENTIAL GTH-PBE-q13
       &POTENTIAL
2 1 10
0.4900000000000000E+00 0
3
0.4167772300000000E+00 3  0.1047568975000000E+02 -0.4921768140000000E+01  0.8707055900000000E+00
0.7770178090000000E+01 -0.2248152160000000E+01
0.1784415450000000E+01
0.5696265200000000E+00 2  0.1777985340000000E+01  0.1958597600000000E+00
-0.2317443900000000E+00
0.2381265000000000E+00 1 -0.1624868022000000E+02
       &END POTENTIAL
     &END KIND
     &TOPOLOGY
       NUMBER_OF_ATOMS  256
       MULTIPLE_UNIT_CELL  1 1 1
     &END TOPOLOGY
   &END SUBSYS
 &END FORCE_EVAL
