 # Version information for this restart file 
 # current date 2019-06-10 16:05:35.513
 # current working dir /lustre03/project/6037349/rzk/GaN-carbene/444-addat/00-Surface/RKS
 # Program compiled at                              Sun Apr  7 00:48:11 EDT 2019
 # Program compiled on                          beluga2.int.ets1.calculquebec.ca
 # Program compiled for                        Beluga-Linux-x86-64-intel-openmpi
 # Source code revision number                                         svn:18619
 &GLOBAL
   PRINT_LEVEL  MEDIUM
   PROJECT_NAME TEST
   RUN_TYPE  CELL_OPT
 &END GLOBAL
 &MOTION
   &CELL_OPT
     MAX_ITER  300
     STEP_START_VAL  53
     EXTERNAL_PRESSURE     1.0000000000000000E+00
     KEEP_ANGLES  T
     KEEP_SYMMETRY  T
     CONSTRAINT  Z
     PRESSURE_TOLERANCE     5.0000000000000000E+02
   &END CELL_OPT
 &END MOTION
 &FORCE_EVAL
   METHOD  QS
   STRESS_TENSOR  ANALYTICAL
   &DFT
     BASIS_SET_FILE_NAME BASIS_MOLOPT
     POTENTIAL_FILE_NAME GTH_POTENTIALS
     SURFACE_DIPOLE_CORRECTION  T
     SURF_DIP_DIR  Z
     &SCF
       MAX_SCF  100
       EPS_SCF     5.0000000000000004E-06
       &OT  T
         PRECONDITIONER  FULL_ALL
       &END OT
       &OUTER_SCF  T
         OPTIMIZER  NONE
         EPS_SCF     5.0000000000000004E-06
         MAX_SCF  4
       &END OUTER_SCF
       &PRINT
         &RESTART  OFF
           BACKUP_COPIES  1
           &EACH
             JUST_ENERGY  0
             QS_SCF  0
             MD  20
           &END EACH
         &END RESTART
       &END PRINT
     &END SCF
     &QS
       EPS_DEFAULT     1.0000000000000000E-14
       METHOD  GPW
     &END QS
     &MGRID
       NGRIDS  5
       CUTOFF     1.2000000000000000E+03
     &END MGRID
     &XC
       DENSITY_CUTOFF     1.0000000000000000E-10
       GRADIENT_CUTOFF     1.0000000000000000E-10
       TAU_CUTOFF     1.0000000000000000E-10
       &XC_FUNCTIONAL  NO_SHORTCUT
         &PBE  T
         &END PBE
       &END XC_FUNCTIONAL
       &VDW_POTENTIAL
         POTENTIAL_TYPE  PAIR_POTENTIAL
         &PAIR_POTENTIAL
           R_CUTOFF     1.0000000000000004E+01
           TYPE  DFTD3
           PARAMETER_FILE_NAME dftd3.dat
           REFERENCE_FUNCTIONAL PBE
           EPS_CN     9.9999999999999995E-07
           CALCULATE_C9_TERM  T
           REFERENCE_C9_TERM  T
           LONG_RANGE_CORRECTION  F
           VERBOSE_OUTPUT  F
         &END PAIR_POTENTIAL
       &END VDW_POTENTIAL
     &END XC
   &END DFT
   &SUBSYS
     &CELL
       A     1.3057265703430064E+01    0.0000000000000000E+00    0.0000000000000000E+00
       B    -6.4377621280445672E+00    1.1150531092815907E+01    0.0000000000000000E+00
       C     0.0000000000000000E+00    0.0000000000000000E+00    3.2000000000000000E+01
       MULTIPLE_UNIT_CELL  1 1 1
       &CELL_REF
         A     1.2982353780853531E+01    0.0000000000000000E+00    0.0000000000000000E+00
         B    -6.4911768904267628E+00    1.1243048175136114E+01    0.0000000000000000E+00
         C     0.0000000000000000E+00    0.0000000000000000E+00    3.2000000000000000E+01
         MULTIPLE_UNIT_CELL  1 1 1
       &END CELL_REF
     &END CELL
     &COORD
N    9.3822116990578009E-03   -4.8759050215774515E-03   -1.4667822003307729E-01
Ga    3.0513696532885579E-02    1.8606658145601178E+00    5.1673164958199513E-01
N    5.1370226694700323E-02    1.8690622663829914E+00    2.4419082354960158E+00
Ga    3.3350818631597411E-02    3.5403110319807670E-03    3.1590185512722235E+00
N    6.5831520032759161E-02    1.3870957970577679E-02    5.0928904955567669E+00
Ga    9.2726766509664146E-02    1.8851885156816619E+00    5.7832152988383267E+00
N    1.6791257653946423E-01    1.9428341864129688E+00    7.7130706359188066E+00
Ga    1.5897181282509090E-01    8.3637716864697509E-02    8.4008264664605186E+00
N    2.8452435792497810E-01    1.6867445842747178E-01    1.0326698152144957E+01
Ga    3.2438331915089264E-01    2.0475614756562517E+00    1.1022562874617481E+01
N    4.9697750393906470E-01    2.1608162939299578E+00    1.2952592207073323E+01
Ga    4.4421936129853246E-01    2.8366978138835203E-01    1.3579233906181440E+01
N   -1.2408138894304524E-01   -6.0053135825102508E-02    1.5317615975939413E+01
Ga   -8.0245076314345065E-01    1.1102851235624760E+00    1.6703809749740365E+01
N    5.9302721603746544E-01    3.4038797104214980E-01    1.7877524131457836E+01
N   -1.5999974406913562E+00    2.7827794332469447E+00   -1.4605828702451040E-01
Ga   -1.5791747346855531E+00    4.6486580842073169E+00    5.1686168369023677E-01
N   -1.5587571136925857E+00    4.6575118870840999E+00    2.4419296659488756E+00
Ga   -1.5748083197450953E+00    2.7914239849455922E+00    3.1556251809364149E+00
N   -1.5414438877612122E+00    2.8021938028006694E+00    5.0874618664573603E+00
Ga   -1.5152224432485566E+00    4.6712500772406829E+00    5.7813081194811202E+00
N   -1.4375885215248370E+00    4.7268752462757240E+00    7.7119682191266214E+00
Ga   -1.4528578580224265E+00    2.8660438491772999E+00    8.4012650428838729E+00
N   -1.3186121443242842E+00    2.9531153929446097E+00    1.0330131153818137E+01
Ga   -1.2920994624611331E+00    4.8355607677087002E+00    1.1012750355967224E+01
N   -1.1339402818331197E+00    4.9601878177367427E+00    1.2954746440877221E+01
Ga   -1.1006074651925166E+00    3.1106313662547072E+00    1.3639359576891056E+01
N   -1.5809682454640315E+00    2.6703416404760372E+00    1.5471189412209180E+01
Ga   -2.6332074110741099E+00    4.3733471677589018E+00    1.6760315268753423E+01
N   -1.1097865613253233E+00    3.0966146254116542E+00    1.6772392847469121E+01
N   -3.2093949976929901E+00    5.5703467022942750E+00   -1.4717855765888274E-01
Ga   -3.1884079771120599E+00    7.4358689820201898E+00    5.1647881051496636E-01
N   -3.1675765705530021E+00    7.4444529697919783E+00    2.4414453781357488E+00
Ga   -3.1855391714657633E+00    5.5788189631234468E+00    3.1580291686667556E+00
N   -3.1529253257396719E+00    5.5895957031174150E+00    5.0918462753982334E+00
Ga   -3.1267230585629457E+00    7.4616485569731053E+00    5.7821939347592926E+00
N   -3.0516245698934599E+00    7.5207888059922245E+00    7.7105072875849521E+00
Ga   -3.0597998372997295E+00    5.6579522862838241E+00    8.3874003525174903E+00
N   -2.9328486965552809E+00    5.7442346725320865E+00    1.0312973043068595E+01
Ga   -2.8981074532425799E+00    7.6151382005682882E+00    1.1020853094968093E+01
N   -2.7288728532869553E+00    7.7264738591571653E+00    1.2959875653618703E+01
Ga   -2.7801307151325791E+00    5.8551467956424679E+00    1.3640446698084311E+01
N   -3.2844797906936867E+00    5.5487663371107576E+00    1.5380217146193031E+01
Ga   -3.9533621496157894E+00    6.6995036355297444E+00    1.6759600082700231E+01
N   -2.6375853268191181E+00    5.9146913713899245E+00    1.8031656306721235E+01
N   -4.8189439856340890E+00    8.3580430927829390E+00   -1.4601262932290071E-01
Ga   -4.7980875207751073E+00    1.0224005144407039E+01    5.1712198997111436E-01
N   -4.7776822980593696E+00    1.0233240761712711E+01    2.4422178113910786E+00
Ga   -4.7937359433748492E+00    8.3670619823126611E+00    3.1552886462853502E+00
N   -4.7601064581990729E+00    8.3787148739913277E+00    5.0868963841073107E+00
Ga   -4.7341804547456343E+00    1.0247575235685797E+01    5.7844346994502649E+00
N   -4.6577603941177248E+00    1.0304263444643418E+01    7.7166151237940266E+00
Ga   -4.6727994026195319E+00    8.4415784584334830E+00    8.4006409969192681E+00
N   -4.5399148779641454E+00    8.5281710046806776E+00    1.0328377098498729E+01
Ga   -4.5026739231498549E+00    1.0408889175460070E+01    1.1005997527904848E+01
N   -4.3428261884037900E+00    1.0534992614818263E+01    1.2942355643543157E+01
Ga   -4.3186448643410769E+00    8.6923184869909011E+00    1.3640591303713729E+01
N   -4.9316172296115193E+00    8.4899545927527971E+00    1.5473328070890522E+01
Ga   -5.8869135005589204E+00    9.9067022322604377E+00    1.6699256445086270E+01
N   -4.3126366542815209E+00    8.6511689621808099E+00    1.6780229364324299E+01
N    3.2737264674447100E+00   -4.8103625601139052E-03   -1.4650070404484247E-01
Ga    3.2943959743229896E+00    1.8608036907812360E+00    5.1687063020121171E-01
N    3.3139684293471174E+00    1.8693428532518750E+00    2.4415165452351726E+00
Ga    3.2975510197957409E+00    4.1867934731895174E-03    3.1591731640274952E+00
N    3.3301284338966419E+00    1.5730773261114599E-02    5.0926792765210696E+00
Ga    3.3568607367915493E+00    1.8846271602712301E+00    5.7877478751723146E+00
N    3.4315757099147599E+00    1.9416010568158655E+00    7.7203151459660413E+00
Ga    3.4302361723369676E+00    8.6779605920604005E-02    8.4187763942610943E+00
N    3.5676967046873007E+00    1.7631437591524607E-01    1.0352868565824116E+01
Ga    3.5874431588068645E+00    2.0460271317423500E+00    1.1066249304055944E+01
N    3.7610179099323680E+00    2.1579102380125170E+00    1.3011333340901697E+01
Ga    3.7233074996631839E+00    3.1059002417181703E-01    1.3710429880855049E+01
N    3.1765676816717621E+00    2.5416219955830908E-02    1.5570206705137906E+01
Ga    2.0557150037406697E+00    1.1816970670871907E+00    1.7109529882586109E+01
N    3.8252179433351716E+00    3.8325724773845549E-01    1.6929053906164210E+01
N    1.6643316107133492E+00    2.7828012048531630E+00   -1.4645394627015199E-01
Ga    1.6847820445271495E+00    4.6482911563539240E+00    5.1724866810619585E-01
N    1.7043043800006046E+00    4.6564105607011603E+00    2.4421417958730927E+00
Ga    1.6882694829584384E+00    2.7907124754486610E+00    3.1598522246365945E+00
N    1.7213645826878916E+00    2.8012970948177869E+00    5.0933276819999769E+00
Ga    1.7459335283325965E+00    4.6723602304106935E+00    5.7832167108584631E+00
N    1.8191550322171215E+00    4.7279392721276086E+00    7.7164323773318211E+00
Ga    1.8170062791073931E+00    2.8721284391139457E+00    8.4135293620552023E+00
N    1.9523228955595793E+00    2.9598906864673511E+00    1.0351151331237260E+01
Ga    1.9699486593794904E+00    4.8291152469301348E+00    1.1075428887063717E+01
N    2.1150394378161144E+00    4.9476858123911223E+00    1.3035860865178869E+01
Ga    2.1389812610182113E+00    3.0718910712136469E+00    1.3702364525928873E+01
N    1.5982099612641230E+00    2.7031488878285836E+00    1.5564749114010906E+01
Ga    5.6988716552878638E-01    4.0211455556084976E+00    1.6651111492914691E+01
N    2.2512483860449257E+00    3.0905070599611202E+00    1.6940301976307687E+01
N    5.4821359751774004E-02    5.5704314449145400E+00   -1.4681162878820270E-01
Ga    7.5415131384269349E-02    7.4359375888428252E+00    5.1711792918541932E-01
N    9.5246482944193661E-02    7.4447366941123709E+00    2.4419019681004706E+00
Ga    7.8469832137388659E-02    5.5792583688625275E+00    3.1581998058455443E+00
N    1.1101922798216220E-01    5.5905519764480172E+00    5.0912919553339790E+00
Ga    1.3788403416721198E-01    7.4601054757183194E+00    5.7854282864847217E+00
N    2.1313889315666859E-01    7.5165333304065349E+00    7.7186895926797687E+00
Ga    2.1076522717806695E-01    5.6598488647729042E+00    8.4160617926776862E+00
N    3.4565881145892591E-01    5.7464251605110404E+00    1.0351482616942452E+01
Ga    3.7454059677939416E-01    7.6208914830236116E+00    1.1052382826850009E+01
N    5.4297989582284556E-01    7.7357253304160078E+00    1.2998900171516985E+01
Ga    4.9075952268759876E-01    5.8970257266751771E+00    1.3712738012594052E+01
N   -7.1877429924347883E-02    5.6149176269597882E+00    1.5568996172544338E+01
Ga   -1.1244573593299105E+00    6.7776231234312032E+00    1.7498353156125532E+01
N    5.4962105540818307E-01    5.9830713318236528E+00    1.6860225790020820E+01
N   -1.5545625736924167E+00    8.3578560227144187E+00   -1.4680600792997706E-01
Ga   -1.5340597188336276E+00    1.0223428163090343E+01    5.1691086184766222E-01
N   -1.5146046113801332E+00    1.0231688245996212E+01    2.4417227770420888E+00
Ga   -1.5308502139213629E+00    8.3663884209185575E+00    3.1588853753402626E+00
N   -1.4981386319698353E+00    8.3777862289318037E+00    5.0924393388834428E+00
Ga   -1.4729122566485939E+00    1.0248552175862827E+01    5.7846310297174055E+00
N   -1.3992384552420796E+00    1.0305401261098643E+01    7.7169632763322156E+00
Ga   -1.4021568259196617E+00    8.4489916673429324E+00    8.4096904500964360E+00
N   -1.2690482522967528E+00    8.5345503753182221E+00    1.0348511263155775E+01
Ga   -1.2440657969918227E+00    1.0404602073950002E+01    1.1074554497537896E+01
N   -1.0934797859354131E+00    1.0514656802715434E+01    1.3033978890364237E+01
Ga   -1.0806528243737301E+00    8.6378855222966795E+00    1.3693203838672964E+01
N   -1.6174241674638381E+00    8.2661464183818936E+00    1.5556805833551579E+01
Ga   -2.6703450026042006E+00    9.6028595428227685E+00    1.6662132120062761E+01
N   -9.7336923260837516E-01    8.6042859855694243E+00    1.6843460380530576E+01
N    6.5378688113136967E+00   -5.1010492393297911E-03   -1.4666149763778460E-01
Ga    6.5586824774781523E+00    1.8607559075992146E+00    5.1665171340070715E-01
N    6.5785850539376565E+00    1.8690199939666741E+00    2.4409085835201085E+00
Ga    6.5611259195001761E+00    2.5698560145213443E-03    3.1565527122603854E+00
N    6.5923875468302491E+00    1.2597087197179672E-02    5.0888512564344053E+00
Ga    6.6159499456605575E+00    1.8810445478078361E+00    5.7818077223904751E+00
N    6.6849904078513651E+00    1.9331260681882538E+00    7.7139719690280941E+00
Ga    6.6808771998326062E+00    7.8697470492170296E-02    8.4251399157043405E+00
N    6.8061338824746924E+00    1.6161411774607592E-01    1.0358732800122869E+01
Ga    6.8551179470736026E+00    2.0413199434710738E+00    1.1040742307638137E+01
N    7.0369789589173886E+00    2.1608767290278572E+00    1.2980936665824755E+01
Ga    7.0380825609921409E+00    3.1735608638578444E-01    1.3668621393459937E+01
N    6.4934913357763522E+00   -9.6133355405506535E-03    1.5510591100071061E+01
Ga    5.4670002706650020E+00    1.2695198127884890E+00    1.6610633575116992E+01
N    7.1418166667307297E+00    3.5707231182590721E-01    1.7111041218806925E+01
N    4.9283327561180048E+00    2.7826693287158482E+00   -1.4665266831771837E-01
Ga    4.9493936036182919E+00    4.6482045808510115E+00    5.1712148601180385E-01
N    4.9693959461962036E+00    4.6562984440670627E+00    2.4413666729240675E+00
Ga    4.9514270080006400E+00    2.7899101847453243E+00    3.1566297350834041E+00
N    4.9828285580563856E+00    2.7996198979402314E+00    5.0887759076141261E+00
Ga    5.0066671421843560E+00    4.6689828709929815E+00    5.7806332785414805E+00
N    5.0740650185637328E+00    4.7239202236389675E+00    7.7147210284407537E+00
Ga    5.0762228195923820E+00    2.8682898323237693E+00    8.4227956751744166E+00
N    5.2050708994091615E+00    2.9536107184390916E+00    1.0355314455980508E+01
Ga    5.2411626690288085E+00    4.8395605881445976E+00    1.1028485437545635E+01
N    5.4139919809848074E+00    4.9646084518114488E+00    1.2972347387574285E+01
Ga    5.4393819676023965E+00    3.1161878125718081E+00    1.3658530764925986E+01
N    4.9362915171033146E+00    2.8161988737049137E+00    1.5489854241717948E+01
Ga    3.8630667216464336E+00    4.0401405255827596E+00    1.6620237632395565E+01
N    5.5508515446520486E+00    3.1608600973567813E+00    1.7083729122965330E+01
N    3.3189615388052465E+00    5.5701591047301218E+00   -1.4638463316778538E-01
Ga    3.3399790614468610E+00    7.4359529814671488E+00    5.1674544957467039E-01
N    3.3601025810450964E+00    7.4445774304635890E+00    2.4412275736893156E+00
Ga    3.3422211938984119E+00    5.5782422301370778E+00    3.1567420624814906E+00
N    3.3733847136107991E+00    5.5881446306772391E+00    5.0887457423830993E+00
Ga    3.3983238462917553E+00    7.4564609373084831E+00    5.7831756364874662E+00
N    3.4696065622105907E+00    7.5095198549728179E+00    7.7156105351803701E+00
Ga    3.4603108110834637E+00    5.6542130333508664E+00    8.4282557669034279E+00
N    3.5830143973392961E+00    5.7377629288221845E+00    1.0361504908910467E+01
Ga    3.6402191272857536E+00    7.6184156068480835E+00    1.1041258072115742E+01
N    3.8263893290367719E+00    7.7389057894052611E+00    1.2976972727209072E+01
Ga    3.8103291021340957E+00    5.8938415232774890E+00    1.3663943924765418E+01
N    3.2728230378650536E+00    5.5513028323553204E+00    1.5499887449908655E+01
Ga    2.2516178736449874E+00    6.8408910798530504E+00    1.6578527469055533E+01
N    3.9156250435210422E+00    5.9290684420364475E+00    1.7110333358698398E+01
N    1.7095242012819742E+00    8.3578327828506254E+00   -1.4622482928780625E-01
Ga    1.7305455179688718E+00    1.0223574344175356E+01    5.1686822662254117E-01
N    1.7508975048660498E+00    1.0231674637386574E+01    2.4414260352088641E+00
Ga    1.7330784811214412E+00    8.3655568219373055E+00    3.1574970037147914E+00
N    1.7649435243151017E+00    8.3762680107608993E+00    5.0900842873761878E+00
Ga    1.7885067672733572E+00    1.0245952526107512E+01    5.7827765534685760E+00
N    1.8583199488613753E+00    1.0301915761884953E+01    7.7161539412570788E+00
Ga    1.8600986429015389E+00    8.4458688840364537E+00    8.4191629094825053E+00
N    1.9941724838277444E+00    8.5323206092893233E+00    1.0351480637686063E+01
Ga    2.0247264648357000E+00    1.0416033456439003E+01    1.1033678795765892E+01
N    2.1993743548232265E+00    1.0542821258274843E+01    1.2974795406783969E+01
Ga    2.2292681622650541E+00    8.6920817147979399E+00    1.3647935937852422E+01
N    1.7130551421470552E+00    8.3874794876443506E+00    1.5471750228341698E+01
Ga    6.3501209493811073E-01    9.6020789994033926E+00    1.6578615709280559E+01
N    2.3096944108634321E+00    8.7187697192158566E+00    1.7106680042799042E+01
N    9.8024541839364634E+00   -4.7275866361758878E-03   -1.4640936039916483E-01
Ga    9.8231337281946143E+00    1.8608364341132706E+00    5.1776170509549546E-01
N    9.8435970398103123E+00    1.8693030648085478E+00    2.4424346173165161E+00
Ga    9.8258798791798210E+00    2.5653790983701887E-03    3.1573292017395551E+00
N    9.8569781866786705E+00    1.2025329367995437E-02    5.0893244617982329E+00
Ga    9.8865148188649847E+00    1.8835667205115529E+00    5.7719008095454303E+00
N    9.9620160339801735E+00    1.9376446625173496E+00    7.6985990283637937E+00
Ga    9.9422324454789326E+00    8.4058694917016355E-02    8.3973014821340701E+00
N    1.0067958591270765E+01    1.7568080048686568E-01    1.0315825450037975E+01
Ga    1.0117404797516951E+01    2.0414123512616658E+00    1.1027690959325749E+01
N    1.0300994900351929E+01    2.1639028018877116E+00    1.2957685185797427E+01
Ga    1.0325768651833688E+01    3.2155517251891591E-01    1.3667772037047683E+01
N    9.8056879800618031E+00    2.6729793709062900E-02    1.5522601378909311E+01
Ga    8.7462585994667457E+00    1.2500179646239196E+00    1.6793478968329378E+01
N    1.0479314491465052E+01    3.7513100060666466E-01    1.6868685713279742E+01
N    8.1930153585736836E+00    2.7827621690443904E+00   -1.4646281631599695E-01
Ga    8.2138320411453645E+00    4.6485073863085082E+00    5.1656238129028731E-01
N    8.2343705400169309E+00    4.6571347963020502E+00    2.4413131665105774E+00
Ga    8.2157464832335751E+00    2.7910117147612930E+00    3.1577639444378609E+00
N    8.2466754960927240E+00    2.7997809498477571E+00    5.0898375362741950E+00
Ga    8.2734842282641416E+00    4.6705360925662998E+00    5.7791217320914932E+00
N    8.3426958610366544E+00    4.7234728237474748E+00    7.7091718367792827E+00
Ga    8.3389796738961675E+00    2.8546362034987181E+00    8.3872914498479414E+00
N    8.4701873320059136E+00    2.9286978459579762E+00    1.0308818307932988E+01
Ga    8.4817908266953399E+00    4.8157689664830539E+00    1.0958877862926700E+01
N    8.6359836504144081E+00    4.9309016643645043E+00    1.2855652356644830E+01
Ga    8.7164901737357408E+00    3.1302738360925697E+00    1.3638242246368998E+01
N    8.2418796753966905E+00    2.8192856475234516E+00    1.5513725485722542E+01
Ga    7.1521120549355803E+00    4.0464410443380849E+00    1.6716301869881161E+01
N    8.8991234310104677E+00    3.1770885831973659E+00    1.6864687056628771E+01
N    6.5834928780064494E+00    5.5704851429218412E+00   -1.4657721182190531E-01
Ga    6.6042033130208635E+00    7.4360443904075018E+00    5.1768495688849359E-01
N    6.6243625008445299E+00    7.4449537777626631E+00    2.4423471348185326E+00
Ga    6.6070948236939175E+00    5.5778606565425219E+00    3.1575268197554442E+00
N    6.6376634528271383E+00    5.5877906176992829E+00    5.0891855188480637E+00
Ga    6.6674301019006110E+00    7.4607629905034232E+00    5.7695735055305253E+00
N    6.7416227208022015E+00    7.5174462621274998E+00    7.6960541294441871E+00
Ga    6.7204427105606541E+00    5.6616389096204021E+00    8.3916930185137257E+00
N    6.8437302019240853E+00    5.7552415720814345E+00    1.0310014576162688E+01
Ga    6.8953301030425296E+00    7.6204812273293454E+00    1.1027746177044266E+01
N    7.0853793852238383E+00    7.7441268313971019E+00    1.2958129904147697E+01
Ga    7.1084666430938865E+00    5.8918764920543483E+00    1.3639231310467325E+01
N    6.6337978639126467E+00    5.6131094705543516E+00    1.5516040877589912E+01
Ga    5.5231303726785725E+00    6.8242025975651757E+00    1.6771509475379975E+01
N    7.2912372327473109E+00    5.9789026236982270E+00    1.6844456919155533E+01
N    4.9741327436004470E+00    8.3580761140908812E+00   -1.4620042082166534E-01
Ga    4.9949367036635355E+00    1.0223719562977791E+01    5.1706153133912724E-01
N    5.0152671834909555E+00    1.0232230210879544E+01    2.4419849744548023E+00
Ga    4.9968215635763809E+00    8.3663391187004166E+00    3.1581158110645049E+00
N    5.0277408920199296E+00    8.3764609103780963E+00    5.0900160219899577E+00
Ga    5.0548671232928157E+00    1.0246693418337307E+01    5.7808735164915062E+00
N    5.1253612154868380E+00    1.0299822965045642E+01    7.7123927033637933E+00
Ga    5.1215507849352839E+00    8.4326612438250628E+00    8.3913120684717324E+00
N    5.2532754477282273E+00    8.5078875211803346E+00    1.0311920672783717E+01
Ga    5.2600145839300696E+00    1.0387347936642261E+01    1.0959559789619499E+01
N    5.4064086564773550E+00    1.0504989505197063E+01    1.2863007073942212E+01
Ga    5.4999306923534492E+00    8.7040504112998711E+00    1.3667410619488050E+01
N    4.9855889700658498E+00    8.3565583640673573E+00    1.5511777907229147E+01
Ga    3.9098881131086412E+00    9.6088511102309742E+00    1.6712521007681030E+01
N    5.6312382416908129E+00    8.7476696286602191E+00    1.6872184571313799E+01
H    6.8140317610185476E-03   -5.8366460415850505E-03   -1.1739248969261327E+00
H   -1.6026442736891549E+00    2.7817671256626988E+00   -1.1733375293402037E+00
H   -3.2117360111085742E+00    5.5693993556844585E+00   -1.1744324976979210E+00
H   -4.8217008588620072E+00    8.3570787606298786E+00   -1.1733270435322025E+00
H    3.2717138630694378E+00   -5.3640221992390675E-03   -1.1737526210392002E+00
H    1.6624168753609652E+00    2.7821478704087816E+00   -1.1736831481275416E+00
H    5.2976928845376130E-02    5.5696993047034695E+00   -1.1740611325453800E+00
H   -1.5564306112858179E+00    8.3572266235199386E+00   -1.1740099149793082E+00
H    6.5355918634816899E+00   -6.0642316714053400E-03   -1.1739422666105936E+00
H    4.9257804444673345E+00    2.7817979372371613E+00   -1.1738750764219261E+00
H    3.3164935037149266E+00    5.5694776132427437E+00   -1.1736670598846302E+00
H    1.7072382682015470E+00    8.3570249080853625E+00   -1.1734870847695793E+00
H    9.8002708593796726E+00   -5.3399135647247704E-03   -1.1736837648800595E+00
H    8.1910768937288925E+00    2.7817443546557628E+00   -1.1737196113573090E+00
H    6.5810968962080745E+00    5.5700989592476198E+00   -1.1738556345789761E+00
H    4.9720132415901794E+00    8.3572747748120708E+00   -1.1734318409783893E+00
     &END COORD
     &KIND H
       BASIS_SET DZVP-MOLOPT-SR-GTH-q1
       POTENTIAL GTH-PBE-q1
       &POTENTIAL
 1
  0.2000000000000000E+00 2 -0.4178900440000000E+01  0.7244633100000000E+00
 0
         # Potential name:  GTH-PBE-Q1  for symbol:  H
         # Potential read from the potential filename: GTH_POTENTIALS
       &END POTENTIAL
     &END KIND
     &KIND N
       BASIS_SET DZVP-MOLOPT-SR-GTH
       POTENTIAL GTH-PBE-q5
       &POTENTIAL
 2 3
  0.2837905100000000E+00 2 -0.1241522559000000E+02  0.1868095920000000E+01
 2
  0.2554050000000000E+00 1  0.1363026257000000E+02
  0.2454945300000000E+00 0
         # Potential name:  GTH-PBE-Q5  for symbol:  N
         # Potential read from the potential filename: GTH_POTENTIALS
       &END POTENTIAL
     &END KIND
     &KIND Ga
       BASIS_SET DZVP-MOLOPT-SR-GTH
       POTENTIAL GTH-PBE-q13
       &POTENTIAL
 2 1 10
  0.4900000000000000E+00 0
 3
  0.4167772300000000E+00 3  0.1047568975000000E+02 -0.4921768140000000E+01  0.8707055900000000E+00
  0.7770178090000000E+01 -0.2248152160000000E+01
  0.1784415450000000E+01
  0.5696265200000000E+00 2  0.1777985340000000E+01  0.1958597600000000E+00
 -0.2317443900000000E+00
  0.2381265000000000E+00 1 -0.1624868022000000E+02
         # Potential name:  GTH-PBE-Q13  for symbol:  GA
         # Potential read from the potential filename: GTH_POTENTIALS
       &END POTENTIAL
     &END KIND
     &TOPOLOGY
       NUMBER_OF_ATOMS  256
       MULTIPLE_UNIT_CELL  1 1 1
     &END TOPOLOGY
   &END SUBSYS
 &END FORCE_EVAL
