 # Version information for this restart file 
 # current date 2019-06-11 00:35:36.503
 # current working dir /lustre03/project/6037349/rzk/GaN-carbene/444-addat/00-Surface/RKS
 # Program compiled at                              Sun Apr  7 00:48:11 EDT 2019
 # Program compiled on                          beluga2.int.ets1.calculquebec.ca
 # Program compiled for                        Beluga-Linux-x86-64-intel-openmpi
 # Source code revision number                                         svn:18619
 &GLOBAL
   PRINT_LEVEL  MEDIUM
   PROJECT_NAME TEST
   RUN_TYPE  CELL_OPT
 &END GLOBAL
 &MOTION
   &CELL_OPT
     MAX_ITER  300
     STEP_START_VAL  110
     EXTERNAL_PRESSURE     1.0000000000000000E+00
     KEEP_ANGLES  T
     KEEP_SYMMETRY  T
     CONSTRAINT  Z
     PRESSURE_TOLERANCE     5.0000000000000000E+02
   &END CELL_OPT
 &END MOTION
 &FORCE_EVAL
   METHOD  QS
   STRESS_TENSOR  ANALYTICAL
   &DFT
     BASIS_SET_FILE_NAME BASIS_MOLOPT
     POTENTIAL_FILE_NAME GTH_POTENTIALS
     SURFACE_DIPOLE_CORRECTION  T
     SURF_DIP_DIR  Z
     &SCF
       MAX_SCF  100
       EPS_SCF     5.0000000000000004E-06
       &OT  T
         PRECONDITIONER  FULL_ALL
       &END OT
       &OUTER_SCF  T
         OPTIMIZER  NONE
         EPS_SCF     5.0000000000000004E-06
         MAX_SCF  4
       &END OUTER_SCF
       &PRINT
         &RESTART  OFF
           BACKUP_COPIES  1
           &EACH
             JUST_ENERGY  0
             QS_SCF  0
             MD  20
           &END EACH
         &END RESTART
       &END PRINT
     &END SCF
     &QS
       EPS_DEFAULT     1.0000000000000000E-14
       METHOD  GPW
     &END QS
     &MGRID
       NGRIDS  5
       CUTOFF     1.2000000000000000E+03
     &END MGRID
     &XC
       DENSITY_CUTOFF     1.0000000000000000E-10
       GRADIENT_CUTOFF     1.0000000000000000E-10
       TAU_CUTOFF     1.0000000000000000E-10
       &XC_FUNCTIONAL  NO_SHORTCUT
         &PBE  T
         &END PBE
       &END XC_FUNCTIONAL
       &VDW_POTENTIAL
         POTENTIAL_TYPE  PAIR_POTENTIAL
         &PAIR_POTENTIAL
           R_CUTOFF     1.0000000000000005E+01
           TYPE  DFTD3
           PARAMETER_FILE_NAME dftd3.dat
           REFERENCE_FUNCTIONAL PBE
           EPS_CN     9.9999999999999995E-07
           CALCULATE_C9_TERM  T
           REFERENCE_C9_TERM  T
           LONG_RANGE_CORRECTION  F
           VERBOSE_OUTPUT  F
         &END PAIR_POTENTIAL
       &END VDW_POTENTIAL
     &END XC
   &END DFT
   &SUBSYS
     &CELL
       A     1.3027870589375908E+01    0.0000000000000000E+00    0.0000000000000000E+00
       B    -6.4426532584977041E+00    1.1159002779267482E+01    0.0000000000000000E+00
       C     0.0000000000000000E+00    0.0000000000000000E+00    3.2000000000000000E+01
       MULTIPLE_UNIT_CELL  1 1 1
       &CELL_REF
         A     1.2982353780853531E+01    0.0000000000000000E+00    0.0000000000000000E+00
         B    -6.4911768904267628E+00    1.1243048175136114E+01    0.0000000000000000E+00
         C     0.0000000000000000E+00    0.0000000000000000E+00    3.2000000000000000E+01
         MULTIPLE_UNIT_CELL  1 1 1
       &END CELL_REF
     &END CELL
     &COORD
N    2.1566742271443201E-01    1.2028803118355369E-01   -1.5425344173047342E-01
Ga    2.3243263808389192E-01    1.9878441534284725E+00    5.1368248903966096E-01
N    2.3889534156690631E-01    1.9961895177154731E+00    2.4368823990621649E+00
Ga    2.2354567981277587E-01    1.2915540196837327E-01    3.1468118172629200E+00
N    2.2516031729938013E-01    1.2705026193093649E-01    5.0772286584840645E+00
Ga    2.4128580449533393E-01    1.9956035857316450E+00    5.7711933419784236E+00
N    2.4852307857279293E-01    2.0050132872343513E+00    7.7063736502040374E+00
Ga    2.3024791914773576E-01    1.3494149670299335E-01    8.3849549126808789E+00
N    2.2414379513707711E-01    1.2850148441594178E-01    1.0317493469497432E+01
Ga    2.4333487282643462E-01    1.9927435195817755E+00    1.1013710066863403E+01
N    2.5808940967189420E-01    1.9989484857048083E+00    1.2947155040994440E+01
Ga    2.1037707652919865E-01    1.2732069319396361E-01    1.3618621618049520E+01
N   -3.6171031136946374E-01   -2.0354584593245498E-01    1.5351489498402074E+01
Ga   -1.0539114372160223E+00    9.2261581523936531E-01    1.6750624180127122E+01
N    2.7751610528977322E-01    1.2603068031177614E-01    1.8010254760485171E+01
N   -1.3949143628531406E+00    2.9102911477980236E+00   -1.5242113998736420E-01
Ga   -1.3784542395252637E+00    4.7778747237360557E+00    5.1448769042226361E-01
N   -1.3718515511415550E+00    4.7859019288869886E+00    2.4374377341450537E+00
Ga   -1.3878157794157759E+00    2.9193231989809920E+00    3.1477668629851783E+00
N   -1.3859770753961291E+00    2.9190265179761492E+00    5.0780013319364707E+00
Ga   -1.3685155293940467E+00    4.7859674623362922E+00    5.7745946849768783E+00
N   -1.3611029415328166E+00    4.7946503033806742E+00    7.7102815203816633E+00
Ga   -1.3794240741675967E+00    2.9268202424692324E+00    8.3945427875811554E+00
N   -1.3826973105412133E+00    2.9231187560828533E+00    1.0331656391496617E+01
Ga   -1.3723465219641526E+00    4.7874953648131742E+00    1.1031420887647254E+01
N   -1.3668608033953413E+00    4.7990429032760815E+00    1.2971466929368356E+01
Ga   -1.3613268808508905E+00    2.9243963174239487E+00    1.3627300190763012E+01
N   -1.8938237537647664E+00    2.4608989736583196E+00    1.5442034487014457E+01
Ga   -2.9163798199924655E+00    4.2001031780700320E+00    1.6829147293657321E+01
N   -1.4242091968932109E+00    2.9002316710722544E+00    1.6731980426311981E+01
N   -3.0056777333425813E+00    5.6998716941790768E+00   -1.5250920712676977E-01
Ga   -2.9889935765468159E+00    7.5675507265606301E+00    5.1415931683873706E-01
N   -2.9822068241576360E+00    7.5750427698847878E+00    2.4372872587486452E+00
Ga   -2.9983848040594849E+00    5.7085048616372438E+00    3.1485939923408623E+00
N   -2.9968677207685701E+00    5.7066300005410397E+00    5.0796222375879516E+00
Ga   -2.9783800512208347E+00    7.5740074151626144E+00    5.7746736218734274E+00
N   -2.9703293093411727E+00    7.5831237281606532E+00    7.7106318223618606E+00
Ga   -2.9886631047647021E+00    5.7161279033015280E+00    8.3961064851519112E+00
N   -2.9939996477623825E+00    5.7102818865795291E+00    1.0332416494155932E+01
Ga   -2.9801202054343414E+00    7.5723536837286076E+00    1.1033196862361448E+01
N   -2.9719882870286902E+00    7.5782259388246347E+00    1.2974116228542274E+01
Ga   -3.0008772087842472E+00    5.7097695177000736E+00    1.3677191296447266E+01
N   -3.5189740750494680E+00    5.3970236546353236E+00    1.5438549077674120E+01
Ga   -4.2496983062070992E+00    6.5041590311801132E+00    1.6841748103276462E+01
N   -2.9125708185538137E+00    5.7323246485563875E+00    1.8093836821065519E+01
N   -4.6161644746197705E+00    8.4897669197586474E+00   -1.5235293682463877E-01
Ga   -4.5997564597279519E+00    1.0357577701188532E+01    5.1411373181424302E-01
N   -4.5926622144517797E+00    1.0364871434552423E+01    2.4371348424064516E+00
Ga   -4.6085961934214001E+00    8.4977920809864198E+00    3.1477918980445980E+00
N   -4.6056168109070121E+00    8.4962198326863287E+00    5.0781623676349428E+00
Ga   -4.5891665407723918E+00    1.0363435399687821E+01    5.7720507268108232E+00
N   -4.5818567116480899E+00    1.0371683427627836E+01    7.7069544926854281E+00
Ga   -4.5989300159185476E+00    8.5040975247284560E+00    8.3955424083178549E+00
N   -4.6016089261154018E+00    8.4994999247246312E+00    1.0332981846123841E+01
Ga   -4.5931332000227885E+00    1.0369114343091489E+01    1.1015469013021674E+01
N   -4.5844422588019915E+00    1.0386053444413692E+01    1.2949579933021747E+01
Ga   -4.5944469532589522E+00    8.5237088409129207E+00    1.3629412099170253E+01
N   -5.2492779733328563E+00    8.2891173345075266E+00    1.5449438080330639E+01
Ga   -6.1612096013573225E+00    9.7553815610718537E+00    1.6715113956266794E+01
N   -4.6211145498970785E+00    8.4431976037576266E+00    1.6741146190579766E+01
N    3.4727380539280275E+00    1.2053296248931682E-01   -1.5211418805429819E-01
Ga    3.4890773096138621E+00    1.9879658448185475E+00    5.1468685526557434E-01
N    3.4946391202222040E+00    1.9952449441239384E+00    2.4377064242007198E+00
Ga    3.4806724272553806E+00    1.2943024297431771E-01    3.1504338708114834E+00
N    3.4832314925010830E+00    1.2802922940099520E-01    5.0818507873680927E+00
Ga    3.4980170094148786E+00    1.9944934628593249E+00    5.7791313584863122E+00
N    3.5053232609022649E+00    2.0032659873329979E+00    7.7166256672001685E+00
Ga    3.4889321424952495E+00    1.3623276546618887E-01    8.4046774003881488E+00
N    3.4875333167026650E+00    1.3337397409399587E-01    1.0344281947892753E+01
Ga    3.5022775892669991E+00    1.9981079602283436E+00    1.1033608816768009E+01
N    3.5201030986780220E+00    2.0135557781891498E+00    1.2980888675928487E+01
Ga    3.4772072513614729E+00    1.5995428661637798E-01    1.3675538630232486E+01
N    2.8947995944082940E+00   -1.4572879465611391E-01    1.5531357201268133E+01
Ga    1.8060976853202697E+00    1.0064912767775902E+00    1.7517786063858697E+01
N    3.4624349236475744E+00    2.0299906924983205E-01    1.6867201098249016E+01
N    1.8621932298951738E+00    2.9101811604274337E+00   -1.5210700915242825E-01
Ga    1.8781492253585192E+00    4.7775295832832185E+00    5.1509383462541991E-01
N    1.8837319416675429E+00    4.7846200587770040E+00    2.4379095234599939E+00
Ga    1.8698632869404386E+00    2.9188696399689271E+00    3.1505106617962677E+00
N    1.8722743402110931E+00    2.9179177019640066E+00    5.0817248626922540E+00
Ga    1.8863558990868770E+00    4.7842289742045736E+00    5.7789618232771920E+00
N    1.8928452559687663E+00    4.7924622533072956E+00    7.7163053221823565E+00
Ga    1.8784069978455316E+00    2.9257319008365616E+00    8.4042698531257845E+00
N    1.8786516471012484E+00    2.9216913658979156E+00    1.0343410005950961E+01
Ga    1.8858835102627365E+00    4.7841692552875452E+00    1.1042026522279372E+01
N    1.8849945117044475E+00    4.7880708292084577E+00    1.2992119517970027E+01
Ga    1.8908265255879686E+00    2.9091525292391842E+00    1.3671098760861907E+01
N    1.3442486347686620E+00    2.5363861907328586E+00    1.5525012624905148E+01
Ga    2.0302817430906289E-01    3.8130066481195857E+00    1.6439841672169809E+01
N    1.9303492171810084E+00    2.8413480048822723E+00    1.6859628838219781E+01
N    2.5128192011413464E-01    5.6998940344904385E+00   -1.5151198443453476E-01
Ga    2.6755211535250101E-01    7.5674175625725386E+00    5.1491655256098767E-01
N    2.7320973829832090E-01    7.5746004831946383E+00    2.4377254490928619E+00
Ga    2.5894226800618558E-01    5.7089463990057148E+00    3.1506225888482389E+00
N    2.6115734844979976E-01    5.7081439338387474E+00    5.0821345422341180E+00
Ga    2.7669277884098636E-01    7.5741555370462699E+00    5.7807202940603446E+00
N    2.8384779652381320E-01    7.5830530067333477E+00    7.7191217980520825E+00
Ga    2.6777570144767504E-01    5.7155458275310487E+00    8.4085471082721295E+00
N    2.6418650772283470E-01    5.7118195760259969E+00    1.0349412984086129E+01
Ga    2.8410828457699489E-01    7.5794736420758975E+00    1.1030823851195393E+01
N    2.9746657416803518E-01    7.5929531995915873E+00    1.2976058560447605E+01
Ga    2.6060860272516867E-01    5.7403068352639171E+00    1.3671386060716367E+01
N   -3.2684932495860147E-01    5.4447167618246457E+00    1.5518901129294546E+01
Ga   -1.3933285428824178E+00    6.6045371221277396E+00    1.7535177582334356E+01
N    2.3568285801563826E-01    5.7823216994163040E+00    1.6856667478312335E+01
N   -1.3593071314517799E+00    8.4897999537020592E+00   -1.5138373515817816E-01
Ga   -1.3432027796278041E+00    1.0357261055129158E+01    5.1486325778379982E-01
N   -1.3375279848194435E+00    1.0364215462784848E+01    2.4377639286440069E+00
Ga   -1.3516191562524114E+00    8.4983404170501728E+00    3.1511904400723059E+00
N   -1.3489076047767714E+00    8.4970297198636953E+00    5.0827744241485338E+00
Ga   -1.3344189971189651E+00    1.0363092880238680E+01    5.7797888499602053E+00
N   -1.3280441453132159E+00    1.0371208005692122E+01    7.7172472384936119E+00
Ga   -1.3429038277712699E+00    8.5057220662702822E+00    8.4098419119623120E+00
N   -1.3454038248625919E+00    8.5004119441217263E+00    1.0351557075397963E+01
Ga   -1.3366484801877014E+00    1.0365285512914751E+01    1.1045181387652612E+01
N   -1.3365957301288935E+00    1.0370319067209373E+01    1.2996427750617483E+01
Ga   -1.3255614912706957E+00    8.4908642132147154E+00    1.3671091284466241E+01
N   -1.8620639030032586E+00    8.1142455341160833E+00    1.5521194455616723E+01
Ga   -3.0111484629650560E+00    9.3826906595097945E+00    1.6447075799778339E+01
N   -1.2858862118030996E+00    8.4247761108979251E+00    1.6854753759826409E+01
N    6.7288803358190901E+00    1.2026731165831427E-01   -1.5206199591528993E-01
Ga    6.7457367693071983E+00    1.9879960300549930E+00    5.1444843444339017E-01
N    6.7506079669293202E+00    1.9948781764974743E+00    2.4376297180078743E+00
Ga    6.7349284062850820E+00    1.2830317365517321E-01    3.1490079123930235E+00
N    6.7351797736987278E+00    1.2630181656831799E-01    5.0796086017539972E+00
Ga    6.7513086530721678E+00    1.9924373630562515E+00    5.7744472503189685E+00
N    6.7564874557718415E+00    1.9994304075560467E+00    7.7115267943345502E+00
Ga    6.7428977217636437E+00    1.3516703355766191E-01    8.4112114115994387E+00
N    6.7384360427727188E+00    1.2953042352480235E-01    1.0355431310234810E+01
Ga    6.7663055607076341E+00    1.9989143323763494E+00    1.1037069231970516E+01
N    6.7866331584087352E+00    2.0090986118403027E+00    1.2986961482154685E+01
Ga    6.7649263729320070E+00    1.4675342643236425E-01    1.3657506057816256E+01
N    6.1855920623973208E+00   -1.8663426105424064E-01    1.5491027341368039E+01
Ga    5.1379464386089140E+00    1.0686328429062155E+00    1.6588859933846194E+01
N    6.8297391051142311E+00    1.6349443229452323E-01    1.7071109172576755E+01
N    5.1185132560049880E+00    2.9099390451649469E+00   -1.5222936402035023E-01
Ga    5.1352502729415113E+00    4.7775087215573402E+00    5.1487608743402480E-01
N    5.1403823253623901E+00    4.7842967531933835E+00    2.4378983723354972E+00
Ga    5.1246858682424703E+00    2.9178673887022391E+00    3.1499763252124398E+00
N    5.1256648616069720E+00    2.9160306330358816E+00    5.0807553866126245E+00
Ga    5.1405880318406387E+00    4.7825424372407195E+00    5.7743498118351093E+00
N    5.1448016634861418E+00    4.7901259704041372E+00    7.7111958736592845E+00
Ga    5.1355707652075715E+00    2.9260363926195065E+00    8.4101805742589626E+00
N    5.1356915000451187E+00    2.9227825617131789E+00    1.0354272030996411E+01
Ga    5.1517258238277135E+00    4.7939375637827650E+00    1.1034935517466931E+01
N    5.1666463446674573E+00    4.8135535819623350E+00    1.2984864456649486E+01
Ga    5.1785326868145738E+00    2.9520671651266821E+00    1.3645484786347767E+01
N    4.6255251176038348E+00    2.6255959953377821E+00    1.5469658127232758E+01
Ga    3.5368138349151752E+00    3.8296470593057013E+00    1.6581884642231717E+01
N    5.2306673335960872E+00    2.9575827805163706E+00    1.7070528225336453E+01
N    3.5077907266261210E+00    5.6993367439973905E+00   -1.5214542228688352E-01
Ga    3.5244477283983975E+00    7.5671807867595566E+00    5.1349006863133062E-01
N    3.5293905132446923E+00    7.5736428561598510E+00    2.4363621963819329E+00
Ga    3.5139713415291860E+00    5.7072101839932117E+00    3.1487817113433567E+00
N    3.5145337633941467E+00    5.7047111786658125E+00    5.0792634706431565E+00
Ga    3.5295296389510709E+00    7.5712072548408083E+00    5.7712670081184338E+00
N    3.5334019300625479E+00    7.5770507243320679E+00    7.7067928006967419E+00
Ga    3.5217670142259787E+00    5.7140939580617465E+00    8.4098050934269484E+00
N    3.5174534585346509E+00    5.7084887477257853E+00    1.0353062793167329E+01
Ga    3.5432684137617634E+00    7.5782689648876467E+00    1.1033825008051450E+01
N    3.5603894802548552E+00    7.5882315861038716E+00    1.2981658604492900E+01
Ga    3.5406650864024454E+00    5.7295712505067105E+00    1.3653513324763983E+01
N    2.9617245308882838E+00    5.3839731421203068E+00    1.5482444453449000E+01
Ga    1.9154808605975622E+00    6.6413081832822192E+00    1.6578374104324674E+01
N    3.5987875624840151E+00    5.7286979283738342E+00    1.7067867230323387E+01
N    1.8969438853056504E+00    8.4894221401902907E+00   -1.5233483448505383E-01
Ga    1.9135679768987426E+00    1.0357291655824429E+01    5.1374818306038761E-01
N    1.9182858850265299E+00    1.0364116901789387E+01    2.4365893844921511E+00
Ga    1.9035759949030484E+00    8.4974363061782228E+00    3.1483163695347645E+00
N    1.9039465142198977E+00    8.4956099268229597E+00    5.0790514638728812E+00
Ga    1.9182680723701300E+00    1.0362276955437462E+01    5.7713855377199934E+00
N    1.9210034423833755E+00    1.0369672588681562E+01    7.7068381017465706E+00
Ga    1.9152414039266639E+00    8.5068445359295204E+00    8.4067793782256217E+00
N    1.9146146724882824E+00    8.5034802318995801E+00    1.0349452573967465E+01
Ga    1.9306059607510613E+00    1.0372574393366767E+01    1.1036259075351730E+01
N    1.9440761709430938E+00    1.0390490194167882E+01    1.2985130383519392E+01
Ga    1.9561817129785815E+00    8.5307019633509906E+00    1.3647349282824599E+01
N    1.3897167791116776E+00    8.2003409623444767E+00    1.5469227632467009E+01
Ga    3.1716572759833656E-01    9.4208302556996966E+00    1.6580761476972558E+01
N    1.9828536973882782E+00    8.5205035364919421E+00    1.7091606894941282E+01
N    9.9860919286952630E+00    1.2006317159723544E-01   -1.5354334945848908E-01
Ga    1.0002829856461657E+01    1.9879859417707590E+00    5.1280606025927167E-01
N    1.0008392086332131E+01    1.9958876551453266E+00    2.4360528802001205E+00
Ga    9.9918692787213104E+00    1.2868597473478396E-01    3.1462429336967701E+00
N    9.9917517032346925E+00    1.2634681359378711E-01    5.0762986004069033E+00
Ga    1.0011241971112092E+01    1.9953369197330457E+00    5.7664977688922381E+00
N    1.0018751588858953E+01    2.0051618743579733E+00    7.6993800548520186E+00
Ga    9.9941393247908277E+00    1.3736620946384134E-01    8.3784787212845426E+00
N    9.9820586274424947E+00    1.3517367039879666E-01    1.0308766236902434E+01
Ga    1.0013083359854097E+01    1.9934839769511237E+00    1.1005907723721732E+01
N    1.0024287016472320E+01    2.0018080743120690E+00    1.2939740635216225E+01
Ga    1.0064728168363850E+01    1.5526297850324178E-01    1.3660946977815801E+01
N    9.5374438997641722E+00   -1.5270583101739094E-01    1.5525705937866281E+01
Ga    8.4299700829829440E+00    1.0716822629841041E+00    1.6710693541974958E+01
N    1.0174374871007171E+01    1.9286575451651217E-01    1.6891546613573428E+01
N    8.3754069880199662E+00    2.9101922255133728E+00   -1.5271603035126696E-01
Ga    8.3923633547655747E+00    4.7778361232387221E+00    5.1400262677185227E-01
N    8.3979261294912728E+00    4.7851716349026940E+00    2.4370582872192661E+00
Ga    8.3814476805472466E+00    2.9184759745662974E+00    3.1483186376482353E+00
N    8.3812118368360800E+00    2.9165202767382765E+00    5.0788524767772083E+00
Ga    8.4005260382820808E+00    4.7839931453501947E+00    5.7720012387497741E+00
N    8.4062847033290886E+00    4.7918780781389447E+00    7.7070589185300635E+00
Ga    8.3897383482981844E+00    2.9211431214598602E+00    8.3886538087115987E+00
N    8.3858244200169842E+00    2.9134044117775031E+00    1.0323512607412898E+01
Ga    8.3949121032602587E+00    4.7834362368872778E+00    1.0990301659643263E+01
N    8.3900075977355630E+00    4.7857489654508925E+00    1.2910812352763243E+01
Ga    8.4455653924925258E+00    2.9616675702578448E+00    1.3650815259070651E+01
N    7.9619649368849652E+00    2.6565871814273456E+00    1.5523782382541789E+01
Ga    6.8172856907903308E+00    3.8551627054131989E+00    1.6710928689492498E+01
N    8.5727747094038396E+00    3.0134560241521289E+00    1.6906322760775790E+01
N    6.7649681612571593E+00    5.6995063362153315E+00   -1.5269228472357377E-01
Ga    6.7816477778902176E+00    7.5673836101204479E+00    5.1283031008068158E-01
N    6.7876389129757584E+00    7.5743192050167707E+00    2.4359699181248979E+00
Ga    6.7713389036303679E+00    5.7076387678990148E+00    3.1479619991734502E+00
N    6.7718668506493209E+00    5.7044893362349001E+00    5.0785315362484118E+00
Ga    6.7911180871429062E+00    7.5734942716112466E+00    5.7666166948899740E+00
N    6.7993489182110078E+00    7.5820888351998947E+00    7.6993955849499223E+00
Ga    6.7757753036390644E+00    5.7163462702820063E+00    8.3874433244765054E+00
N    6.7692355226447818E+00    5.7129313819533127E+00    1.0322217978311951E+01
Ga    6.7884307174841076E+00    7.5787496937919094E+00    1.1006645745595156E+01
N    6.7967931414974823E+00    7.5919685675467239E+00    1.2941055204806547E+01
Ga    6.8345795043713418E+00    5.7461844447956789E+00    1.3648925449273783E+01
N    6.3394237788117733E+00    5.4630028355301832E+00    1.5523865584853207E+01
Ga    5.2022531257789693E+00    6.6403784888779578E+00    1.6710064051394426E+01
N    6.9660042886749878E+00    5.7920628300700479E+00    1.6899780410532632E+01
N    5.1541536797270808E+00    8.4895316058840073E+00   -1.5337128382131504E-01
Ga    5.1711027584738556E+00    1.0357415796663537E+01    5.1357148573611344E-01
N    5.1768073831750243E+00    1.0364535292565394E+01    2.4364425090695900E+00
Ga    5.1605536494913187E+00    8.4967420603881365E+00    3.1463951821463723E+00
N    5.1606844391347870E+00    8.4939561025597481E+00    5.0764285896699803E+00
Ga    5.1781900147698128E+00    1.0362779684674926E+01    5.7656047737156300E+00
N    5.1820989563464250E+00    1.0369759878356378E+01    7.6990874388777799E+00
Ga    5.1675737666804826E+00    8.4977521968152985E+00    8.3788249423139209E+00
N    5.1616676641092756E+00    8.4844830309602735E+00    1.0308922578673370E+01
Ga    5.1623920590752359E+00    1.0356365396697665E+01    1.0965989809308388E+01
N    5.1539314883915912E+00    1.0355858620936916E+01    1.2870603660483972E+01
Ga    5.2143964629547703E+00    8.5517217127117373E+00    1.3658588587138935E+01
N    4.6937561730391923E+00    8.2205279353021918E+00    1.5521142371786683E+01
Ga    3.5661583149279776E+00    9.4220270027790640E+00    1.6744447457179788E+01
N    5.3179271656645160E+00    8.5861934227069643E+00    1.6882686470020687E+01
H    2.1548308718281586E-01    1.2048814537237315E-01   -1.1810708210313423E+00
H   -1.3954685828592721E+00    2.9110443577419463E+00   -1.1790646548737791E+00
H   -3.0059053934811799E+00    5.7000754586282083E+00   -1.1791896881075115E+00
H   -4.6159256529379391E+00    8.4890291681729302E+00   -1.1789892406995461E+00
H    3.4736935338725878E+00    1.2119430093619360E-01   -1.1787422382858079E+00
H    1.8630304198914194E+00    2.9108484587416252E+00   -1.1787308605546190E+00
H    2.5146005302391355E-01    5.7003257342189126E+00   -1.1781091367151044E+00
H   -1.3591135268728547E+00    8.4899613777792737E+00   -1.1779444055363357E+00
H    6.7275951954536914E+00    1.1959160602448428E-01   -1.1786686946491169E+00
H    5.1172304660166885E+00    2.9093111662568556E+00   -1.1789045665623141E+00
H    3.5063674443255768E+00    5.6991133687101554E+00   -1.1787829459287884E+00
H    1.8954245967170273E+00    8.4885302172125119E+00   -1.1789284077507123E+00
H    9.9845388231709595E+00    1.1991468475731643E-01   -1.1802555477172956E+00
H    8.3746626883688950E+00    2.9101183215220603E+00   -1.1793705892600372E+00
H    6.7645559179668808E+00    5.6991444083749290E+00   -1.1793533613256957E+00
H    5.1530953532821506E+00    8.4881888213267871E+00   -1.1800574396479762E+00
     &END COORD
     &KIND H
       BASIS_SET DZVP-MOLOPT-SR-GTH-q1
       POTENTIAL GTH-PBE-q1
       &POTENTIAL
1
0.2000000000000000E+00 2 -0.4178900440000000E+01  0.7244633100000000E+00
0
       &END POTENTIAL
     &END KIND
     &KIND N
       BASIS_SET DZVP-MOLOPT-SR-GTH
       POTENTIAL GTH-PBE-q5
       &POTENTIAL
2 3
0.2837905100000000E+00 2 -0.1241522559000000E+02  0.1868095920000000E+01
2
0.2554050000000000E+00 1  0.1363026257000000E+02
0.2454945300000000E+00 0
       &END POTENTIAL
     &END KIND
     &KIND Ga
       BASIS_SET DZVP-MOLOPT-SR-GTH
       POTENTIAL GTH-PBE-q13
       &POTENTIAL
2 1 10
0.4900000000000000E+00 0
3
0.4167772300000000E+00 3  0.1047568975000000E+02 -0.4921768140000000E+01  0.8707055900000000E+00
0.7770178090000000E+01 -0.2248152160000000E+01
0.1784415450000000E+01
0.5696265200000000E+00 2  0.1777985340000000E+01  0.1958597600000000E+00
-0.2317443900000000E+00
0.2381265000000000E+00 1 -0.1624868022000000E+02
       &END POTENTIAL
     &END KIND
     &TOPOLOGY
       NUMBER_OF_ATOMS  256
       MULTIPLE_UNIT_CELL  1 1 1
     &END TOPOLOGY
   &END SUBSYS
 &END FORCE_EVAL
