 # Version information for this restart file 
 # current date 2019-06-10 11:26:27.279
 # current working dir /lustre03/project/6037349/rzk/GaN-carbene/444-addat/00-Surface/RKS
 # Program compiled at                              Sun Apr  7 00:48:11 EDT 2019
 # Program compiled on                          beluga2.int.ets1.calculquebec.ca
 # Program compiled for                        Beluga-Linux-x86-64-intel-openmpi
 # Source code revision number                                         svn:18619
 &GLOBAL
   PRINT_LEVEL  MEDIUM
   PROJECT_NAME TEST
   RUN_TYPE  CELL_OPT
 &END GLOBAL
 &MOTION
   &CELL_OPT
     MAX_ITER  300
     STEP_START_VAL  17
     EXTERNAL_PRESSURE     1.0000000000000000E+00
     KEEP_ANGLES  T
     KEEP_SYMMETRY  T
     CONSTRAINT  Z
     PRESSURE_TOLERANCE     5.0000000000000000E+02
   &END CELL_OPT
 &END MOTION
 &FORCE_EVAL
   METHOD  QS
   STRESS_TENSOR  ANALYTICAL
   &DFT
     BASIS_SET_FILE_NAME BASIS_MOLOPT
     POTENTIAL_FILE_NAME GTH_POTENTIALS
     SURFACE_DIPOLE_CORRECTION  T
     SURF_DIP_DIR  Z
     &SCF
       MAX_SCF  100
       EPS_SCF     5.0000000000000004E-06
       &OT  T
         PRECONDITIONER  FULL_ALL
       &END OT
       &OUTER_SCF  T
         OPTIMIZER  NONE
         EPS_SCF     5.0000000000000004E-06
         MAX_SCF  4
       &END OUTER_SCF
       &PRINT
         &RESTART  OFF
           BACKUP_COPIES  1
           &EACH
             JUST_ENERGY  0
             QS_SCF  0
             MD  20
           &END EACH
         &END RESTART
       &END PRINT
     &END SCF
     &QS
       EPS_DEFAULT     1.0000000000000000E-14
       METHOD  GPW
     &END QS
     &MGRID
       NGRIDS  5
       CUTOFF     1.2000000000000000E+03
     &END MGRID
     &XC
       DENSITY_CUTOFF     1.0000000000000000E-10
       GRADIENT_CUTOFF     1.0000000000000000E-10
       TAU_CUTOFF     1.0000000000000000E-10
       &XC_FUNCTIONAL  NO_SHORTCUT
         &PBE  T
         &END PBE
       &END XC_FUNCTIONAL
       &VDW_POTENTIAL
         POTENTIAL_TYPE  PAIR_POTENTIAL
         &PAIR_POTENTIAL
           R_CUTOFF     1.0000000000000004E+01
           TYPE  DFTD3
           PARAMETER_FILE_NAME dftd3.dat
           REFERENCE_FUNCTIONAL PBE
           EPS_CN     9.9999999999999995E-07
           CALCULATE_C9_TERM  T
           REFERENCE_C9_TERM  T
           LONG_RANGE_CORRECTION  F
           VERBOSE_OUTPUT  F
         &END PAIR_POTENTIAL
       &END VDW_POTENTIAL
     &END XC
   &END DFT
   &SUBSYS
     &CELL
       A     1.2892365235166571E+01    0.0000000000000000E+00    0.0000000000000000E+00
       B    -6.4525040058268797E+00    1.1176064774133826E+01    0.0000000000000000E+00
       C     0.0000000000000000E+00    0.0000000000000000E+00    3.2000000000000000E+01
       MULTIPLE_UNIT_CELL  1 1 1
       &CELL_REF
         A     1.2982353780853531E+01    0.0000000000000000E+00    0.0000000000000000E+00
         B    -6.4911768904267628E+00    1.1243048175136114E+01    0.0000000000000000E+00
         C     0.0000000000000000E+00    0.0000000000000000E+00    3.2000000000000000E+01
         MULTIPLE_UNIT_CELL  1 1 1
       &END CELL_REF
     &END CELL
     &COORD
N    7.3463190667573202E-04    8.9332342769543995E-04   -8.6289309708413989E-02
Ga   -1.3176061498617097E-03    1.8617312932116630E+00    5.7680789225072326E-01
N   -1.6156829447373370E-03    1.8614674004604959E+00    2.4958820241979272E+00
Ga    3.4551708757281970E-04    2.8826276235222791E-04    3.1855301740879898E+00
N    1.1466073628854686E-03    9.9230818687702396E-04    5.0922859512511049E+00
Ga   -7.4053300641356936E-04    1.8619069073168164E+00    5.7472260857124873E+00
N    1.2293927181346938E-03    1.8607358772288398E+00    7.6542581605424962E+00
Ga    3.2440090148916629E-03    1.5795637332340553E-04    8.3285220046886543E+00
N    1.4259150236072916E-02   -6.5315601753948376E-04    1.0263411022825938E+01
Ga    2.1035253282259806E-02    1.8592462810788786E+00    1.0961791020007631E+01
N    7.2957075111314912E-02    1.8550111048815228E+00    1.2898357035478007E+01
Ga    6.3143266195248973E-02   -9.6867334767972262E-03    1.3575237627160195E+01
N   -5.4047477387793212E-03    2.8473687275757147E-02    1.5517674197937680E+01
Ga   -1.0561162687836113E-01    1.8697270239148354E+00    1.6639822090268190E+01
N    1.4693473799646335E+00    9.1348971304131499E-01    1.7379927321684843E+01
N   -1.6124122581858116E+00    2.7949343395087851E+00   -8.6324045384111051E-02
Ga   -1.6144638865092635E+00    4.6557561805801804E+00    5.7677905042198974E-01
N   -1.6147737387575871E+00    4.6554727906071500E+00    2.4958874662642700E+00
Ga   -1.6127538017921754E+00    2.7943351838775365E+00    3.1855379162234181E+00
N   -1.6118735036402778E+00    2.7950426904105048E+00    5.0922087127663422E+00
Ga   -1.6140742424237020E+00    4.6558240443069314E+00    5.7479922081112100E+00
N   -1.6127999437151306E+00    4.6541574359671536E+00    7.6552687034908740E+00
Ga   -1.6092687054174202E+00    2.7925191772426872E+00    8.3287764916313325E+00
N   -1.5957585566412797E+00    2.7895836004115635E+00    1.0264537104648246E+01
Ga   -1.5982766957785541E+00    4.6519632270091122E+00    1.0956281241686638E+01
N   -1.5575803614504509E+00    4.6443889030925751E+00    1.2887386304300131E+01
Ga   -1.5371743765100034E+00    2.7853214863675002E+00    1.3584345720590319E+01
N   -1.5497215977857630E+00    2.8590752655053908E+00    1.5528927216595594E+01
Ga   -1.6976300508816387E+00    4.6686956380316387E+00    1.6581554519021964E+01
N   -1.0783172090361186E-01    3.7289517128346712E+00    1.7401582460910799E+01
N   -3.2255170516775435E+00    5.5889227713423448E+00   -8.6300359479490399E-02
Ga   -3.2275739734640698E+00    7.4497630443978826E+00    5.7678874287558513E-01
N   -3.2278671630315561E+00    7.4494830320915524E+00    2.4958964148532510E+00
Ga   -3.2259251806675211E+00    5.5883387146075671E+00    3.1857059825251413E+00
N   -3.2251611907494757E+00    5.5890449155366344E+00    5.0924760615195783E+00
Ga   -3.2269122568465982E+00    7.4500808075480336E+00    5.7474388873298796E+00
N   -3.2248897011217665E+00    7.4489121681205681E+00    7.6543981506972099E+00
Ga   -3.2235426500457320E+00    5.5882578200789501E+00    8.3285671315720595E+00
N   -3.2130778565137228E+00    5.5867246529035430E+00    1.0263217233411826E+01
Ga   -3.2056278550989501E+00    7.4463014335406497E+00    1.0964198231439857E+01
N   -3.1541677056825956E+00    7.4393905097866586E+00    1.2898976216500289E+01
Ga   -3.1672090624847593E+00    5.5744984680870848E+00    1.3578138103318805E+01
N   -3.2383462250309938E+00    5.6112117898571148E+00    1.5515017893473779E+01
Ga   -3.3271322133657009E+00    7.4541946696980812E+00    1.6638420461627451E+01
N   -1.7436394156220740E+00    6.5137694319567476E+00    1.7382896927248396E+01
N   -4.8386401881936694E+00    8.3829304574604286E+00   -8.6337483374419557E-02
Ga   -4.8407167135499858E+00    1.0243808652908104E+01    5.7675846742559145E-01
N   -4.8409968586116099E+00    1.0243502643672716E+01    2.4958784252784221E+00
Ga   -4.8389806771565391E+00    8.3823613077713155E+00    3.1854901008746221E+00
N   -4.8380637740901458E+00    8.3830684393527317E+00    5.0921121083348604E+00
Ga   -4.8402590410508948E+00    1.0243788420688851E+01    5.7478503658228153E+00
N   -4.8388805122656366E+00    1.0242127912966277E+01    7.6552875938153564E+00
Ga   -4.8353162636231470E+00    8.3804823677755653E+00    8.3292647868048597E+00
N   -4.8218200660107753E+00    8.3771688144684084E+00    1.0264832636854626E+01
Ga   -4.8236561325216769E+00    1.0238926361080626E+01    1.0957536916184859E+01
N   -4.7836762418503866E+00    1.0230296773181584E+01    1.2887995569920182E+01
Ga   -4.7627573695950733E+00    8.3701180452380672E+00    1.3585862236655775E+01
N   -4.7726397591117768E+00    8.4395888742581793E+00    1.5530844941718518E+01
Ga   -4.9333031502453819E+00    1.0241969599506028E+01    1.6581910466373891E+01
N   -3.3329716900086943E+00    9.3162777902456089E+00    1.7405591680531415E+01
N    3.2238818078983660E+00    9.3483572038353729E-04   -8.6338827184065908E-02
Ga    3.2216751640591874E+00    1.8617061945001214E+00    5.7691363211720581E-01
N    3.2214801031945703E+00    1.8614750127613873E+00    2.4959791144554475E+00
Ga    3.2233411429321737E+00    2.0340389268979327E-04    3.1855498487510832E+00
N    3.2241180653481321E+00    8.2836192861460308E-04    5.0922383392678467E+00
Ga    3.2223013564648606E+00    1.8617845426568176E+00    5.7465318524601248E+00
N    3.2241038846976315E+00    1.8603469019384520E+00    7.6532380824179151E+00
Ga    3.2265843026627312E+00   -2.7029758964657060E-05    8.3283188636945003E+00
N    3.2386458643781633E+00   -1.6680431207584719E-03    1.0263100609111845E+01
Ga    3.2429032571971224E+00    1.8563934757194713E+00    1.0964104894424160E+01
N    3.2950906325110676E+00    1.8449412796774802E+00    1.2902328533132930E+01
Ga    3.2879291424355617E+00   -1.7416769051733640E-02    1.3587097747875266E+01
N    3.2212035823113121E+00   -3.1329177785371636E-02    1.5533240752557306E+01
Ga    3.0979503919686850E+00    1.8615456387649960E+00    1.6703804218523302E+01
N    4.6971822323036907E+00    9.4355117895861673E-01    1.7361410823940997E+01
N    1.6107587944503881E+00    2.7949488413728343E+00   -8.6354356826785397E-02
Ga    1.6085639968683394E+00    4.6557169215092680E+00    5.7686438653220062E-01
N    1.6083225749078274E+00    4.6554895846347639E+00    2.4959470400863046E+00
Ga    1.6102276239042355E+00    2.7942694087447189E+00    3.1854548412471488E+00
N    1.6110636019160323E+00    2.7949850371237623E+00    5.0921009005166811E+00
Ga    1.6089608021737947E+00    4.6558605300382272E+00    5.7471916557394263E+00
N    1.6102551571817147E+00    4.6542549225128180E+00    7.6542679574867005E+00
Ga    1.6144267676185726E+00    2.7927012762350114E+00    8.3284363431329300E+00
N    1.6292337184663750E+00    2.7901685867386203E+00    1.0263895931706532E+01
Ga    1.6249547596917209E+00    4.6512596035926732E+00    1.0957795349853473E+01
N    1.6686795795732856E+00    4.6402652016833823E+00    1.2890714902442300E+01
Ga    1.6935453915836529E+00    2.7853577756226282E+00    1.3597117576206934E+01
N    1.6904251604252047E+00    2.8142936035764090E+00    1.5546137418876706E+01
Ga    1.5243039941327186E+00    4.6671401406630304E+00    1.6618665182962850E+01
N    3.1091035436870480E+00    3.7374998693855557E+00    1.7382266034626831E+01
N   -2.3957560675719443E-03    5.5889442983346918E+00   -8.6328590975501968E-02
Ga   -4.5387830692340059E-03    7.4497713168030026E+00    5.7687732266549163E-01
N   -4.7858577956608238E-03    7.4494959405328744E+00    2.4959763052833508E+00
Ga   -2.9608675375883253E-03    5.5882890287700446E+00    3.1855543789269172E+00
N   -2.2136521467276400E-03    5.5889880834253658E+00    5.0922856905472136E+00
Ga   -4.1020266319148112E-03    7.4500531750877572E+00    5.7467351036753742E+00
N   -2.2318556850634782E-03    7.4489173663922177E+00    7.6534364535956900E+00
Ga   -8.3612972516165551E-05    5.5884874038092880E+00    8.3278371777135280E+00
N    1.1508835599271188E-02    5.5873250282490599E+00    1.0262283978777619E+01
Ga    1.6499697236210357E-02    7.4453274979569217E+00    1.0964644052684937E+01
N    7.0014786486314914E-02    7.4345550823532358E+00    1.2902261203606869E+01
Ga    6.1698221442425087E-02    5.5731633553964732E+00    1.3586156200215013E+01
N   -9.5370325281632828E-04    5.5591165954317772E+00    1.5527724884232333E+01
Ga   -1.1683491406625805E-01    7.4633852645609053E+00    1.6702184773580957E+01
N    1.4720370621764878E+00    6.5300107775493750E+00    1.7361104948871340E+01
N   -1.6155015851208450E+00    8.3829948961622911E+00   -8.6352463040106978E-02
Ga   -1.6176776061451541E+00    1.0243744174070672E+01    5.7685494389783265E-01
N   -1.6179134676341238E+00    1.0243523531972656E+01    2.4959589345282738E+00
Ga   -1.6160412308169139E+00    8.3823270512931547E+00    3.1854303139925659E+00
N   -1.6152004329415823E+00    8.3830185893591800E+00    5.0920302431589226E+00
Ga   -1.6172829273844687E+00    1.0243686950084374E+01    5.7474815662669281E+00
N   -1.6159914659481678E+00    1.0241909697481065E+01    7.6544507335503287E+00
Ga   -1.6120472672163706E+00    8.3808252896431643E+00    8.3293581807169517E+00
N   -1.5974185638874088E+00    8.3777572936495588E+00    1.0264717404119828E+01
Ga   -1.6015749232406498E+00    1.0237580818792098E+01    1.0960619777391894E+01
N   -1.5586440149021148E+00    1.0224502347598433E+01    1.2893709653139304E+01
Ga   -1.5347296451182164E+00    8.3684601668071288E+00    1.3598784096619115E+01
N   -1.5383652032611717E+00    8.3950099367441506E+00    1.5547299457537823E+01
Ga   -1.7045815628797842E+00    1.0255328846035258E+01    1.6621028078965498E+01
N   -1.0738732732867107E-01    9.3403287478911547E+00    1.7386902327461126E+01
N    6.4469172906952110E+00    9.4109134972220445E-04   -8.6245563279178844E-02
Ga    6.4447639364382647E+00    1.8616746915177187E+00    5.7697154643791848E-01
N    6.4444687902636151E+00    1.8614048713494158E+00    2.4960735597913635E+00
Ga    6.4463941905068589E+00    1.8865843389378567E-04    3.1856402692149990E+00
N    6.4471444547452608E+00    9.3851060385914849E-04    5.0923140858167741E+00
Ga    6.4455419704561550E+00    1.8620176135635400E+00    5.7467664448692286E+00
N    6.4471712845260347E+00    1.8609326041392906E+00    7.6535880448167122E+00
Ga    6.4482307214588879E+00    2.0905542416205567E-04    8.3277181491359222E+00
N    6.4582763551969702E+00   -5.7220641152160424E-04    1.0262188278175607E+01
Ga    6.4647405645297136E+00    1.8597082820464579E+00    1.0959931080033723E+01
N    6.5133769759468381E+00    1.8558696230044580E+00    1.2894647515511281E+01
Ga    6.5056761142320081E+00   -6.2239344072377960E-03    1.3578661503058528E+01
N    6.4374198017095523E+00    3.0186200045119790E-02    1.5515934140250256E+01
Ga    6.3364942454307664E+00    1.8651295346202947E+00    1.6636127223677239E+01
N    7.9231867086504062E+00    9.2913939620242325E-01    1.7383432173099603E+01
N    4.8338340592478897E+00    2.7949146503564624E+00   -8.6262822368189232E-02
Ga    4.8316603571329608E+00    4.6557142295940039E+00    5.7691868351157072E-01
N    4.8313476064374949E+00    4.6554118248022176E+00    2.4960559321585714E+00
Ga    4.8333088953865220E+00    2.7942828037030045E+00    3.1855023334081412E+00
N    4.8342146808943696E+00    2.7950456037128655E+00    5.0921407846029663E+00
Ga    4.8321462740466279E+00    4.6559471481066117E+00    5.7474201435611683E+00
N    4.8331106603058895E+00    4.6545496512069153E+00    7.6545463861977607E+00
Ga    4.8363126427391201E+00    2.7926946560012542E+00    8.3276028463931997E+00
N    4.8489541578210726E+00    2.7906802311674519E+00    1.0262867589869966E+01
Ga    4.8464250894886494E+00    4.6529110700701084E+00    1.0953681550297691E+01
N    4.8844747228883989E+00    4.6472484048699005E+00    1.2884334611619330E+01
Ga    4.9086496179541372E+00    2.7894788068370353E+00    1.3583075179464359E+01
N    4.9056086320716066E+00    2.8584279242404831E+00    1.5529005304448832E+01
Ga    4.7395416189406703E+00    4.6552632864159289E+00    1.6581704234408441E+01
N    6.3345922056366435E+00    3.7279078136393280E+00    1.7409726330364521E+01
N    3.2206863903213283E+00    5.5889261850677130E+00   -8.6249804884183504E-02
Ga    3.2185185480958221E+00    7.4497496063017934E+00    5.7698080042998301E-01
N    3.2182347690069144E+00    7.4494447714675429E+00    2.4960527302605762E+00
Ga    3.2201565279431907E+00    5.5882714996622758E+00    3.1854847187891298E+00
N    3.2209321725019753E+00    5.5890463341488150E+00    5.0922056403748304E+00
Ga    3.2192080989896152E+00    7.4501538101511446E+00    5.7466826840115726E+00
N    3.2208883617236332E+00    7.4494027701424628E+00    7.6534684289819319E+00
Ga    3.2223795326403306E+00    5.5888159243402304E+00    8.3268620982263499E+00
N    3.2328002727088867E+00    5.5891266328053506E+00    1.0261445139888130E+01
Ga    3.2394537267028682E+00    7.4491201341041773E+00    1.0960140645970222E+01
N    3.2899024763489804E+00    7.4473377440408104E+00    1.2896049437615504E+01
Ga    3.2818733279605743E+00    5.5843910217542501E+00    1.3575027841689375E+01
N    3.2159540160658895E+00    5.6196462779213663E+00    1.5517568260020036E+01
Ga    3.1086181023313775E+00    7.4508027106923951E+00    1.6642374281217634E+01
N    4.6863920160587167E+00    6.5007728801757585E+00    1.7380396810106493E+01
N    1.6075385789531764E+00    8.3829334464875878E+00   -8.6268418878102257E-02
Ga    1.6054298374087548E+00    1.0243747138116021E+01    5.7696988144863548E-01
N    1.6050673134255222E+00    1.0243473585016298E+01    2.4960516940643283E+00
Ga    1.6070432196350806E+00    8.3823522654757561E+00    3.1855447493726512E+00
N    1.6078936909678168E+00    8.3830959627808337E+00    5.0921475585308764E+00
Ga    1.6058811040959133E+00    1.0244011663722860E+01    5.7475806234762024E+00
N    1.6068899458554700E+00    1.0242727443444180E+01    7.6547344593610198E+00
Ga    1.6101425553429987E+00    8.3810769323056586E+00    8.3279498148927527E+00
N    1.6232627854012038E+00    8.3793500143839239E+00    1.0263559561272753E+01
Ga    1.6204108090234932E+00    1.0241937879940910E+01    1.0954652940521253E+01
N    1.6602674774095330E+00    1.0237691505656089E+01    1.2886445659090478E+01
Ga    1.6833988813620173E+00    8.3798654541958424E+00    1.3584908269207194E+01
N    1.6787043311453735E+00    8.4506919938108549E+00    1.5529724116632030E+01
Ga    1.5183971769565336E+00    1.0255303779467585E+01    1.6584759548848591E+01
N    3.1034724963891631E+00    9.3126243410467353E+00    1.7406454231243238E+01
N    9.6699399555172718E+00    8.8188526803717915E-04   -8.6196753035793661E-02
Ga    9.6678861966735230E+00    1.8616804688441047E+00    5.7692447768802191E-01
N    9.6675848846635652E+00    1.8614014945901076E+00    2.4960540113856271E+00
Ga    9.6695419021064861E+00    2.3631222239091162E-04    3.1855922209238399E+00
N    9.6702775765243665E+00    9.6464420107403054E-04    5.0923188308498846E+00
Ga    9.6686757975392279E+00    1.8621665780365206E+00    5.7466447158397314E+00
N    9.6702647480545849E+00    1.8610892432905994E+00    7.6533969169731222E+00
Ga    9.6722881303967050E+00    7.4946718024275884E-04    8.3269867515891214E+00
N    9.6831497173876500E+00    1.0866315467143054E-04    1.0261695693439975E+01
Ga    9.6873460947734351E+00    1.8586841695114251E+00    1.0962383812362035E+01
N    9.7367999663841456E+00    1.8508215902511971E+00    1.2899717852927893E+01
Ga    9.7308920223324371E+00   -8.3964962415715664E-03    1.3584492674516893E+01
N    9.6597347117801622E+00   -1.0222901462590417E-02    1.5525369087639566E+01
Ga    9.5414323671910246E+00    1.8906577219277541E+00    1.6687854481295968E+01
N    1.1137881292782620E+01    9.5741010719326025E-01    1.7343446066344075E+01
N    8.0568338091497811E+00    2.7948857455114524E+00   -8.6207518597871388E-02
Ga    8.0547778430067751E+00    4.6557188669495178E+00    5.7690464968049016E-01
N    8.0544285161544451E+00    4.6554416812817498E+00    2.4960230995179020E+00
Ga    8.0564565161074384E+00    2.7943118935260758E+00    3.1854004360672907E+00
N    8.0572851144181570E+00    2.7950361360754119E+00    5.0920402746646198E+00
Ga    8.0554348459711669E+00    4.6559374855330793E+00    5.7474211371292290E+00
N    8.0563663104242913E+00    4.6543633998145246E+00    7.6544356379617389E+00
Ga    8.0601549456701953E+00    2.7931221064877230E+00    8.3276208340785782E+00
N    8.0736847259788220E+00    2.7906658224776626E+00    1.0262818241279748E+01
Ga    8.0692634298881369E+00    4.6513011233442407E+00    1.0956995724188353E+01
N    8.1076421717974103E+00    4.6409229550472268E+00    1.2889644343911140E+01
Ga    8.1309679649975752E+00    2.7861692232528528E+00    1.3595338043391864E+01
N    8.1115524664384662E+00    2.8249002524919784E+00    1.5540644814935032E+01
Ga    7.9579496462129802E+00    4.6747309564807740E+00    1.6610166507872329E+01
N    9.5588183028384979E+00    3.7680986309322244E+00    1.7383927478034462E+01
N    6.4436914094289861E+00    5.5889160174782679E+00   -8.6207561287416939E-02
Ga    6.4416174271651920E+00    7.4497251189246372E+00    5.7691114652792741E-01
N    6.4413369208018869E+00    7.4494269777556035E+00    2.4960598300569758E+00
Ga    6.4433146497162479E+00    5.5882591520042810E+00    3.1855823190858650E+00
N    6.4440277969784736E+00    5.5889620763341865E+00    5.0922976755646019E+00
Ga    6.4426303473775191E+00    7.4501768829119630E+00    5.7465592267568049E+00
N    6.4442639790885625E+00    7.4491090915240736E+00    7.6533346523609316E+00
Ga    6.4461204636977198E+00    5.5887066281137914E+00    8.3269460892249381E+00
N    6.4566933492357572E+00    5.5876931718258804E+00    1.0261640020223712E+01
Ga    6.4617136349337514E+00    7.4463084684828642E+00    1.0962651745041354E+01
N    6.5106270230726899E+00    7.4370218167736875E+00    1.2900253649140828E+01
Ga    6.5024750661750339E+00    5.5758622485534319E+00    1.3583970073218643E+01
N    6.4285422243266872E+00    5.5706728206924927E+00    1.5528070470422460E+01
Ga    6.3070244295691751E+00    7.4619233113837886E+00    1.6692788748665016E+01
N    7.9139113413533977E+00    6.5465212118223199E+00    1.7348998470812678E+01
N    4.8305930125682028E+00    8.3828774165532227E+00   -8.6197786928115624E-02
Ga    4.8285051260850551E+00    1.0243790912786363E+01    5.7689162900258151E-01
N    4.8281823209361390E+00    1.0243460687587154E+01    2.4960276481477193E+00
Ga    4.8302113618332569E+00    8.3823570933152887E+00    3.1854961535339830E+00
N    4.8310803119266756E+00    8.3831066923247786E+00    5.0921369366275515E+00
Ga    4.8292255650221110E+00    1.0244147903464697E+01    5.7473189638833482E+00
N    4.8303349226375856E+00    1.0242866852337512E+01    7.6544809948315828E+00
Ga    4.8341917804496584E+00    8.3813348755390429E+00    8.3273429195987827E+00
N    4.8479993161343256E+00    8.3794454052245602E+00    1.0262864371498226E+01
Ga    4.8439275333861254E+00    1.0240556081402602E+01    1.0956276752133999E+01
N    4.8843198816515665E+00    1.0232468130893210E+01    1.2889533969310529E+01
Ga    4.9088758373657653E+00    8.3779148819335241E+00    1.3595110832676873E+01
N    4.8929908623727600E+00    8.4172467428007991E+00    1.5542902912178876E+01
Ga    4.7292658177404965E+00    1.0260607946357135E+01    1.6612722776154563E+01
N    6.3206113577232186E+00    9.3405720908244714E+00    1.7378440713978360E+01
H    2.9959928382341210E-04    3.9231540476536208E-04   -1.1117748858515246E+00
H   -1.6128190811226952E+00    2.7944284093840150E+00   -1.1118132140173613E+00
H   -3.2259460373849080E+00    5.5884121511967741E+00   -1.1117782428071561E+00
H   -4.8390773191074921E+00    8.3824324508502226E+00   -1.1118132836297439E+00
H    3.2235473502457355E+00    4.8378009544252894E-04   -1.1118116471303334E+00
H    1.6104296473633612E+00    2.7945106772913317E+00   -1.1118291214151574E+00
H   -2.7050991939363035E-03    5.5885029416384295E+00   -1.1118118790988698E+00
H   -1.6158288923711634E+00    8.3825257057649019E+00   -1.1118380686348304E+00
H    6.4466161929815229E+00    4.4566300598501018E-04   -1.1117300592236086E+00
H    4.8334891084913814E+00    2.7944918639400975E+00   -1.1117510717538559E+00
H    3.2203576804756180E+00    5.5884692194639589E+00   -1.1117309400707147E+00
H    1.6072257862985684E+00    8.3825112889594280E+00   -1.1117507962911855E+00
H    9.6695171708277510E+00    3.4966239193209885E-04   -1.1116861510136593E+00
H    8.0564097508625974E+00    2.7943833121370876E+00   -1.1116970350608997E+00
H    6.4432763888826310E+00    5.5883681010720041E+00   -1.1116929630471495E+00
H    4.8301510998196244E+00    8.3823989223771136E+00   -1.1116893846569680E+00
     &END COORD
     &KIND H
       BASIS_SET DZVP-MOLOPT-SR-GTH-q1
       POTENTIAL GTH-PBE-q1
       &POTENTIAL
 1
  0.2000000000000000E+00 2 -0.4178900440000000E+01  0.7244633100000000E+00
 0
         # Potential name:  GTH-PBE-Q1  for symbol:  H
         # Potential read from the potential filename: GTH_POTENTIALS
       &END POTENTIAL
     &END KIND
     &KIND N
       BASIS_SET DZVP-MOLOPT-SR-GTH
       POTENTIAL GTH-PBE-q5
       &POTENTIAL
 2 3
  0.2837905100000000E+00 2 -0.1241522559000000E+02  0.1868095920000000E+01
 2
  0.2554050000000000E+00 1  0.1363026257000000E+02
  0.2454945300000000E+00 0
         # Potential name:  GTH-PBE-Q5  for symbol:  N
         # Potential read from the potential filename: GTH_POTENTIALS
       &END POTENTIAL
     &END KIND
     &KIND Ga
       BASIS_SET DZVP-MOLOPT-SR-GTH
       POTENTIAL GTH-PBE-q13
       &POTENTIAL
 2 1 10
  0.4900000000000000E+00 0
 3
  0.4167772300000000E+00 3  0.1047568975000000E+02 -0.4921768140000000E+01  0.8707055900000000E+00
  0.7770178090000000E+01 -0.2248152160000000E+01
  0.1784415450000000E+01
  0.5696265200000000E+00 2  0.1777985340000000E+01  0.1958597600000000E+00
 -0.2317443900000000E+00
  0.2381265000000000E+00 1 -0.1624868022000000E+02
         # Potential name:  GTH-PBE-Q13  for symbol:  GA
         # Potential read from the potential filename: GTH_POTENTIALS
       &END POTENTIAL
     &END KIND
     &TOPOLOGY
       NUMBER_OF_ATOMS  256
       MULTIPLE_UNIT_CELL  1 1 1
     &END TOPOLOGY
   &END SUBSYS
 &END FORCE_EVAL
