 # Version information for this restart file 
 # current date 2019-06-11 00:28:05.094
 # current working dir /lustre03/project/6037349/rzk/GaN-carbene/444-addat/00-Surface/RKS
 # Program compiled at                              Sun Apr  7 00:48:11 EDT 2019
 # Program compiled on                          beluga2.int.ets1.calculquebec.ca
 # Program compiled for                        Beluga-Linux-x86-64-intel-openmpi
 # Source code revision number                                         svn:18619
 &GLOBAL
   PRINT_LEVEL  MEDIUM
   PROJECT_NAME TEST
   RUN_TYPE  CELL_OPT
 &END GLOBAL
 &MOTION
   &CELL_OPT
     MAX_ITER  300
     STEP_START_VAL  106
     EXTERNAL_PRESSURE     1.0000000000000000E+00
     KEEP_ANGLES  T
     KEEP_SYMMETRY  T
     CONSTRAINT  Z
     PRESSURE_TOLERANCE     5.0000000000000000E+02
   &END CELL_OPT
 &END MOTION
 &FORCE_EVAL
   METHOD  QS
   STRESS_TENSOR  ANALYTICAL
   &DFT
     BASIS_SET_FILE_NAME BASIS_MOLOPT
     POTENTIAL_FILE_NAME GTH_POTENTIALS
     SURFACE_DIPOLE_CORRECTION  T
     SURF_DIP_DIR  Z
     &SCF
       MAX_SCF  100
       EPS_SCF     5.0000000000000004E-06
       &OT  T
         PRECONDITIONER  FULL_ALL
       &END OT
       &OUTER_SCF  T
         OPTIMIZER  NONE
         EPS_SCF     5.0000000000000004E-06
         MAX_SCF  4
       &END OUTER_SCF
       &PRINT
         &RESTART  OFF
           BACKUP_COPIES  1
           &EACH
             JUST_ENERGY  0
             QS_SCF  0
             MD  20
           &END EACH
         &END RESTART
       &END PRINT
     &END SCF
     &QS
       EPS_DEFAULT     1.0000000000000000E-14
       METHOD  GPW
     &END QS
     &MGRID
       NGRIDS  5
       CUTOFF     1.2000000000000000E+03
     &END MGRID
     &XC
       DENSITY_CUTOFF     1.0000000000000000E-10
       GRADIENT_CUTOFF     1.0000000000000000E-10
       TAU_CUTOFF     1.0000000000000000E-10
       &XC_FUNCTIONAL  NO_SHORTCUT
         &PBE  T
         &END PBE
       &END XC_FUNCTIONAL
       &VDW_POTENTIAL
         POTENTIAL_TYPE  PAIR_POTENTIAL
         &PAIR_POTENTIAL
           R_CUTOFF     1.0000000000000005E+01
           TYPE  DFTD3
           PARAMETER_FILE_NAME dftd3.dat
           REFERENCE_FUNCTIONAL PBE
           EPS_CN     9.9999999999999995E-07
           CALCULATE_C9_TERM  T
           REFERENCE_C9_TERM  T
           LONG_RANGE_CORRECTION  F
           VERBOSE_OUTPUT  F
         &END PAIR_POTENTIAL
       &END VDW_POTENTIAL
     &END XC
   &END DFT
   &SUBSYS
     &CELL
       A     1.3027623790783657E+01    0.0000000000000000E+00    0.0000000000000000E+00
       B    -6.4428889070842574E+00    1.1159410934592115E+01    0.0000000000000000E+00
       C     0.0000000000000000E+00    0.0000000000000000E+00    3.2000000000000000E+01
       MULTIPLE_UNIT_CELL  1 1 1
       &CELL_REF
         A     1.2982353780853531E+01    0.0000000000000000E+00    0.0000000000000000E+00
         B    -6.4911768904267628E+00    1.1243048175136114E+01    0.0000000000000000E+00
         C     0.0000000000000000E+00    0.0000000000000000E+00    3.2000000000000000E+01
         MULTIPLE_UNIT_CELL  1 1 1
       &END CELL_REF
     &END CELL
     &COORD
N    2.1204902251588723E-01    1.1785569664923677E-01   -1.5407899872504194E-01
Ga    2.2891559618320889E-01    1.9853496798631995E+00    5.1294748147884606E-01
N    2.3856241226974664E-01    1.9953955709826299E+00    2.4358781424700351E+00
Ga    2.2385030708355474E-01    1.2978043334583689E-01    3.1484125767553506E+00
N    2.2654621909286990E-01    1.2882725013911123E-01    5.0786536382985714E+00
Ga    2.4258434509868859E-01    1.9978760906094617E+00    5.7714495878019534E+00
N    2.4955704610498125E-01    2.0058476578298756E+00    7.7061158922644717E+00
Ga    2.3187504487853824E-01    1.3606747288921880E-01    8.3842149497857736E+00
N    2.2323921992473042E-01    1.2836116189789792E-01    1.0316674550075881E+01
Ga    2.4182621538242385E-01    1.9922117794424083E+00    1.1014822564677761E+01
N    2.5718993069762031E-01    1.9983378274438295E+00    1.2948538150643397E+01
Ga    2.1283341803748151E-01    1.2732172223537247E-01    1.3624538946628119E+01
N   -3.5817147861999038E-01   -2.0333963389986145E-01    1.5357819391734703E+01
Ga   -1.0538668605330839E+00    9.2208424212959761E-01    1.6752854871856435E+01
N    2.8013919717192104E-01    1.2871032275577449E-01    1.8015404277413406E+01
N   -1.3986262437623436E+00    2.9080249639962674E+00   -1.5199291831374193E-01
Ga   -1.3820847168070400E+00    4.7757143657224734E+00    5.1563334135187033E-01
N   -1.3723889306467976E+00    4.7857160699259866E+00    2.4380841946507115E+00
Ga   -1.3874075143568172E+00    2.9188559976152022E+00    3.1470921492936563E+00
N   -1.3848645685673993E+00    2.9202714303783317E+00    5.0768977702074061E+00
Ga   -1.3672592073275240E+00    4.7876212919318233E+00    5.7744055562746768E+00
N   -1.3594716964583884E+00    4.7965391588383479E+00    7.7101254455618191E+00
Ga   -1.3780442488580291E+00    2.9284051182127220E+00    8.3938226383204757E+00
N   -1.3821576218610383E+00    2.9236042272758920E+00    1.0329701872660083E+01
Ga   -1.3710800904198541E+00    4.7882651230887170E+00    1.1030834063987280E+01
N   -1.3647125422386921E+00    4.8009960483991394E+00    1.2971440313885006E+01
Ga   -1.3620992140880008E+00    2.9266246104885725E+00    1.3628320734968488E+01
N   -1.8962875567068656E+00    2.4639054939253899E+00    1.5443004500429240E+01
Ga   -2.9162508512485035E+00    4.2010940011599551E+00    1.6830986225705793E+01
N   -1.4254858286018015E+00    2.9013669549148933E+00    1.6735609853274148E+01
N   -3.0092693786594307E+00    5.6977088322290248E+00   -1.5162633034145437E-01
Ga   -2.9925464062099767E+00    7.5653763848463136E+00    5.1463027752267487E-01
N   -2.9826826939435227E+00    7.5753339189438984E+00    2.4370841009747273E+00
Ga   -2.9984994332847683E+00    5.7091201125502096E+00    3.1486516995584135E+00
N   -2.9958439894114228E+00    5.7083930644557288E+00    5.0791795505647661E+00
Ga   -2.9772426877783627E+00    7.5758796613505339E+00    5.7747736577630713E+00
N   -2.9689847305738812E+00    7.5844580737429483E+00    7.7105004860307726E+00
Ga   -2.9870742891049322E+00    5.7173983565530877E+00    8.3969555974970387E+00
N   -2.9927988126638612E+00    5.7113876403542054E+00    1.0331193826315499E+01
Ga   -2.9784055535220237E+00    7.5734624771198336E+00    1.1033063526630956E+01
N   -2.9689472382150917E+00    7.5786972127873780E+00    1.2974186498502679E+01
Ga   -2.9970073815143365E+00    5.7117400321271097E+00    1.3676688095029302E+01
N   -3.5078291625117108E+00    5.4031815499442128E+00    1.5444169787499742E+01
Ga   -4.2490002968805012E+00    6.5066472179120058E+00    1.6843276985269281E+01
N   -2.9156427964604643E+00    5.7339608349362798E+00    1.8098316054571768E+01
N   -4.6197987251994777E+00    8.4875505180374642E+00   -1.5193860602090059E-01
Ga   -4.6035799306744156E+00    1.0355691197364933E+01    5.1422322085776428E-01
N   -4.5939106030096752E+00    1.0365285460240241E+01    2.4370836005056900E+00
Ga   -4.6087090528348282E+00    8.4983972717501235E+00    3.1472174465978844E+00
N   -4.6048942586947259E+00    8.4974594090264777E+00    5.0769450011268846E+00
Ga   -4.5872940068482890E+00    1.0364955058525249E+01    5.7721331748534164E+00
N   -4.5803957667335524E+00    1.0372988771673390E+01    7.7070715474174616E+00
Ga   -4.5972446263517748E+00    8.5051753938397567E+00    8.3948890445127802E+00
N   -4.6009696943691507E+00    8.4996161778284556E+00    1.0331183292582038E+01
Ga   -4.5946402371055672E+00    1.0369104942981881E+01    1.1016078953721719E+01
N   -4.5853866599810456E+00    1.0385711619656576E+01    1.2950824708555075E+01
Ga   -4.5929484833824370E+00    8.5228384271103703E+00    1.3630786718080413E+01
N   -5.2485162416673310E+00    8.2866818949466943E+00    1.5450023140230639E+01
Ga   -6.1608929150903196E+00    9.7577114301925825E+00    1.6720472725517620E+01
N   -4.6225428886476969E+00    8.4453261441078205E+00    1.6744238523749910E+01
N    3.4688994986332791E+00    1.1800294861195437E-01   -1.5160767305843609E-01
Ga    3.4855358666129290E+00    1.9856199904497749E+00    5.1497672116322835E-01
N    3.4943551067118395E+00    1.9953093635239945E+00    2.4373119718831835E+00
Ga    3.4805344582350477E+00    1.2951416203967961E-01    3.1491823910319012E+00
N    3.4844193778739867E+00    1.2968528769821741E-01    5.0804954877728212E+00
Ga    3.4980031740296669E+00    1.9953080099837137E+00    5.7804600968172251E+00
N    3.5057064092690324E+00    2.0040317995869548E+00    7.7172026179461986E+00
Ga    3.4901418438239422E+00    1.3720812210854610E-01    8.4055175584013941E+00
N    3.4870645236749516E+00    1.3394512709695824E-01    1.0344045967444744E+01
Ga    3.5031623961569318E+00    1.9991957733684407E+00    1.1033187113387557E+01
N    3.5212115433775626E+00    2.0138292473771648E+00    1.2981287824469419E+01
Ga    3.4790796297932167E+00    1.5888202601434220E-01    1.3674604041395943E+01
N    2.9002804930734376E+00   -1.5025319837099421E-01    1.5529956331862961E+01
Ga    1.8066619526816214E+00    1.0065840093814094E+00    1.7513868450400345E+01
N    3.4620707976287490E+00    1.9946253043988132E-01    1.6866625175806970E+01
N    1.8583212771709208E+00    2.9076593386065879E+00   -1.5137954171895135E-01
Ga    1.8744201059930856E+00    4.7753414158076826E+00    5.1449664958667440E-01
N    1.8835579924365866E+00    4.7846178099595251E+00    2.4369062215582642E+00
Ga    1.8694676736320006E+00    2.9189478307575345E+00    3.1495536000177187E+00
N    1.8732074488318433E+00    2.9190774805557242E+00    5.0808472196507299E+00
Ga    1.8871971135697412E+00    4.7853535238805769E+00    5.7788045069060212E+00
N    1.8930673769614981E+00    4.7931562166553334E+00    7.7159211446888811E+00
Ga    1.8789340590593049E+00    2.9263921010461043E+00    8.4048242848375008E+00
N    1.8779184378224885E+00    2.9213809549462937E+00    1.0342963592553724E+01
Ga    1.8851932647183509E+00    4.7844664615401404E+00    1.1041308703754661E+01
N    1.8865218588265906E+00    4.7899632328538004E+00    1.2991131079247346E+01
Ga    1.8906683789716734E+00    2.9100695035310604E+00    1.3670716729726156E+01
N    1.3415269378500487E+00    2.5422978441671633E+00    1.5522188724505865E+01
Ga    1.9962694875116566E-01    3.8165089614784269E+00    1.6440805126841450E+01
N    1.9295318673253641E+00    2.8441123534034412E+00    1.6859480503322057E+01
N    2.4710512066812015E-01    5.6975842448414298E+00   -1.5055430867353445E-01
Ga    2.6383050559111598E-01    7.5652738587484309E+00    5.1491917366205764E-01
N    2.7275133478879482E-01    7.5747892048769918E+00    2.4370190262189224E+00
Ga    2.5915511000257174E-01    5.7091257933142554E+00    3.1500137589940524E+00
N    2.6227164566762945E-01    5.7095383862324933E+00    5.0813600010543549E+00
Ga    2.7683301218093237E-01    7.5753254100838392E+00    5.7807253278072004E+00
N    2.8473871993841254E-01    7.5842286165700674E+00    7.7186800781737892E+00
Ga    2.6892561887623556E-01    5.7173667932181287E+00    8.4085231080724796E+00
N    2.6555849685132032E-01    5.7135816678901792E+00    1.0348343464606668E+01
Ga    2.8703343879053084E-01    7.5819238415166366E+00    1.1032386406545839E+01
N    3.0211211670104993E-01    7.5943723475684664E+00    1.2977800193272142E+01
Ga    2.6427230925645406E-01    5.7425333133045546E+00    1.3671516490619730E+01
N   -3.2583019139656594E-01    5.4475846869675770E+00    1.5521114719157445E+01
Ga   -1.3970482654236047E+00    6.6033375019858864E+00    1.7535410069493803E+01
N    2.3552341707357355E-01    5.7855039551459209E+00    1.6857525535466976E+01
N   -1.3633959800500741E+00    8.4873935840708619E+00   -1.5027888288193950E-01
Ga   -1.3469903521340996E+00    1.0355157021634636E+01    5.1471084278134160E-01
N   -1.3378903460488363E+00    1.0364557254349936E+01    2.4370004542675834E+00
Ga   -1.3517812060181740E+00    8.4989437460993962E+00    3.1505129596722421E+00
N   -1.3481836391855289E+00    8.4986999215370584E+00    5.0818573080010356E+00
Ga   -1.3338341751303282E+00    1.0364789044801881E+01    5.7797022529531370E+00
N   -1.3274365292547359E+00    1.0372784392677151E+01    7.7170557997264835E+00
Ga   -1.3415004793597927E+00    8.5070101169484769E+00    8.4102435100645785E+00
N   -1.3435836513731971E+00    8.5016096159897341E+00    1.0350035474437949E+01
Ga   -1.3369555727755742E+00    1.0365951120679643E+01    1.1045042407257442E+01
N   -1.3354177544330650E+00    1.0371155866900660E+01    1.2995893223678131E+01
Ga   -1.3230279583210915E+00    8.4917418513240630E+00    1.3672886065505578E+01
N   -1.8595539163418322E+00    8.1142572258480445E+00    1.5520160035683459E+01
Ga   -3.0101889796864989E+00    9.3815682563656217E+00    1.6448724172429703E+01
N   -1.2823155736170191E+00    8.4254121823231038E+00    1.6856471301422527E+01
N    6.7250177519876537E+00    1.1764202489388129E-01   -1.5143449974095893E-01
Ga    6.7422152910229913E+00    1.9857538411224200E+00    5.1406472325231922E-01
N    6.7505383145862936E+00    1.9951745458553016E+00    2.4366896309102901E+00
Ga    6.7349448167333126E+00    1.2890290330637311E-01    3.1487200405380165E+00
N    6.7358513558068642E+00    1.2755094430903599E-01    5.0793048832033376E+00
Ga    6.7511928640598491E+00    1.9932444369447406E+00    5.7749244208724582E+00
N    6.7565493502878855E+00    1.9999170366348646E+00    7.7113866468951073E+00
Ga    6.7434765402410743E+00    1.3615252654991522E-01    8.4105921432320550E+00
N    6.7377353954903159E+00    1.3011197567285171E-01    1.0353197330579922E+01
Ga    6.7649799863412872E+00    1.9993607679289800E+00    1.1037997515671300E+01
N    6.7856398809080343E+00    2.0096572656796332E+00    1.2988391199370238E+01
Ga    6.7656375833672957E+00    1.4664631750638049E-01    1.3658529454238151E+01
N    6.1855766871276794E+00   -1.8366351865702518E-01    1.5491360142003206E+01
Ga    5.1377719680189156E+00    1.0674064304827058E+00    1.6590776871850125E+01
N    6.8336004944608142E+00    1.6503033630468120E-01    1.7069751281539236E+01
N    5.1145472852246261E+00    2.9074552430937972E+00   -1.5116147897700949E-01
Ga    5.1316827324579943E+00    4.7752638286928946E+00    5.1479933847961146E-01
N    5.1401523433395990E+00    4.7842852595066097E+00    2.4374767680364267E+00
Ga    5.1247128695569772E+00    2.9179082032432877E+00    3.1503389016832744E+00
N    5.1255987367163423E+00    2.9169664976092693E+00    5.0814044078596492E+00
Ga    5.1408670197959605E+00    4.7836134529174634E+00    5.7744836860820525E+00
N    5.1455972266165872E+00    4.7911309695918503E+00    7.7110163590002641E+00
Ga    5.1362812875873267E+00    2.9268628592824038E+00    8.4085264945725413E+00
N    5.1353351907516362E+00    2.9228984459610734E+00    1.0351192487046147E+01
Ga    5.1514227804500479E+00    4.7930611916768200E+00    1.1035205083856372E+01
N    5.1665741875033282E+00    4.8121510705880848E+00    1.2985207100561688E+01
Ga    5.1778819338205562E+00    2.9520597554066046E+00    1.3648297175834383E+01
N    4.6262934645333074E+00    2.6276087028011386E+00    1.5473908083737392E+01
Ga    3.5361606303358264E+00    3.8309707159159618E+00    1.6584601636280393E+01
N    5.2332553734247274E+00    2.9570176121079408E+00    1.7070563961841081E+01
N    3.5037509702218053E+00    5.6971568040876557E+00   -1.5132774224094334E-01
Ga    3.5206353468168414E+00    7.5653152909102728E+00    5.1328579663214724E-01
N    3.5292445339037313E+00    7.5741891057928914E+00    2.4357938249555233E+00
Ga    3.5140242887615543E+00    5.7076740393192047E+00    3.1484166509926461E+00
N    3.5152162399193352E+00    5.7058991490501541E+00    5.0791304687004120E+00
Ga    3.5290924561180996E+00    7.5719516642960567E+00    5.7722072225597243E+00
N    3.5340384845699186E+00    7.5780383543475924E+00    7.7074750889084180E+00
Ga    3.5222091094571040E+00    5.7146387893234474E+00    8.4090525978662534E+00
N    3.5172494055383154E+00    5.7077496274047972E+00    1.0351706668260617E+01
Ga    3.5452126168820253E+00    7.5781182213588831E+00    1.1034339302816162E+01
N    3.5607089057257229E+00    7.5872115191582425E+00    1.2981969216039086E+01
Ga    3.5412129849205898E+00    5.7287414600608644E+00    1.3654436870977854E+01
N    2.9617413053709596E+00    5.3859747076701030E+00    1.5483583610579855E+01
Ga    1.9150190714806625E+00    6.6425483806693268E+00    1.6578284756572231E+01
N    3.6029359980614277E+00    5.7284079840626720E+00    1.7064248656199563E+01
N    1.8927126627490594E+00    8.4870761578841254E+00   -1.5203307602283569E-01
Ga    1.9099036831369514E+00    1.0355162817515414E+01    5.1417629220032679E-01
N    1.9181501721546863E+00    1.0364456183089839E+01    2.4366277278818758E+00
Ga    1.9033385929087587E+00    8.4976446697079311E+00    3.1474908386976033E+00
N    1.9041457407027391E+00    8.4964630297456925E+00    5.0783063486211617E+00
Ga    1.9178936237964563E+00    1.0363072252008740E+01    5.7722018196103706E+00
N    1.9213792217587662E+00    1.0371275760420730E+01    7.7074231555757509E+00
Ga    1.9160415435807359E+00    8.5080758926771356E+00    8.4076626439842048E+00
N    1.9170615569869618E+00    8.5054239824742286E+00    1.0349016303572268E+01
Ga    1.9307344077535058E+00    1.0375661623605701E+01    1.1036540444089416E+01
N    1.9438732086735193E+00    1.0390651393033808E+01    1.2985421907907531E+01
Ga    1.9595994604404552E+00    8.5330761405726872E+00    1.3648098855414384E+01
N    1.3920884115231849E+00    8.2032006905525900E+00    1.5470757119577318E+01
Ga    3.1790867787222910E-01    9.4250403752783427E+00    1.6581684266312600E+01
N    1.9864705985402136E+00    8.5204825740812851E+00    1.7092412220665111E+01
N    9.9820793319163972E+00    1.1759325555273901E-01   -1.5366403833851425E-01
Ga    9.9996130600481639E+00    1.9856137754296710E+00    5.1231096833368339E-01
N    1.0008366431568220E+01    1.9957592951213747E+00    2.4351417200273171E+00
Ga    9.9920363218204500E+00    1.2927892674867220E-01    3.1469058501369922E+00
N    9.9917969999098961E+00    1.2781780333267526E-01    5.0770524858957558E+00
Ga    1.0011705933775403E+01    1.9973347997786810E+00    5.7674531371918256E+00
N    1.0018831907754237E+01    2.0068481856297478E+00    7.7002182526001501E+00
Ga    9.9954928703395183E+00    1.3828139416407842E-01    8.3790978782577596E+00
N    9.9839283432092341E+00    1.3571881635074612E-01    1.0307554819621124E+01
Ga    1.0013389855421792E+01    1.9938388254202364E+00    1.1005993671769730E+01
N    1.0024016394383345E+01    2.0019452533725062E+00    1.2939824083128943E+01
Ga    1.0065033200736273E+01    1.5521238948700544E-01    1.3661600497001695E+01
N    9.5380373139027519E+00   -1.5104883664207552E-01    1.5527309329932274E+01
Ga    8.4328039259661747E+00    1.0754323561482950E+00    1.6708361878412180E+01
N    1.0174060064336956E+01    1.9486997018766822E-01    1.6892869345301118E+01
N    8.3716716718900059E+00    2.9077301381663068E+00   -1.5200157834954431E-01
Ga    8.3890757967521754E+00    4.7758428188196973E+00    5.1418818230086116E-01
N    8.3976245076181719E+00    4.7852692541977477E+00    2.4368920605510906E+00
Ga    8.3816906301954113E+00    2.9182488882267950E+00    3.1474996791670069E+00
N    8.3811771931191164E+00    2.9171931978213137E+00    5.0779449847910128E+00
Ga    8.4004216592299166E+00    4.7853579246242024E+00    5.7709161864499228E+00
N    8.4073512514684179E+00    4.7933584028571534E+00    7.7067194357672983E+00
Ga    8.3892778707211590E+00    2.9227760197867156E+00    8.3897739805577647E+00
N    8.3855796484976146E+00    2.9141946851260032E+00    1.0322635073205902E+01
Ga    8.3957769184685933E+00    4.7848553434908654E+00    1.0989565996181719E+01
N    8.3918248982373260E+00    4.7870735544108030E+00    1.2911861744210180E+01
Ga    8.4451232415008999E+00    2.9611960014140473E+00    1.3649031794162999E+01
N    7.9624598247755980E+00    2.6606604858597218E+00    1.5522854513677308E+01
Ga    6.8186722631291428E+00    3.8553810549503362E+00    1.6710050551478684E+01
N    8.5732647936028226E+00    3.0159215227689806E+00    1.6904786939824874E+01
N    6.7610970794966505E+00    5.6973118998637169E+00   -1.5217141253666366E-01
Ga    6.7780779922358159E+00    7.5656753873388372E+00    5.1231534889358799E-01
N    6.7871792840883094E+00    7.5751226857061926E+00    2.4351991593522606E+00
Ga    6.7709843439002615E+00    5.7085880974808054E+00    3.1473078068638904E+00
N    6.7714350508316619E+00    5.7060420113612418E+00    5.0776451973517682E+00
Ga    6.7919946633904313E+00    7.5745056984422527E+00    5.7675857733140186E+00
N    6.8006128757233144E+00    7.5823656872399452E+00    7.7003565021389573E+00
Ga    6.7768170682402467E+00    5.7163935638369940E+00    8.3882933627706517E+00
N    6.7691412092310470E+00    5.7130492766869798E+00    1.0321448541661660E+01
Ga    6.7885958358603276E+00    7.5790741152757475E+00    1.1006479146934867E+01
N    6.7970502069064613E+00    7.5913661883177097E+00    1.2940664359466016E+01
Ga    6.8342480238900025E+00    5.7455471288610367E+00    1.3647754594027170E+01
N    6.3396677162321389E+00    5.4634615677357621E+00    1.5522405760465686E+01
Ga    5.2041628943580749E+00    6.6416760346433561E+00    1.6705937724719778E+01
N    6.9677400417184758E+00    5.7924512549419083E+00    1.6899506270757428E+01
N    5.1499934659761237E+00    8.4872333915225440E+00   -1.5338513261750672E-01
Ga    5.1675218947070896E+00    1.0355612936496854E+01    5.1378259482578936E-01
N    5.1767987217901172E+00    1.0365185961692809E+01    2.4371047556471672E+00
Ga    5.1604439360150662E+00    8.4972875051795036E+00    3.1469253616591875E+00
N    5.1608664801075648E+00    8.4945705611510132E+00    5.0771759630314532E+00
Ga    5.1783125693882353E+00    1.0364031819074908E+01    5.7655283854822592E+00
N    5.1832125636636954E+00    1.0371200591794944E+01    7.6995359244150370E+00
Ga    5.1687226406209481E+00    8.4990432563981670E+00    8.3793590644975673E+00
N    5.1629634767214538E+00    8.4858211534994386E+00    1.0308093584334243E+01
Ga    5.1624178644428200E+00    1.0356786950670029E+01    1.0969271524846475E+01
N    5.1533535078543453E+00    1.0355334816668250E+01    1.2873078584349814E+01
Ga    5.2140406222514040E+00    8.5512924591365334E+00    1.3659244918570980E+01
N    4.6918704937895592E+00    8.2201504046306297E+00    1.5522028735467991E+01
Ga    3.5676447854549513E+00    9.4242604192609747E+00    1.6744106474794055E+01
N    5.3190936557601560E+00    8.5889491363035191E+00    1.6884084677108092E+01
H    2.1210918893398206E-01    1.1816823175058531E-01   -1.1814693576078599E+00
H   -1.3995312484995208E+00    2.9079027508204329E+00   -1.1792215251769897E+00
H   -3.0102919392495990E+00    5.6973998062805356E+00   -1.1789143838822043E+00
H   -4.6201225334711520E+00    8.4860173885455374E+00   -1.1791732731199132E+00
H    3.4703828532882621E+00    1.1844747891024858E-01   -1.1788280701002916E+00
H    1.8592542676526027E+00    2.9084206355298368E+00   -1.1785092536594504E+00
H    2.4805627103827388E-01    5.6978735670475276E+00   -1.1777117459865709E+00
H   -1.3629984665695463E+00    8.4875287104486805E+00   -1.1773640506783023E+00
H    6.7230185174076666E+00    1.1674772727219035E-01   -1.1786390929955697E+00
H    5.1133522973257826E+00    2.9064342394539806E+00   -1.1783576291324172E+00
H    3.5018924599956183E+00    5.6960873346053509E+00   -1.1785241207067010E+00
H    1.8908638375264519E+00    8.4854299566566826E+00   -1.1792648085357089E+00
H    9.9797276463615301E+00    1.1757106516584884E-01   -1.1810810123865283E+00
H    8.3704025411753449E+00    2.9072237056118508E+00   -1.1792425080281057E+00
H    6.7604664989115602E+00    5.6963627330556843E+00   -1.1794568920839401E+00
H    5.1488794977391139E+00    8.4844154105462071E+00   -1.1807450466341678E+00
     &END COORD
     &KIND H
       BASIS_SET DZVP-MOLOPT-SR-GTH-q1
       POTENTIAL GTH-PBE-q1
       &POTENTIAL
1
0.2000000000000000E+00 2 -0.4178900440000000E+01  0.7244633100000000E+00
0
       &END POTENTIAL
     &END KIND
     &KIND N
       BASIS_SET DZVP-MOLOPT-SR-GTH
       POTENTIAL GTH-PBE-q5
       &POTENTIAL
2 3
0.2837905100000000E+00 2 -0.1241522559000000E+02  0.1868095920000000E+01
2
0.2554050000000000E+00 1  0.1363026257000000E+02
0.2454945300000000E+00 0
       &END POTENTIAL
     &END KIND
     &KIND Ga
       BASIS_SET DZVP-MOLOPT-SR-GTH
       POTENTIAL GTH-PBE-q13
       &POTENTIAL
2 1 10
0.4900000000000000E+00 0
3
0.4167772300000000E+00 3  0.1047568975000000E+02 -0.4921768140000000E+01  0.8707055900000000E+00
0.7770178090000000E+01 -0.2248152160000000E+01
0.1784415450000000E+01
0.5696265200000000E+00 2  0.1777985340000000E+01  0.1958597600000000E+00
-0.2317443900000000E+00
0.2381265000000000E+00 1 -0.1624868022000000E+02
       &END POTENTIAL
     &END KIND
     &TOPOLOGY
       NUMBER_OF_ATOMS  256
       MULTIPLE_UNIT_CELL  1 1 1
     &END TOPOLOGY
   &END SUBSYS
 &END FORCE_EVAL
