 # Version information for this restart file 
 # current date 2019-06-10 23:35:37.890
 # current working dir /lustre03/project/6037349/rzk/GaN-carbene/444-addat/00-Surface/RKS
 # Program compiled at                              Sun Apr  7 00:48:11 EDT 2019
 # Program compiled on                          beluga2.int.ets1.calculquebec.ca
 # Program compiled for                        Beluga-Linux-x86-64-intel-openmpi
 # Source code revision number                                         svn:18619
 &GLOBAL
   PRINT_LEVEL  MEDIUM
   PROJECT_NAME TEST
   RUN_TYPE  CELL_OPT
 &END GLOBAL
 &MOTION
   &CELL_OPT
     MAX_ITER  300
     STEP_START_VAL  80
     EXTERNAL_PRESSURE     1.0000000000000000E+00
     KEEP_ANGLES  T
     KEEP_SYMMETRY  T
     CONSTRAINT  Z
     PRESSURE_TOLERANCE     5.0000000000000000E+02
   &END CELL_OPT
 &END MOTION
 &FORCE_EVAL
   METHOD  QS
   STRESS_TENSOR  ANALYTICAL
   &DFT
     BASIS_SET_FILE_NAME BASIS_MOLOPT
     POTENTIAL_FILE_NAME GTH_POTENTIALS
     SURFACE_DIPOLE_CORRECTION  T
     SURF_DIP_DIR  Z
     &SCF
       MAX_SCF  100
       EPS_SCF     5.0000000000000004E-06
       &OT  T
         PRECONDITIONER  FULL_ALL
       &END OT
       &OUTER_SCF  T
         OPTIMIZER  NONE
         EPS_SCF     5.0000000000000004E-06
         MAX_SCF  4
       &END OUTER_SCF
       &PRINT
         &RESTART  OFF
           BACKUP_COPIES  1
           &EACH
             JUST_ENERGY  0
             QS_SCF  0
             MD  20
           &END EACH
         &END RESTART
       &END PRINT
     &END SCF
     &QS
       EPS_DEFAULT     1.0000000000000000E-14
       METHOD  GPW
     &END QS
     &MGRID
       NGRIDS  5
       CUTOFF     1.2000000000000000E+03
     &END MGRID
     &XC
       DENSITY_CUTOFF     1.0000000000000000E-10
       GRADIENT_CUTOFF     1.0000000000000000E-10
       TAU_CUTOFF     1.0000000000000000E-10
       &XC_FUNCTIONAL  NO_SHORTCUT
         &PBE  T
         &END PBE
       &END XC_FUNCTIONAL
       &VDW_POTENTIAL
         POTENTIAL_TYPE  PAIR_POTENTIAL
         &PAIR_POTENTIAL
           R_CUTOFF     1.0000000000000005E+01
           TYPE  DFTD3
           PARAMETER_FILE_NAME dftd3.dat
           REFERENCE_FUNCTIONAL PBE
           EPS_CN     9.9999999999999995E-07
           CALCULATE_C9_TERM  T
           REFERENCE_C9_TERM  T
           LONG_RANGE_CORRECTION  F
           VERBOSE_OUTPUT  F
         &END PAIR_POTENTIAL
       &END VDW_POTENTIAL
     &END XC
   &END DFT
   &SUBSYS
     &CELL
       A     1.3034504218680588E+01    0.0000000000000000E+00    0.0000000000000000E+00
       B    -6.4459421723216535E+00    1.1164699345112080E+01    0.0000000000000000E+00
       C     0.0000000000000000E+00    0.0000000000000000E+00    3.2000000000000000E+01
       MULTIPLE_UNIT_CELL  1 1 1
       &CELL_REF
         A     1.2982353780853531E+01    0.0000000000000000E+00    0.0000000000000000E+00
         B    -6.4911768904267628E+00    1.1243048175136114E+01    0.0000000000000000E+00
         C     0.0000000000000000E+00    0.0000000000000000E+00    3.2000000000000000E+01
         MULTIPLE_UNIT_CELL  1 1 1
       &END CELL_REF
     &END CELL
     &COORD
N    7.0479803958429968E-02    2.5221997801257820E-02   -1.4594853815422809E-01
Ga    9.1651710512153442E-02    1.8980670381782239E+00    5.2001798624278550E-01
N    1.3478633972107121E-01    1.9290556288459286E+00    2.4431618953058583E+00
Ga    1.2514496792307381E-01    6.5700717476517456E-02    3.1536753470099517E+00
N    1.8085996278443631E-01    9.8816538060465989E-02    5.0844270015617887E+00
Ga    2.0373060124679540E-01    1.9753655262433660E+00    5.7728126266038640E+00
N    2.5163418387942738E-01    2.0095989059438706E+00    7.7112238875736860E+00
Ga    2.3502341111649916E-01    1.3600250609428635E-01    8.3755011470263785E+00
N    2.5929472927279523E-01    1.4926943655026276E-01    1.0305161193298805E+01
Ga    2.8727836923387279E-01    2.0165066620817909E+00    1.1004222283276452E+01
N    3.4607492242230975E-01    2.0572928127483361E+00    1.2945083283156556E+01
Ga    3.1167731469456050E-01    1.8718350194469743E-01    1.3612877862049453E+01
N   -2.1208944438264191E-01   -1.1257790907171256E-01    1.5354610739506807E+01
Ga   -8.7746773943544654E-01    1.0395051916016564E+00    1.6721060236619401E+01
N    4.3972187973690879E-01    2.3927643301772691E-01    1.8004728172985537E+01
N   -1.5411299375827641E+00    2.8164059996841497E+00   -1.4521156599509244E-01
Ga   -1.5206773844142727E+00    4.6902099048699899E+00    5.1976782117079712E-01
N   -1.4780940886740659E+00    4.7229732171916359E+00    2.4437334362749326E+00
Ga   -1.4860258724583888E+00    2.8580303487077332E+00    3.1485818266231678E+00
N   -1.4309834954061604E+00    2.8904213043002756E+00    5.0799485582680814E+00
Ga   -1.4082328960170574E+00    4.7624747031402643E+00    5.7773547723464622E+00
N   -1.3615128517792525E+00    4.7990549830144973E+00    7.7156461402383467E+00
Ga   -1.3760296582276128E+00    2.9311688068007493E+00    8.3954179652229648E+00
N   -1.3451423687997148E+00    2.9444148393527620E+00    1.0327760702203069E+01
Ga   -1.3324606558672702E+00    4.8137485734504661E+00    1.1026229315751062E+01
N   -1.2802470349654291E+00    4.8499980754725556E+00    1.2968744508620734E+01
Ga   -1.2807395294939861E+00    2.9732711137339001E+00    1.3628241963033814E+01
N   -1.7508530528122546E+00    2.5631210518666432E+00    1.5456423104110760E+01
Ga   -2.7504177779921544E+00    4.3196181557745108E+00    1.6831856869103380E+01
N   -1.2708911234851790E+00    3.0215691834118967E+00    1.6735428022250197E+01
N   -3.1527696317772347E+00    5.6076786075368128E+00   -1.4581765970849236E-01
Ga   -3.1312112482394530E+00    7.4798567805350853E+00    5.2111053803311813E-01
N   -3.0885088971942336E+00    7.5108895025819473E+00    2.4445490598955311E+00
Ga   -3.0985916647417397E+00    5.6478907721206966E+00    3.1577369854426731E+00
N   -3.0440839865939000E+00    5.6798518828633826E+00    5.0892077191617888E+00
Ga   -3.0202368631708092E+00    7.5549241323437286E+00    5.7788920316220587E+00
N   -2.9725212964775358E+00    7.5865387195659268E+00    7.7180173319776291E+00
Ga   -2.9861971511072247E+00    5.7199587871502100E+00    8.3966438674592183E+00
N   -2.9592050437038457E+00    5.7353904957298125E+00    1.0331476277934359E+01
Ga   -2.9436512396842751E+00    7.6047219076784387E+00    1.1027759800348221E+01
N   -2.8922338844104925E+00    7.6398275946921732E+00    1.2971668010079952E+01
Ga   -2.9156143500044451E+00    5.7664171019046604E+00    1.3667350496131151E+01
N   -3.3714037265718302E+00    5.4948793706340702E+00    1.5447358206973174E+01
Ga   -4.0754735254066317E+00    6.6141378656120633E+00    1.6846372256880578E+01
N   -2.7222979554214382E+00    5.8590031442313979E+00    1.8085894331837721E+01
N   -4.7636368876118027E+00    8.3980856183190919E+00   -1.4517891749135792E-01
Ga   -4.7429877658064994E+00    1.0272164383388825E+01    5.1813637154824543E-01
N   -4.7006952767011407E+00    1.0305410754309909E+01    2.4417653803038233E+00
Ga   -4.7086563255914031E+00    8.4408194484078241E+00    3.1487009831485508E+00
N   -4.6526664231468349E+00    8.4710952728062949E+00    5.0801185872671963E+00
Ga   -4.6288161329038999E+00    1.0344205696155417E+01    5.7740147508910864E+00
N   -4.5793471842392188E+00    1.0378032707720758E+01    7.7111601442246984E+00
Ga   -4.5980267630304050E+00    8.5112311204517788E+00    8.3954995840689524E+00
N   -4.5689221594718097E+00    8.5304745766512617E+00    1.0329062730337778E+01
Ga   -4.5578017566443556E+00    1.0404835199281829E+01    1.1010951580153014E+01
N   -4.4945990863192149E+00    1.0446982375695825E+01    1.2947488507612951E+01
Ga   -4.5133525213957846E+00    8.5791277226889431E+00    1.3632008475018566E+01
N   -5.1052538068677862E+00    8.3892346251729499E+00    1.5462800883073706E+01
Ga   -5.9913145030304822E+00    9.8742814123042137E+00    1.6696975021378570E+01
N   -4.4555085921183517E+00    8.5518333112655380E+00    1.6741264116836117E+01
N    3.3296113074891873E+00    2.5393448435720278E-02   -1.4390740749926592E-01
Ga    3.3499904740083779E+00    1.8980689728667193E+00    5.2314860488337689E-01
N    3.3934583562066649E+00    1.9301449603732002E+00    2.4456156122744890E+00
Ga    3.3823604372673830E+00    6.6295879490034404E-02    3.1532667772506153E+00
N    3.4394536932752864E+00    9.9018472649993222E-02    5.0846663560603069E+00
Ga    3.4581960211619269E+00    1.9713165880233894E+00    5.7784502187369204E+00
N    3.5056878677289705E+00    2.0033554043685511E+00    7.7212660917266378E+00
Ga    3.4980045959862545E+00    1.3919236888542477E-01    8.4097217780035116E+00
N    3.5258567870249298E+00    1.5997954280014212E-01    1.0344785608665262E+01
Ga    3.5528166777095973E+00    2.0287947342468891E+00    1.1032350321904744E+01
N    3.6135224582571022E+00    2.0759903532051780E+00    1.2980240316193868E+01
Ga    3.5651837002189795E+00    2.2233986936009253E-01    1.3677031041219685E+01
N    3.0196736317659596E+00   -2.0645777785804439E-02    1.5557012615747807E+01
Ga    1.9870254849098308E+00    1.1261305733428733E+00    1.7632182335508698E+01
N    3.6068389660962574E+00    3.2377120740604504E-01    1.6864326845903761E+01
N    1.7179441279403265E+00    2.8162743346057018E+00   -1.4453846512334534E-01
Ga    1.7377129324442393E+00    4.6893286262019869E+00    5.2261141045603343E-01
N    1.7799768093478330E+00    4.7217769619331946E+00    2.4445640335147889E+00
Ga    1.7720902752792127E+00    2.8572450941006684E+00    3.1496225822918680E+00
N    1.8277888786856091E+00    2.8895139923928497E+00    5.0805236751357503E+00
Ga    1.8467898910643672E+00    4.7601112926016818E+00    5.7809163262333776E+00
N    1.8883768679712492E+00    4.7935707147598396E+00    7.7226279648491820E+00
Ga    1.8873964398021994E+00    2.9311584971624574E+00    8.4094448220007703E+00
N    1.9239688621789144E+00    2.9442793347893099E+00    1.0345601359275266E+01
Ga    1.9254936524507660E+00    4.8072769787152678E+00    1.1045002983381176E+01
N    1.9732695258340980E+00    4.8338814281290263E+00    1.2995551024043765E+01
Ga    1.9850342764547106E+00    2.9567595559636017E+00    1.3673138355077381E+01
N    1.5030592425930420E+00    2.6034846911374472E+00    1.5544040735219179E+01
Ga    3.7544650638486121E-01    3.9187859398574147E+00    1.6448854595592664E+01
N    2.0957094865472721E+00    2.9257240510387601E+00    1.6860372352857045E+01
N    1.0612129577852393E-01    5.6079593461381121E+00   -1.4321405604813961E-01
Ga    1.2633791019412191E-01    7.4803940196438061E+00    5.2300548839102790E-01
N    1.6899922709566814E-01    7.5113797011418981E+00    2.4447605723885255E+00
Ga    1.5961643349822410E-01    5.6480154018809419E+00    3.1548495182641711E+00
N    2.1513260011913185E-01    5.6803958351290076E+00    5.0866612114029817E+00
Ga    2.3319332325015552E-01    7.5523184583032075E+00    5.7819462446295784E+00
N    2.7781843696809155E-01    7.5842296680481738E+00    7.7250959008259459E+00
Ga    2.6999421709625143E-01    5.7197992711172878E+00    8.4132414772850037E+00
N    3.0192956383377506E-01    5.7347275039307295E+00    1.0351070373361420E+01
Ga    3.2418486835568061E-01    7.6092719001601523E+00    1.1033667904792148E+01
N    3.8248577380377052E-01    7.6523422593572636E+00    1.2979040622851530E+01
Ga    3.5217136774778240E-01    5.7932093624512175E+00    1.3663542184277240E+01
N   -1.5781849564795850E-01    5.5296060506487548E+00    1.5520820444564484E+01
Ga   -1.2066289556104350E+00    6.7249749814188364E+00    1.7507960104457467E+01
N    4.0659205765502693E-01    5.8874284772157539E+00    1.6858596130433906E+01
N   -1.5052360275349594E+00    8.3983901237446190E+00   -1.4392499682153467E-01
Ga   -1.4850239993893248E+00    1.0271440576262197E+01    5.2245458456010607E-01
N   -1.4431509680138781E+00    1.0303997066304776E+01    2.4448058177625156E+00
Ga   -1.4515749648047398E+00    8.4392808551143741E+00    3.1524430998231692E+00
N   -1.3970443277605005E+00    8.4705135750104965E+00    5.0841627049127442E+00
Ga   -1.3763456688581290E+00    1.0342563570491953E+01    5.7811872923510235E+00
N   -1.3326440268848843E+00    1.0372289640010903E+01    7.7227988631260418E+00
Ga   -1.3416814378593769E+00    8.5104947016082502E+00    8.4150642718326374E+00
N   -1.3093687052063114E+00    8.5282540197067132E+00    1.0354639243446607E+01
Ga   -1.3027583873410737E+00    1.0397955384875127E+01    1.1047356768788523E+01
N   -1.2627093676250731E+00    1.0431622754922069E+01    1.2998861255592304E+01
Ga   -1.2379686521493114E+00    8.5481696944630308E+00    1.3662681624313155E+01
N   -1.7200750160083089E+00    8.2417394510396509E+00    1.5523790070162331E+01
Ga   -2.8562516888987428E+00    9.5087936931694284E+00    1.6449801537500488E+01
N   -1.1298027833887929E+00    8.5533030412449289E+00    1.6855026420165046E+01
N    6.5871530656467154E+00    2.5230740605741726E-02   -1.4229488704989665E-01
Ga    6.6087301821041660E+00    1.8988237847456491E+00    5.2162164152406398E-01
N    6.6504584867998142E+00    1.9309661656378034E+00    2.4433303160713598E+00
Ga    6.6407633692494796E+00    6.6539309482401152E-02    3.1510167885556766E+00
N    6.6906942453102030E+00    9.7304817387491749E-02    5.0816913752266579E+00
Ga    6.7153334447277491E+00    1.9682682250246140E+00    5.7791190280500970E+00
N    6.7594063983027546E+00    1.9991201841922761E+00    7.7201658750381865E+00
Ga    6.7456381568373418E+00    1.3200535109289607E-01    8.4136373773412299E+00
N    6.7712477130083046E+00    1.4788014332883037E-01    1.0351715469310095E+01
Ga    6.8166918206201652E+00    2.0251191784480449E+00    1.1034281292718092E+01
N    6.8820221495072609E+00    2.0623080383630294E+00    1.2987132369681792E+01
Ga    6.8487659844631521E+00    1.9840159180343900E-01    1.3646479671238851E+01
N    6.3245814796058326E+00   -9.2365102086418335E-02    1.5505879614766053E+01
Ga    5.2854611318246452E+00    1.1767473025103565E+00    1.6588863536635014E+01
N    6.9853365295277570E+00    2.8251776608599927E-01    1.7063850217015123E+01
N    4.9760040909469501E+00    2.8160369794159883E+00   -1.4200587046118629E-01
Ga    4.9976753315453406E+00    4.6895085121480040E+00    5.2031061934169887E-01
N    5.0400815557023222E+00    4.7204254257696387E+00    2.4422032119432018E+00
Ga    5.0303386790179418E+00    2.8574870813728288E+00    3.1561740113861649E+00
N    5.0831931396113577E+00    2.8877397683940513E+00    5.0869489324599542E+00
Ga    5.1030996145639289E+00    4.7611281568032773E+00    5.7784058782555938E+00
N    5.1463642964996419E+00    4.7946871482551030E+00    7.7187047750734541E+00
Ga    5.1408431343587697E+00    2.9296413865423041E+00    8.4126824938152804E+00
N    5.1792550150913819E+00    2.9496050700532708E+00    1.0352223656988343E+01
Ga    5.1953457863213739E+00    4.8264400185754832E+00    1.1030754883457369E+01
N    5.2546282780764857E+00    4.8738832649853459E+00    1.2983399421711045E+01
Ga    5.2748553179579396E+00    3.0088583510278997E+00    1.3628737986002081E+01
N    4.7929917004579865E+00    2.7207297476360770E+00    1.5474618025665858E+01
Ga    3.6886226409162561E+00    3.9240240479150037E+00    1.6578628805552210E+01
N    5.3912430782297083E+00    3.0701033838676639E+00    1.7058199905226111E+01
N    3.3643195336784144E+00    5.6077449342052468E+00   -1.4199929710016967E-01
Ga    3.3857834487821821E+00    7.4813701272212167E+00    5.2220404630644701E-01
N    3.4282138291098430E+00    7.5124515051083627E+00    2.4430864529405598E+00
Ga    3.4190820218340154E+00    5.6466086800629558E+00    3.1504488577986001E+00
N    3.4701472211471773E+00    5.6754334205622499E+00    5.0810156159711211E+00
Ga    3.4886902169851033E+00    7.5487267298302481E+00    5.7702853751205376E+00
N    3.5293484885303599E+00    7.5793722801366243E+00    7.7103154453621601E+00
Ga    3.5218123783725712E+00    5.7168783548811462E+00    8.4142632779351345E+00
N    3.5505109716925665E+00    5.7287169461213372E+00    1.0351926753067319E+01
Ga    3.5857550357785373E+00    7.6063347205226268E+00    1.1030333620200325E+01
N    3.6437553496808937E+00    7.6382666774115409E+00    1.2980433863698092E+01
Ga    3.6246089234180685E+00    5.7786803792073034E+00    1.3644137485667882E+01
N    3.1093192650552846E+00    5.4702001800802291E+00    1.5498456704416006E+01
Ga    2.0726324061801993E+00    6.7487996451544028E+00    1.6591422958594311E+01
N    3.7592350281219091E+00    5.8270443522846502E+00    1.7056710547982373E+01
N    1.7524002422830793E+00    8.3982259327155067E+00   -1.4241408442071901E-01
Ga    1.7744589268115867E+00    1.0272113878040281E+01    5.2059736712338567E-01
N    1.8170106963005348E+00    1.0304040641388784E+01    2.4423421527843612E+00
Ga    1.8052472129259476E+00    8.4385902787444529E+00    3.1499030886267758E+00
N    1.8554154777018144E+00    8.4674076826309097E+00    5.0802637616498876E+00
Ga    1.8763574573452300E+00    1.0340929852571014E+01    5.7694822478914123E+00
N    1.9167902383195723E+00    1.0371553415079109E+01    7.7091385528928829E+00
Ga    1.9138548057765818E+00    8.5095708343938785E+00    8.4118012475887571E+00
N    1.9506007881360978E+00    8.5267689052300959E+00    1.0347443931946611E+01
Ga    1.9686464722052885E+00    1.0403966436504627E+01    1.1031107319588706E+01
N    2.0207272469388680E+00    1.0450186284538837E+01    1.2982208237806258E+01
Ga    2.0432759290879572E+00    8.5873039800834103E+00    1.3638745911604394E+01
N    1.5437908477387075E+00    8.2946440604969141E+00    1.5482450418092100E+01
Ga    4.7260359676088309E-01    9.5376973490795294E+00    1.6592395253377124E+01
N    2.1462526082589237E+00    8.6369758778849359E+00    1.7076050943622594E+01
N    9.8458779519089017E+00    2.5444029151069834E-02   -1.4481552550045371E-01
Ga    9.8674500221801420E+00    1.8988657791880845E+00    5.2071831948714742E-01
N    9.9104057313113945E+00    1.9306492848748524E+00    2.4428989178512328E+00
Ga    9.8994773827065039E+00    6.5673679195136614E-02    3.1506106224672310E+00
N    9.9494270376514855E+00    9.7628496229184861E-02    5.0797797017481088E+00
Ga    9.9751128473342590E+00    1.9737152023784210E+00    5.7680546404194102E+00
N    1.0021700985953112E+01    2.0067877018736096E+00    7.7050214854101524E+00
Ga    9.9986113864617021E+00    1.3619971753103693E-01    8.3783150128593533E+00
N    1.0023073811030306E+01    1.5352620540317483E-01    1.0303077930187362E+01
Ga    1.0058549558092160E+01    2.0166260705002683E+00    1.0999255377570075E+01
N    1.0111949974984222E+01    2.0489861095434563E+00    1.2937530375074839E+01
Ga    1.0155233116855875E+01    2.0535711267444096E-01    1.3657557118504659E+01
N    9.6795502849155000E+00   -5.9649112778457754E-02    1.5536019994766857E+01
Ga    8.5955813335405633E+00    1.1826292629564230E+00    1.6714012760722365E+01
N    1.0347359822311638E+01    3.0841330299193881E-01    1.6885117725843820E+01
N    8.2344674325176967E+00    2.8166062745318903E+00   -1.4466356066642344E-01
Ga    8.2567495741826882E+00    4.6903372329636177E+00    5.2046841291723822E-01
N    8.2996918387587968E+00    4.7227975003513567E+00    2.4435212860419306E+00
Ga    8.2868436484387260E+00    2.8570020324045129E+00    3.1489978171925261E+00
N    8.3384489446248491E+00    2.8870586567411416E+00    5.0792317981031623E+00
Ga    8.3627148535237925E+00    4.7595660415682994E+00    5.7752776827125656E+00
N    8.4113769687260014E+00    4.7944720462146044E+00    7.7125433771561669E+00
Ga    8.3978880920442638E+00    2.9267055769002370E+00    8.3945068781736545E+00
N    8.4304817205953722E+00    2.9428696665009748E+00    1.0323965402260534E+01
Ga    8.4403926304151824E+00    4.8134363788341501E+00    1.1006718189974116E+01
N    8.4720314515499062E+00    4.8384154166116149E+00    1.2921479459017448E+01
Ga    8.5425060575462215E+00    3.0135500665055437E+00    1.3649104843486489E+01
N    8.1275217219861293E+00    2.7574529414887636E+00    1.5541419368654273E+01
Ga    6.9857016838157984E+00    3.9708637961704594E+00    1.6725499554202546E+01
N    8.7430562087294064E+00    3.1324772942623618E+00    1.6911730807220597E+01
N    6.6234113988730252E+00    5.6076264484350871E+00   -1.4421911853322492E-01
Ga    6.6446820154938298E+00    7.4811003527019286E+00    5.2146653724083381E-01
N    6.6875139627031732E+00    7.5126832881270325E+00    2.4433107373443481E+00
Ga    6.6758994466365458E+00    5.6465358170761393E+00    3.1503660924927166E+00
N    6.7288191087081906E+00    5.6763959214423032E+00    5.0806397635414813E+00
Ga    6.7545225385380725E+00    7.5513411358679905E+00    5.7666761670157429E+00
N    6.8018720911548582E+00    7.5846828767785617E+00    7.7041229856786737E+00
Ga    6.7860542823449972E+00    5.7196118509849860E+00    8.3936388787426051E+00
N    6.8125118962872993E+00    5.7362678001199026E+00    1.0322696493063743E+01
Ga    6.8313905153325925E+00    7.6104259813763626E+00    1.0997493686701047E+01
N    6.8792451991078813E+00    7.6497420719291149E+00    1.2937630198893993E+01
Ga    6.9246226209960424E+00    5.8095700070405876E+00    1.3649316658085281E+01
N    6.4969907543004197E+00    5.5671745459431392E+00    1.5540372806439603E+01
Ga    5.3653384889775646E+00    6.7486874307307332E+00    1.6724421001584574E+01
N    7.1416906019977331E+00    5.9089071198145513E+00    1.6905479212681875E+01
N    5.0115124286307502E+00    8.3983495986002161E+00   -1.4550269822825287E-01
Ga    5.0332756784230801E+00    1.0272431585589739E+01    5.1979278735009893E-01
N    5.0764023058093040E+00    1.0305368713035170E+01    2.4420197604429306E+00
Ga    5.0646495465227099E+00    8.4395667127498033E+00    3.1475587006752468E+00
N    5.1167058855938645E+00    8.4665008304156828E+00    5.0764149804443504E+00
Ga    5.1388914225018087E+00    1.0341723354704897E+01    5.7654388637659482E+00
N    5.1814735408465999E+00    1.0372768323207177E+01    7.7012421543160157E+00
Ga    5.1702590888322080E+00    8.5009181730115078E+00    8.3812476503875821E+00
N    5.1984766766762061E+00    8.5154374948205884E+00    1.0305841180249189E+01
Ga    5.2065092875119205E+00    1.0391429146136083E+01    1.0975534079363003E+01
N    5.2451181142891743E+00    1.0414580162934120E+01    1.2871348779020487E+01
Ga    5.2971019846015581E+00    8.6055267150093009E+00    1.3655964401020523E+01
N    4.8386082335689258E+00    8.3159225956408331E+00    1.5532002712179070E+01
Ga    3.7398235302811536E+00    9.5415032241157274E+00    1.6761499425582148E+01
N    5.4909398000411294E+00    8.6948485958355928E+00    1.6879897417018501E+01
H    6.7002867104101374E-02    2.4062654887958512E-02   -1.1731709748090795E+00
H   -1.5452553178901418E+00    2.8161579010985198E+00   -1.1725488585209898E+00
H   -3.1567928055854630E+00    5.6061550479365856E+00   -1.1728706648337515E+00
H   -4.7673313338454779E+00    8.3974824072521788E+00   -1.1724439258593216E+00
H    3.3282943267665157E+00    2.5033610328806917E-02   -1.1711243010425505E+00
H    1.7164729360407178E+00    2.8175845054156974E+00   -1.1720387937003216E+00
H    1.0487062221565660E-01    5.6078996455203338E+00   -1.1702977789463893E+00
H   -1.5065186442603207E+00    8.3991029217459747E+00   -1.1711553202213396E+00
H    6.5834190161846049E+00    2.4627800794313537E-02   -1.1693662148649411E+00
H    4.9729154936718452E+00    2.8162849782013462E+00   -1.1690223381307545E+00
H    3.3609783041708274E+00    5.6060211310747166E+00   -1.1690682866036350E+00
H    1.7485902971110647E+00    8.3976827060625538E+00   -1.1694131933685277E+00
H    9.8401733057065606E+00    2.3617584682773064E-02   -1.1719653333853508E+00
H    8.2289134642355481E+00    2.8151499682071131E+00   -1.1718823908056131E+00
H    6.6177774796545288E+00    5.6047682588939329E+00   -1.1713358149401201E+00
H    5.0061695889400504E+00    8.3964183714538940E+00   -1.1727867619174721E+00
     &END COORD
     &KIND H
       BASIS_SET DZVP-MOLOPT-SR-GTH-q1
       POTENTIAL GTH-PBE-q1
       &POTENTIAL
1
0.2000000000000000E+00 2 -0.4178900440000000E+01  0.7244633100000000E+00
0
       &END POTENTIAL
     &END KIND
     &KIND N
       BASIS_SET DZVP-MOLOPT-SR-GTH
       POTENTIAL GTH-PBE-q5
       &POTENTIAL
2 3
0.2837905100000000E+00 2 -0.1241522559000000E+02  0.1868095920000000E+01
2
0.2554050000000000E+00 1  0.1363026257000000E+02
0.2454945300000000E+00 0
       &END POTENTIAL
     &END KIND
     &KIND Ga
       BASIS_SET DZVP-MOLOPT-SR-GTH
       POTENTIAL GTH-PBE-q13
       &POTENTIAL
2 1 10
0.4900000000000000E+00 0
3
0.4167772300000000E+00 3  0.1047568975000000E+02 -0.4921768140000000E+01  0.8707055900000000E+00
0.7770178090000000E+01 -0.2248152160000000E+01
0.1784415450000000E+01
0.5696265200000000E+00 2  0.1777985340000000E+01  0.1958597600000000E+00
-0.2317443900000000E+00
0.2381265000000000E+00 1 -0.1624868022000000E+02
       &END POTENTIAL
     &END KIND
     &TOPOLOGY
       NUMBER_OF_ATOMS  256
       MULTIPLE_UNIT_CELL  1 1 1
     &END TOPOLOGY
   &END SUBSYS
 &END FORCE_EVAL
