 # Version information for this restart file 
 # current date 2019-06-11 00:29:43.635
 # current working dir /lustre03/project/6037349/rzk/GaN-carbene/444-addat/00-Surface/RKS
 # Program compiled at                              Sun Apr  7 00:48:11 EDT 2019
 # Program compiled on                          beluga2.int.ets1.calculquebec.ca
 # Program compiled for                        Beluga-Linux-x86-64-intel-openmpi
 # Source code revision number                                         svn:18619
 &GLOBAL
   PRINT_LEVEL  MEDIUM
   PROJECT_NAME TEST
   RUN_TYPE  CELL_OPT
 &END GLOBAL
 &MOTION
   &CELL_OPT
     MAX_ITER  300
     STEP_START_VAL  107
     EXTERNAL_PRESSURE     1.0000000000000000E+00
     KEEP_ANGLES  T
     KEEP_SYMMETRY  T
     CONSTRAINT  Z
     PRESSURE_TOLERANCE     5.0000000000000000E+02
   &END CELL_OPT
 &END MOTION
 &FORCE_EVAL
   METHOD  QS
   STRESS_TENSOR  ANALYTICAL
   &DFT
     BASIS_SET_FILE_NAME BASIS_MOLOPT
     POTENTIAL_FILE_NAME GTH_POTENTIALS
     SURFACE_DIPOLE_CORRECTION  T
     SURF_DIP_DIR  Z
     &SCF
       MAX_SCF  100
       EPS_SCF     5.0000000000000004E-06
       &OT  T
         PRECONDITIONER  FULL_ALL
       &END OT
       &OUTER_SCF  T
         OPTIMIZER  NONE
         EPS_SCF     5.0000000000000004E-06
         MAX_SCF  4
       &END OUTER_SCF
       &PRINT
         &RESTART  OFF
           BACKUP_COPIES  1
           &EACH
             JUST_ENERGY  0
             QS_SCF  0
             MD  20
           &END EACH
         &END RESTART
       &END PRINT
     &END SCF
     &QS
       EPS_DEFAULT     1.0000000000000000E-14
       METHOD  GPW
     &END QS
     &MGRID
       NGRIDS  5
       CUTOFF     1.2000000000000000E+03
     &END MGRID
     &XC
       DENSITY_CUTOFF     1.0000000000000000E-10
       GRADIENT_CUTOFF     1.0000000000000000E-10
       TAU_CUTOFF     1.0000000000000000E-10
       &XC_FUNCTIONAL  NO_SHORTCUT
         &PBE  T
         &END PBE
       &END XC_FUNCTIONAL
       &VDW_POTENTIAL
         POTENTIAL_TYPE  PAIR_POTENTIAL
         &PAIR_POTENTIAL
           R_CUTOFF     1.0000000000000005E+01
           TYPE  DFTD3
           PARAMETER_FILE_NAME dftd3.dat
           REFERENCE_FUNCTIONAL PBE
           EPS_CN     9.9999999999999995E-07
           CALCULATE_C9_TERM  T
           REFERENCE_C9_TERM  T
           LONG_RANGE_CORRECTION  F
           VERBOSE_OUTPUT  F
         &END PAIR_POTENTIAL
       &END VDW_POTENTIAL
     &END XC
   &END DFT
   &SUBSYS
     &CELL
       A     1.3027628291930030E+01    0.0000000000000000E+00    0.0000000000000000E+00
       B    -6.4424772304530808E+00    1.1158697889750631E+01    0.0000000000000000E+00
       C     0.0000000000000000E+00    0.0000000000000000E+00    3.2000000000000000E+01
       MULTIPLE_UNIT_CELL  1 1 1
       &CELL_REF
         A     1.2982353780853531E+01    0.0000000000000000E+00    0.0000000000000000E+00
         B    -6.4911768904267628E+00    1.1243048175136114E+01    0.0000000000000000E+00
         C     0.0000000000000000E+00    0.0000000000000000E+00    3.2000000000000000E+01
         MULTIPLE_UNIT_CELL  1 1 1
       &END CELL_REF
     &END CELL
     &COORD
N    2.1325919826865197E-01    1.1867342013532872E-01   -1.5414687427712639E-01
Ga    2.3010393483564040E-01    1.9860785521128799E+00    5.1316590346224600E-01
N    2.3850047991943146E-01    1.9954742174823907E+00    2.4362796836334870E+00
Ga    2.2345450776517242E-01    1.2923915013520046E-01    3.1479908904063421E+00
N    2.2545789229985166E-01    1.2764542413388072E-01    5.0776409342065216E+00
Ga    2.4167191363534876E-01    1.9966189693497083E+00    5.7715789917046783E+00
N    2.4898011760603458E-01    2.0052552379748252E+00    7.7060627637504364E+00
Ga    2.3103318389022812E-01    1.3542237363424142E-01    8.3844153795929337E+00
N    2.2396927735054725E-01    1.2850737187676950E-01    1.0317297664196513E+01
Ga    2.4284342726313954E-01    1.9927180409063789E+00    1.1014028455166633E+01
N    2.5815717228195600E-01    1.9986933151121553E+00    1.2948423397058459E+01
Ga    2.1240361859175266E-01    1.2746071181682969E-01    1.3622198573685804E+01
N   -3.5927207609058281E-01   -2.0350726793969207E-01    1.5355173849834650E+01
Ga   -1.0544946530447648E+00    9.2235232956943802E-01    1.6752326802903923E+01
N    2.7917531903782089E-01    1.2796029652386115E-01    1.8012680931816067E+01
N   -1.3972749810407055E+00    2.9086556896357543E+00   -1.5203981503850023E-01
Ga   -1.3807656032552860E+00    4.7761904440790666E+00    5.1511805280243461E-01
N   -1.3722577422648148E+00    4.7853827465339442E+00    2.4378346349214621E+00
Ga   -1.3878312377446542E+00    2.9186058831220230E+00    3.1477515523869775E+00
N   -1.3858407369530008E+00    2.9194054313275819E+00    5.0770600431474087E+00
Ga   -1.3680382150711208E+00    4.7865441898174526E+00    5.7746357191683080E+00
N   -1.3601811268669910E+00    4.7955452794652755E+00    7.7099936782339036E+00
Ga   -1.3787112302478419E+00    2.9274628785052439E+00    8.3941327811824262E+00
N   -1.3820001349692324E+00    2.9237262981546532E+00    1.0330709900067038E+01
Ga   -1.3709908030134468E+00    4.7880750432759829E+00    1.1030936527833003E+01
N   -1.3645002693166637E+00    4.8006196986276519E+00    1.2971820014373082E+01
Ga   -1.3612354737906924E+00    2.9259541727406688E+00    1.3628188820436279E+01
N   -1.8948943347484537E+00    2.4628588552849542E+00    1.5442822795173337E+01
Ga   -2.9158173221366037E+00    4.2005516698751357E+00    1.6830270112650485E+01
N   -1.4247882314625819E+00    2.9010244509045222E+00    1.6734382275649075E+01
N   -3.0078983863284141E+00    5.6981519254915831E+00   -1.5182926536560129E-01
Ga   -2.9911778784748941E+00    7.5657378216369446E+00    5.1425251015763074E-01
N   -2.9825624994287891E+00    7.5747480904306883E+00    2.4370930360469654E+00
Ga   -2.9986148260254408E+00    5.7082901311100125E+00    3.1488682596778270E+00
N   -2.9966712531017659E+00    5.7069462036560212E+00    5.0789691531403340E+00
Ga   -2.9778467035285003E+00    7.5744677689110080E+00    5.7748413168745500E+00
N   -2.9693590039992892E+00    7.5833949660469830E+00    7.7103541780075444E+00
Ga   -2.9877303776286355E+00    5.7164704591841122E+00    8.3965292931690243E+00
N   -2.9927133250880757E+00    5.7108026831503693E+00    1.0331661542466961E+01
Ga   -2.9782442411029129E+00    7.5729721496984448E+00    1.1033243370311904E+01
N   -2.9691598087158217E+00    7.5784736378970274E+00    1.2974206011548777E+01
Ga   -2.9977627450606650E+00    5.7111507414280762E+00    1.3676630737817018E+01
N   -3.5116008377296501E+00    5.4006439507329267E+00    1.5441854164992215E+01
Ga   -4.2491217172064113E+00    6.5059842897344886E+00    1.6842532686708726E+01
N   -2.9142440898604982E+00    5.7331237341730192E+00    1.8096410205912882E+01
N   -4.6183357780378511E+00    8.4879260761685096E+00   -1.5197243158129461E-01
Ga   -4.6020329136966991E+00    1.0355791537508679E+01    5.1422463121338657E-01
N   -4.5934441880331507E+00    1.0364478021017845E+01    2.4371699003639797E+00
Ga   -4.6087803810277945E+00    8.4974387579836463E+00    3.1477893413823552E+00
N   -4.6055043133809290E+00    8.4962481950068938E+00    5.0771402894574118E+00
Ga   -4.5881289059904535E+00    1.0363560894002052E+01    5.7725514377294660E+00
N   -4.5809264352680383E+00    1.0371920170693071E+01    7.7068771280325690E+00
Ga   -4.5978513223349609E+00    8.5041861895540762E+00    8.3950331457608307E+00
N   -4.6003927850187782E+00    8.4994867376410603E+00    1.0332095583970435E+01
Ga   -4.5932060055604094E+00    1.0368802500924922E+01    1.1015768799662590E+01
N   -4.5843021678535818E+00    1.0385816221677493E+01    1.2950607779461874E+01
Ga   -4.5928408216799257E+00    8.5231367532148088E+00    1.3630478299596623E+01
N   -5.2481524628394842E+00    8.2874863803335295E+00    1.5449943081929057E+01
Ga   -6.1610891377170178E+00    9.7556587153717178E+00    1.6718691909583065E+01
N   -4.6219839139503476E+00    8.4441901270619653E+00    1.6743085991664621E+01
N    3.4701808990440255E+00    1.1887079070179951E-01   -1.5170704056191417E-01
Ga    3.4867159115528019E+00    1.9862987007743238E+00    5.1479014484896102E-01
N    3.4942332070938327E+00    1.9951111491384663E+00    2.4374076031882761E+00
Ga    3.4802794261044574E+00    1.2923694361839724E-01    3.1499649884731751E+00
N    3.4835209505462910E+00    1.2870464893502609E-01    5.0807441908806616E+00
Ga    3.4975227239630429E+00    1.9945486730133295E+00    5.7800645990434596E+00
N    3.5052607958746727E+00    2.0035102969148806E+00    7.7168212342611149E+00
Ga    3.4893177343677468E+00    1.3661672309384526E-01    8.4053240988055276E+00
N    3.4875871425054861E+00    1.3393832986615956E-01    1.0344365715180285E+01
Ga    3.5031652384350211E+00    1.9988440986489739E+00    1.1033210879708371E+01
N    3.5209699982991474E+00    2.0136852246638974E+00    1.2981514945828678E+01
Ga    3.4793079349612586E+00    1.5959229397628036E-01    1.3674792689024093E+01
N    2.8986851449839159E+00   -1.4925995318178620E-01    1.5530302730217286E+01
Ga    1.8066991633583516E+00    1.0063172039594619E+00    1.7511838358739887E+01
N    3.4628447489572394E+00    2.0111165894215496E-01    1.6867389341274432E+01
N    1.8597014866684058E+00    2.9083905474144802E+00   -1.5156051684456889E-01
Ga    1.8757232307374478E+00    4.7758312142599664E+00    5.1468531995490574E-01
N    1.8835123361225821E+00    4.7842479924280994E+00    2.4372637315984655E+00
Ga    1.8694197864067905E+00    2.9184631230054845E+00    3.1503019560188381E+00
N    1.8725082811414260E+00    2.9182468178780852E+00    5.0809381492639103E+00
Ga    1.8864794109047516E+00    4.7843698920886180E+00    5.7790294007645873E+00
N    1.8929775574618024E+00    4.7925547694318933E+00    7.7157642279182630E+00
Ga    1.8784804969919886E+00    2.9257299851327057E+00    8.4049571901211557E+00
N    1.8787219462464646E+00    2.9217459778996475E+00    1.0343473368111800E+01
Ga    1.8861165230138255E+00    4.7844798331060527E+00    1.1041420429594616E+01
N    1.8865889178751156E+00    4.7892600024122860E+00    1.2991267849507436E+01
Ga    1.8913362795603532E+00    2.9102869662101138E+00    1.3671401220810331E+01
N    1.3428367774072236E+00    2.5407744485700055E+00    1.5522891728237962E+01
Ga    2.0070512558841605E-01    3.8150007951585017E+00    1.6441094036430556E+01
N    1.9299522619136606E+00    2.8437347848806409E+00    1.6859840877710095E+01
N    2.4867445932975915E-01    5.6980995113756983E+00   -1.5078843725120300E-01
Ga    2.6520681163274673E-01    7.5655956643502513E+00    5.1481409038296722E-01
N    2.7287989411615482E-01    7.5741850664702710E+00    2.4371886642141791E+00
Ga    2.5891607062538580E-01    5.7084865205709301E+00    3.1505056213127651E+00
N    2.6151855961830567E-01    5.7083468524687779E+00    5.0813293574351839E+00
Ga    2.7646770070479532E-01    7.5741885320540803E+00    5.7808496471120838E+00
N    2.8439971836221617E-01    7.5833114664602705E+00    7.7186736112302423E+00
Ga    2.6848983885534217E-01    5.7162803883072204E+00    8.4086527565636207E+00
N    2.6563493089699025E-01    5.7131003517042762E+00    1.0348974442783256E+01
Ga    2.8680970479524937E-01    7.5810990033285321E+00    1.1031597663288384E+01
N    3.0096560905850173E-01    7.5938072105760952E+00    1.2977284431321825E+01
Ga    2.6357048999908406E-01    5.7420215744857694E+00    1.3671892256683931E+01
N   -3.2633669188555481E-01    5.4462245565506553E+00    1.5520484896470917E+01
Ga   -1.3963209165328032E+00    6.6032030295463233E+00    1.7536747393198471E+01
N    2.3597489505843672E-01    5.7848321462431009E+00    1.6857262748016790E+01
N   -1.3617654730731350E+00    8.4878221937648615E+00   -1.5053714064276230E-01
Ga   -1.3454829151661678E+00    1.0355326728227022E+01    5.1463409179669839E-01
N   -1.3376933944362459E+00    1.0363798249987392E+01    2.4372139327589202E+00
Ga   -1.3517976299824288E+00    8.4980317335902473E+00    3.1511765689845133E+00
N   -1.3486657748429145E+00    8.4974156016903848E+00    5.0819927132756249E+00
Ga   -1.3342642181728319E+00    1.0363297322923760E+01    5.7798494813451002E+00
N   -1.3275841354381703E+00    1.0371597592800752E+01    7.7168593765933382E+00
Ga   -1.3418946366781179E+00    8.5059511531940082E+00    8.4102684185411860E+00
N   -1.3433040602700688E+00    8.5009385408793001E+00    1.0350905337256458E+01
Ga   -1.3361561938677180E+00    1.0365402209533293E+01    1.1045185222719031E+01
N   -1.3348387902428325E+00    1.0370393438366616E+01    1.2996017441875331E+01
Ga   -1.3229747970394798E+00    8.4915345397181063E+00    1.3672616005474813E+01
N   -1.8596513965005288E+00    8.1136686000401461E+00    1.5520962102579267E+01
Ga   -3.0102377284700967E+00    9.3812910057798167E+00    1.6448814256329086E+01
N   -1.2830784822862804E+00    8.4244099610404071E+00    1.6855676157473113E+01
N    6.7263077285718316E+00    1.1856251569105448E-01   -1.5157417334605486E-01
Ga    6.7433672670815232E+00    1.9863952569059944E+00    5.1413807524220578E-01
N    6.7502409600294992E+00    1.9947997116038154E+00    2.4370262996683918E+00
Ga    6.7344821524401866E+00    1.2831793588810281E-01    3.1492215308906073E+00
N    6.7349696060650643E+00    1.2662634743928047E-01    5.0791880627757209E+00
Ga    6.7507343780047488E+00    1.9924498856554922E+00    5.7747080429891877E+00
N    6.7563220125483987E+00    1.9995154215371835E+00    7.7112214215952202E+00
Ga    6.7430279607846195E+00    1.3562549337577037E-01    8.4106745317566958E+00
N    6.7384582360490697E+00    1.3023592900962547E-01    1.0354507966436682E+01
Ga    6.7658493560610902E+00    1.9994936904508791E+00    1.1037373639973531E+01
N    6.7865055012514084E+00    2.0097939737806363E+00    1.2988028146669413E+01
Ga    6.7659150005903985E+00    1.4717397882024216E-01    1.3658357404869156E+01
N    6.1858971280550312E+00   -1.8439849995478236E-01    1.5491111031777864E+01
Ga    5.1383957872843791E+00    1.0681850163248439E+00    1.6590408101939829E+01
N    6.8316935757703821E+00    1.6384104112026263E-01    1.7070460998311241E+01
N    5.1159683238707752E+00    2.9081862935960676E+00   -1.5149914123387687E-01
Ga    5.1329538149399880E+00    4.7757678675483168E+00    5.1486761910795820E-01
N    5.1400439433793705E+00    4.7839102794288939E+00    2.4376948637936295E+00
Ga    5.1242825999393533E+00    2.9173722649128293E+00    3.1504917812708282E+00
N    5.1250385668308116E+00    2.9160910725934204E+00    5.0809596372451482E+00
Ga    5.1403353761863428E+00    4.7826676192364586E+00    5.7745259664768662E+00
N    5.1451876376002765E+00    4.7904467348480777E+00    7.7109065873230502E+00
Ga    5.1358094613891963E+00    2.9262157251252443E+00    8.4091134341691323E+00
N    5.1357423354187564E+00    2.9228430565991537E+00    1.0352841375304216E+01
Ga    5.1519681789334859E+00    4.7933873389727726E+00    1.1034858152203528E+01
N    5.1672409272612647E+00    4.8126321591068706E+00    1.2985143597509579E+01
Ga    5.1788346908498921E+00    2.9523488209913427E+00    1.3647888701185387E+01
N    4.6261031998593776E+00    2.6266230129899628E+00    1.5472467685412230E+01
Ga    3.5371429529897234E+00    3.8308476686305246E+00    1.6584113093701202E+01
N    5.2327065095646992E+00    2.9571788608528209E+00    1.7070713192374136E+01
N    3.5052779149472792E+00    5.6976186193303970E+00   -1.5156200027164091E-01
Ga    3.5220508708973726E+00    7.5655264437085519E+00    5.1334970731395091E-01
N    3.5292609285859853E+00    7.5734391276766564E+00    2.4359541181956730E+00
Ga    3.5136926685185159E+00    5.7068544787481912E+00    3.1488739576566789E+00
N    3.5144642212495651E+00    5.7047359569415592E+00    5.0789029769264342E+00
Ga    3.5289822691038784E+00    7.5709350242943998E+00    5.7721001074659375E+00
N    3.5339222729968358E+00    7.5771302023148959E+00    7.7071811665826182E+00
Ga    3.5219183308421518E+00    5.7139970537115303E+00    8.4092838785273756E+00
N    3.5179101031140663E+00    5.7080623905999603E+00    1.0352730403765218E+01
Ga    3.5451268372869982E+00    7.5781526191187378E+00    1.1033719106585680E+01
N    3.5612609996895088E+00    7.5875628642852844E+00    1.2982017080987569E+01
Ga    3.5419107327113686E+00    5.7294458108204385E+00    1.3654403896586663E+01
N    2.9618874493814427E+00    5.3853768458896889E+00    1.5483226933553118E+01
Ga    1.9155449335113210E+00    6.6418216919641893E+00    1.6578309363349717E+01
N    3.6014696652311926E+00    5.7284473217273302E+00    1.7065665761011793E+01
N    1.8943897971120767E+00    8.4874897961266527E+00   -1.5205775271431818E-01
Ga    1.9113201816869201E+00    1.0355370964115762E+01    5.1403305971131619E-01
N    1.9181873727639316E+00    1.0363702595142657E+01    2.4365794042002311E+00
Ga    1.9032503758711046E+00    8.4968205383079152E+00    3.1481013588044982E+00
N    1.9037176720828564E+00    8.4954260020099230E+00    5.0783618588104051E+00
Ga    1.9177906042269743E+00    1.0362004107037357E+01    5.7721845213768646E+00
N    1.9214106609827613E+00    1.0370195912830077E+01    7.7071328695111960E+00
Ga    1.9158427377959497E+00    8.5071180579666681E+00    8.4075138385828314E+00
N    1.9167139102895383E+00    8.5045330934989458E+00    1.0349576400305091E+01
Ga    1.9315446979005426E+00    1.0374113292533586E+01    1.1036131578948552E+01
N    1.9449565985000175E+00    1.0390331112514229E+01    1.2985519971571314E+01
Ga    1.9591913581223932E+00    8.5322283219984651E+00    1.3647949651821685E+01
N    1.3914383872969944E+00    8.2017681533755944E+00    1.5469950101485503E+01
Ga    3.1796068577638753E-01    9.4231009098223915E+00    1.6581450705826050E+01
N    1.9848614913760558E+00    8.5199516099736385E+00    1.7092097959699942E+01
N    9.9834225137113890E+00    1.1842557066538936E-01   -1.5356301848857820E-01
Ga    1.0000645149138977E+01    1.9863148266427766E+00    5.1236691308871873E-01
N    1.0008082701941239E+01    1.9955044461331000E+00    2.4354091100508253E+00
Ga    9.9914880945035538E+00    1.2872794003582649E-01    3.1470527987348058E+00
N    9.9911937318935795E+00    1.2680947790776292E-01    5.0763745596243446E+00
Ga    1.0010981533082953E+01    1.9960828772770973E+00    5.7673386572108223E+00
N    1.0018521533114784E+01    2.0058680209575210E+00    7.6997729088425917E+00
Ga    9.9948388623357367E+00    1.3782233652846251E-01    8.3786611066922614E+00
N    9.9834950588513376E+00    1.3580124644605066E-01    1.0308340606164052E+01
Ga    1.0013863829866073E+01    1.9940382627376378E+00    1.1005720319032518E+01
N    1.0024845399459084E+01    2.0024425235489738E+00    1.2939990082152267E+01
Ga    1.0065578171702255E+01    1.5576257482979186E-01    1.3661356505142850E+01
N    9.5379720455257235E+00   -1.5158911281037771E-01    1.5526386003253943E+01
Ga    8.4318846117479289E+00    1.0744881040178142E+00    1.6709215370632180E+01
N    1.0174217225835056E+01    1.9390798021506225E-01    1.6892437709983501E+01
N    8.3729732357750954E+00    2.9084620671372501E+00   -1.5216368856739196E-01
Ga    8.3901999686792497E+00    4.7762770130139165E+00    5.1409576267215007E-01
N    8.3974273097605945E+00    4.7848534470334876E+00    2.4369422693506881E+00
Ga    8.3812664644225112E+00    2.9178899774636471E+00    3.1482330942483645E+00
N    8.3806280909003164E+00    2.9165722822665625E+00    5.0780392768388127E+00
Ga    8.4000013045738697E+00    4.7843105003023965E+00    5.7715268709873593E+00
N    8.4066895310927556E+00    4.7924322615703314E+00    7.7066784373759507E+00
Ga    8.3893646780572428E+00    2.9218193086209685E+00    8.3894197074941985E+00
N    8.3859278743730972E+00    2.9139164733866343E+00    1.0323163444169445E+01
Ga    8.3961000996991384E+00    4.7844036337389344E+00    1.0989443280203501E+01
N    8.3920763108338789E+00    4.7867932535377085E+00    1.2911415732942748E+01
Ga    8.4457924341416426E+00    2.9617513272563452E+00    1.3649650733844645E+01
N    7.9624638323438655E+00    2.6592231024178985E+00    1.5522685012232756E+01
Ga    6.8181667459254189E+00    3.8551057550740659E+00    1.6710142558660479E+01
N    8.5732297940681725E+00    3.0148479465312721E+00    1.6904907444707593E+01
N    6.7625474924745399E+00    5.6977809445664738E+00   -1.5226909439081088E-01
Ga    6.7794225080895307E+00    7.5658337673350982E+00    5.1240522553129331E-01
N    6.7871246095075284E+00    7.5742798411847660E+00    2.4354221529831444E+00
Ga    6.7708612850248073E+00    5.7076528151309516E+00    3.1478697071975152E+00
N    6.7712194374777148E+00    5.7046929109274336E+00    5.0776261171716275E+00
Ga    6.7912721413316506E+00    7.5733885036477000E+00    5.7675781422512529E+00
N    6.7999197152052036E+00    7.5816984358451798E+00    7.6998388339335682E+00
Ga    6.7763168437241559E+00    5.7160195890380896E+00    8.3877180067628707E+00
N    6.7695426417663800E+00    5.7127424656142969E+00    1.0321905015812552E+01
Ga    6.7892317678202030E+00    7.5789314826690717E+00    1.1006522190701862E+01
N    6.7977176519786795E+00    7.5917285304642066E+00    1.2941144009977092E+01
Ga    6.8351006147770983E+00    5.7457234985966252E+00    1.3648189541135629E+01
N    6.3401215820758647E+00    5.4632300499296642E+00    1.5522534620203347E+01
Ga    5.2040668828376520E+00    6.6408944643325567E+00    1.6707398449422257E+01
N    6.9667516935174580E+00    5.7920948147876627E+00    1.6899064997911164E+01
N    5.1516143865382169E+00    8.4876490102530244E+00   -1.5330419740176174E-01
Ga    5.1689473451857877E+00    1.0355715797513323E+01    5.1389715223328991E-01
N    5.1767510490123101E+00    1.0364256978148324E+01    2.4369513656140915E+00
Ga    5.1603058278176412E+00    8.4962903834000549E+00    3.1471091148489232E+00
N    5.1604202052477790E+00    8.4936319275270353E+00    5.0765562530972570E+00
Ga    5.1779738506844417E+00    1.0362731422169542E+01    5.7659831809311930E+00
N    5.1827671325237601E+00    1.0370010565856683E+01    7.6992766310638192E+00
Ga    5.1684104495310592E+00    8.4980610048515626E+00    8.3790317133661762E+00
N    5.1629270421855828E+00    8.4850053477573049E+00    1.0308766969248261E+01
Ga    5.1630263637764324E+00    1.0356354962165771E+01    1.0967966517773998E+01
N    5.1546430378091221E+00    1.0355378375751478E+01    1.2872715920229009E+01
Ga    5.2154903213887289E+00    8.5515890967179935E+00    1.3658867680893485E+01
N    4.6931789628808591E+00    8.2202861794239954E+00    1.5521425565057770E+01
Ga    3.5672951231093974E+00    9.4229928178170308E+00    1.6743801621579681E+01
N    5.3186194213206486E+00    8.5872628518768401E+00    1.6883681140717151E+01
H    2.1326857151631981E-01    1.1900021794125658E-01   -1.1815865226199880E+00
H   -1.3980678594530636E+00    2.9088761791095763E+00   -1.1793093658778402E+00
H   -3.0085984545352975E+00    5.6980793740340099E+00   -1.1791678342706815E+00
H   -4.6184249190497573E+00    8.4866187582118542E+00   -1.1792561570802287E+00
H    3.4714935863174508E+00    1.1942516712189866E-01   -1.1789716355080915E+00
H    1.8606095125396824E+00    2.9091158318783639E+00   -1.1787614639466997E+00
H    2.4933244142742617E-01    5.6984497084281518E+00   -1.1780154880311440E+00
H   -1.3614679592847918E+00    8.4879407392518793E+00   -1.1776972523678004E+00
H    6.7245337920037009E+00    1.1770621327204056E-01   -1.1788482766082871E+00
H    5.1146800617243002E+00    2.9072620612809672E+00   -1.1787861263484272E+00
H    3.5035131560518322E+00    5.6968851390043911E+00   -1.1788606427326342E+00
H    1.8926146896318565E+00    8.4860675187066139E+00   -1.1793671025669152E+00
H    9.9812997773172665E+00    1.1841822105506083E-01   -1.1810157026608550E+00
H    8.3719308874576974E+00    2.9080898255615946E+00   -1.1794805165326157E+00
H    6.7620047611609113E+00    5.6970972916023248E+00   -1.1796212164618838E+00
H    5.1505220939794896E+00    8.4852687769783923E+00   -1.1807282839810507E+00
     &END COORD
     &KIND H
       BASIS_SET DZVP-MOLOPT-SR-GTH-q1
       POTENTIAL GTH-PBE-q1
       &POTENTIAL
1
0.2000000000000000E+00 2 -0.4178900440000000E+01  0.7244633100000000E+00
0
       &END POTENTIAL
     &END KIND
     &KIND N
       BASIS_SET DZVP-MOLOPT-SR-GTH
       POTENTIAL GTH-PBE-q5
       &POTENTIAL
2 3
0.2837905100000000E+00 2 -0.1241522559000000E+02  0.1868095920000000E+01
2
0.2554050000000000E+00 1  0.1363026257000000E+02
0.2454945300000000E+00 0
       &END POTENTIAL
     &END KIND
     &KIND Ga
       BASIS_SET DZVP-MOLOPT-SR-GTH
       POTENTIAL GTH-PBE-q13
       &POTENTIAL
2 1 10
0.4900000000000000E+00 0
3
0.4167772300000000E+00 3  0.1047568975000000E+02 -0.4921768140000000E+01  0.8707055900000000E+00
0.7770178090000000E+01 -0.2248152160000000E+01
0.1784415450000000E+01
0.5696265200000000E+00 2  0.1777985340000000E+01  0.1958597600000000E+00
-0.2317443900000000E+00
0.2381265000000000E+00 1 -0.1624868022000000E+02
       &END POTENTIAL
     &END KIND
     &TOPOLOGY
       NUMBER_OF_ATOMS  256
       MULTIPLE_UNIT_CELL  1 1 1
     &END TOPOLOGY
   &END SUBSYS
 &END FORCE_EVAL
