 # Version information for this restart file 
 # current date 2019-06-10 23:47:43.820
 # current working dir /lustre03/project/6037349/rzk/GaN-carbene/444-addat/00-Surface/RKS
 # Program compiled at                              Sun Apr  7 00:48:11 EDT 2019
 # Program compiled on                          beluga2.int.ets1.calculquebec.ca
 # Program compiled for                        Beluga-Linux-x86-64-intel-openmpi
 # Source code revision number                                         svn:18619
 &GLOBAL
   PRINT_LEVEL  MEDIUM
   PROJECT_NAME TEST
   RUN_TYPE  CELL_OPT
 &END GLOBAL
 &MOTION
   &CELL_OPT
     MAX_ITER  300
     STEP_START_VAL  86
     EXTERNAL_PRESSURE     1.0000000000000000E+00
     KEEP_ANGLES  T
     KEEP_SYMMETRY  T
     CONSTRAINT  Z
     PRESSURE_TOLERANCE     5.0000000000000000E+02
   &END CELL_OPT
 &END MOTION
 &FORCE_EVAL
   METHOD  QS
   STRESS_TENSOR  ANALYTICAL
   &DFT
     BASIS_SET_FILE_NAME BASIS_MOLOPT
     POTENTIAL_FILE_NAME GTH_POTENTIALS
     SURFACE_DIPOLE_CORRECTION  T
     SURF_DIP_DIR  Z
     &SCF
       MAX_SCF  100
       EPS_SCF     5.0000000000000004E-06
       &OT  T
         PRECONDITIONER  FULL_ALL
       &END OT
       &OUTER_SCF  T
         OPTIMIZER  NONE
         EPS_SCF     5.0000000000000004E-06
         MAX_SCF  4
       &END OUTER_SCF
       &PRINT
         &RESTART  OFF
           BACKUP_COPIES  1
           &EACH
             JUST_ENERGY  0
             QS_SCF  0
             MD  20
           &END EACH
         &END RESTART
       &END PRINT
     &END SCF
     &QS
       EPS_DEFAULT     1.0000000000000000E-14
       METHOD  GPW
     &END QS
     &MGRID
       NGRIDS  5
       CUTOFF     1.2000000000000000E+03
     &END MGRID
     &XC
       DENSITY_CUTOFF     1.0000000000000000E-10
       GRADIENT_CUTOFF     1.0000000000000000E-10
       TAU_CUTOFF     1.0000000000000000E-10
       &XC_FUNCTIONAL  NO_SHORTCUT
         &PBE  T
         &END PBE
       &END XC_FUNCTIONAL
       &VDW_POTENTIAL
         POTENTIAL_TYPE  PAIR_POTENTIAL
         &PAIR_POTENTIAL
           R_CUTOFF     1.0000000000000005E+01
           TYPE  DFTD3
           PARAMETER_FILE_NAME dftd3.dat
           REFERENCE_FUNCTIONAL PBE
           EPS_CN     9.9999999999999995E-07
           CALCULATE_C9_TERM  T
           REFERENCE_C9_TERM  T
           LONG_RANGE_CORRECTION  F
           VERBOSE_OUTPUT  F
         &END PAIR_POTENTIAL
       &END VDW_POTENTIAL
     &END XC
   &END DFT
   &SUBSYS
     &CELL
       A     1.3016156368073096E+01    0.0000000000000000E+00    0.0000000000000000E+00
       B    -6.4492892409463245E+00    1.1170496638026508E+01    0.0000000000000000E+00
       C     0.0000000000000000E+00    0.0000000000000000E+00    3.2000000000000000E+01
       MULTIPLE_UNIT_CELL  1 1 1
       &CELL_REF
         A     1.2982353780853531E+01    0.0000000000000000E+00    0.0000000000000000E+00
         B    -6.4911768904267628E+00    1.1243048175136114E+01    0.0000000000000000E+00
         C     0.0000000000000000E+00    0.0000000000000000E+00    3.2000000000000000E+01
         MULTIPLE_UNIT_CELL  1 1 1
       &END CELL_REF
     &END CELL
     &COORD
N    1.1858789008435711E-01    5.6742647926633090E-02   -1.5157437109390504E-01
Ga    1.3420761343608284E-01    1.9248063150605192E+00    5.1600404780921749E-01
N    1.8059809931690662E-01    1.9625384779406787E+00    2.4386276537671394E+00
Ga    1.7400102424926198E-01    1.0025785716410550E-01    3.1501326584085207E+00
N    2.1253270990886078E-01    1.2234564780155781E-01    5.0818390267306253E+00
Ga    2.3042192120913454E-01    1.9933744125150545E+00    5.7709997075906871E+00
N    2.4817627820462251E-01    2.0076857720659178E+00    7.7051182830618083E+00
Ga    2.2860831458185704E-01    1.3930019947545630E-01    8.3843850735790628E+00
N    2.4112654611813467E-01    1.4272654056445669E-01    1.0322300172519414E+01
Ga    2.6515296949723749E-01    2.0099706928982677E+00    1.1014803991674516E+01
N    2.9776653026206268E-01    2.0298609383476576E+00    1.2941448851925861E+01
Ga    2.5559003976464767E-01    1.5480840534841586E-01    1.3602469250782733E+01
N   -2.4710022087115724E-01   -1.3370823261320625E-01    1.5357383200464751E+01
Ga   -9.2740485358000735E-01    1.0045303439149762E+00    1.6744254481844521E+01
N    3.6712308113906278E-01    1.9724321213458487E-01    1.8045130148585294E+01
N   -1.4937014514526219E+00    2.8503991567000497E+00   -1.4740170888352586E-01
Ga   -1.4786900760043187E+00    4.7184178395934859E+00    5.2097378569573316E-01
N   -1.4322441956149090E+00    4.7552172833504827E+00    2.4427186126402729E+00
Ga   -1.4392955582946121E+00    2.8914955634543715E+00    3.1507292611974682E+00
N   -1.4000377682402261E+00    2.9165590405701463E+00    5.0819080375619201E+00
Ga   -1.3824127880555566E+00    4.7860455848081056E+00    5.7730640513447540E+00
N   -1.3663004305193445E+00    4.8014070558361031E+00    7.7088769669891164E+00
Ga   -1.3764260199734659E+00    2.9343272154462667E+00    8.3892239598963361E+00
N   -1.3630985819899837E+00    2.9344169800303743E+00    1.0326922302599185E+01
Ga   -1.3583780005003825E+00    4.7998141309942497E+00    1.1027004257885739E+01
N   -1.3316434773197865E+00    4.8308560594962966E+00    1.2960855357455555E+01
Ga   -1.3210156267806294E+00    2.9606264185419104E+00    1.3614452281905830E+01
N   -1.8199785936587707E+00    2.5331577716544746E+00    1.5439943637388957E+01
Ga   -2.8079829804314231E+00    4.2829089237936664E+00    1.6854203440110737E+01
N   -1.3260639905971547E+00    2.9710114649538690E+00    1.6716697893415493E+01
N   -3.1059295066783754E+00    5.6419909522498672E+00   -1.4989863954480312E-01
Ga   -3.0906290239418142E+00    7.5097946785525043E+00    5.1920012704557916E-01
N   -3.0439753010801271E+00    7.5467566980959493E+00    2.4410588723310664E+00
Ga   -3.0519995646976561E+00    5.6846126342171361E+00    3.1515585956991705E+00
N   -3.0118672584212263E+00    5.7083596346038892E+00    5.0825026370764945E+00
Ga   -2.9936212559264210E+00    7.5761547407263548E+00    5.7749426852403483E+00
N   -2.9767254308674156E+00    7.5938751385164620E+00    7.7098980785373694E+00
Ga   -2.9905938283584539E+00    5.7281421659409508E+00    8.3988252326840183E+00
N   -2.9804179605660055E+00    5.7301791188289188E+00    1.0332750320955819E+01
Ga   -2.9666384193964968E+00    7.5939541971808060E+00    1.1032917074000943E+01
N   -2.9317076652217735E+00    7.6082232126144396E+00    1.2965809483068728E+01
Ga   -2.9547945323806690E+00    5.7473288412294279E+00    1.3673689550119962E+01
N   -3.4073941310201485E+00    5.4833495659118814E+00    1.5453816744334988E+01
Ga   -4.1387606462400806E+00    6.5898270227658315E+00    1.6861231634057233E+01
N   -2.7903037911075663E+00    5.8218983059456884E+00    1.8107154797968303E+01
N   -4.7179465745032303E+00    8.4348505063985684E+00   -1.4742154712507952E-01
Ga   -4.7029522817397318E+00    1.0303701728843427E+01    5.1807084667120729E-01
N   -4.6558924753557802E+00    1.0339877848104225E+01    2.4407025113783916E+00
Ga   -4.6636750260528324E+00    8.4759861404255972E+00    3.1511232486274405E+00
N   -4.6235554176617546E+00    8.4993284864114553E+00    5.0823402184450597E+00
Ga   -4.6050151863936364E+00    1.0368918902571529E+01    5.7684051571333965E+00
N   -4.5911571575356485E+00    1.0387646877997536E+01    7.7034587562318215E+00
Ga   -4.6011545177985784E+00    8.5216413074976280E+00    8.3904837756424779E+00
N   -4.5888253870166231E+00    8.5235843568179934E+00    1.0328234262092762E+01
Ga   -4.5772210964453812E+00    1.0392531777317314E+01    1.1011705941862495E+01
N   -4.5458505082526646E+00    1.0418188901244555E+01    1.2943143329422346E+01
Ga   -4.5517048701997247E+00    8.5564923972289879E+00    1.3617348049725345E+01
N   -5.1657089917022443E+00    8.3479473708339924E+00    1.5447771102315384E+01
Ga   -6.0404612044713959E+00    9.8555681441675276E+00    1.6726797189159836E+01
N   -4.5297453404672749E+00    8.5188103496741636E+00    1.6729169259152695E+01
N    3.3727592812272862E+00    5.7273204994802700E-02   -1.4800215988745100E-01
Ga    3.3886212938211360E+00    1.9254271348401619E+00    5.1899723411683507E-01
N    3.4342239620018300E+00    1.9620794738531484E+00    2.4412187406673147E+00
Ga    3.4285076580928027E+00    1.0016034983624310E-01    3.1526628499920375E+00
N    3.4703786473198539E+00    1.2433754609263019E-01    5.0854088619568261E+00
Ga    3.4840555649889291E+00    1.9912842800548114E+00    5.7844503751675989E+00
N    3.5060391816783989E+00    2.0097095259041864E+00    7.7194639256000013E+00
Ga    3.4870411428510781E+00    1.4363055819482401E-01    8.4036525975278362E+00
N    3.5024101334364719E+00    1.4890674493913064E-01    1.0341593939791000E+01
Ga    3.5214046833519088E+00    2.0117358314986493E+00    1.1032687371941797E+01
N    3.5530928312607983E+00    2.0356328835408086E+00    1.2976026620412728E+01
Ga    3.5102253226239184E+00    1.9127041318178484E-01    1.3687873735016479E+01
N    2.9294156538550045E+00   -5.4477101791994359E-02    1.5565690491963288E+01
Ga    1.9098072605273730E+00    1.0786938310724679E+00    1.7607730633687101E+01
N    3.5430427680283705E+00    2.6617137160573096E-01    1.6898040371769074E+01
N    1.7608554717242975E+00    2.8498818563543735E+00   -1.4666003722439228E-01
Ga    1.7750548689664567E+00    4.7180914847028141E+00    5.1804418324978951E-01
N    1.8201682034176647E+00    4.7539191004014070E+00    2.4400266348450281E+00
Ga    1.8154963486648936E+00    2.8923146700849114E+00    3.1519434382079607E+00
N    1.8576448440216169E+00    2.9171404929207125E+00    5.0856646471006215E+00
Ga    1.8687305548355611E+00    4.7831943620349460E+00    5.7837401191134870E+00
N    1.8871878672296081E+00    4.7998531833302662E+00    7.7192666092422346E+00
Ga    1.8790621614148153E+00    2.9315721372506984E+00    8.4014318814842142E+00
N    1.8962519866564713E+00    2.9314251083966156E+00    1.0337450335365213E+01
Ga    1.9028514604898854E+00    4.7900649798069548E+00    1.1043033397355309E+01
N    1.9195019455150799E+00    4.8063001436549824E+00    1.2990108716380318E+01
Ga    1.9282287010902337E+00    2.9301369650660987E+00    1.3682771860649746E+01
N    1.4236050092815733E+00    2.5342227418137786E+00    1.5562255011500863E+01
Ga    3.0954416387195932E-01    3.8703507575242453E+00    1.6425361970651952E+01
N    2.0119657054582394E+00    2.8928308830374490E+00    1.6877773402325705E+01
N    1.4745029933866996E-01    5.6417255745216091E+00   -1.4684894097914697E-01
Ga    1.6255528506585312E-01    7.5098514421607447E+00    5.1862814330427731E-01
N    2.0645469019545293E-01    7.5457315657014767E+00    2.4404654771849899E+00
Ga    2.0335008944994801E-01    5.6846818651088205E+00    3.1540051562058160E+00
N    2.4419777530161543E-01    5.7088685911074748E+00    5.0868478486901472E+00
Ga    2.5532935154516001E-01    7.5746079937507886E+00    5.7864679348598704E+00
N    2.7385573778474909E-01    7.5912636322622822E+00    7.7233496692416876E+00
Ga    2.6324351382896366E-01    5.7242520892846835E+00    8.4131569555785433E+00
N    2.7961711897354136E-01    5.7254167997775536E+00    1.0353272334657461E+01
Ga    2.9849204088004244E-01    7.5974397579760558E+00    1.1026896854176542E+01
N    3.3671092457843949E-01    7.6237493659972362E+00    1.2967914612635553E+01
Ga    3.0033543496160581E-01    5.7737834534401280E+00    1.3653965022474258E+01
N   -2.2906600532873977E-01    5.4975411540573083E+00    1.5520296088572193E+01
Ga   -1.2643004466103649E+00    6.7058012902890054E+00    1.7564883428169917E+01
N    3.3799097216780055E-01    5.8451879854582831E+00    1.6848340923390094E+01
N   -1.4648131244833860E+00    8.4348274354633439E+00   -1.4610071397531460E-01
Ga   -1.4495854590504207E+00    1.0303037163268133E+01    5.1864990420788415E-01
N   -1.4045040165877072E+00    1.0338659269440541E+01    2.4405245833680409E+00
Ga   -1.4098504946499564E+00    8.4772907845436531E+00    3.1541786925536339E+00
N   -1.3688671704097286E+00    8.5013469128107513E+00    5.0873852261069477E+00
Ga   -1.3557047537329072E+00    1.0366919944374285E+01    5.7842814694270945E+00
N   -1.3383236639063290E+00    1.0384638311892264E+01    7.7203240366684565E+00
Ga   -1.3496680659710079E+00    8.5198288971764935E+00    8.4135912631101100E+00
N   -1.3343908576279195E+00    8.5239574572970511E+00    1.0352482736552052E+01
Ga   -1.3304263707906503E+00    1.0391457626402335E+01    1.1046074481399542E+01
N   -1.3100899517166287E+00    1.0410889166018316E+01    1.2995573968493961E+01
Ga   -1.2868223928077183E+00    8.5291170461815362E+00    1.3658582704439088E+01
N   -1.7839004678386283E+00    8.2019378272972663E+00    1.5521914414843181E+01
Ga   -2.9223818323709350E+00    9.4704015083319479E+00    1.6432305634696309E+01
N   -1.1883421070384590E+00    8.5102398167308095E+00    1.6845611840753893E+01
N    6.6255896499255575E+00    5.7028524326131418E-02   -1.4686002658521813E-01
Ga    6.6411471790483327E+00    1.9256610151261018E+00    5.1843108353900846E-01
N    6.6848725365518185E+00    1.9605761365203638E+00    2.4411323537764709E+00
Ga    6.6767029994630986E+00    9.8300406696956333E-02    3.1532099033975287E+00
N    6.7149228599091879E+00    1.2045873722384620E-01    5.0863025844741241E+00
Ga    6.7311046350940051E+00    1.9870070545463714E+00    5.7807576675469994E+00
N    6.7473408035333051E+00    2.0028627106479893E+00    7.7161968071984299E+00
Ga    6.7394196756421962E+00    1.4103264100083224E-01    8.4145580635553401E+00
N    6.7526944176697237E+00    1.4587270430403187E-01    1.0360783389196637E+01
Ga    6.7848648233515343E+00    2.0140505778346469E+00    1.1038364842698659E+01
N    6.8192984841598907E+00    2.0402821957973614E+00    1.2984847833255893E+01
Ga    6.7991657150017879E+00    1.7874020323197803E-01    1.3647140798657698E+01
N    6.2617604608085733E+00   -1.3676703318555056E-01    1.5482712542929963E+01
Ga    5.2138771689482839E+00    1.1266347971041053E+00    1.6576275390989167E+01
N    6.9096486028266151E+00    2.5033410271938761E-01    1.7072231453445806E+01
N    5.0138047124929317E+00    2.8496503399294069E+00   -1.4843678929517876E-01
Ga    5.0294627419659630E+00    4.7172212528465582E+00    5.1936195110202976E-01
N    5.0735121988846128E+00    4.7521009871255870E+00    2.4421041524792435E+00
Ga    5.0674220625611888E+00    2.8904229092525262E+00    3.1550698451485903E+00
N    5.1065577237215773E+00    2.9142612842012476E+00    5.0882437640100688E+00
Ga    5.1187145373464089E+00    4.7810682953595922E+00    5.7794307828938507E+00
N    5.1326984309146928E+00    4.7974353983864653E+00    7.7159437653325131E+00
Ga    5.1343989512428188E+00    2.9368849790414870E+00    8.4173847558062711E+00
N    5.1547988140860390E+00    2.9391215683923755E+00    1.0361923136775740E+01
Ga    5.1649055291226755E+00    4.8112814775664710E+00    1.1034686857322328E+01
N    5.2006401311357457E+00    4.8409334907428869E+00    1.2980419957257487E+01
Ga    5.2130820249565506E+00    2.9837432313235341E+00    1.3633411395981113E+01
N    4.6865850561045317E+00    2.6672740030042617E+00    1.5460610794845106E+01
Ga    3.6090427579250610E+00    3.8906754440950584E+00    1.6560228056214115E+01
N    5.2956610240208146E+00    3.0233172120104537E+00    1.7060214753162150E+01
N    3.4014986552017761E+00    5.6413180543542838E+00   -1.4694398516014834E-01
Ga    3.4169512447614139E+00    7.5098481003605011E+00    5.1610189162372466E-01
N    3.4598392335618540E+00    7.5434923294107135E+00    2.4389328979520259E+00
Ga    3.4536651935469833E+00    5.6813579712684010E+00    3.1529082074236245E+00
N    3.4916921964318712E+00    5.7044810545208877E+00    5.0862885737568835E+00
Ga    3.5044335813998266E+00    7.5711216968202022E+00    5.7749180150914095E+00
N    3.5204029405983839E+00    7.5870727955700525E+00    7.7106696142480198E+00
Ga    3.5145075869740046E+00    5.7270246531639444E+00    8.4117939390801730E+00
N    3.5292362889522439E+00    5.7271187130664316E+00    1.0357849743851109E+01
Ga    3.5547723813370888E+00    7.5973560226315699E+00    1.1036434968156474E+01
N    3.5895580608022497E+00    7.6171196171788003E+00    1.2980198181473959E+01
Ga    3.5761720242854955E+00    5.7590046288664647E+00    1.3643426065521746E+01
N    3.0299921145729001E+00    5.4277632060416066E+00    1.5475145526388900E+01
Ga    2.0193307830739613E+00    6.7222635504654269E+00    1.6576735032920791E+01
N    3.6806891272334443E+00    5.7959552209526866E+00    1.7071484368713676E+01
N    1.7886299009856201E+00    8.4347261385284469E+00   -1.4672483395169050E-01
Ga    1.8043088132362679E+00    1.0303647602108402E+01    5.1813535923569232E-01
N    1.8466036540726800E+00    1.0338557841026057E+01    2.4407048611204365E+00
Ga    1.8407218357923198E+00    8.4745400128377035E+00    3.1502181924194668E+00
N    1.8783327057754160E+00    8.4970935136681032E+00    5.0840260000268795E+00
Ga    1.8912593021904109E+00    1.0364657004319497E+01    5.7735615994299572E+00
N    1.9059817084699284E+00    1.0380683116888687E+01    7.7094950622407312E+00
Ga    1.9052731840881634E+00    8.5199970574564627E+00    8.4081521546315106E+00
N    1.9262189325740420E+00    8.5254081124221859E+00    1.0351746498742219E+01
Ga    1.9368670986663323E+00    1.0393702386512466E+01    1.1035675848664500E+01
N    1.9702847314141463E+00    1.0424176830107902E+01    1.2979460517655685E+01
Ga    1.9934348383466651E+00    8.5719217011909663E+00    1.3644327539683569E+01
N    1.4864551884872239E+00    8.2697683091228225E+00    1.5480940868349185E+01
Ga    4.1825178443907840E-01    9.5101430078862901E+00    1.6574345887561414E+01
N    2.0852936285956387E+00    8.6165567350778378E+00    1.7085913254330144E+01
N    9.8801761344652270E+00    5.6924634764735117E-02   -1.4976035899173459E-01
Ga    9.8961192180502611E+00    1.9255618982681499E+00    5.1563252578240104E-01
N    9.9409706791976795E+00    1.9620715190411244E+00    2.4382208675297425E+00
Ga    9.9317805131232557E+00    9.8726394131111825E-02    3.1470884261495065E+00
N    9.9677433111608806E+00    1.1956834681602718E-01    5.0798087406166905E+00
Ga    9.9904726453646031E+00    1.9893004529075209E+00    5.7687652152380151E+00
N    1.0008213866253158E+01    2.0044470726151506E+00    7.7014207849593195E+00
Ga    9.9890542874775967E+00    1.3734221067349900E-01    8.3822515188889941E+00
N    9.9960990483489756E+00    1.4299964815192295E-01    1.0314442950940652E+01
Ga    1.0023995715122817E+01    2.0048576463239813E+00    1.1003699636948697E+01
N    1.0053723915229922E+01    2.0257345447813635E+00    1.2933888681509934E+01
Ga    1.0091241202846552E+01    1.8027826428104368E-01    1.3657576115424209E+01
N    9.6176449774727129E+00   -8.6964751481201308E-02    1.5538143350040214E+01
Ga    8.5187443944236350E+00    1.1400135017469095E+00    1.6705640069210915E+01
N    1.0279919465063873E+01    2.7377548677967906E-01    1.6888276353621386E+01
N    8.2675503211462740E+00    2.8500191554521019E+00   -1.4782445470962335E-01
Ga    8.2843333878759413E+00    4.7185909381547377E+00    5.1844929194507805E-01
N    8.3289558168616438E+00    4.7535470232632129E+00    2.4408650126050606E+00
Ga    8.3208095671100555E+00    2.8896209648745663E+00    3.1507342385000481E+00
N    8.3581887509684716E+00    2.9115157381428269E+00    5.0839551901837341E+00
Ga    8.3776184175283390E+00    4.7822880083167236E+00    5.7664923830622099E+00
N    8.3930508298696331E+00    4.7991529390723384E+00    7.7020764087803508E+00
Ga    8.3821394299221303E+00    2.9302875509305784E+00    8.3857202534162081E+00
N    8.3965330307605210E+00    2.9288447167715659E+00    1.0320893104684961E+01
Ga    8.4037137330620428E+00    4.7993296632537561E+00    1.0987492623688693E+01
N    8.4253356879005743E+00    4.8192277590792241E+00    1.2913601800385255E+01
Ga    8.4792989614315815E+00    2.9930423083851063E+00    1.3646997733226074E+01
N    8.0424520809240612E+00    2.7330969848420228E+00    1.5535879188277207E+01
Ga    6.8931787439961241E+00    3.9139732001035270E+00    1.6720852109916958E+01
N    8.6593585624882099E+00    3.0921811496010703E+00    1.6920996953179305E+01
N    6.6555670980594579E+00    5.6417347883538564E+00   -1.4784767957622894E-01
Ga    6.6716947235617310E+00    7.5105839493991002E+00    5.1526510827815342E-01
N    6.7176359220105137E+00    7.5454983140642753E+00    2.4379710695599028E+00
Ga    6.7083974524048315E+00    5.6832937082030170E+00    3.1508278144615809E+00
N    6.7460610733777608E+00    5.7055730290083337E+00    5.0838038751074617E+00
Ga    6.7652514972354378E+00    7.5756187738534022E+00    5.7704322781736161E+00
N    6.7816760648584031E+00    7.5932444469376232E+00    7.7031602137844741E+00
Ga    6.7662266954254315E+00    5.7263964716142031E+00    8.3860352973349510E+00
N    6.7773397977982466E+00    5.7330390440918526E+00    1.0322308125615564E+01
Ga    6.7943147042774150E+00    7.5999535738351183E+00    1.1005904721331477E+01
N    6.8242612791748023E+00    7.6242657358137293E+00    1.2934925335691229E+01
Ga    6.8637739976318679E+00    5.7792485204873758E+00    1.3640481118299656E+01
N    6.4287036618120688E+00    5.5249628299618569E+00    1.5534400189663311E+01
Ga    5.2881746638507785E+00    6.7054911657896836E+00    1.6702320333220875E+01
N    7.0582247133520619E+00    5.8553259229844965E+00    1.6908700302846285E+01
N    5.0433070086290526E+00    8.4351874493111669E+00   -1.4892955028030205E-01
Ga    5.0595984287144455E+00    1.0304156208205756E+01    5.1602415827450221E-01
N    5.1047228066165431E+00    1.0339471939019216E+01    2.4392578735013695E+00
Ga    5.0961105170595316E+00    8.4735250535182800E+00    3.1460988257570928E+00
N    5.1322326168999082E+00    8.4937791794409438E+00    5.0797105714819226E+00
Ga    5.1493819685444864E+00    1.0364473150546008E+01    5.7585734139901730E+00
N    5.1644969336809492E+00    1.0381232772743353E+01    7.6938362343126281E+00
Ga    5.1533300360497885E+00    8.5156247112801751E+00    8.3814737940730968E+00
N    5.1677027319071795E+00    8.5100535836879807E+00    1.0313688774585211E+01
Ga    5.1686854464601151E+00    1.0377224463808851E+01    1.0981182720045270E+01
N    5.1788439601435314E+00    1.0385741163226502E+01    1.2889269069754677E+01
Ga    5.2461692746850197E+00    8.5796974132175681E+00    1.3659108383305934E+01
N    4.7795727066781160E+00    8.2789150433025327E+00    1.5541147074291430E+01
Ga    3.6829086382466913E+00    9.5121168501268940E+00    1.6771600740369713E+01
N    5.4273592681683329E+00    8.6668976322019677E+00    1.6880852716218154E+01
H    1.1172476939418120E-01    5.3034992752882607E-02   -1.1785535414691850E+00
H   -1.5012257600287477E+00    2.8462976315143238E+00   -1.1741213237515595E+00
H   -3.1136353989530732E+00    5.6379597982901553E+00   -1.1769539792984356E+00
H   -4.7239810004698226E+00    8.4280548537910338E+00   -1.1741026591128421E+00
H    3.3692770241106413E+00    5.3481642528082581E-02   -1.1748338161606142E+00
H    1.7556370643182293E+00    2.8469516465135070E+00   -1.1733223658800407E+00
H    1.4234909930115339E-01    5.6389249308100116E+00   -1.1735343263254163E+00
H   -1.4701225118864327E+00    8.4304586063505322E+00   -1.1726989334013618E+00
H    6.6177990466988730E+00    5.3251418513459207E-02   -1.1734971339772364E+00
H    5.0075585644434195E+00    2.8450142068528286E+00   -1.1752463466136662E+00
H    3.3944214572749352E+00    5.6369964213405712E+00   -1.1735029301252216E+00
H    1.7803728956415077E+00    8.4287453735299582E+00   -1.1732663523418589E+00
H    9.8727388003098167E+00    5.4051805039154716E-02   -1.1766220291596281E+00
H    8.2604180224680483E+00    2.8464345909770681E+00   -1.1746019474388620E+00
H    6.6497781924707127E+00    5.6372204019159593E+00   -1.1746210292760950E+00
H    5.0366635193298723E+00    8.4290441112859060E+00   -1.1756493708903821E+00
     &END COORD
     &KIND H
       BASIS_SET DZVP-MOLOPT-SR-GTH-q1
       POTENTIAL GTH-PBE-q1
       &POTENTIAL
1
0.2000000000000000E+00 2 -0.4178900440000000E+01  0.7244633100000000E+00
0
       &END POTENTIAL
     &END KIND
     &KIND N
       BASIS_SET DZVP-MOLOPT-SR-GTH
       POTENTIAL GTH-PBE-q5
       &POTENTIAL
2 3
0.2837905100000000E+00 2 -0.1241522559000000E+02  0.1868095920000000E+01
2
0.2554050000000000E+00 1  0.1363026257000000E+02
0.2454945300000000E+00 0
       &END POTENTIAL
     &END KIND
     &KIND Ga
       BASIS_SET DZVP-MOLOPT-SR-GTH
       POTENTIAL GTH-PBE-q13
       &POTENTIAL
2 1 10
0.4900000000000000E+00 0
3
0.4167772300000000E+00 3  0.1047568975000000E+02 -0.4921768140000000E+01  0.8707055900000000E+00
0.7770178090000000E+01 -0.2248152160000000E+01
0.1784415450000000E+01
0.5696265200000000E+00 2  0.1777985340000000E+01  0.1958597600000000E+00
-0.2317443900000000E+00
0.2381265000000000E+00 1 -0.1624868022000000E+02
       &END POTENTIAL
     &END KIND
     &TOPOLOGY
       NUMBER_OF_ATOMS  256
       MULTIPLE_UNIT_CELL  1 1 1
     &END TOPOLOGY
   &END SUBSYS
 &END FORCE_EVAL
