 # Version information for this restart file 
 # current date 2019-06-11 00:26:30.995
 # current working dir /lustre03/project/6037349/rzk/GaN-carbene/444-addat/00-Surface/RKS
 # Program compiled at                              Sun Apr  7 00:48:11 EDT 2019
 # Program compiled on                          beluga2.int.ets1.calculquebec.ca
 # Program compiled for                        Beluga-Linux-x86-64-intel-openmpi
 # Source code revision number                                         svn:18619
 &GLOBAL
   PRINT_LEVEL  MEDIUM
   PROJECT_NAME TEST
   RUN_TYPE  CELL_OPT
 &END GLOBAL
 &MOTION
   &CELL_OPT
     MAX_ITER  300
     STEP_START_VAL  105
     EXTERNAL_PRESSURE     1.0000000000000000E+00
     KEEP_ANGLES  T
     KEEP_SYMMETRY  T
     CONSTRAINT  Z
     PRESSURE_TOLERANCE     5.0000000000000000E+02
   &END CELL_OPT
 &END MOTION
 &FORCE_EVAL
   METHOD  QS
   STRESS_TENSOR  ANALYTICAL
   &DFT
     BASIS_SET_FILE_NAME BASIS_MOLOPT
     POTENTIAL_FILE_NAME GTH_POTENTIALS
     SURFACE_DIPOLE_CORRECTION  T
     SURF_DIP_DIR  Z
     &SCF
       MAX_SCF  100
       EPS_SCF     5.0000000000000004E-06
       &OT  T
         PRECONDITIONER  FULL_ALL
       &END OT
       &OUTER_SCF  T
         OPTIMIZER  NONE
         EPS_SCF     5.0000000000000004E-06
         MAX_SCF  4
       &END OUTER_SCF
       &PRINT
         &RESTART  OFF
           BACKUP_COPIES  1
           &EACH
             JUST_ENERGY  0
             QS_SCF  0
             MD  20
           &END EACH
         &END RESTART
       &END PRINT
     &END SCF
     &QS
       EPS_DEFAULT     1.0000000000000000E-14
       METHOD  GPW
     &END QS
     &MGRID
       NGRIDS  5
       CUTOFF     1.2000000000000000E+03
     &END MGRID
     &XC
       DENSITY_CUTOFF     1.0000000000000000E-10
       GRADIENT_CUTOFF     1.0000000000000000E-10
       TAU_CUTOFF     1.0000000000000000E-10
       &XC_FUNCTIONAL  NO_SHORTCUT
         &PBE  T
         &END PBE
       &END XC_FUNCTIONAL
       &VDW_POTENTIAL
         POTENTIAL_TYPE  PAIR_POTENTIAL
         &PAIR_POTENTIAL
           R_CUTOFF     1.0000000000000005E+01
           TYPE  DFTD3
           PARAMETER_FILE_NAME dftd3.dat
           REFERENCE_FUNCTIONAL PBE
           EPS_CN     9.9999999999999995E-07
           CALCULATE_C9_TERM  T
           REFERENCE_C9_TERM  T
           LONG_RANGE_CORRECTION  F
           VERBOSE_OUTPUT  F
         &END PAIR_POTENTIAL
       &END VDW_POTENTIAL
     &END XC
   &END DFT
   &SUBSYS
     &CELL
       A     1.3027557157671149E+01    0.0000000000000000E+00    0.0000000000000000E+00
       B    -6.4430758056768687E+00    1.1159734652450382E+01    0.0000000000000000E+00
       C     0.0000000000000000E+00    0.0000000000000000E+00    3.2000000000000000E+01
       MULTIPLE_UNIT_CELL  1 1 1
       &CELL_REF
         A     1.2982353780853531E+01    0.0000000000000000E+00    0.0000000000000000E+00
         B    -6.4911768904267628E+00    1.1243048175136114E+01    0.0000000000000000E+00
         C     0.0000000000000000E+00    0.0000000000000000E+00    3.2000000000000000E+01
         MULTIPLE_UNIT_CELL  1 1 1
       &END CELL_REF
     &END CELL
     &COORD
N    2.1163491983696978E-01    1.1757858922531025E-01   -1.5407177598696362E-01
Ga    2.2847557600171697E-01    1.9850650662853817E+00    5.1283805032148244E-01
N    2.3857952581566230E-01    1.9953515647373095E+00    2.4356838586281606E+00
Ga    2.2409427640207394E-01    1.3013362187171904E-01    3.1486621824862917E+00
N    2.2727832480936050E-01    1.2954695418408843E-01    5.0793889220335329E+00
Ga    2.4315751242448716E-01    1.9985844529661119E+00    5.7713314888232317E+00
N    2.4998192369056360E-01    2.0062243691752499E+00    7.7061498562521580E+00
Ga    2.3231632600750263E-01    1.3641466849940173E-01    8.3839884539272660E+00
N    2.2260066887013488E-01    1.2823985556921189E-01    1.0316182211572448E+01
Ga    2.4116688428402930E-01    1.9917590357259358E+00    1.1015297748314818E+01
N    2.5656999736698627E-01    1.9982459459007138E+00    1.2948351618493254E+01
Ga    2.1318577979859124E-01    1.2730722346686366E-01    1.3625822379255503E+01
N   -3.5773966684292374E-01   -2.0331976608172062E-01    1.5358761171185646E+01
Ga   -1.0532667305765391E+00    9.2190920958009592E-01    1.6752681319563962E+01
N    2.8061438721546894E-01    1.2887969045344530E-01    1.8016664908084920E+01
N   -1.3991065290236551E+00    2.9078404843203236E+00   -1.5197152602507635E-01
Ga   -1.3825941079815918E+00    4.7755592962189723E+00    5.1593780149868851E-01
N   -1.3724802534938088E+00    4.7858724149574625E+00    2.4382651435266629E+00
Ga   -1.3871746120693886E+00    2.9190139823561116E+00    3.1466715232259377E+00
N   -1.3842469924799263E+00    2.9207868849464456E+00    5.0769771843649281E+00
Ga   -1.3667633443614662E+00    4.7882172980275799E+00    5.7743378322734387E+00
N   -1.3589898023350895E+00    4.7970816918776400E+00    7.7103328043779928E+00
Ga   -1.3775759096765412E+00    2.9289457313835490E+00    8.3935280061833559E+00
N   -1.3823934830880322E+00    2.9233842641826127E+00    1.0329145220808961E+01
Ga   -1.3713161324933039E+00    4.7881473907213330E+00    1.1030878375343976E+01
N   -1.3651435720210388E+00    4.8008396721277204E+00    1.2971185615619703E+01
Ga   -1.3626137252066046E+00    2.9267698080353108E+00    1.3628249863995586E+01
N   -1.8970664300045370E+00    2.4641737044954573E+00    1.5443260660446962E+01
Ga   -2.9166262620044985E+00    4.2010770821734624E+00    1.6831212839418797E+01
N   -1.4257759853043523E+00    2.9013770894989950E+00    1.6736427767311923E+01
N   -3.0097475355754542E+00    5.6976084531215045E+00   -1.5159821918689897E-01
Ga   -2.9930668108693435E+00    7.5652576958376807E+00    5.1485775965310510E-01
N   -2.9827284502177100E+00    7.5755766347429878E+00    2.4371138465434772E+00
Ga   -2.9984258781642015E+00    5.7095777557405611E+00    3.1485056798970641E+00
N   -2.9952818306576643E+00    5.7091959526965281E+00    5.0794571979922747E+00
Ga   -2.9768190809147672E+00    7.5765605406120544E+00    5.7748111188882456E+00
N   -2.9686640714581709E+00    7.5849723512453506E+00    7.7107087200123994E+00
Ga   -2.9866278539531725E+00    5.7178993319331699E+00    8.3972896882323109E+00
N   -2.9930163844309408E+00    5.7116035288002482E+00    1.0331206282727857E+01
Ga   -2.9787820103946414E+00    7.5735791555192122E+00    1.1032998375695525E+01
N   -2.9692231230054169E+00    7.5786804063388500E+00    1.2974243503955886E+01
Ga   -2.9969179521011844E+00    5.7118016703309458E+00    1.3677131674901258E+01
N   -3.5064871851949588E+00    5.4041970241917685E+00    1.5444959687184131E+01
Ga   -4.2490669854347987E+00    6.5068605904955179E+00    1.6843634663840660E+01
N   -2.9162385883965651E+00    5.7342419775745510E+00    1.8099001054027031E+01
N   -4.6203184554442700E+00    8.4874717359055261E+00   -1.5192538216821852E-01
Ga   -4.6041940102366254E+00    1.0355713331956382E+01    5.1423774470997408E-01
N   -4.5941125878798799E+00    1.0365637701659866E+01    2.4370810146702198E+00
Ga   -4.6086315379358842E+00    8.4988714090693147E+00    3.1468547401399456E+00
N   -4.6044111918509856E+00    8.4980361099816619E+00    5.0770143751908154E+00
Ga   -4.5866989112973009E+00    1.0365640205253042E+01    5.7717961694839017E+00
N   -4.5799532103893039E+00    1.0373490528559790E+01    7.7071817949227608E+00
Ga   -4.5967969266553705E+00    8.5056765748232870E+00    8.3947576907266264E+00
N   -4.6014698403251657E+00    8.4994884277541374E+00    1.0330666513360690E+01
Ga   -4.5956713141001035E+00    1.0369149043236005E+01    1.1016163236199548E+01
N   -4.5858623403354084E+00    1.0385408897572285E+01    1.2950711256037170E+01
Ga   -4.5932807870139500E+00    8.5226447887319345E+00    1.3630976456928401E+01
N   -5.2488246743533606E+00    8.2864158933782832E+00    1.5450327470393765E+01
Ga   -6.1605508414832002E+00    9.7587531333615356E+00    1.6720810335199882E+01
N   -4.6226932930443567E+00    8.4458986210874070E+00    1.6744843860563552E+01
N    3.4684078752059349E+00    1.1769299812636223E-01   -1.5155062374571934E-01
Ga    3.4850985521021745E+00    1.9853793866788247E+00    5.1506320931720817E-01
N    3.4943902253011823E+00    1.9953832753097847E+00    2.4372900754211773E+00
Ga    3.4806606028881739E+00    1.2969116475927400E-01    3.1486517816021178E+00
N    3.4849838301932841E+00    1.3025698273812492E-01    5.0804135499489167E+00
Ga    3.4982920278682546E+00    1.9957118739621027E+00    5.7807235482256081E+00
N    3.5060610674428885E+00    2.0043400492335848E+00    7.7174829460040710E+00
Ga    3.4906888478824567E+00    1.3761960642364984E-01    8.4055497824085510E+00
N    3.4866381728987448E+00    1.3391343915010617E-01    1.0343881964053317E+01
Ga    3.5030820512066225E+00    1.9993290776451891E+00    1.1033299474524895E+01
N    3.5214468767500731E+00    2.0140050475062408E+00    1.2981107887282493E+01
Ga    3.4787469242854914E+00    1.5844229733670440E-01    1.3674548098152561E+01
N    2.9009918323619601E+00   -1.5046085454670566E-01    1.5529564059199533E+01
Ga    1.8068567763829442E+00    1.0069618924162664E+00    1.7516765125133997E+01
N    3.4614700527845299E+00    1.9880479328878467E-01    1.6865920469444234E+01
N    1.8577906694784698E+00    2.9074046866052470E+00   -1.5126154081943213E-01
Ga    1.8739262799763907E+00    4.7751863324645116E+00    5.1435899860797130E-01
N    1.8835419246261169E+00    4.7847679631622189E+00    2.4367163746494671E+00
Ga    1.8694703237734149E+00    2.9192356132543007E+00    3.1490180648039119E+00
N    1.8736510902446344E+00    2.9195338197506122E+00    5.0808459740095104E+00
Ga    1.8876239906561048E+00    4.7858564956421263E+00    5.7786682982028799E+00
N    1.8931477288355101E+00    4.7934399887265240E+00    7.7160985607568344E+00
Ga    1.8793158156086271E+00    2.9267946793932649E+00    8.4046372870232329E+00
N    1.8773855082695243E+00    2.9210668427367588E+00    1.0342684350160432E+01
Ga    1.8845419864543806E+00    4.7843212160094888E+00    1.1041159488660957E+01
N    1.8863906015024592E+00    4.7903920099571469E+00    1.2991093905973802E+01
Ga    1.8902906081458684E+00    2.9099520269423471E+00    1.3670117546568227E+01
N    1.3407977167700131E+00    2.5429694478795781E+00    1.5522139503316232E+01
Ga    1.9923686993192277E-01    3.8169860101960560E+00    1.6440388616166445E+01
N    1.9291799861732088E+00    2.8439003808147927E+00    1.6858881822295093E+01
N    2.4647602400127425E-01    5.6974309878426670E+00   -1.5042799323717820E-01
Ga    2.6331065287590449E-01    7.5651952399899987E+00    5.1494484705503529E-01
N    2.7263377351323331E-01    7.5750525208350705E+00    2.4369571978331175E+00
Ga    2.5928301347772065E-01    5.7094645926893932E+00    3.1496601051043087E+00
N    2.6275085667503928E-01    5.7101917634245538E+00    5.0814462570101595E+00
Ga    2.7709199304036142E-01    7.5758929476398444E+00    5.7806348512504080E+00
N    2.8499685538045921E-01    7.5846955289914106E+00    7.7187342577118807E+00
Ga    2.6926723100287930E-01    5.7179773274186623E+00    8.4084278645858266E+00
N    2.6530919896022892E-01    5.7136534083728847E+00    1.0348101593275681E+01
Ga    2.8692395694173134E-01    7.5821483811745480E+00    1.1032865199141577E+01
N    3.0238079151646963E-01    7.5944736967826394E+00    1.2977961117581655E+01
Ga    2.6443417051426360E-01    5.7425576764396373E+00    1.3671189262788968E+01
N   -3.2559307517771924E-01    5.4483446294184512E+00    1.5521106674567706E+01
Ga   -1.3971918736468212E+00    6.6035290028394007E+00    1.7533487119446047E+01
N    2.3520434217460295E-01    5.7854429751800609E+00    1.6857870049888248E+01
N   -1.3640430847559095E+00    8.4872716479319052E+00   -1.5013780131827659E-01
Ga   -1.3475777090016279E+00    1.0355149811365802E+01    5.1474127728796037E-01
N   -1.3380194113587662E+00    1.0364878903616111E+01    2.4369037064911372E+00
Ga   -1.3517823388977321E+00    8.4994109266878830E+00    3.1500213625228346E+00
N   -1.3478658699157811E+00    8.4993351861456521E+00    5.0818396777866051E+00
Ga   -1.3335548100606978E+00    1.0365519884953127E+01    5.7796339834562422E+00
N   -1.3273067324780226E+00    1.0373338783588270E+01    7.7172454186474848E+00
Ga   -1.3412034906437615E+00    8.5075741476082527E+00    8.4101749151117655E+00
N   -1.3440063960282576E+00    8.5018264452339789E+00    1.0349664775664575E+01
Ga   -1.3375671263679869E+00    1.0366116097154078E+01    1.1044788341835668E+01
N   -1.3358009903402976E+00    1.0371449550811587E+01    1.2995784644357766E+01
Ga   -1.3233768909521819E+00    8.4916888190789184E+00    1.3672852377592271E+01
N   -1.8598142824186696E+00    8.1147209158122386E+00    1.5519766399396586E+01
Ga   -3.0102591529689140E+00    9.3815414763450509E+00    1.6448321358872750E+01
N   -1.2823898289747981E+00    8.4260773736815313E+00    1.6856914654478008E+01
N    6.7245185154292164E+00    1.1730948461697506E-01   -1.5132796442948293E-01
Ga    6.7417797055074837E+00    1.9855452642153175E+00    5.1401647507785619E-01
N    6.7506536275486146E+00    1.9953724034344045E+00    2.4365721749413161E+00
Ga    6.7351435688174073E+00    1.2927027361745366E-01    3.1483155572358390E+00
N    6.7363261241323960E+00    1.2807636726490951E-01    5.0794089753263503E+00
Ga    6.7514330138209839E+00    1.9936617433215125E+00    5.7750700003968118E+00
N    6.7567288992394232E+00    2.0001461582770794E+00    7.7115168552339437E+00
Ga    6.7437725606026886E+00    1.3647247889634667E-01    8.4104624540437349E+00
N    6.7371513117764250E+00    1.2991772880145633E-01    1.0352386595323766E+01
Ga    6.7643917670618805E+00    1.9990784814685796E+00    1.1038415703764658E+01
N    6.7850762064008405E+00    2.0093259266377448E+00    1.2988489768682006E+01
Ga    6.7653552977413529E+00    1.4617600428179459E-01    1.3658582785769818E+01
N    6.1852663166719699E+00   -1.8346278385317294E-01    1.5491438831277257E+01
Ga    5.1371735507699778E+00    1.0668902381024798E+00    1.6590699909825005E+01
N    6.8346437575285792E+00    1.6599745121938381E-01    1.7069512684358806E+01
N    5.1139752833088323E+00    2.9072037443755963E+00   -1.5096863581392861E-01
Ga    5.1311944023488065E+00    4.7750987235874778E+00    5.1475171788896945E-01
N    5.1401890056820436E+00    4.7844171507155631E+00    2.4374216446706742E+00
Ga    5.1249354906834306E+00    2.9182142295215909E+00    3.1502295797676183E+00
N    5.1259322309857547E+00    2.9174318955001044E+00    5.0817182674182124E+00
Ga    5.1411744423921890E+00    4.7840792752081800E+00    5.7744443115089306E+00
N    5.1458675644694374E+00    4.7914644104167499E+00    7.7110911234830981E+00
Ga    5.1366453953829776E+00    2.9272649502623080E+00    8.4081722511736512E+00
N    5.1350870331667053E+00    2.9228675098095072E+00    1.0350228129066341E+01
Ga    5.1509458964245818E+00    4.7928132333438009E+00    1.1035430798118577E+01
N    5.1660031599390708E+00    4.8118959120795299E+00    1.2985183097237959E+01
Ga    5.1773013199234166E+00    2.9519084558614650E+00    1.3648379235964503E+01
N    4.6268063570542939E+00    2.6283169597410119E+00    1.5474574805298660E+01
Ga    3.5357157876096545E+00    3.8306707119190149E+00    1.6584470215169713E+01
N    5.2335622718858010E+00    2.9570485054936442E+00    1.7070464766782251E+01
N    3.5031405947423222E+00    5.6970356338161778E+00   -1.5115874686463113E-01
Ga    3.5200987388950025E+00    7.5653036836571461E+00    5.1322211274047436E-01
N    3.5292066791552053E+00    7.5745128616836581E+00    2.4357586727734999E+00
Ga    3.5142005145105588E+00    5.7080990973927035E+00    3.1480618930581374E+00
N    3.5156710549601171E+00    5.7064925488169056E+00    5.0792973499847305E+00
Ga    3.5291375870367041E+00    7.5724405738872260E+00    5.7721515544896755E+00
N    3.5340930578846739E+00    7.5785199932487490E+00    7.7075593445396935E+00
Ga    3.5224483527173933E+00    5.7150272323428197E+00    8.4088615630966697E+00
N    3.5167287794352386E+00    5.7074889901718109E+00    1.0350982044543379E+01
Ga    3.5450188457404215E+00    7.5779477373101729E+00    1.1034795480105652E+01
N    3.5600585818778607E+00    7.5869892963555010E+00    1.2981829169794086E+01
Ga    3.5406185200820595E+00    5.7282987953115141E+00    1.3654451178522081E+01
N    2.9616842688424239E+00    5.3861890041688589E+00    1.5483672554521254E+01
Ga    1.9148811626500237E+00    6.6426557465850902E+00    1.6578450207990350E+01
N    3.6035156715081276E+00    5.7282281775477157E+00    1.7063573087366393E+01
N    1.8920319835668264E+00    8.4869749187144450E+00   -1.5197225352514976E-01
Ga    1.9093715711930543E+00    1.0355149744367720E+01    5.1424136205009252E-01
N    1.9180955848878773E+00    1.0364811571924189E+01    2.4367333473832415E+00
Ga    1.9033867280512133E+00    8.4980625173313236E+00    3.1470099641706875E+00
N    1.9044055342199384E+00    8.4969595169616117E+00    5.0782489737972440E+00
Ga    1.9179713705856765E+00    1.0363545161811869E+01    5.7720601612268698E+00
N    1.9213829795358843E+00    1.0371751058636887E+01    7.7075034336271981E+00
Ga    1.9162117689246496E+00    8.5085854298315020E+00    8.4075256050326121E+00
N    1.9170445908100386E+00    8.5057552218313326E+00    1.0348608351007597E+01
Ga    1.9300589627347913E+00    1.0376295020659983E+01    1.1036797969571857E+01
N    1.9430218030156963E+00    1.0390553485790447E+01    1.2985272840138901E+01
Ga    1.9593298741353145E+00    8.5332027106203956E+00    1.3648372648520192E+01
N    1.3919558999528914E+00    8.2037454482225911E+00    1.5471307705429883E+01
Ga    3.1787365312671961E-01    9.4258229906874416E+00    1.6581964223648146E+01
N    1.9870578981339224E+00    8.5207883200206336E+00    1.7092248021554628E+01
N    9.9815525406266925E+00    1.1731218155736425E-01   -1.5372143347476644E-01
Ga    9.9992172841139997E+00    1.9853570777083827E+00    5.1227063397165296E-01
N    1.0008469628253122E+01    1.9959404713976741E+00    2.4350335016133884E+00
Ga    9.9922986524590698E+00    1.2966984827307365E-01    3.1466981391826021E+00
N    9.9920886862411695E+00    1.2844698211757047E-01    5.0775111836606994E+00
Ga    1.0012083819009558E+01    1.9980318460016617E+00    5.7675424026505508E+00
N    1.0019031422635690E+01    2.0074121485056016E+00    7.7005310819046962E+00
Ga    9.9958793063032996E+00    1.3849789377093238E-01    8.3792619583991659E+00
N    9.9839026475426920E+00    1.3552373680788263E-01    1.0307154429048902E+01
Ga    1.0012874398612588E+01    1.9934646976586059E+00    1.1006185288738177E+01
N    1.0023235215177674E+01    2.0013634723145741E+00    1.2939678752091845E+01
Ga    1.0064457939516037E+01    1.5455044886091870E-01    1.3661807029988671E+01
N    9.5377557784509168E+00   -1.5081404936548023E-01    1.5527759639739582E+01
Ga    8.4331337625747818E+00    1.0755582279038980E+00    1.6708012011991674E+01
N    1.0173975261667149E+01    1.9532719813444024E-01    1.6893148808537454E+01
N    8.3711674617937533E+00    2.9074902226994777E+00   -1.5192499545847207E-01
Ga    8.3886499095241209E+00    4.7757208339773340E+00    5.1420842961223445E-01
N    8.3977253585444664E+00    4.7854681607199732E+00    2.4369023172332862E+00
Ga    8.3818797228304831E+00    2.9184737258259070E+00    3.1469848155811926E+00
N    8.3814816981456612E+00    2.9175020609836850E+00    5.0779990983076164E+00
Ga    8.4006707745274216E+00    4.7858829717416249E+00    5.7706293544985705E+00
N    8.4077871906448198E+00    4.7938237893923299E+00    7.7068412209922208E+00
Ga    8.3892467484942319E+00    2.9233065506057732E+00    8.3898828705544961E+00
N    8.3852604743477634E+00    2.9142320146637837E+00    1.0322494405834222E+01
Ga    8.3952321911708765E+00    4.7849388207940278E+00    1.0989787075303379E+01
N    8.3913016891973502E+00    4.7870388487220756E+00    1.2912084380945140E+01
Ga    8.4445701219927525E+00    2.9607269623425387E+00    1.3648846727175618E+01
N    7.9622580344649831E+00    2.6611217653454635E+00    1.5523052623333037E+01
Ga    6.8190822443071877E+00    3.8557361538852044E+00    1.6710135846178435E+01
N    8.5733090230465514E+00    3.0161685163464642E+00    1.6905036323841408E+01
N    6.7605155564052204E+00    5.6971943032690033E+00   -1.5212875782059104E-01
Ga    6.7775243960001283E+00    7.5656893344016636E+00    5.1225156159485874E-01
N    6.7872313893982081E+00    7.5755228379358313E+00    2.4351047358956075E+00
Ga    6.7710342790698625E+00    5.7091021210101269E+00    3.1469079748656887E+00
N    6.7715755171656564E+00    5.7067747193439917E+00    5.0777767338918371E+00
Ga    6.7924058860919692E+00    7.5750456851637598E+00    5.7675786954046213E+00
N    6.8010565773040819E+00    7.5827042589702405E+00    7.7006980409754089E+00
Ga    6.7771285239254331E+00    5.7165883249977156E+00    8.3886391168808032E+00
N    6.7687394672610077E+00    5.7131915574844934E+00    1.0321257443807625E+01
Ga    6.7879030344546294E+00    7.5790316715664501E+00    1.1006498831368990E+01
N    6.7963130351990140E+00    7.5909952135974610E+00    1.2940329613054951E+01
Ga    6.8334975679116878E+00    5.7454777673088326E+00    1.3647623628790617E+01
N    6.3391369265068445E+00    5.4635962412991823E+00    1.5522584532224819E+01
Ga    5.2040643486449474E+00    6.6422302263506188E+00    1.6705412409203859E+01
N    6.9682548003257727E+00    5.7925582895527805E+00    1.6899947113966004E+01
N    5.1493386799360987E+00    8.4871457416923537E+00   -1.5342096618646958E-01
Ga    5.1669433136625775E+00    1.0355638573752545E+01    5.1371507105631675E-01
N    5.1768223943248097E+00    1.0365650612388169E+01    2.4372749584181332E+00
Ga    5.1605308222795658E+00    8.4977966183371283E+00    3.1467004296877668E+00
N    5.1611540857669320E+00    8.4949533875503800E+00    5.0775778371879126E+00
Ga    5.1785094649948062E+00    1.0364639997563216E+01    5.7651083568873434E+00
N    5.1834693010720088E+00    1.0371755593663293E+01    7.6995036152692755E+00
Ga    5.1688815819868683E+00    8.4995966363436004E+00    8.3795133170231235E+00
N    5.1627391124515194E+00    8.4862045874399428E+00    1.0307726137147407E+01
Ga    5.1618771608368972E+00    1.0356871016831397E+01    1.0969930189411020E+01
N    5.1524993715009799E+00    1.0355270692215285E+01    1.2873237377428090E+01
Ga    5.2126998969914204E+00    8.5509804543858206E+00    1.3659629195642930E+01
N    4.6909281924505075E+00    8.2198570169928526E+00    1.5522305530573496E+01
Ga    3.5678041970662968E+00    9.4247535769916144E+00    1.6744164659359974E+01
N    5.3191326448177785E+00    8.5897097540245415E+00    1.6884170286411155E+01
H    2.1169266804128450E-01    1.1787745685330699E-01   -1.1814099986673396E+00
H   -1.4000787007519220E+00    2.9074998583080718E+00   -1.1791752433255460E+00
H   -3.0109611824871880E+00    5.6971718934655087E+00   -1.1788422847233904E+00
H   -4.6207994742255520E+00    8.4858183482600076E+00   -1.1791269122179262E+00
H    3.4700321448979068E+00    1.1809339554743555E-01   -1.1787379466614338E+00
H    1.8587683856918089E+00    2.9082168161705977E+00   -1.1783547810253654E+00
H    2.4766697091563458E-01    5.6977270638018540E+00   -1.1775347237491585E+00
H   -1.3635225249552911E+00    8.4874569683071233E+00   -1.1771757059310135E+00
H    6.7224373107800153E+00    1.1638541906136385E-01   -1.1784829262687533E+00
H    5.1128473421768161E+00    2.9061389752527420E+00   -1.1780962924991096E+00
H    3.5012323565104988E+00    5.6958396733295320E+00   -1.1782837322593587E+00
H    1.8901856302372839E+00    8.4852193543883967E+00   -1.1791372413054355E+00
H    9.9790733583478488E+00    1.1725642278725920E-01   -1.1810936870671678E+00
H    8.3697842499153179E+00    2.9068864587119059E+00   -1.1791143967905522E+00
H    6.7598293201739903E+00    5.6961207420223099E+00   -1.1793668663365402E+00
H    5.1481848212137553E+00    8.4840806528076094E+00   -1.1807240115552804E+00
     &END COORD
     &KIND H
       BASIS_SET DZVP-MOLOPT-SR-GTH-q1
       POTENTIAL GTH-PBE-q1
       &POTENTIAL
1
0.2000000000000000E+00 2 -0.4178900440000000E+01  0.7244633100000000E+00
0
       &END POTENTIAL
     &END KIND
     &KIND N
       BASIS_SET DZVP-MOLOPT-SR-GTH
       POTENTIAL GTH-PBE-q5
       &POTENTIAL
2 3
0.2837905100000000E+00 2 -0.1241522559000000E+02  0.1868095920000000E+01
2
0.2554050000000000E+00 1  0.1363026257000000E+02
0.2454945300000000E+00 0
       &END POTENTIAL
     &END KIND
     &KIND Ga
       BASIS_SET DZVP-MOLOPT-SR-GTH
       POTENTIAL GTH-PBE-q13
       &POTENTIAL
2 1 10
0.4900000000000000E+00 0
3
0.4167772300000000E+00 3  0.1047568975000000E+02 -0.4921768140000000E+01  0.8707055900000000E+00
0.7770178090000000E+01 -0.2248152160000000E+01
0.1784415450000000E+01
0.5696265200000000E+00 2  0.1777985340000000E+01  0.1958597600000000E+00
-0.2317443900000000E+00
0.2381265000000000E+00 1 -0.1624868022000000E+02
       &END POTENTIAL
     &END KIND
     &TOPOLOGY
       NUMBER_OF_ATOMS  256
       MULTIPLE_UNIT_CELL  1 1 1
     &END TOPOLOGY
   &END SUBSYS
 &END FORCE_EVAL
