 # Version information for this restart file 
 # current date 2019-06-10 15:47:27.300
 # current working dir /lustre03/project/6037349/rzk/GaN-carbene/444-addat/00-Surface/RKS
 # Program compiled at                              Sun Apr  7 00:48:11 EDT 2019
 # Program compiled on                          beluga2.int.ets1.calculquebec.ca
 # Program compiled for                        Beluga-Linux-x86-64-intel-openmpi
 # Source code revision number                                         svn:18619
 &GLOBAL
   PRINT_LEVEL  MEDIUM
   PROJECT_NAME TEST
   RUN_TYPE  CELL_OPT
 &END GLOBAL
 &MOTION
   &CELL_OPT
     MAX_ITER  300
     STEP_START_VAL  47
     EXTERNAL_PRESSURE     1.0000000000000000E+00
     KEEP_ANGLES  T
     KEEP_SYMMETRY  T
     CONSTRAINT  Z
     PRESSURE_TOLERANCE     5.0000000000000000E+02
   &END CELL_OPT
 &END MOTION
 &FORCE_EVAL
   METHOD  QS
   STRESS_TENSOR  ANALYTICAL
   &DFT
     BASIS_SET_FILE_NAME BASIS_MOLOPT
     POTENTIAL_FILE_NAME GTH_POTENTIALS
     SURFACE_DIPOLE_CORRECTION  T
     SURF_DIP_DIR  Z
     &SCF
       MAX_SCF  100
       EPS_SCF     5.0000000000000004E-06
       &OT  T
         PRECONDITIONER  FULL_ALL
       &END OT
       &OUTER_SCF  T
         OPTIMIZER  NONE
         EPS_SCF     5.0000000000000004E-06
         MAX_SCF  4
       &END OUTER_SCF
       &PRINT
         &RESTART  OFF
           BACKUP_COPIES  1
           &EACH
             JUST_ENERGY  0
             QS_SCF  0
             MD  20
           &END EACH
         &END RESTART
       &END PRINT
     &END SCF
     &QS
       EPS_DEFAULT     1.0000000000000000E-14
       METHOD  GPW
     &END QS
     &MGRID
       NGRIDS  5
       CUTOFF     1.2000000000000000E+03
     &END MGRID
     &XC
       DENSITY_CUTOFF     1.0000000000000000E-10
       GRADIENT_CUTOFF     1.0000000000000000E-10
       TAU_CUTOFF     1.0000000000000000E-10
       &XC_FUNCTIONAL  NO_SHORTCUT
         &PBE  T
         &END PBE
       &END XC_FUNCTIONAL
       &VDW_POTENTIAL
         POTENTIAL_TYPE  PAIR_POTENTIAL
         &PAIR_POTENTIAL
           R_CUTOFF     1.0000000000000004E+01
           TYPE  DFTD3
           PARAMETER_FILE_NAME dftd3.dat
           REFERENCE_FUNCTIONAL PBE
           EPS_CN     9.9999999999999995E-07
           CALCULATE_C9_TERM  T
           REFERENCE_C9_TERM  T
           LONG_RANGE_CORRECTION  F
           VERBOSE_OUTPUT  F
         &END PAIR_POTENTIAL
       &END VDW_POTENTIAL
     &END XC
   &END DFT
   &SUBSYS
     &CELL
       A     1.3009736063630072E+01    0.0000000000000000E+00    0.0000000000000000E+00
       B    -6.4596354924932058E+00    1.1188416871373423E+01    0.0000000000000000E+00
       C     0.0000000000000000E+00    0.0000000000000000E+00    3.2000000000000000E+01
       MULTIPLE_UNIT_CELL  1 1 1
       &CELL_REF
         A     1.2982353780853531E+01    0.0000000000000000E+00    0.0000000000000000E+00
         B    -6.4911768904267628E+00    1.1243048175136114E+01    0.0000000000000000E+00
         C     0.0000000000000000E+00    0.0000000000000000E+00    3.2000000000000000E+01
         MULTIPLE_UNIT_CELL  1 1 1
       &END CELL_REF
     &END CELL
     &COORD
N    4.1258087457787295E-03   -5.2151617537377348E-03   -1.2709612493791855E-01
Ga    1.8158786593090115E-02    1.8684187250893531E+00    5.3938254926044193E-01
N    3.1360341225850082E-02    1.8689835657181890E+00    2.4589336353651818E+00
Ga    2.3511548783825543E-02    1.1440314433610280E-03    3.1619026175709841E+00
N    4.7103965456187204E-02    1.6139441482087731E-03    5.0865182712141399E+00
Ga    6.2833933198351261E-02    1.8738258469192199E+00    5.7738735816700704E+00
N    1.1985875073029663E-01    1.9154567059905627E+00    7.7107925223160443E+00
Ga    1.2413566579536876E-01    5.2016671046745580E-02    8.3972569261869090E+00
N    2.2320997105033721E-01    1.2997490277331625E-01    1.0334222118923899E+01
Ga    2.4646778839888295E-01    2.0170835775628908E+00    1.1020045714566965E+01
N    4.5827659836399837E-01    2.1569922970148050E+00    1.2950355959717353E+01
Ga    4.3335306621007863E-01    2.7642735704353438E-01    1.3542108148694807E+01
N   -1.1571428139481739E-01   -5.8260869415309606E-02    1.5276732914892509E+01
Ga   -6.9308897633833855E-01    1.1615158360476088E+00    1.6657884961383139E+01
N    7.1594922747176204E-01    4.0372256621264074E-01    1.7837507051021916E+01
N   -1.6108042051690008E+00    2.7919252069708893E+00   -1.2690428977599788E-01
Ga   -1.5968562798649759E+00    4.6657748216274149E+00    5.3961435452557904E-01
N   -1.5836300496414482E+00    4.6669172391755520E+00    2.4592207569039517E+00
Ga   -1.5901388226684319E+00    2.7981027189066121E+00    3.1606840930505253E+00
N   -1.5651184896864427E+00    2.7987493091757791E+00    5.0844373460835390E+00
Ga   -1.5522322628550596E+00    4.6707613867856317E+00    5.7695010586814544E+00
N   -1.4940695403650501E+00    4.7123340183415703E+00    7.7048892586412796E+00
Ga   -1.4958675655857805E+00    2.8499766649591907E+00    8.3978109698586287E+00
N   -1.3935821298330975E+00    2.9312180451351999E+00    1.0334877452072062E+01
Ga   -1.3642940282208615E+00    4.8112728169054302E+00    1.1019060424396232E+01
N   -1.1605411460475539E+00    4.9644709237850657E+00    1.2934085465984950E+01
Ga   -1.1245173171454024E+00    3.1246761739088558E+00    1.3642649340723926E+01
N   -1.4698885654758480E+00    2.8323503357111330E+00    1.5522717919030413E+01
Ga   -2.5544774137795057E+00    4.4882296254224698E+00    1.6723824605498020E+01
N   -1.0271592782126575E+00    3.1834855527048123E+00    1.6823097395792523E+01
N   -3.2256942672886755E+00    5.5888476989478155E+00   -1.2744282094671069E-01
Ga   -3.2117455900744005E+00    7.4624705678374257E+00    5.3942959688977787E-01
N   -3.1986526149084038E+00    7.4632580855930826E+00    2.4589504273511076E+00
Ga   -3.2060375655917133E+00    5.5950108309069284E+00    3.1611207065175311E+00
N   -3.1822598344638262E+00    5.5953093911522434E+00    5.0855867384494324E+00
Ga   -3.1671211956729555E+00    7.4678679244993695E+00    5.7709959581026071E+00
N   -3.1098059181449269E+00    7.5104928761931786E+00    7.7073245543984470E+00
Ga   -3.1050338243715148E+00    5.6473622118819140E+00    8.3954028418809123E+00
N   -3.0089945844335180E+00    5.7230278543179169E+00    1.0326523726566750E+01
Ga   -2.9814027464214727E+00    7.6108280080541180E+00    1.1009846551216931E+01
N   -2.7684648946121202E+00    7.7477468849064861E+00    1.2932738818021775E+01
Ga   -2.8254668705435866E+00    5.8581120052904163E+00    1.3542685560021877E+01
N   -3.2704183171271879E+00    5.5752625792927271E+00    1.5301136215303561E+01
Ga   -3.8553625745338582E+00    6.7474003413987731E+00    1.6714270827410779E+01
N   -2.5465163065272192E+00    5.9924062535333968E+00    1.8020586703860697E+01
N   -4.8406081720133356E+00    8.3859663119371124E+00   -1.2669327822829049E-01
Ga   -4.8268113501075591E+00    1.0259988052310202E+01    5.3968576680517633E-01
N   -4.8139819670559785E+00    1.0261221505913792E+01    2.4593776972471444E+00
Ga   -4.8202952089720021E+00    8.3923733439468240E+00    3.1604165984870116E+00
N   -4.7955035130141059E+00    8.3933460744865744E+00    5.0840122372642895E+00
Ga   -4.7818466392133674E+00    1.0265603844767840E+01    5.7688045423829655E+00
N   -4.7241976363117653E+00    1.0308087175052579E+01    7.7050945168674545E+00
Ga   -4.7243753010326754E+00    8.4459209133359234E+00    8.3973329291199459E+00
N   -4.6215700075761266E+00    8.5272677120032103E+00    1.0334557092813954E+01
Ga   -4.5926877496734706E+00    1.0405746948246110E+01    1.1027163190787633E+01
N   -4.3831828055431066E+00    1.0556435329365362E+01    1.2943117003361770E+01
Ga   -4.3401680228105421E+00    8.7018631611249564E+00    1.3642977317700607E+01
N   -4.7498169715289347E+00    8.5216868941798598E+00    1.5524205455279535E+01
Ga   -5.8116579925362988E+00    9.9995435114261699E+00    1.6650024523976089E+01
N   -4.2138965689562271E+00    8.7180536824409778E+00    1.6822625672137505E+01
N    3.2567447044655413E+00   -5.2062309919061649E-03   -1.2670693448926193E-01
Ga    3.2703890841894361E+00    1.8685335176924756E+00    5.3977115120379171E-01
N    3.2828340577273880E+00    1.8693192171572584E+00    2.4594075609066399E+00
Ga    3.2767118907302377E+00    1.4047925386900452E-03    3.1616405897899043E+00
N    3.3000081857092280E+00    2.5240445096452097E-03    5.0862993577029538E+00
Ga    3.3137564015807182E+00    1.8747296660953032E+00    5.7752758563203122E+00
N    3.3702976674625549E+00    1.9183277548506272E+00    7.7128885775264306E+00
Ga    3.3713804753770731E+00    5.5157340724289829E-02    8.3987061252749626E+00
N    3.4799951429982374E+00    1.4136389290368201E-01    1.0341361787018242E+01
Ga    3.4971159131960210E+00    2.0257694879539319E+00    1.1036424456703944E+01
N    3.7032253252458123E+00    2.1793820247581941E+00    1.2978380123345492E+01
Ga    3.7211640135386714E+00    3.2180722751719348E-01    1.3661059270082069E+01
N    3.2537511174727611E+00    8.9423793916006439E-02    1.5574518010055858E+01
Ga    2.1557937089738304E+00    1.2244526070243698E+00    1.6947005263652695E+01
N    3.9444001335254129E+00    4.5842564228727639E-01    1.6947687974699694E+01
N    1.6418059949365591E+00    2.7919633958700305E+00   -1.2691257659453695E-01
Ga    1.6554939799195387E+00    4.6656081545914967E+00    5.3994976784528170E-01
N    1.6679616929622549E+00    4.6664431672201765E+00    2.4596516930851182E+00
Ga    1.6613751369838672E+00    2.7980784101926841E+00    3.1619956710094659E+00
N    1.6843120411495045E+00    2.7984183231473962E+00    5.0870512339208105E+00
Ga    1.6992232146350092E+00    4.6705444091088717E+00    5.7730439218116292E+00
N    1.7546748739836133E+00    4.7132316121520264E+00    7.7089885637664235E+00
Ga    1.7569980546954216E+00    2.8529179160711817E+00    8.4003706337187012E+00
N    1.8615149052038522E+00    2.9372480695233540E+00    1.0339632193014847E+01
Ga    1.8803083356731580E+00    4.8111578582976540E+00    1.1051834289871138E+01
N    2.0799274604988121E+00    4.9450180549603004E+00    1.2997617248761429E+01
Ga    2.1041815867532696E+00    3.0901667161334947E+00    1.3712088806717308E+01
N    1.7112123237998196E+00    2.7905112844703996E+00    1.5594357721891688E+01
Ga    6.1224005998950493E-01    4.1053794486766675E+00    1.6687545602562942E+01
N    2.3212076540300246E+00    3.2120313577955750E+00    1.6949368328923317E+01
N    2.6872406123929750E-02    5.5889063163174120E+00   -1.2697839161747843E-01
Ga    4.0649161125220365E-02    7.4624825458290758E+00    5.3961954145593749E-01
N    5.3198668518462007E-02    7.4630424557369128E+00    2.4593045569593737E+00
Ga    4.6884908544994906E-02    5.5955130876336776E+00    3.1625274953974554E+00
N    7.0230217252257504E-02    5.5964115607628493E+00    5.0870272385164936E+00
Ga    8.4751876779068411E-02    7.4691443034823335E+00    5.7726747820825883E+00
N    1.4058823870481307E-01    7.5125160204750596E+00    7.7089566372718412E+00
Ga    1.4215756045731964E-01    5.6498123239193010E+00    8.3952011317211674E+00
N    2.4959033199640587E-01    5.7370223778772322E+00    1.0336373315181476E+01
Ga    2.6676097429647150E-01    7.6183619646555663E+00    1.1032075414005742E+01
N    4.8130065026230373E-01    7.7710701317630519E+00    1.2969936637009392E+01
Ga    4.7371945169604240E-01    5.9202011095078113E+00    1.3664557450742164E+01
N   -9.4201516856358518E-03    5.7257968530099488E+00    1.5585370291461018E+01
Ga   -1.0673518553394770E+00    6.8136800068411141E+00    1.7222757420526335E+01
N    6.6384489379575762E-01    6.0834256829737550E+00    1.6892187245533691E+01
N   -1.5880188432599343E+00    8.3859360937695104E+00   -1.2682415278383571E-01
Ga   -1.5742581678572829E+00    1.0259659003130194E+01    5.3968072252937904E-01
N   -1.5616317228493917E+00    1.0260269616172442E+01    2.4593356528031078E+00
Ga   -1.5681845715489395E+00    8.3920040325919452E+00    3.1616425626528555E+00
N   -1.5448776390570391E+00    8.3925596496578976E+00    5.0863237630416407E+00
Ga   -1.5308040633559523E+00    1.0265236492066613E+01    5.7722609389821313E+00
N   -1.4753934331479648E+00    1.0308979502784473E+01    7.7089863650442831E+00
Ga   -1.4717494157625908E+00    8.4476242944359683E+00    8.3975492254711117E+00
N   -1.3644183804198489E+00    8.5334711067075784E+00    1.0335091895044417E+01
Ga   -1.3458563289743195E+00    1.0407024705420023E+01    1.1047913742540532E+01
N   -1.1392417549171425E+00    1.0542982870492256E+01    1.2992649989915927E+01
Ga   -1.1233091453894926E+00    8.6744861297699032E+00    1.3688442369709625E+01
N   -1.5406226556770717E+00    8.3791788938156770E+00    1.5574503203227474E+01
Ga   -2.6027347506089735E+00    9.7019751740898421E+00    1.6708465156728231E+01
N   -8.9895469212852219E-01    8.7285030626891675E+00    1.6864158778881027E+01
N    6.5089257937294276E+00   -5.1931018392221470E-03   -1.2730859417455559E-01
Ga    6.5228404664334656E+00    1.8684969643771367E+00    5.3918488002865783E-01
N    6.5354565882945250E+00    1.8688022042701333E+00    2.4590479585032243E+00
Ga    6.5286089022987825E+00    3.2341867195966544E-04    3.1605353040883180E+00
N    6.5511073091291836E+00   -9.4583107791853377E-04    5.0844991076411095E+00
Ga    6.5652235058708364E+00    1.8710474159428061E+00    5.7681749087699794E+00
N    6.6190650064980732E+00    1.9096898866362291E+00    7.7042824241947381E+00
Ga    6.6238113245134542E+00    5.0503829574939964E-02    8.4017909232931380E+00
N    6.7262997504429167E+00    1.3077283706609513E-01    1.0348578374842720E+01
Ga    6.7561558894047034E+00    2.0098287117108220E+00    1.1041914079287910E+01
N    6.9728196248012155E+00    2.1555518860977090E+00    1.2970616854196802E+01
Ga    7.0087824863670409E+00    3.1399589670462152E-01    1.3653845233670520E+01
N    6.5911897757782087E+00    6.7462501916395565E-02    1.5524501575284855E+01
Ga    5.5731417016155032E+00    1.3497917293798087E+00    1.6601099264371840E+01
N    7.2281135446920723E+00    3.8216306875484995E-01    1.7118788752909268E+01
N    4.8941027230918959E+00    2.7918929484036465E+00   -1.2734671934855260E-01
Ga    4.9079471184243939E+00    4.6656639446010404E+00    5.3955025199625439E-01
N    4.9205406337008277E+00    4.6662274346738890E+00    2.4595403533706994E+00
Ga    4.9134821456967819E+00    2.7973792469104670E+00    3.1610278046542666E+00
N    4.9359705715291105E+00    2.7964860955203870E+00    5.0853354569004789E+00
Ga    4.9501311507126022E+00    4.6689791263343476E+00    5.7666241850567346E+00
N    5.0031812577108328E+00    4.7090971294492734E+00    7.7019743520256290E+00
Ga    5.0130485169816819E+00    2.8504682816793254E+00    8.4033459654654266E+00
N    5.1192008163053933E+00    2.9347376941462722E+00    1.0350305919839371E+01
Ga    5.1390569804676609E+00    4.8180323334087314E+00    1.1044714486114538E+01
N    5.3573172920483447E+00    4.9686716249746832E+00    1.2967243519398084E+01
Ga    5.3985198475464884E+00    3.1211328071595341E+00    1.3636086878303038E+01
N    4.9848094094808983E+00    2.8718490672319281E+00    1.5511129835687511E+01
Ga    3.9592533386536037E+00    4.1088450708951845E+00    1.6590330541751197E+01
N    5.6497494997755089E+00    3.2236840031437102E+00    1.7132372230059399E+01
N    3.2791568569041307E+00    5.5889021799867038E+00   -1.2736428577304079E-01
Ga    3.2931448527171892E+00    7.4626037939652203E+00    5.3936094879608243E-01
N    3.3059342661867896E+00    7.4629701767145793E+00    2.4592104534784820E+00
Ga    3.2985080996344580E+00    5.5948668165270465E+00    3.1611839837810498E+00
N    3.3207381565571650E+00    5.5942963665201040E+00    5.0852573873449050E+00
Ga    3.3356494615456889E+00    7.4658519808966677E+00    5.7719367437289630E+00
N    3.3904082697154583E+00    7.5046885905507308E+00    7.7086648356063270E+00
Ga    3.3936624431249744E+00    5.6425434263152985E+00    8.3986033320169451E+00
N    3.4941259608916648E+00    5.7227568002024993E+00    1.0346857597424478E+01
Ga    3.5268226295493772E+00    7.6076844407178488E+00    1.1034233939014523E+01
N    3.7439928829102849E+00    7.7499631695161133E+00    1.2964767167033546E+01
Ga    3.7755068968658705E+00    5.9085589428314620E+00    1.3636319433508646E+01
N    3.3423368255775547E+00    5.6690514198644140E+00    1.5510079700008898E+01
Ga    2.3293847230531908E+00    6.9352637435353053E+00    1.6589781040355845E+01
N    3.9956542321659589E+00    5.9762373168072527E+00    1.7111132226990314E+01
N    1.6642466076631384E+00    8.3859998139294376E+00   -1.2709724796801944E-01
Ga    1.6782741508303713E+00    1.0259923139008734E+01    5.3938642304032836E-01
N    1.6911191489019193E+00    1.0260460477518196E+01    2.4592607151874599E+00
Ga    1.6839134214297762E+00    8.3916111840248906E+00    3.1609774402313104E+00
N    1.7070248422800001E+00    8.3907965370387867E+00    5.0855600594118915E+00
Ga    1.7207370085745577E+00    1.0263238428956901E+01    5.7693448953369142E+00
N    1.7748970485633566E+00    1.0305218528863680E+01    7.7055725313416152E+00
Ga    1.7808581495139155E+00    8.4451266923996222E+00    8.4016641605242679E+00
N    1.8857380217602802E+00    8.5307602613100375E+00    1.0347038571187889E+01
Ga    1.9107976851612756E+00    1.0413047025408382E+01    1.1046080464014615E+01
N    2.1270870616357711E+00    1.0562378015799281E+01    1.2970147545074779E+01
Ga    2.1717556217253331E+00    8.7142134993529101E+00    1.3627607162422793E+01
N    1.7661713283509606E+00    8.4651946694536644E+00    1.5502023005321366E+01
Ga    7.3743105102148265E-01    9.6976146697254428E+00    1.6590059033308677E+01
N    2.3940126956033860E+00    8.7999910264909662E+00    1.7146682733374416E+01
N    9.7614824323617864E+00   -5.0744819632195506E-03   -1.2711817396002112E-01
Ga    9.7751932957781555E+00    1.8683731653575875E+00    5.3993476383645522E-01
N    9.7881676737823344E+00    1.8691473054239516E+00    2.4598964759396513E+00
Ga    9.7813246209270606E+00    4.7063928932122439E-04    3.1620821163760695E+00
N    9.8045678000199121E+00    8.7178429606830590E-05    5.0865282079581950E+00
Ga    9.8215347365036809E+00    1.8748027141608379E+00    5.7659666130633296E+00
N    9.8802009438117278E+00    1.9167928207675977E+00    7.6982763791895596E+00
Ga    9.8703528003698562E+00    5.5951065398505057E-02    8.3858584154117271E+00
N    9.9675729534464246E+00    1.4093813302261179E-01    1.0322312900074975E+01
Ga    1.0003300113167972E+01    2.0171268850499082E+00    1.1035765803828820E+01
N    1.0222233194515928E+01    2.1718663176650579E+00    1.2961064402774099E+01
Ga    1.0270936417475330E+01    3.1784500865063303E-01    1.3644121593518831E+01
N    9.8444192271202464E+00    1.1519205853203496E-01    1.5535953638705285E+01
Ga    8.8178407357212460E+00    1.3191141316995840E+00    1.6779257064880611E+01
N    1.0539378781715433E+01    4.5815286861290283E-01    1.6905815776183527E+01
N    8.1466093791164624E+00    2.7918875402239154E+00   -1.2705248963944119E-01
Ga    8.1603244579738057E+00    4.6655964253140620E+00    5.3950581190318647E-01
N    8.1734290753022609E+00    4.6665558846223911E+00    2.4591634871840582E+00
Ga    8.1657844676740350E+00    2.7982451391243699E+00    3.1611764464267460E+00
N    8.1886795320407391E+00    2.7983097589339097E+00    5.0858337993754548E+00
Ga    8.2056377549556352E+00    4.6710239123700195E+00    5.7730823686816439E+00
N    8.2605680384126128E+00    4.7110605379086241E+00    7.7087362200094516E+00
Ga    8.2603917403932776E+00    2.8371518262606417E+00    8.3792066088958368E+00
N    8.3609944659383189E+00    2.9033493946271660E+00    1.0311537524397368E+01
Ga    8.3522894547898900E+00    4.7869768342799501E+00    1.0945425378856871E+01
N    8.5330549742952488E+00    4.9097263276861911E+00    1.2832001567667742E+01
Ga    8.6363610283727290E+00    3.1329842351492116E+00    1.3654964564345775E+01
N    8.2847049311674859E+00    2.8432922393023938E+00    1.5533255627112375E+01
Ga    7.2181865061673127E+00    4.1286892112354092E+00    1.6720320607062096E+01
N    8.9502224670094712E+00    3.2524385710099604E+00    1.6848134210732162E+01
N    6.5316424893995642E+00    5.5890021737341868E+00   -1.2715309415092851E-01
Ga    6.5452435233780850E+00    7.4625576442186912E+00    5.3987259322701298E-01
N    6.5580876708070708E+00    7.4635050727009853E+00    2.4598665342592274E+00
Ga    6.5515712714352814E+00    5.5947783517761263E+00    3.1616211195861892E+00
N    6.5747648240070502E+00    5.5950563752689115E+00    5.0862522959802687E+00
Ga    6.5909638147500091E+00    7.4702735276514440E+00    5.7666960730195989E+00
N    6.6496465975536863E+00    7.5143457870921884E+00    7.6982903680454662E+00
Ga    6.6361623006019572E+00    5.6515106814063429E+00    8.3739601783125792E+00
N    6.7279830197404804E+00    5.7373884069955778E+00    1.0307715129888063E+01
Ga    6.7757606566030510E+00    7.6110433389995311E+00    1.1036949278896751E+01
N    6.9921006400627821E+00    7.7650444503643108E+00    1.2962492616463043E+01
Ga    7.0508126074884592E+00    5.9053621146252109E+00    1.3622932397294665E+01
N    6.6487581919435836E+00    5.7117775627177947E+00    1.5518393423908226E+01
Ga    5.5919704293880583E+00    6.8823344050120303E+00    1.6746774703793974E+01
N    7.3437324546604561E+00    6.0648963976532331E+00    1.6859988643441316E+01
N    4.9167938575239294E+00    8.3860430765898091E+00   -1.2707249152254699E-01
Ga    4.9304649996180245E+00    1.0259854208066081E+01    5.3981486920410682E-01
N    4.9434983943172135E+00    1.0260687881323264E+01    2.4595872251266604E+00
Ga    4.9357901272331981E+00    8.3923510095597766E+00    3.1616299126683560E+00
N    4.9580769070057666E+00    8.3926944283252496E+00    5.0863394640500585E+00
Ga    4.9755265717822388E+00    1.0265143782170716E+01    5.7745279930240523E+00
N    5.0315726888339762E+00    1.0306983071351443E+01    7.7101524708261966E+00
Ga    5.0323787224165404E+00    8.4368525075757308E+00    8.3858863264635275E+00
N    5.1355301992400335E+00    8.5083121512839401E+00    1.0319982070149905E+01
Ga    5.1350645163276862E+00    1.0386436941035388E+01    1.0984132461497252E+01
N    5.3156675596688299E+00    1.0505368995348221E+01    1.2872173057129832E+01
Ga    5.4115294426957687E+00    8.7126652335265984E+00    1.3673985522994062E+01
N    5.0477120434717175E+00    8.4382012869315055E+00    1.5550188441497024E+01
Ga    3.9429729626719645E+00    9.7054229796885707E+00    1.6685188680243090E+01
N    5.6875637604061380E+00    8.8207758710079212E+00    1.6901142861504010E+01
H    2.3452525745388561E-03   -5.3713478108540066E-03   -1.1544401246729168E+00
H   -1.6125089360769205E+00    2.7913127840590293E+00   -1.1542924489197461E+00
H   -3.2274661236243856E+00    5.5887817636946933E+00   -1.1547940146403723E+00
H   -4.8425141482132759E+00    8.3856031089871976E+00   -1.1540746910516355E+00
H    3.2552335829225711E+00   -5.2633840084900440E-03   -1.1540476158666255E+00
H    1.6403601964680545E+00    2.7914874227941078E+00   -1.1542540601432623E+00
H    2.5418013513589858E-02    5.5890316659163366E+00   -1.1542905197241604E+00
H   -1.5894219179326672E+00    8.3857770453897409E+00   -1.1541204363452893E+00
H    6.5067986758506366E+00   -5.8328747994351969E-03   -1.1546952476273382E+00
H    4.8917471593872026E+00    2.7912181975485573E+00   -1.1547359028058219E+00
H    3.2769388493580269E+00    5.5887998576707192E+00   -1.1547742494910294E+00
H    1.6621492407313405E+00    8.3854987291264393E+00   -1.1544895130675439E+00
H    9.7599671086709900E+00   -5.0954189793743958E-03   -1.1544696413291469E+00
H    8.1452861612147860E+00    2.7915443966645239E+00   -1.1543993310493508E+00
H    6.5301197247840257E+00    5.5892944584167683E+00   -1.1545073182247070E+00
H    4.9154116238482448E+00    8.3858185867169812E+00   -1.1544409048936586E+00
     &END COORD
     &KIND H
       BASIS_SET DZVP-MOLOPT-SR-GTH-q1
       POTENTIAL GTH-PBE-q1
       &POTENTIAL
 1
  0.2000000000000000E+00 2 -0.4178900440000000E+01  0.7244633100000000E+00
 0
         # Potential name:  GTH-PBE-Q1  for symbol:  H
         # Potential read from the potential filename: GTH_POTENTIALS
       &END POTENTIAL
     &END KIND
     &KIND N
       BASIS_SET DZVP-MOLOPT-SR-GTH
       POTENTIAL GTH-PBE-q5
       &POTENTIAL
 2 3
  0.2837905100000000E+00 2 -0.1241522559000000E+02  0.1868095920000000E+01
 2
  0.2554050000000000E+00 1  0.1363026257000000E+02
  0.2454945300000000E+00 0
         # Potential name:  GTH-PBE-Q5  for symbol:  N
         # Potential read from the potential filename: GTH_POTENTIALS
       &END POTENTIAL
     &END KIND
     &KIND Ga
       BASIS_SET DZVP-MOLOPT-SR-GTH
       POTENTIAL GTH-PBE-q13
       &POTENTIAL
 2 1 10
  0.4900000000000000E+00 0
 3
  0.4167772300000000E+00 3  0.1047568975000000E+02 -0.4921768140000000E+01  0.8707055900000000E+00
  0.7770178090000000E+01 -0.2248152160000000E+01
  0.1784415450000000E+01
  0.5696265200000000E+00 2  0.1777985340000000E+01  0.1958597600000000E+00
 -0.2317443900000000E+00
  0.2381265000000000E+00 1 -0.1624868022000000E+02
         # Potential name:  GTH-PBE-Q13  for symbol:  GA
         # Potential read from the potential filename: GTH_POTENTIALS
       &END POTENTIAL
     &END KIND
     &TOPOLOGY
       NUMBER_OF_ATOMS  256
       MULTIPLE_UNIT_CELL  1 1 1
     &END TOPOLOGY
   &END SUBSYS
 &END FORCE_EVAL
