 # Version information for this restart file 
 # current date 2019-06-11 00:20:17.328
 # current working dir /lustre03/project/6037349/rzk/GaN-carbene/444-addat/00-Surface/RKS
 # Program compiled at                              Sun Apr  7 00:48:11 EDT 2019
 # Program compiled on                          beluga2.int.ets1.calculquebec.ca
 # Program compiled for                        Beluga-Linux-x86-64-intel-openmpi
 # Source code revision number                                         svn:18619
 &GLOBAL
   PRINT_LEVEL  MEDIUM
   PROJECT_NAME TEST
   RUN_TYPE  CELL_OPT
 &END GLOBAL
 &MOTION
   &CELL_OPT
     MAX_ITER  300
     STEP_START_VAL  101
     EXTERNAL_PRESSURE     1.0000000000000000E+00
     KEEP_ANGLES  T
     KEEP_SYMMETRY  T
     CONSTRAINT  Z
     PRESSURE_TOLERANCE     5.0000000000000000E+02
   &END CELL_OPT
 &END MOTION
 &FORCE_EVAL
   METHOD  QS
   STRESS_TENSOR  ANALYTICAL
   &DFT
     BASIS_SET_FILE_NAME BASIS_MOLOPT
     POTENTIAL_FILE_NAME GTH_POTENTIALS
     SURFACE_DIPOLE_CORRECTION  T
     SURF_DIP_DIR  Z
     &SCF
       MAX_SCF  100
       EPS_SCF     5.0000000000000004E-06
       &OT  T
         PRECONDITIONER  FULL_ALL
       &END OT
       &OUTER_SCF  T
         OPTIMIZER  NONE
         EPS_SCF     5.0000000000000004E-06
         MAX_SCF  4
       &END OUTER_SCF
       &PRINT
         &RESTART  OFF
           BACKUP_COPIES  1
           &EACH
             JUST_ENERGY  0
             QS_SCF  0
             MD  20
           &END EACH
         &END RESTART
       &END PRINT
     &END SCF
     &QS
       EPS_DEFAULT     1.0000000000000000E-14
       METHOD  GPW
     &END QS
     &MGRID
       NGRIDS  5
       CUTOFF     1.2000000000000000E+03
     &END MGRID
     &XC
       DENSITY_CUTOFF     1.0000000000000000E-10
       GRADIENT_CUTOFF     1.0000000000000000E-10
       TAU_CUTOFF     1.0000000000000000E-10
       &XC_FUNCTIONAL  NO_SHORTCUT
         &PBE  T
         &END PBE
       &END XC_FUNCTIONAL
       &VDW_POTENTIAL
         POTENTIAL_TYPE  PAIR_POTENTIAL
         &PAIR_POTENTIAL
           R_CUTOFF     1.0000000000000005E+01
           TYPE  DFTD3
           PARAMETER_FILE_NAME dftd3.dat
           REFERENCE_FUNCTIONAL PBE
           EPS_CN     9.9999999999999995E-07
           CALCULATE_C9_TERM  T
           REFERENCE_C9_TERM  T
           LONG_RANGE_CORRECTION  F
           VERBOSE_OUTPUT  F
         &END PAIR_POTENTIAL
       &END VDW_POTENTIAL
     &END XC
   &END DFT
   &SUBSYS
     &CELL
       A     1.3027410586062036E+01    0.0000000000000000E+00    0.0000000000000000E+00
       B    -6.4434710113939415E+00    1.1160419168831789E+01    0.0000000000000000E+00
       C     0.0000000000000000E+00    0.0000000000000000E+00    3.2000000000000000E+01
       MULTIPLE_UNIT_CELL  1 1 1
       &CELL_REF
         A     1.2982353780853531E+01    0.0000000000000000E+00    0.0000000000000000E+00
         B    -6.4911768904267628E+00    1.1243048175136114E+01    0.0000000000000000E+00
         C     0.0000000000000000E+00    0.0000000000000000E+00    3.2000000000000000E+01
         MULTIPLE_UNIT_CELL  1 1 1
       &END CELL_REF
     &END CELL
     &COORD
N    2.0579870571599168E-01    1.1367739197961260E-01   -1.5260589692577461E-01
Ga    2.2305059470288241E-01    1.9817539047958548E+00    5.1248965424123805E-01
N    2.3892246567132355E-01    1.9945307943159558E+00    2.4352109016022321E+00
Ga    2.2388621073494214E-01    1.2998685927670156E-01    3.1493442901154602E+00
N    2.2771417020002316E-01    1.3132670121278325E-01    5.0799786832489957E+00
Ga    2.4333716365827943E-01    1.9994528662526130E+00    5.7726021785630079E+00
N    2.4937848043885308E-01    2.0076186463160219E+00    7.7070421419673911E+00
Ga    2.3432735218666173E-01    1.3760332493259828E-01    8.3858274850305250E+00
N    2.2711566235982494E-01    1.3020704508019842E-01    1.0318834129167218E+01
Ga    2.4219366550914542E-01    1.9905034126374612E+00    1.1016604791690650E+01
N    2.5492415664592571E-01    1.9979248369766620E+00    1.2950553653026430E+01
Ga    2.0972109799671765E-01    1.2684728655216343E-01    1.3631258086349824E+01
N   -3.5399452981280050E-01   -2.0079606962200316E-01    1.5365310220102502E+01
Ga   -1.0511510816427663E+00    9.2535262136885166E-01    1.6760773756216029E+01
N    2.8334646840516214E-01    1.3311185493338559E-01    1.8026868518829435E+01
N   -1.4050872067099660E+00    2.9041184236546740E+00   -1.5217755014987899E-01
Ga   -1.3879268532584748E+00    4.7722117959967898E+00    5.1518012718586392E-01
N   -1.3725000992312233E+00    4.7861444634943986E+00    2.4378166326541217E+00
Ga   -1.3856132899673037E+00    2.9196469977703763E+00    3.1446327671366374E+00
N   -1.3824990205953662E+00    2.9210455991955171E+00    5.0749483892155274E+00
Ga   -1.3666321373272017E+00    4.7874087609441149E+00    5.7716921712961540E+00
N   -1.3595746652010061E+00    4.7965611417704439E+00    7.7075054649180252E+00
Ga   -1.3780039972268914E+00    2.9302392843302250E+00    8.3936201872350953E+00
N   -1.3798706113639079E+00    2.9251554185774200E+00    1.0331517789177317E+01
Ga   -1.3681906552289294E+00    4.7900326484351954E+00    1.1027421930609242E+01
N   -1.3603941296332152E+00    4.8041879318694933E+00    1.2968186754795395E+01
Ga   -1.3616168054726445E+00    2.9310280787512295E+00    1.3628193039897345E+01
N   -1.8976222185580578E+00    2.4723069643213331E+00    1.5443817676478229E+01
Ga   -2.9148937874622503E+00    4.2094457233611662E+00    1.6836380557921352E+01
N   -1.4249025971967848E+00    2.9033665145032330E+00    1.6732398523656951E+01
N   -3.0158143452708113E+00    5.6939767315935477E+00   -1.4991628300433826E-01
Ga   -2.9987196514866987E+00    7.5621402850992077E+00    5.1545122050424896E-01
N   -2.9825613671018458E+00    7.5755591104502500E+00    2.4379119422507705E+00
Ga   -2.9976498832849576E+00    5.7105958742723937E+00    3.1494536827792019E+00
N   -2.9944797766114943E+00    5.7118492606714595E+00    5.0798597292996268E+00
Ga   -2.9778597750730307E+00    7.5796064346278911E+00    5.7731119505572561E+00
N   -2.9699640172434298E+00    7.5867091854903608E+00    7.7088584324811746E+00
Ga   -2.9860373616880880E+00    5.7197901215478169E+00    8.3920817505579528E+00
N   -2.9894715631272049E+00    5.7143184252887913E+00    1.0330400863500259E+01
Ga   -2.9762005396456721E+00    7.5761077649002937E+00    1.1029723161794443E+01
N   -2.9637878504893380E+00    7.5821943550543329E+00    1.2971565719983102E+01
Ga   -2.9926876371093942E+00    5.7149395169385642E+00    1.3676612268751809E+01
N   -3.4917503250272497E+00    5.4163863231670186E+00    1.5443950537884257E+01
Ga   -4.2464951328491329E+00    6.5083945596882442E+00    1.6843362069414358E+01
N   -2.9183171713333116E+00    5.7374209961559215E+00    1.8112193750295070E+01
N   -4.6265004100927722E+00    8.4837196769340366E+00   -1.5212784604941990E-01
Ga   -4.6097995454727565E+00    1.0352528134515500E+01    5.1231135182929777E-01
N   -4.5944238927291208E+00    1.0366756038915055E+01    2.4352546732730276E+00
Ga   -4.6078772417151495E+00    8.5015613033791837E+00    3.1449590505507321E+00
N   -4.6039225864946616E+00    8.5014224595884507E+00    5.0753161271494296E+00
Ga   -4.5876230098507094E+00    1.0367164805760083E+01    5.7718456008593764E+00
N   -4.5795165388490098E+00    1.0374126177581733E+01    7.7068765142769848E+00
Ga   -4.5973070579778694E+00    8.5077088414099844E+00    8.3954345236612475E+00
N   -4.5987698267404422E+00    8.5016304340415818E+00    1.0333285962026366E+01
Ga   -4.5950372440643896E+00    1.0370443607177064E+01    1.1018502935972005E+01
N   -4.5863040540650024E+00    1.0385508667299625E+01    1.2953306028577895E+01
Ga   -4.5886480027233629E+00    8.5211706356834913E+00    1.3630944823534069E+01
N   -5.2435707126175197E+00    8.2815535477051192E+00    1.5450427275733800E+01
Ga   -6.1578838910266862E+00    9.7618449982880815E+00    1.6732990940334151E+01
N   -4.6213735799253097E+00    8.4477439607401443E+00    1.6739940381507271E+01
N    3.4629307769404294E+00    1.1393096024690441E-01   -1.5160052626997250E-01
Ga    3.4792959931588108E+00    1.9816600459325362E+00    5.1553525434202596E-01
N    3.4948884606447228E+00    1.9948107130294883E+00    2.4382555548761204E+00
Ga    3.4807049007683317E+00    1.3003371769652303E-01    3.1494419953976323E+00
N    3.4846825638970067E+00    1.3088187066848905E-01    5.0807395188509838E+00
Ga    3.4984178729721620E+00    1.9967971777064075E+00    5.7790433762917415E+00
N    3.5045036036827257E+00    2.0037396513516699E+00    7.7173358134937846E+00
Ga    3.4912435165193618E+00    1.3708180632955769E-01    8.4065768409852115E+00
N    3.4878347464674917E+00    1.3374397318435347E-01    1.0346984160300455E+01
Ga    3.5027085901623125E+00    1.9998310482483450E+00    1.1030368682419342E+01
N    3.5204550713450700E+00    2.0138898808352930E+00    1.2978264651693859E+01
Ga    3.4761919321461359E+00    1.5898621944528651E-01    1.3674224231653069E+01
N    2.9047748328613547E+00   -1.5333435538700690E-01    1.5529288360285104E+01
Ga    1.8049151127719241E+00    1.0081101544078943E+00    1.7495163386664235E+01
N    3.4664204847216356E+00    1.9362606974645832E-01    1.6871764115026043E+01
N    1.8521436292700086E+00    2.9038994290041606E+00   -1.5181113766673626E-01
Ga    1.8684159732280332E+00    4.7717787763178503E+00    5.1488012426497920E-01
N    1.8837068658132241E+00    4.7851770184947631E+00    2.4375221548633137E+00
Ga    1.8700372696103589E+00    2.9200404723949651E+00    3.1484562746793352E+00
N    1.8733101586521537E+00    2.9207667500162162E+00    5.0798837147985845E+00
Ga    1.8884120942564153E+00    4.7867745350516682E+00    5.7785893043156076E+00
N    1.8921074571529777E+00    4.7937831277302632E+00    7.7165155895064590E+00
Ga    1.8782926171186636E+00    2.9285754550406344E+00    8.4042103991311308E+00
N    1.8765183882092791E+00    2.9211544372126457E+00    1.0344678636955287E+01
Ga    1.8841241645230504E+00    4.7833902792402379E+00    1.1042588474845504E+01
N    1.8863645274286265E+00    4.7874515323098068E+00    1.2992996758062530E+01
Ga    1.8894692806647286E+00    2.9068672021158561E+00    1.3665992086846639E+01
N    1.3412049732735958E+00    2.5474119840843357E+00    1.5523331746804486E+01
Ga    2.0132172172206492E-01    3.8176576760166956E+00    1.6444475883666041E+01
N    1.9272669835420762E+00    2.8463984300760492E+00    1.6864587633332047E+01
N    2.4088387952330298E-01    5.6938547009449501E+00   -1.5049709452334065E-01
Ga    2.5762712971460594E-01    7.5618908089452059E+00    5.1546534185929660E-01
N    2.7300258979753023E-01    7.5752660138795616E+00    2.4382095918242563E+00
Ga    2.5999830321130224E-01    5.7105826338438437E+00    3.1505251653560040E+00
N    2.6327909430917146E-01    5.7117557343285661E+00    5.0817308528085823E+00
Ga    2.7738731066160593E-01    7.5776734780256438E+00    5.7804526757806389E+00
N    2.8388595803245381E-01    7.5855587210520010E+00    7.7191472152939316E+00
Ga    2.6804698964710699E-01    5.7188889110194951E+00    8.4064959713781189E+00
N    2.6664157593242543E-01    5.7163800215087610E+00    1.0348527788588946E+01
Ga    2.8857328129566773E-01    7.5837314600294405E+00    1.1032708014677947E+01
N    3.0887117270933789E-01    7.5991721825783412E+00    1.2979661238188100E+01
Ga    2.6728642809411779E-01    5.7440880672148147E+00    1.3672029798573348E+01
N   -3.2074608015691369E-01    5.4535170547788079E+00    1.5520123103561060E+01
Ga   -1.3979402984746823E+00    6.6058868405700588E+00    1.7549443642266468E+01
N    2.3520821345701820E-01    5.7883109264562025E+00    1.6859302130287073E+01
N   -1.3700236469157618E+00    8.4838697285183198E+00   -1.5067583420365563E-01
Ga   -1.3534115813256338E+00    1.0352070535799117E+01    5.1541449880653367E-01
N   -1.3381295135403828E+00    1.0365733717649164E+01    2.4380977644940729E+00
Ga   -1.3507394771686192E+00    8.5008849866582210E+00    3.1496989854039676E+00
N   -1.3476034462808693E+00    8.5013683119820964E+00    5.0810824100347993E+00
Ga   -1.3332289994803441E+00    1.0367729057879902E+01    5.7791135151169444E+00
N   -1.3281749227232214E+00    1.0373547373964470E+01    7.7172501259421526E+00
Ga   -1.3423828503745834E+00    8.5086258901886378E+00    8.4072027417545847E+00
N   -1.3418986636055161E+00    8.5038342410225347E+00    1.0350491447260923E+01
Ga   -1.3372139952561362E+00    1.0367248879135570E+01    1.1045907899623474E+01
N   -1.3363145923415445E+00    1.0372650073555111E+01    1.2997521247086953E+01
Ga   -1.3182308007355927E+00    8.4926585866447688E+00    1.3670731429830573E+01
N   -1.8555873435459518E+00    8.1164191670900081E+00    1.5524700136089184E+01
Ga   -3.0063129516257412E+00    9.3796893222373541E+00    1.6453152464238205E+01
N   -1.2785435233058087E+00    8.4247592801246807E+00    1.6855252988070394E+01
N    6.7185488165098608E+00    1.1308734072405216E-01   -1.5178872315716271E-01
Ga    6.7360620172211396E+00    1.9813846226879839E+00    5.1332629242158412E-01
N    6.7512464230232254E+00    1.9950745912801333E+00    2.4361551542985502E+00
Ga    6.7378419927703623E+00    1.3036245424244633E-01    3.1482904920825008E+00
N    6.7382399460381164E+00    1.3021377634121659E-01    5.0792284030273027E+00
Ga    6.7532033463489318E+00    1.9955704352514285E+00    5.7762431252797199E+00
N    6.7552213127373530E+00    2.0004295940878993E+00    7.7130112938399851E+00
Ga    6.7427289447899694E+00    1.3609923562605922E-01    8.4115939682590906E+00
N    6.7378437146256251E+00    1.3227638603973918E-01    1.0355907148069797E+01
Ga    6.7643656727118877E+00    2.0006503710546508E+00    1.1037253503666966E+01
N    6.7838098007485481E+00    2.0107937686088184E+00    1.2987998009614749E+01
Ga    6.7629199797146322E+00    1.4835584502764443E-01    1.3658896818415522E+01
N    6.1867113682992843E+00   -1.8012601330457986E-01    1.5493221827945815E+01
Ga    5.1374891963163813E+00    1.0661451396609474E+00    1.6596417515534117E+01
N    6.8375135465800119E+00    1.6778186682837234E-01    1.7064529823588099E+01
N    5.1079783766691182E+00    2.9034168366149138E+00   -1.5056378951421945E-01
Ga    5.1249930292525780E+00    4.7719936856787939E+00    5.1287914676681923E-01
N    5.1402069690155230E+00    4.7849701240525766E+00    2.4357368643299924E+00
Ga    5.1269026331096894E+00    2.9202207815747343E+00    3.1496908992711639E+00
N    5.1276369724606168E+00    2.9194025665307590E+00    5.0807364546526568E+00
Ga    5.1419451283043562E+00    4.7859637985622605E+00    5.7754753992109276E+00
N    5.1441976749220721E+00    4.7912593290136734E+00    7.7120698463379700E+00
Ga    5.1342248431981412E+00    2.9277674503516087E+00    8.4075417197890250E+00
N    5.1366891740654035E+00    2.9246054764256550E+00    1.0351351751117184E+01
Ga    5.1517803197755612E+00    4.7926481915452337E+00    1.1034681572793421E+01
N    5.1667785858179434E+00    4.8105257755976210E+00    1.2985270604920172E+01
Ga    5.1735444818677072E+00    2.9491934292157627E+00    1.3650320815363747E+01
N    4.6185381796805833E+00    2.6298788489205940E+00    1.5476118073456300E+01
Ga    3.5337972584343307E+00    3.8310227362422071E+00    1.6591018330600566E+01
N    5.2315329880584303E+00    2.9535513896681285E+00    1.7069114824747089E+01
N    3.4968249893417531E+00    5.6934338103723467E+00   -1.5149466729058608E-01
Ga    3.5137873884395443E+00    7.5621081208294365E+00    5.1276974900433769E-01
N    3.5289042723372863E+00    7.5755630002215284E+00    2.4358612063270400E+00
Ga    3.5160674097967339E+00    5.7103565797454721E+00    3.1483238098886495E+00
N    3.5168758754041889E+00    5.7092482824879571E+00    5.0791863882147155E+00
Ga    3.5303172502434106E+00    7.5748909221356797E+00    5.7742719864571574E+00
N    3.5319635209896192E+00    7.5783209285865647E+00    7.7096294246907906E+00
Ga    3.5210286559084825E+00    5.7150567040082301E+00    8.4102197856410967E+00
N    3.5177436631308376E+00    5.7073375207217776E+00    1.0353388763581426E+01
Ga    3.5489529940568905E+00    7.5778523339542625E+00    1.1033024975008145E+01
N    3.5665650715081103E+00    7.5839935952008020E+00    1.2981545397423838E+01
Ga    3.5410624990885839E+00    5.7241186632560845E+00    1.3654498249045941E+01
N    2.9618323574623986E+00    5.3911666603263066E+00    1.5484982777435516E+01
Ga    1.9161786209475058E+00    6.6464617192791691E+00    1.6574704273448386E+01
N    3.6049006357821174E+00    5.7294153014175437E+00    1.7060233066553039E+01
N    1.8856364897146218E+00    8.4832000700812156E+00   -1.5290713493022240E-01
Ga    1.9033211797180882E+00    1.0351432406701775E+01    5.1264229014107698E-01
N    1.9186277666782638E+00    1.0364980703043461E+01    2.4359523118717625E+00
Ga    1.9046418201294335E+00    8.5002226051940433E+00    3.1491250358768585E+00
N    1.9055712995903751E+00    8.4991703943902106E+00    5.0797352365826409E+00
Ga    1.9190635976859871E+00    1.0365449810929272E+01    5.7738427783566140E+00
N    1.9195341938505299E+00    1.0370965178201033E+01    7.7095784279041801E+00
Ga    1.9148960038811096E+00    8.5090067693976561E+00    8.4094907784625548E+00
N    1.9205085391583359E+00    8.5090410176504090E+00    1.0353156143613560E+01
Ga    1.9314928704232597E+00    1.0380512644824256E+01    1.1035006087838465E+01
N    1.9436343720772646E+00    1.0398994046958707E+01    1.2984478749724806E+01
Ga    1.9686055325493308E+00    8.5373628400136266E+00    1.3645488242347200E+01
N    1.4022560107920587E+00    8.2147275566854745E+00    1.5470707646285479E+01
Ga    3.2539741315563708E-01    9.4252729722195685E+00    1.6577391019623807E+01
N    1.9901944959359894E+00    8.5225374174863067E+00    1.7098317544214002E+01
N    9.9752955289022882E+00    1.1325950177545600E-01   -1.5327731541252954E-01
Ga    9.9932927030992129E+00    1.9812489253166647E+00    5.1286349633032746E-01
N    1.0008901576691514E+01    1.9947947147402303E+00    2.4357473213402656E+00
Ga    9.9942881882747656E+00    1.2912213472063508E-01    3.1479449584038930E+00
N    9.9939039841376154E+00    1.2993279046373218E-01    5.0785994771443912E+00
Ga    1.0013429593689587E+01    1.9999419262085432E+00    5.7667352055504955E+00
N    1.0018050932027295E+01    2.0092271964584403E+00    7.6997541131546914E+00
Ga    9.9950834496072947E+00    1.4024304697797252E-01    8.3788239199585313E+00
N    9.9863208434671424E+00    1.3828100443439287E-01    1.0310457994949067E+01
Ga    1.0013644969255042E+01    1.9964998916400942E+00    1.1002877024308026E+01
N    1.0025281814887423E+01    2.0035262486808501E+00    1.2937719241717804E+01
Ga    1.0065868577752530E+01    1.5804112690385821E-01    1.3661975975104818E+01
N    9.5374361641364942E+00   -1.4973854751698473E-01    1.5526742862047119E+01
Ga    8.4355464028588276E+00    1.0813770004008953E+00    1.6704707580255455E+01
N    1.0174880292216439E+01    1.9719935153919588E-01    1.6895689872554083E+01
N    8.3650498914107239E+00    2.9035834980366362E+00   -1.5167831053693603E-01
Ga    8.3824041287726825E+00    4.7719310823986119E+00    5.1399531017428279E-01
N    8.3983112751102897E+00    4.7856765581514242E+00    2.4368742390251605E+00
Ga    8.3829678797944158E+00    2.9194383222546416E+00    3.1458608184376340E+00
N    8.3829852615557670E+00    2.9190467006917600E+00    5.0764664566844413E+00
Ga    8.4013490293515485E+00    4.7870512525361386E+00    5.7691244558825634E+00
N    8.4074101379659876E+00    4.7942413792405594E+00    7.7044670305205720E+00
Ga    8.3881761863863673E+00    2.9251031400965481E+00    8.3868896131691066E+00
N    8.3851941160848291E+00    2.9166768288210290E+00    1.0324204682106823E+01
Ga    8.3991091984390138E+00    4.7864373856776270E+00    1.0990324926889633E+01
N    8.3955040084659966E+00    4.7893103343460064E+00    1.2912377112331589E+01
Ga    8.4456976714752621E+00    2.9629858086424066E+00    1.3644153681372806E+01
N    7.9674211924050393E+00    2.6649424284263881E+00    1.5521008367618844E+01
Ga    6.8132181045142151E+00    3.8580865255253562E+00    1.6709078220970440E+01
N    8.5729786094796374E+00    3.0233149577387297E+00    1.6903934817261597E+01
N    6.7542883677999095E+00    5.6935745546505405E+00   -1.5171598778505230E-01
Ga    6.7710973927587261E+00    7.5623624248098675E+00    5.1303270955676661E-01
N    6.7869804495143145E+00    7.5760693749188475E+00    2.4358534305484785E+00
Ga    6.7716593716945690E+00    5.7099155850264296E+00    3.1463491707695677E+00
N    6.7724069593543108E+00    5.7092275429946913E+00    5.0770978702542902E+00
Ga    6.7936366303349356E+00    7.5776415354398230E+00    5.7667918936658600E+00
N    6.8013369220478461E+00    7.5828785872824342E+00    7.6998132710956639E+00
Ga    6.7771609173314733E+00    5.7168846261331048E+00    8.3876549379455589E+00
N    6.7710830110262403E+00    5.7127413134769531E+00    1.0323788057789198E+01
Ga    6.7920938128089032E+00    7.5788807191539274E+00    1.1002967719656260E+01
N    6.8006336628550725E+00    7.5912393603524153E+00    1.2938347047458228E+01
Ga    6.8352391246772770E+00    5.7465201533671024E+00    1.3642922551599078E+01
N    6.3442432834416786E+00    5.4629151275457852E+00    1.5521072782055695E+01
Ga    5.2080415348049458E+00    6.6451289758008683E+00    1.6699004061656868E+01
N    6.9710595287097759E+00    5.7925375626794837E+00    1.6898984245970716E+01
N    5.1429628836610961E+00    8.4831184777165927E+00   -1.5346514563612124E-01
Ga    5.1602017311697432E+00    1.0351837247441635E+01    5.1076349034549440E-01
N    5.1761879467754817E+00    1.0366093797275573E+01    2.4343954196607012E+00
Ga    5.1608523626726877E+00    8.5008948481770581E+00    3.1473580657394069E+00
N    5.1620521139913693E+00    8.4983273798853158E+00    5.0779440327828160E+00
Ga    5.1793438493635575E+00    1.0367023534770659E+01    5.7690850364490895E+00
N    5.1831677068728679E+00    1.0372744658808012E+01    7.7016107263176625E+00
Ga    5.1687663989751282E+00    8.4997360202242120E+00    8.3787922549822582E+00
N    5.1669331184288314E+00    8.4876728666963519E+00    1.0309986299274959E+01
Ga    5.1657739139192849E+00    1.0359065658464937E+01    1.0967857636081504E+01
N    5.1535657128556327E+00    1.0355461893517479E+01    1.2876024881279738E+01
Ga    5.2167739953033534E+00    8.5482399530434368E+00    1.3659377936133065E+01
N    4.6930366681398255E+00    8.2233794043664030E+00    1.5522627224872277E+01
Ga    3.5716278037370564E+00    9.4276444682967178E+00    1.6747207712551663E+01
N    5.3207943461728036E+00    8.5897298946411755E+00    1.6888202974749330E+01
H    2.0613834138045972E-01    1.1337733712035658E-01   -1.1794446606791231E+00
H   -1.4061801315054439E+00    2.9037036136461754E+00   -1.1792414193588250E+00
H   -3.0173450950937002E+00    5.6926551991929006E+00   -1.1768575977730489E+00
H   -4.6268960147841112E+00    8.4822257744814724E+00   -1.1792072212470333E+00
H    3.4630052860024767E+00    1.1322405467414451E-01   -1.1785917579983261E+00
H    1.8519950087950015E+00    2.9036010931302205E+00   -1.1788177011615719E+00
H    2.4011635279031068E-01    5.6929985918607260E+00   -1.1774980258142449E+00
H   -1.3709602304165502E+00    8.4829580067888077E+00   -1.1777464249859095E+00
H    6.7157066814435789E+00    1.1253250771846564E-01   -1.1787972709313408E+00
H    5.1070495124303710E+00    2.9023696412219135E+00   -1.1774645160808976E+00
H    3.4954520169578864E+00    5.6903941196222281E+00   -1.1784327006866389E+00
H    1.8830677196805603E+00    8.4812543581455184E+00   -1.1799516389344655E+00
H    9.9727128896014960E+00    1.1294287479734141E-01   -1.1802465802908766E+00
H    8.3626771307300061E+00    2.9030643708423858E+00   -1.1786801024327191E+00
H    6.7531748998353001E+00    5.6909803069689699E+00   -1.1787131487870717E+00
H    5.1418681088531093E+00    8.4803851768759699E+00   -1.1804815322385449E+00
     &END COORD
     &KIND H
       BASIS_SET DZVP-MOLOPT-SR-GTH-q1
       POTENTIAL GTH-PBE-q1
       &POTENTIAL
1
0.2000000000000000E+00 2 -0.4178900440000000E+01  0.7244633100000000E+00
0
       &END POTENTIAL
     &END KIND
     &KIND N
       BASIS_SET DZVP-MOLOPT-SR-GTH
       POTENTIAL GTH-PBE-q5
       &POTENTIAL
2 3
0.2837905100000000E+00 2 -0.1241522559000000E+02  0.1868095920000000E+01
2
0.2554050000000000E+00 1  0.1363026257000000E+02
0.2454945300000000E+00 0
       &END POTENTIAL
     &END KIND
     &KIND Ga
       BASIS_SET DZVP-MOLOPT-SR-GTH
       POTENTIAL GTH-PBE-q13
       &POTENTIAL
2 1 10
0.4900000000000000E+00 0
3
0.4167772300000000E+00 3  0.1047568975000000E+02 -0.4921768140000000E+01  0.8707055900000000E+00
0.7770178090000000E+01 -0.2248152160000000E+01
0.1784415450000000E+01
0.5696265200000000E+00 2  0.1777985340000000E+01  0.1958597600000000E+00
-0.2317443900000000E+00
0.2381265000000000E+00 1 -0.1624868022000000E+02
       &END POTENTIAL
     &END KIND
     &TOPOLOGY
       NUMBER_OF_ATOMS  256
       MULTIPLE_UNIT_CELL  1 1 1
     &END TOPOLOGY
   &END SUBSYS
 &END FORCE_EVAL
