 # Version information for this restart file 
 # current date 2019-06-10 09:57:01.635
 # current working dir /lustre03/project/6037349/rzk/GaN-carbene/444-addat/00-Surface/RKS
 # Program compiled at                              Sun Apr  7 00:48:11 EDT 2019
 # Program compiled on                          beluga2.int.ets1.calculquebec.ca
 # Program compiled for                        Beluga-Linux-x86-64-intel-openmpi
 # Source code revision number                                         svn:18619
 &GLOBAL
   PRINT_LEVEL  MEDIUM
   PROJECT_NAME TEST
   RUN_TYPE  CELL_OPT
 &END GLOBAL
 &MOTION
   &CELL_OPT
     MAX_ITER  300
     STEP_START_VAL  4
     EXTERNAL_PRESSURE     1.0000000000000000E+00
     KEEP_ANGLES  T
     KEEP_SYMMETRY  T
     CONSTRAINT  Z
     PRESSURE_TOLERANCE     5.0000000000000000E+02
   &END CELL_OPT
 &END MOTION
 &FORCE_EVAL
   METHOD  QS
   STRESS_TENSOR  ANALYTICAL
   &DFT
     BASIS_SET_FILE_NAME BASIS_MOLOPT
     POTENTIAL_FILE_NAME GTH_POTENTIALS
     SURFACE_DIPOLE_CORRECTION  T
     SURF_DIP_DIR  Z
     &SCF
       MAX_SCF  100
       EPS_SCF     5.0000000000000004E-06
       &OT  T
         PRECONDITIONER  FULL_ALL
       &END OT
       &OUTER_SCF  T
         OPTIMIZER  NONE
         EPS_SCF     5.0000000000000004E-06
         MAX_SCF  4
       &END OUTER_SCF
       &PRINT
         &RESTART  OFF
           BACKUP_COPIES  1
           &EACH
             JUST_ENERGY  0
             QS_SCF  0
             MD  20
           &END EACH
         &END RESTART
       &END PRINT
     &END SCF
     &QS
       EPS_DEFAULT     1.0000000000000000E-14
       METHOD  GPW
     &END QS
     &MGRID
       NGRIDS  5
       CUTOFF     1.2000000000000000E+03
     &END MGRID
     &XC
       DENSITY_CUTOFF     1.0000000000000000E-10
       GRADIENT_CUTOFF     1.0000000000000000E-10
       TAU_CUTOFF     1.0000000000000000E-10
       &XC_FUNCTIONAL  NO_SHORTCUT
         &PBE  T
         &END PBE
       &END XC_FUNCTIONAL
       &VDW_POTENTIAL
         POTENTIAL_TYPE  PAIR_POTENTIAL
         &PAIR_POTENTIAL
           R_CUTOFF     1.0000000000000004E+01
           TYPE  DFTD3
           PARAMETER_FILE_NAME dftd3.dat
           REFERENCE_FUNCTIONAL PBE
           EPS_CN     9.9999999999999995E-07
           CALCULATE_C9_TERM  T
           REFERENCE_C9_TERM  T
           LONG_RANGE_CORRECTION  F
           VERBOSE_OUTPUT  F
         &END PAIR_POTENTIAL
       &END VDW_POTENTIAL
     &END XC
   &END DFT
   &SUBSYS
     &CELL
       A     1.2900404972463088E+01    0.0000000000000000E+00    0.0000000000000000E+00
       B    -6.4676489543476521E+00    1.1202296594449859E+01    0.0000000000000000E+00
       C     0.0000000000000000E+00    0.0000000000000000E+00    3.2000000000000000E+01
       MULTIPLE_UNIT_CELL  1 1 1
       &CELL_REF
         A     1.2982353780853531E+01    0.0000000000000000E+00    0.0000000000000000E+00
         B    -6.4911768904267628E+00    1.1243048175136114E+01    0.0000000000000000E+00
         C     0.0000000000000000E+00    0.0000000000000000E+00    3.2000000000000000E+01
         MULTIPLE_UNIT_CELL  1 1 1
       &END CELL_REF
     &END CELL
     &COORD
N    2.6925923987241153E-04    4.7691440429318660E-04   -6.9589512015285244E-03
Ga   -3.1439999219855541E-03    1.8666050481642780E+00    6.4964002871641724E-01
N   -3.1553615756402605E-03    1.8666341419776655E+00    2.5486661900810170E+00
Ga    1.5758700752388071E-04    3.5616444789865362E-04    3.2513735673606470E+00
N    2.5804763628920450E-04    5.2079538635653498E-04    5.1560511086299972E+00
Ga   -3.0762208538760035E-03    1.8666903393015921E+00    5.8409816240278865E+00
N   -3.1866307429333678E-03    1.8665954301643359E+00    7.7490296019361642E+00
Ga    1.8078952053221409E-04    3.7567642050622709E-04    8.4298553798305385E+00
N    3.0064326005740482E-04    4.7432216921354541E-04    1.0338120978702626E+01
Ga   -2.4944174987369411E-03    1.8664464045714859E+00    1.1007191234235227E+01
N    2.5754986621156547E-03    1.8657305872474390E+00    1.2894307471344202E+01
Ga    8.5670385688883296E-03    3.0418454429133486E-04    1.3486886671430721E+01
N    2.5040119477521328E-02   -2.3665171578828727E-02    1.5337324804856511E+01
Ga   -2.8024306413813045E-02    1.8682580235428352E+00    1.6363327727122375E+01
N    1.5601251758195394E+00    9.5646191074883979E-01    1.7088655950837929E+01
N   -1.6166146416445961E+00    2.8010839337274489E+00   -6.8851092141616263E-03
Ga   -1.6200414968517569E+00    4.6671856186884435E+00    6.4965899588959686E-01
N   -1.6200647671326553E+00    4.6672375224094145E+00    2.5486683496062303E+00
Ga   -1.6167502061443200E+00    2.8009634844656075E+00    3.2513817426842171E+00
N   -1.6166368142103711E+00    2.8011108593629834E+00    5.1560702548492232E+00
Ga   -1.6199820292001763E+00    4.6672437396625899E+00    5.8409641382339581E+00
N   -1.6201001060005802E+00    4.6671906775759844E+00    7.7490326616905945E+00
Ga   -1.6166861356543953E+00    2.8009178928407477E+00    8.4297818051829072E+00
N   -1.6167941963207040E+00    2.8010955845439942E+00    1.0338043834495256E+01
Ga   -1.6195458067527555E+00    4.6666435518636789E+00    1.1007141154463952E+01
N   -1.6158134017185788E+00    4.6658636943903700E+00    1.2895196055833905E+01
Ga   -1.6093807802063871E+00    2.7965363967342016E+00    1.3487048101062237E+01
N   -1.5693882303154985E+00    2.7955363730850773E+00    1.5341995419055353E+01
Ga   -1.6387914183149721E+00    4.6771083032207725E+00    1.6351411821733482E+01
N   -4.0342515186226870E-02    3.7474754617182024E+00    1.7097797382875587E+01
N   -3.2335553275432347E+00    5.6016342317444225E+00   -6.8489586873478579E-03
Ga   -3.2369853231737169E+00    7.4677559429777682E+00    6.4967777744730082E-01
N   -3.2369808935433841E+00    7.4677898120141091E+00    2.5486786364446248E+00
Ga   -3.2336440023034601E+00    5.6015075468583273E+00    3.2513740034323391E+00
N   -3.2335567964483771E+00    5.6017052251822514E+00    5.1560632251892766E+00
Ga   -3.2369091857008736E+00    7.4678673368146899E+00    5.8409617428312073E+00
N   -3.2369982383177809E+00    7.4677686236355632E+00    7.7490640759873628E+00
Ga   -3.2336270742202236E+00    5.6015149916908165E+00    8.4297685683992949E+00
N   -3.2336345530057335E+00    5.6017032898161343E+00    1.0338183583318559E+01
Ga   -3.2365811108753388E+00    7.4674710588033530E+00    1.1006916334193198E+01
N   -3.2319135823842249E+00    7.4662246816946336E+00    1.2895521588460010E+01
Ga   -3.2251792380961573E+00    5.5990821928096093E+00    1.3484797011667579E+01
N   -3.2052595813527724E+00    5.5788916095296797E+00    1.5339550173686119E+01
Ga   -3.2629934322553171E+00    7.4704129191278632E+00    1.6370153042246407E+01
N   -1.6724045368181495E+00    6.5620136252863768E+00    1.7091119119354651E+01
N   -4.8504776562946486E+00    8.4022318179862481E+00   -6.7433785524679615E-03
Ga   -4.8538489288036484E+00    1.0268289580816852E+01    6.4965977295288668E-01
N   -4.8538889548149262E+00    1.0268343114802123E+01    2.5486668193685600E+00
Ga   -4.8505522709443305E+00    8.4020885893803996E+00    3.2513642339267368E+00
N   -4.8504414569264451E+00    8.4022583697215794E+00    5.1560558609684586E+00
Ga   -4.8538343841549629E+00    1.0268401327615321E+01    5.8409750090233112E+00
N   -4.8539000357847444E+00    1.0268311537068941E+01    7.7490047423400021E+00
Ga   -4.8505686579725946E+00    8.4021111428704973E+00    8.4297765305876613E+00
N   -4.8504947886343270E+00    8.4022232788518210E+00    1.0338127591450901E+01
Ga   -4.8533449427605309E+00    1.0267992128117239E+01    1.1007543817778782E+01
N   -4.8491761435261767E+00    1.0266263190005624E+01    1.2896392410817933E+01
Ga   -4.8440191266394299E+00    8.3972477881979177E+00    1.3489023150068927E+01
N   -4.8127559649574803E+00    8.3941778536259211E+00    1.5343226180809079E+01
Ga   -4.8876358453338291E+00    1.0272491177572270E+01    1.6357619168679442E+01
N   -3.2799500326459352E+00    9.3511766224081061E+00    1.7095870583055000E+01
N    3.2253562468393615E+00    4.6526095717753976E-04   -6.8208374513714330E-03
Ga    3.2219975061919506E+00    1.8665825540641547E+00    6.4961932363330410E-01
N    3.2219871070939017E+00    1.8666228774211495E+00    2.5486629641359029E+00
Ga    3.2252736367503170E+00    3.6204621606204991E-04    3.2513590580179597E+00
N    3.2253885334858521E+00    5.1257464572393961E-04    5.1560739721585449E+00
Ga    3.2220056272062525E+00    1.8666750539996499E+00    5.8409921257964115E+00
N    3.2219246799649799E+00    1.8665662048289438E+00    7.7490075346554503E+00
Ga    3.2252629307936367E+00    3.7689885849862052E-04    8.4297693527028521E+00
N    3.2255163297563589E+00    4.8424208472397097E-04    1.0338075636475988E+01
Ga    3.2224551056008299E+00    1.8664603798781123E+00    1.1006797331268789E+01
N    3.2269504664036321E+00    1.8649089491949034E+00    1.2894662471137011E+01
Ga    3.2326492871730932E+00    3.7666140337760837E-04    1.3485862847129429E+01
N    3.2465962648741251E+00   -2.0651329478471418E-02    1.5342956318724777E+01
Ga    3.2022652443942650E+00    1.8734337950491693E+00    1.6377832966724011E+01
N    4.7771811816520779E+00    9.5905845396902167E-01    1.7094133882984085E+01
N    1.6084618628334728E+00    2.8010645686819933E+00   -6.8354577594850700E-03
Ga    1.6050589262457065E+00    4.6671794866992613E+00    6.4964262159242636E-01
N    1.6050433576411862E+00    4.6672126342647484E+00    2.5486722377525592E+00
Ga    1.6083646189619842E+00    2.8009335815690855E+00    3.2513729833518799E+00
N    1.6085086156458066E+00    2.8011114405088344E+00    5.1560817768389899E+00
Ga    1.6051015696985158E+00    4.6672157567569892E+00    5.8409687279625313E+00
N    1.6049610580102862E+00    4.6671838207281473E+00    7.7489585875022104E+00
Ga    1.6083556616827623E+00    2.8009374228816295E+00    8.4297372708448197E+00
N    1.6085422844860509E+00    2.8012140185401875E+00    1.0338011445986519E+01
Ga    1.6056850911598171E+00    4.6667842227945959E+00    1.1006933698271224E+01
N    1.6086473605646614E+00    4.6652416305910744E+00    1.2896590072813401E+01
Ga    1.6148848783872569E+00    2.7972344637692719E+00    1.3487679032491267E+01
N    1.6475344844631339E+00    2.7905411525565702E+00    1.5345027984373194E+01
Ga    1.5951456747627979E+00    4.6857855048381927E+00    1.6357117473421951E+01
N    3.1764352932914326E+00    3.7395331179533717E+00    1.7099758012941159E+01
N   -8.4517947373203076E-03    5.6016318991553646E+00   -6.9460633797648035E-03
Ga   -1.1852349372654685E-02    7.4677107432126242E+00    6.4965430737161500E-01
N   -1.1889505963853722E-02    7.4677990125226117E+00    2.5486717846727256E+00
Ga   -8.5665704351722723E-03    5.6014955996543376E+00    3.2513648256914816E+00
N   -8.4304786193684852E-03    5.6017003326974502E+00    5.1560680386945403E+00
Ga   -1.1822721341469727E-02    7.4678248747030942E+00    5.8409720554569917E+00
N   -1.1955965025853586E-02    7.4677572008260009E+00    7.7490245898559049E+00
Ga   -8.5547007571614656E-03    5.6015142491211627E+00    8.4297222239864791E+00
N   -8.3498689357967282E-03    5.6016983539227372E+00    1.0338151185109533E+01
Ga   -1.1094861152044366E-02    7.4675905899391655E+00    1.1006799087890249E+01
N   -7.0810281660338313E-03    7.4663526899959498E+00    1.2895944573675349E+01
Ga   -5.8498743816557243E-04    5.6006904210997561E+00    1.3484446366988204E+01
N    9.1982889957938716E-03    5.5774491549868142E+00    1.5342343116953321E+01
Ga   -2.8979236500179112E-02    7.4772411017762694E+00    1.6376021148521964E+01
N    1.5470354054168756E+00    6.5590845075470652E+00    1.7093620734766002E+01
N   -1.6253719389359436E+00    8.4021828160494962E+00   -6.9456626984202158E-03
Ga   -1.6287581103184263E+00    1.0268334948484952E+01    6.4964077067811510E-01
N   -1.6287787332520376E+00    1.0268353628872978E+01    2.5486541135616125E+00
Ga   -1.6254682178598703E+00    8.4020916002327812E+00    3.2513616371798202E+00
N   -1.6253283780350942E+00    8.4022506124067480E+00    5.1560694835317751E+00
Ga   -1.6287132069521215E+00    1.0268361221543412E+01    5.8409710218533162E+00
N   -1.6288365358971830E+00    1.0268265648156866E+01    7.7490195107105713E+00
Ga   -1.6254561013869739E+00    8.4020740410284969E+00    8.4296908010642628E+00
N   -1.6253476182998778E+00    8.4022621840094498E+00    1.0338306656825168E+01
Ga   -1.6281960751957587E+00    1.0268155668248600E+01    1.1006954339092427E+01
N   -1.6249450809194166E+00    1.0266310312748264E+01    1.2896497769318612E+01
Ga   -1.6202243615396756E+00    8.3994441471153962E+00    1.3486320299872085E+01
N   -1.5877286635723120E+00    8.3919033990784229E+00    1.5344082045845649E+01
Ga   -1.6399905960268668E+00    1.0287033667433848E+01    1.6364710689856096E+01
N   -5.9582708347156441E-02    9.3501309460562503E+00    1.7098449905449542E+01
N    6.4504694057022141E+00    4.5309095328753096E-04   -6.8160627704478586E-03
Ga    6.4470880272591300E+00    1.8665913593303414E+00    6.4963526431961272E-01
N    6.4470106315751323E+00    1.8665750612801504E+00    2.5486492141511747E+00
Ga    6.4503798290507097E+00    3.9451749613262293E-04    3.2513560016922960E+00
N    6.4504758035433252E+00    4.9573119570601521E-04    5.1560819268276434E+00
Ga    6.4471926903663164E+00    1.8667235396515243E+00    5.8409844816058110E+00
N    6.4470219197075718E+00    1.8665323753734846E+00    7.7490025985508506E+00
Ga    6.4503843489848069E+00    4.4582063907152870E-04    8.4297531822744141E+00
N    6.4504070260545507E+00    5.7808218432065070E-04    1.0338105729279265E+01
Ga    6.4475033988976413E+00    1.8667099824759525E+00    1.1006885203350937E+01
N    6.4514704635181896E+00    1.8653922301631729E+00    1.2895725382452561E+01
Ga    6.4590428126209147E+00   -8.2338172119350073E-04    1.3484737848000909E+01
N    6.4787051207593933E+00   -1.6513081868115786E-02    1.5339354380346053E+01
Ga    6.4208395919077734E+00    1.8699463646479597E+00    1.6369768498804145E+01
N    8.0097005736558433E+00    9.6093961318795185E-01    1.7092835839809343E+01
N    4.8335390649364838E+00    2.8010434585941835E+00   -6.8376264480129248E-03
Ga    4.8301398604016033E+00    4.6671573739716372E+00    6.4966825620749558E-01
N    4.8301061936598604E+00    4.6671813834085514E+00    2.5486756526528298E+00
Ga    4.8335118506050447E+00    2.8009470475582607E+00    3.2513744002446656E+00
N    4.8335871557250307E+00    2.8010914839174417E+00    5.1560740441262842E+00
Ga    4.8302543549711574E+00    4.6672812091371831E+00    5.8409744972534883E+00
N    4.8300808133790056E+00    4.6670983773339207E+00    7.7489573670230936E+00
Ga    4.8334572293226943E+00    2.8009763989811121E+00    8.4297508944636164E+00
N    4.8335432226053499E+00    2.8011295233277265E+00    1.0338058674127057E+01
Ga    4.8305515651373128E+00    4.6671616370363962E+00    1.1007362170968538E+01
N    4.8338463106734038E+00    4.6653428403444357E+00    1.2895992996118883E+01
Ga    4.8385189749590207E+00    2.7976869271041274E+00    1.3487776048783941E+01
N    4.8719102126774967E+00    2.7969017673246599E+00    1.5341514767676747E+01
Ga    4.8095850823334363E+00    4.6790518989164340E+00    1.6353593953968716E+01
N    6.4053585245578981E+00    3.7509889071526592E+00    1.7098785375428200E+01
N    3.2166211447200568E+00    5.6016540116492823E+00   -6.7987857984984071E-03
Ga    3.2132430581747506E+00    7.4677273165496869E+00    6.4963956958797631E-01
N    3.2131801453413624E+00    7.4677507797978713E+00    2.5486660402246590E+00
Ga    3.2165639019504098E+00    5.6015329469632187E+00    3.2513798268383836E+00
N    3.2166686479244180E+00    5.6016644378300775E+00    5.1560699453557266E+00
Ga    3.2133515227380429E+00    7.4678695023576482E+00    5.8409830469905550E+00
N    3.2131647229821279E+00    7.4677205005908514E+00    7.7489768373670760E+00
Ga    3.2165018191046673E+00    5.6015931425911285E+00    8.4297784314566968E+00
N    3.2165762876694184E+00    5.6016931011546633E+00    1.0338022481982017E+01
Ga    3.2139244810269796E+00    7.4680277391635039E+00    1.1007137366585601E+01
N    3.2186021749364349E+00    7.4674215784902680E+00    1.2894992417171757E+01
Ga    3.2250625676811064E+00    5.6022052875041659E+00    1.3484444826378903E+01
N    3.2387253825049016E+00    5.5897784703455482E+00    1.5335458773707812E+01
Ga    3.1893125671524856E+00    7.4705169190923399E+00    1.6365310300112416E+01
N    4.7732250280720034E+00    6.5567214530366398E+00    1.7090504053423803E+01
N    1.5997440147232662E+00    8.4022127363229639E+00   -6.7934701107705605E-03
Ga    1.5962879476928751E+00    1.0268285485792452E+01    6.4963841704066971E-01
N    1.5962853175660840E+00    1.0268320245085627E+01    2.5486684013331673E+00
Ga    1.5996356979850521E+00    8.4020815983647399E+00    3.2513569419198083E+00
N    1.5997497077193497E+00    8.4022338831057848E+00    5.1560886310689327E+00
Ga    1.5964560051604022E+00    1.0268406982747246E+01    5.8409758106667935E+00
N    1.5962375722974367E+00    1.0268247918806113E+01    7.7489634716945925E+00
Ga    1.5996380586811347E+00    8.4021382967438889E+00    8.4297159003548323E+00
N    1.5995864633602752E+00    8.4022583011053591E+00    1.0337999142298205E+01
Ga    1.5970057110501150E+00    1.0268204748855496E+01    1.1007129119556952E+01
N    1.5999140580880433E+00    1.0267002652667438E+01    1.2895452142680252E+01
Ga    1.6061172924382741E+00    8.3986231451403999E+00    1.3486593516705726E+01
N    1.6470959529392741E+00    8.4049880212447405E+00    1.5342103707759158E+01
Ga    1.5787189332182940E+00    1.0279111702892534E+01    1.6350906834961773E+01
N    3.1727554945566609E+00    9.3484649961856032E+00    1.7097020629609037E+01
N    9.6755781504364187E+00    4.4978804135796356E-04   -6.9151441495687053E-03
Ga    9.6722250553726479E+00    1.8666006732904254E+00    6.4963057227950782E-01
N    9.6721136423957397E+00    1.8666012441621229E+00    2.5486348537590344E+00
Ga    9.6754775026396480E+00    3.6582942946267102E-04    3.2513892159624453E+00
N    9.6755503848223743E+00    4.8029896201237849E-04    5.1560657353657993E+00
Ga    9.6722418491252995E+00    1.8666810245194201E+00    5.8409727279001169E+00
N    9.6720923896178608E+00    1.8665450255220482E+00    7.7489833691870720E+00
Ga    9.6755716110907191E+00    4.3490350916739232E-04    8.4297536444701873E+00
N    9.6754618449769811E+00    5.4739636945905364E-04    1.0338035393583063E+01
Ga    9.6728187008422601E+00    1.8666356874357128E+00    1.1007033455379201E+01
N    9.6765788587562689E+00    1.8653152133019364E+00    1.2895454573657398E+01
Ga    9.6843321746692030E+00   -2.0621484666860399E-04    1.3484683707956503E+01
N    9.6958441066442980E+00   -2.1476445286628069E-02    1.5341860954981888E+01
Ga    9.6545524514748529E+00    1.8770059841866986E+00    1.6371985309557420E+01
N    1.1227366048770703E+01    9.6307241016650713E-01    1.7091853583655539E+01
N    8.0586781780014061E+00    2.8010409134476268E+00   -6.7870637421633476E-03
Ga    8.0552630126599034E+00    4.6671708750633449E+00    6.4964238154467202E-01
N    8.0552108164314689E+00    4.6671709744358596E+00    2.5486510870747718E+00
Ga    8.0585787881421354E+00    2.8009403994232915E+00    3.2514083508098413E+00
N    8.0586724392454290E+00    2.8010463400097780E+00    5.1560652501005082E+00
Ga    8.0553045138348072E+00    4.6672334361457795E+00    5.8409653919668276E+00
N    8.0552148744457277E+00    4.6670932770129907E+00    7.7490106209290772E+00
Ga    8.0587016116099672E+00    2.8009669576555059E+00    8.4297029614512891E+00
N    8.0585429342557493E+00    2.8010678764501971E+00    1.0338197126198345E+01
Ga    8.0555915277124353E+00    4.6671780788473045E+00    1.1007323643537003E+01
N    8.0586644066879725E+00    4.6652262422435351E+00    1.2895768369576112E+01
Ga    8.0645344426539456E+00    2.7986956442025601E+00    1.3486233838833433E+01
N    8.0968357372311068E+00    2.7943283936109302E+00    1.5344735446563822E+01
Ga    8.0431249674878327E+00    4.6879246085023443E+00    1.6362450767034613E+01
N    9.6209880503880640E+00    3.7546948261076376E+00    1.7098631145817002E+01
N    6.4417687133250494E+00    5.6016228191806308E+00   -6.8622315336586952E-03
Ga    6.4383740349293683E+00    7.4677702125240124E+00    6.4965935598448799E-01
N    6.4382878879517067E+00    7.4677307560854995E+00    2.5486595444222679E+00
Ga    6.4416722133692694E+00    5.6015090226052688E+00    3.2513913586077070E+00
N    6.4417373840293219E+00    5.6016380549970597E+00    5.1560620102333310E+00
Ga    6.4383945736990409E+00    7.4678571114653929E+00    5.8409764930514489E+00
N    6.4382906049261877E+00    7.4676918261887577E+00    7.7489805376368945E+00
Ga    6.4417256520310886E+00    5.6015703721448160E+00    8.4297513764573200E+00
N    6.4416766580376956E+00    5.6016393340970252E+00    1.0338076836851819E+01
Ga    6.4388265050178948E+00    7.4678197474170505E+00    1.1007036317455057E+01
N    6.4432276182174792E+00    7.4659953720692487E+00    1.2894815911517528E+01
Ga    6.4489930674866773E+00    5.6016520368082761E+00    1.3485038589517229E+01
N    6.4601946592099404E+00    5.5796138250482219E+00    1.5340369388671837E+01
Ga    6.4199257370304421E+00    7.4749562063558717E+00    1.6378322096802084E+01
N    7.9948139031008161E+00    6.5657189332785331E+00    1.7092847417293182E+01
N    4.8248279820268865E+00    8.4022047591649773E+00   -6.8854398396970854E-03
Ga    4.8214456525809490E+00    1.0268252506687448E+01    6.4965439979489614E-01
N    4.8213873089234411E+00    1.0268301383563983E+01    2.5486549582074112E+00
Ga    4.8247621189666736E+00    8.4020825050923076E+00    3.2514060390838795E+00
N    4.8248345835141233E+00    8.4022192293616662E+00    5.1560786137536461E+00
Ga    4.8214977907218994E+00    1.0268381765496224E+01    5.8409809716619412E+00
N    4.8213373177924375E+00    1.0268242158516918E+01    7.7489595063556678E+00
Ga    4.8248327037465222E+00    8.4021864619263127E+00    8.4297274405740783E+00
N    4.8248038851793700E+00    8.4022550641423646E+00    1.0337989647005159E+01
Ga    4.8220141027628811E+00    1.0268303806149335E+01    1.1007241101853031E+01
N    4.8249582409928387E+00    1.0266295830097848E+01    1.2895345164587610E+01
Ga    4.8325892479352310E+00    8.4002476993861546E+00    1.3487587673436844E+01
N    4.8644916251856491E+00    8.3970041106164466E+00    1.5345656482854801E+01
Ga    4.8115826101646908E+00    1.0288956797981115E+01    1.6357763757291568E+01
N    6.3806997061774329E+00    9.3365037388382746E+00    1.7112318377302078E+01
H    1.8358839159766617E-05    5.5162942592916844E-05   -1.0318579234604226E+00
H   -1.6168899331208249E+00    2.8006388713660209E+00   -1.0318915243587674E+00
H   -3.2338045078448761E+00    5.6012141978440857E+00   -1.0319279979201721E+00
H   -4.8507226025917127E+00    8.4018161269769003E+00   -1.0320358815588291E+00
H    3.2251489355440430E+00    5.6814277963021112E-05   -1.0319559472806801E+00
H    1.6082268996819165E+00    2.8006316361865609E+00   -1.0319619485466653E+00
H   -8.7066498385908308E-03    5.6012252216115606E+00   -1.0318199625263420E+00
H   -1.6256116169527899E+00    8.4018096403145694E+00   -1.0318243831996370E+00
H    6.4502590384910938E+00    6.9307686954933346E-05   -1.0319448594755911E+00
H    4.8333450422926347E+00    2.8006394311940168E+00   -1.0319372006559608E+00
H    3.2164238982831397E+00    5.6012262321113502E+00   -1.0319782295654678E+00
H    1.5995061196393399E+00    8.4018293928354062E+00   -1.0319618193007563E+00
H    9.6753619045854080E+00    5.2881806708177280E-05   -1.0318530303216373E+00
H    8.0584503797728537E+00    2.8006444578253511E+00   -1.0319191553719165E+00
H    6.4415307428047068E+00    5.6012231871829314E+00   -1.0319073909844414E+00
H    4.8246200762566360E+00    8.4018137374842983E+00   -1.0318878178572106E+00
     &END COORD
     &KIND H
       BASIS_SET DZVP-MOLOPT-SR-GTH-q1
       POTENTIAL GTH-PBE-q1
       &POTENTIAL
 1
  0.2000000000000000E+00 2 -0.4178900440000000E+01  0.7244633100000000E+00
 0
         # Potential name:  GTH-PBE-Q1  for symbol:  H
         # Potential read from the potential filename: GTH_POTENTIALS
       &END POTENTIAL
     &END KIND
     &KIND N
       BASIS_SET DZVP-MOLOPT-SR-GTH
       POTENTIAL GTH-PBE-q5
       &POTENTIAL
 2 3
  0.2837905100000000E+00 2 -0.1241522559000000E+02  0.1868095920000000E+01
 2
  0.2554050000000000E+00 1  0.1363026257000000E+02
  0.2454945300000000E+00 0
         # Potential name:  GTH-PBE-Q5  for symbol:  N
         # Potential read from the potential filename: GTH_POTENTIALS
       &END POTENTIAL
     &END KIND
     &KIND Ga
       BASIS_SET DZVP-MOLOPT-SR-GTH
       POTENTIAL GTH-PBE-q13
       &POTENTIAL
 2 1 10
  0.4900000000000000E+00 0
 3
  0.4167772300000000E+00 3  0.1047568975000000E+02 -0.4921768140000000E+01  0.8707055900000000E+00
  0.7770178090000000E+01 -0.2248152160000000E+01
  0.1784415450000000E+01
  0.5696265200000000E+00 2  0.1777985340000000E+01  0.1958597600000000E+00
 -0.2317443900000000E+00
  0.2381265000000000E+00 1 -0.1624868022000000E+02
         # Potential name:  GTH-PBE-Q13  for symbol:  GA
         # Potential read from the potential filename: GTH_POTENTIALS
       &END POTENTIAL
     &END KIND
     &TOPOLOGY
       NUMBER_OF_ATOMS  256
       MULTIPLE_UNIT_CELL  1 1 1
     &END TOPOLOGY
   &END SUBSYS
 &END FORCE_EVAL
