 # Version information for this restart file 
 # current date 2019-06-11 00:10:36.586
 # current working dir /lustre03/project/6037349/rzk/GaN-carbene/444-addat/00-Surface/RKS
 # Program compiled at                              Sun Apr  7 00:48:11 EDT 2019
 # Program compiled on                          beluga2.int.ets1.calculquebec.ca
 # Program compiled for                        Beluga-Linux-x86-64-intel-openmpi
 # Source code revision number                                         svn:18619
 &GLOBAL
   PRINT_LEVEL  MEDIUM
   PROJECT_NAME TEST
   RUN_TYPE  CELL_OPT
 &END GLOBAL
 &MOTION
   &CELL_OPT
     MAX_ITER  300
     STEP_START_VAL  95
     EXTERNAL_PRESSURE     1.0000000000000000E+00
     KEEP_ANGLES  T
     KEEP_SYMMETRY  T
     CONSTRAINT  Z
     PRESSURE_TOLERANCE     5.0000000000000000E+02
   &END CELL_OPT
 &END MOTION
 &FORCE_EVAL
   METHOD  QS
   STRESS_TENSOR  ANALYTICAL
   &DFT
     BASIS_SET_FILE_NAME BASIS_MOLOPT
     POTENTIAL_FILE_NAME GTH_POTENTIALS
     SURFACE_DIPOLE_CORRECTION  T
     SURF_DIP_DIR  Z
     &SCF
       MAX_SCF  100
       EPS_SCF     5.0000000000000004E-06
       &OT  T
         PRECONDITIONER  FULL_ALL
       &END OT
       &OUTER_SCF  T
         OPTIMIZER  NONE
         EPS_SCF     5.0000000000000004E-06
         MAX_SCF  4
       &END OUTER_SCF
       &PRINT
         &RESTART  OFF
           BACKUP_COPIES  1
           &EACH
             JUST_ENERGY  0
             QS_SCF  0
             MD  20
           &END EACH
         &END RESTART
       &END PRINT
     &END SCF
     &QS
       EPS_DEFAULT     1.0000000000000000E-14
       METHOD  GPW
     &END QS
     &MGRID
       NGRIDS  5
       CUTOFF     1.2000000000000000E+03
     &END MGRID
     &XC
       DENSITY_CUTOFF     1.0000000000000000E-10
       GRADIENT_CUTOFF     1.0000000000000000E-10
       TAU_CUTOFF     1.0000000000000000E-10
       &XC_FUNCTIONAL  NO_SHORTCUT
         &PBE  T
         &END PBE
       &END XC_FUNCTIONAL
       &VDW_POTENTIAL
         POTENTIAL_TYPE  PAIR_POTENTIAL
         &PAIR_POTENTIAL
           R_CUTOFF     1.0000000000000005E+01
           TYPE  DFTD3
           PARAMETER_FILE_NAME dftd3.dat
           REFERENCE_FUNCTIONAL PBE
           EPS_CN     9.9999999999999995E-07
           CALCULATE_C9_TERM  T
           REFERENCE_C9_TERM  T
           LONG_RANGE_CORRECTION  F
           VERBOSE_OUTPUT  F
         &END PAIR_POTENTIAL
       &END VDW_POTENTIAL
     &END XC
   &END DFT
   &SUBSYS
     &CELL
       A     1.3030333015381322E+01    0.0000000000000000E+00    0.0000000000000000E+00
       B    -6.4413945488806803E+00    1.1156822630258786E+01    0.0000000000000000E+00
       C     0.0000000000000000E+00    0.0000000000000000E+00    3.2000000000000000E+01
       MULTIPLE_UNIT_CELL  1 1 1
       &CELL_REF
         A     1.2982353780853531E+01    0.0000000000000000E+00    0.0000000000000000E+00
         B    -6.4911768904267628E+00    1.1243048175136114E+01    0.0000000000000000E+00
         C     0.0000000000000000E+00    0.0000000000000000E+00    3.2000000000000000E+01
         MULTIPLE_UNIT_CELL  1 1 1
       &END CELL_REF
     &END CELL
     &COORD
N    1.8715116675087035E-01    1.0081196120511073E-01   -1.5215243350475427E-01
Ga    2.0647942623663115E-01    1.9699525979490276E+00    5.1511770053290462E-01
N    2.3564005987753578E-01    1.9929886753658128E+00    2.4373457744201477E+00
Ga    2.1813120173024689E-01    1.2509934713768545E-01    3.1407653626728416E+00
N    2.2754896048891263E-01    1.3115436347786077E-01    5.0741564136293036E+00
Ga    2.4636279440649778E-01    1.9980760724738800E+00    5.7717801424577901E+00
N    2.4922346540476972E-01    2.0069028728540408E+00    7.7085039522474501E+00
Ga    2.3493856225539997E-01    1.3910293820253572E-01    8.3905180931740073E+00
N    2.3096522465870278E-01    1.2837863728254109E-01    1.0321792810364112E+01
Ga    2.4643485925704056E-01    1.9937203457767008E+00    1.1019731059159934E+01
N    2.5346071051700975E-01    1.9907252676956975E+00    1.2949101055854657E+01
Ga    2.0020041049735782E-01    1.2017209892857628E-01    1.3626274156869126E+01
N   -3.3291681208884449E-01   -1.8735559145178637E-01    1.5374766056276457E+01
Ga   -1.0339982117758739E+00    9.4091743736273381E-01    1.6772344465438533E+01
N    2.9230918117117383E-01    1.4411792497902859E-01    1.8042406532559376E+01
N   -1.4235886820403123E+00    2.8899361242730159E+00   -1.5194500963127078E-01
Ga   -1.4038364778743333E+00    4.7586476792357022E+00    5.1467966467671877E-01
N   -1.3747931554132735E+00    4.7824560111091650E+00    2.4366540524539153E+00
Ga   -1.3900263904397037E+00    2.9161797869048658E+00    3.1446508724109696E+00
N   -1.3801285864493416E+00    2.9215933060591621E+00    5.0752911641637670E+00
Ga   -1.3630389018349971E+00    4.7881020974271049E+00    5.7714469471552690E+00
N   -1.3590669488915377E+00    4.7941155580325407E+00    7.7073795554933806E+00
Ga   -1.3783379896966461E+00    2.9279808286159041E+00    8.3960929758523370E+00
N   -1.3785252246654340E+00    2.9257609096940391E+00    1.0331839644593453E+01
Ga   -1.3656502592498412E+00    4.7933023906688330E+00    1.1027523292122474E+01
N   -1.3573287066460396E+00    4.8048431358792349E+00    1.2965565724006755E+01
Ga   -1.3542983325054769E+00    2.9347174123157029E+00    1.3622498716640457E+01
N   -1.8917671764037500E+00    2.4825109235244316E+00    1.5437520087498019E+01
Ga   -2.8943240279727824E+00    4.2253117242000915E+00    1.6846346375025774E+01
N   -1.4113337370809838E+00    2.9178488734405192E+00    1.6721597887868256E+01
N   -3.0341143435660816E+00    5.6789278525089149E+00   -1.4847208357863270E-01
Ga   -3.0144112506507881E+00    7.5482511187723365E+00    5.1605413369296438E-01
N   -2.9854493947654044E+00    7.5718269859998752E+00    2.4380869001994663E+00
Ga   -3.0003439653467554E+00    5.7049229961694543E+00    3.1460058635238117E+00
N   -2.9913311302945842E+00    5.7110255993566996E+00    5.0783118208175848E+00
Ga   -2.9742368046191694E+00    7.5808044519711997E+00    5.7711610041790076E+00
N   -2.9707369192764901E+00    7.5876992436910129E+00    7.7077405387131845E+00
Ga   -2.9872285257412314E+00    5.7179380907467143E+00    8.3874295131955616E+00
N   -2.9891663369979833E+00    5.7113245738838270E+00    1.0322544552096856E+01
Ga   -2.9702043532282190E+00    7.5726073457078602E+00    1.1026811469248839E+01
N   -2.9574371941355997E+00    7.5809522638626241E+00    1.2966855747346470E+01
Ga   -2.9902167315994221E+00    5.7141811347602776E+00    1.3674206018378726E+01
N   -3.4581918394006048E+00    5.4334907850499574E+00    1.5451013277928880E+01
Ga   -4.2267072312404608E+00    6.5184738962682740E+00    1.6851287197338348E+01
N   -2.8949724838718489E+00    5.7540064007638820E+00    1.8123357605166230E+01
N   -4.6440233221516332E+00    8.4678367333825673E+00   -1.5194322292881221E-01
Ga   -4.6244971496920861E+00    1.0336958748689565E+01    5.1368195155541796E-01
N   -4.5960809545138863E+00    1.0361247656211395E+01    2.4356795039100572E+00
Ga   -4.6113859748299024E+00    8.4958293108822698E+00    3.1447390730109275E+00
N   -4.6014831080693943E+00    8.5029938164816823E+00    5.0753081978294059E+00
Ga   -4.5867938297879398E+00    1.0369033794779060E+01    5.7737122765821542E+00
N   -4.5799768410646839E+00    1.0373420070313644E+01    7.7095154350863808E+00
Ga   -4.5976725714624820E+00    8.5067845342096078E+00    8.3970254483671223E+00
N   -4.5941417073359485E+00    8.5021132033535860E+00    1.0332913013103726E+01
Ga   -4.5845939508353402E+00    1.0369755007190321E+01    1.1025334236344083E+01
N   -4.5894691935592737E+00    1.0384565528602833E+01    1.2957535607701107E+01
Ga   -4.5791232767752126E+00    8.5236130282936973E+00    1.3626082788470915E+01
N   -5.2288376491527169E+00    8.2784666325345135E+00    1.5442922577011590E+01
Ga   -6.1384912607702624E+00    9.7696756211445983E+00    1.6744382228422090E+01
N   -4.6071746650085759E+00    8.4554909019062876E+00    1.6731174440192092E+01
N    3.4454924942830565E+00    1.0100742635951554E-01   -1.5163087005743825E-01
Ga    3.4631604393756601E+00    1.9693060545767662E+00    5.1661383451893172E-01
N    3.4916724469758296E+00    1.9925630461367922E+00    2.4395086331349973E+00
Ga    3.4775451053453290E+00    1.2692005938937390E-01    3.1516840683543439E+00
N    3.4867216531186092E+00    1.3225794174320593E-01    5.0839332978521350E+00
Ga    3.5066791951507890E+00    2.0010552901097713E+00    5.7769080308883529E+00
N    3.5066974470592824E+00    2.0052350071673395E+00    7.7139351230186719E+00
Ga    3.4915952612899828E+00    1.3782772526070408E-01    8.4024060094939745E+00
N    3.4925741851917311E+00    1.3198004910838954E-01    1.0342663978195977E+01
Ga    3.5024264815221695E+00    1.9969503035767209E+00    1.1030092219648187E+01
N    3.5182897288952573E+00    2.0085772006687144E+00    1.2974653875732505E+01
Ga    3.4711999086299450E+00    1.6037784360894361E-01    1.3680568180821711E+01
N    2.9033064569693696E+00   -1.3899735834924867E-01    1.5537196842099103E+01
Ga    1.8182645273443203E+00    1.0097388484303804E+00    1.7514492561705815E+01
N    3.4750136272031327E+00    2.1193064848108298E-01    1.6877862738490652E+01
N    1.8349864343000550E+00    2.8903127610880794E+00   -1.5230013154904967E-01
Ga    1.8530118809049299E+00    4.7581074235054865E+00    5.1820238962852139E-01
N    1.8814445234119330E+00    4.7817445846607773E+00    2.4412196345062203E+00
Ga    1.8680713937279099E+00    2.9159445052068032E+00    3.1515852673245726E+00
N    1.8772592778486084E+00    2.9221944940291196E+00    5.0838394421793867E+00
Ga    1.8946919045223169E+00    4.7901733011894825E+00    5.7785020062713377E+00
N    1.8967767132747881E+00    4.7956008344241257E+00    7.7157053398102606E+00
Ga    1.8803037413101240E+00    2.9280557366108502E+00    8.4023931270654817E+00
N    1.8798467960878549E+00    2.9235714898403429E+00    1.0340856961415094E+01
Ga    1.8882691909300489E+00    4.7835780648939661E+00    1.1044097725241048E+01
N    1.8879672310679279E+00    4.7787573808029151E+00    1.2993563850930649E+01
Ga    1.8895981896710243E+00    2.8970496561909256E+00    1.3674909623250837E+01
N    1.3557610444791310E+00    2.5391677834029580E+00    1.5531432230087965E+01
Ga    2.2454669616536890E-01    3.8214198898581713E+00    1.6437145792413620E+01
N    1.9388759527719042E+00    2.8513255656192755E+00    1.6866851377009329E+01
N    2.2440025941653272E-01    5.6794278964010463E+00   -1.5121000716179916E-01
Ga    2.4223301067894043E-01    7.5476030884776764E+00    5.1773582158569309E-01
N    2.7186980173964548E-01    7.5713364174480509E+00    2.4407802467295556E+00
Ga    2.5690028341743137E-01    5.7057200244735489E+00    3.1516713382716186E+00
N    2.6652160206886477E-01    5.7118338513500859E+00    5.0839770667055859E+00
Ga    2.8448565498788786E-01    7.5790605339008481E+00    5.7822951629617467E+00
N    2.8710050741546017E-01    7.5846217417573660E+00    7.7195435229731917E+00
Ga    2.6940649962870811E-01    5.7158825510528377E+00    8.4037800541025884E+00
N    2.7183247555645301E-01    5.7132812530687547E+00    1.0344928550524408E+01
Ga    2.8932123389755166E-01    7.5805068219365337E+00    1.1030838653931385E+01
N    3.1614030426976897E-01    7.5966722347759204E+00    1.2975341650284086E+01
Ga    2.7185821812236405E-01    5.7446836590834387E+00    1.3667214113453479E+01
N   -3.0206289215375787E-01    5.4544316432670721E+00    1.5524179257557801E+01
Ga   -1.3675385689693440E+00    6.6191091159702511E+00    1.7564705597374392E+01
N    2.5099369250067238E-01    5.8057842875613446E+00    1.6851843124587962E+01
N   -1.3861714396489502E+00    8.4684591300485152E+00   -1.5137419279617439E-01
Ga   -1.3679172538804758E+00    1.0336573884070351E+01    5.1780335729006588E-01
N   -1.3391439589876031E+00    1.0360211177556174E+01    2.4405900838122720E+00
Ga   -1.3525616618514902E+00    8.4949075172016819E+00    3.1523289832108743E+00
N   -1.3421610760588316E+00    8.5016860809802264E+00    5.0847369562352043E+00
Ga   -1.3255064507053833E+00    1.0368982600978116E+01    5.7791422038387150E+00
N   -1.3229572365850457E+00    1.0373656427644519E+01    7.7162088057017328E+00
Ga   -1.3405744602154048E+00    8.5073338998186081E+00    8.4074259576027703E+00
N   -1.3379726670474830E+00    8.5035828319833779E+00    1.0346880748234440E+01
Ga   -1.3314768273157478E+00    1.0365047048821491E+01    1.1049340851639913E+01
N   -1.3366470986647196E+00    1.0371863977255829E+01    1.3000242071448737E+01
Ga   -1.3130654793137859E+00    8.4920818499866151E+00    1.3671936768466631E+01
N   -1.8328766053468497E+00    8.1273618056575678E+00    1.5522838007037572E+01
Ga   -2.9881160569553056E+00    9.3891317334281492E+00    1.6448620224272354E+01
N   -1.2555231838495702E+00    8.4292134183002450E+00    1.6849831545167753E+01
N    6.7011266876695084E+00    1.0053289534009016E-01   -1.5270377064704524E-01
Ga    6.7201080031725056E+00    1.9683754110852705E+00    5.1585748777426066E-01
N    6.7486981573637976E+00    1.9913439003767031E+00    2.4386229729588877E+00
Ga    6.7356209752895877E+00    1.2575749709858461E-01    3.1497105080849725E+00
N    6.7444355958852862E+00    1.3253747877028513E-01    5.0819360654063024E+00
Ga    6.7613316122679654E+00    1.9996268267620094E+00    5.7751547235492113E+00
N    6.7610781547813481E+00    2.0023310637128411E+00    7.7128700564612478E+00
Ga    6.7451969345979421E+00    1.3830282060431381E-01    8.4142596443892383E+00
N    6.7416942470008916E+00    1.3117318610131232E-01    1.0358076335125613E+01
Ga    6.7701207705678836E+00    2.0042967879746389E+00    1.1036040541838503E+01
N    6.7921661004732954E+00    2.0154009732490521E+00    1.2985153913282652E+01
Ga    6.7652945426910280E+00    1.5214952846482438E-01    1.3655623711516474E+01
N    6.1998875110315605E+00   -1.6771748138771375E-01    1.5490917033323162E+01
Ga    5.1499168343953841E+00    1.0724293621491570E+00    1.6598630954984248E+01
N    6.8603088766840381E+00    1.7663226207575222E-01    1.7059676781545196E+01
N    5.0918310114297984E+00    2.8898521127990220E+00   -1.5178174321531324E-01
Ga    5.1094353813678239E+00    4.7583423861634468E+00    5.1502908398407055E-01
N    5.1375842904681202E+00    4.7824388250718064E+00    2.4379321166296202E+00
Ga    5.1246144378197478E+00    2.9166081776556649E+00    3.1473833838702387E+00
N    5.1351875474897746E+00    2.9227907779120330E+00    5.0799326017486477E+00
Ga    5.1499366599264107E+00    4.7892928176381551E+00    5.7754590143146372E+00
N    5.1497670516023213E+00    4.7938641215547007E+00    7.7134312491353345E+00
Ga    5.1373192210016860E+00    2.9270488121615843E+00    8.4098849044405970E+00
N    5.1344747108835556E+00    2.9224431232339536E+00    1.0353324108653636E+01
Ga    5.1592643914030587E+00    4.7951844474704028E+00    1.1036346666305656E+01
N    5.1772159715915391E+00    4.8091305517913723E+00    1.2984525792188638E+01
Ga    5.1757165408000372E+00    2.9485840924814077E+00    1.3643297112756462E+01
N    4.6168717158574699E+00    2.6280822477467898E+00    1.5469769613316197E+01
Ga    3.5443828456609268E+00    3.8414367858218674E+00    1.6592216521830021E+01
N    5.2367181728778469E+00    2.9635139199460983E+00    1.7066489590525538E+01
N    3.4808915683142172E+00    5.6784269977206865E+00   -1.5323508257237084E-01
Ga    3.4982973131663018E+00    7.5468662104350610E+00    5.1472944013791500E-01
N    3.5265381846854678E+00    7.5711547208582584E+00    2.4385279137811100E+00
Ga    3.5137986962287497E+00    5.7060702658608617E+00    3.1494673381420624E+00
N    3.5231290890119964E+00    5.7111692540304171E+00    5.0815141039591776E+00
Ga    3.5407990517169456E+00    7.5777317903001675E+00    5.7751130779539963E+00
N    3.5386578851579440E+00    7.5783980553407719E+00    7.7115212755961791E+00
Ga    3.5251194360209004E+00    5.7142928970137064E+00    8.4131501013291601E+00
N    3.5204585558245278E+00    5.7067391794122475E+00    1.0356471539475363E+01
Ga    3.5533864858571533E+00    7.5775511240382594E+00    1.1035320879605027E+01
N    3.5778354550253080E+00    7.5842096659076477E+00    1.2979452653306410E+01
Ga    3.5443068165809621E+00    5.7194701949214872E+00    1.3650339850646336E+01
N    2.9740972603828113E+00    5.3953563455520630E+00    1.5483143189458563E+01
Ga    1.9370897170903536E+00    6.6605106911977217E+00    1.6571479709921007E+01
N    3.6228245093465574E+00    5.7411282094847662E+00    1.7059635724615323E+01
N    1.8698769996954123E+00    8.4675186608992039E+00   -1.5381920016420342E-01
Ga    1.8880616331438447E+00    1.0335418967308980E+01    5.1351431859368601E-01
N    1.9168956850995502E+00    1.0358321473260801E+01    2.4368843328593446E+00
Ga    1.9036256641542433E+00    8.4949642185953298E+00    3.1516943861104840E+00
N    1.9129813158296669E+00    8.5015366186710644E+00    5.0843396910660470E+00
Ga    1.9289017878001353E+00    1.0368572160323307E+01    5.7767892840315849E+00
N    1.9265766546230654E+00    1.0371746611422392E+01    7.7124219501387152E+00
Ga    1.9190075799403106E+00    8.5067655326580667E+00    8.4098259521431693E+00
N    1.9203625754038156E+00    8.5034279008044678E+00    1.0353069534993395E+01
Ga    1.9389503547295892E+00    1.0376624592512323E+01    1.1039264992421925E+01
N    1.9534945327538020E+00    1.0397759555576696E+01    1.2985028264856759E+01
Ga    1.9795311999424925E+00    8.5390213455251835E+00    1.3636848147918831E+01
N    1.4353356426874773E+00    8.2265019076134571E+00    1.5471177515235990E+01
Ga    3.4832230687377502E-01    9.4295340499391145E+00    1.6573773925208293E+01
N    2.0187636614025597E+00    8.5358332816142894E+00    1.7105790279196242E+01
N    9.9583009619581730E+00    1.0043548065323593E-01   -1.5273408786995654E-01
Ga    9.9773488931590411E+00    1.9688790706809298E+00    5.1538819845553641E-01
N    1.0005873787211174E+01    1.9906367915027923E+00    2.4381816613118539E+00
Ga    9.9916553827388306E+00    1.2350854452777205E-01    3.1450588427491675E+00
N    1.0001035890832130E+01    1.2981990776528934E-01    5.0783242430673132E+00
Ga    1.0021051708370196E+01    1.9997985033065697E+00    5.7637413338874035E+00
N    1.0023792720464730E+01    2.0082641688510972E+00    7.6976286160811727E+00
Ga    9.9973819692102168E+00    1.4194291388382604E-01    8.3802258300731580E+00
N    9.9898062173499138E+00    1.3998372720558858E-01    1.0308054937356413E+01
Ga    1.0018867703837881E+01    1.9987008949101863E+00    1.1005223197599923E+01
N    1.0032697705128509E+01    2.0110433444722724E+00    1.2934548220904807E+01
Ga    1.0073247187582375E+01    1.6508620921168399E-01    1.3659336200842356E+01
N    9.5657100187783310E+00   -1.3910018139083385E-01    1.5530364740640684E+01
Ga    8.4517088272423013E+00    1.0938995364605542E+00    1.6704380839103067E+01
N    1.0194260256206634E+01    2.1654513410893567E-01    1.6892193501239252E+01
N    8.3483349041062418E+00    2.8896763579710587E+00   -1.5157273159713758E-01
Ga    8.3666984476326665E+00    4.7575502734834370E+00    5.1654822583136861E-01
N    8.3952087117363963E+00    4.7811027354252884E+00    2.4384509692103551E+00
Ga    8.3814604406331252E+00    2.9154573908730939E+00    3.1472540668954463E+00
N    8.3911672446205916E+00    2.9224748130902327E+00    5.0793139126231592E+00
Ga    8.4091840346273958E+00    4.7900967427605456E+00    5.7702228333093686E+00
N    8.4103761640001071E+00    4.7951202041367944E+00    7.7050844177406042E+00
Ga    8.3946041396967352E+00    2.9251083775555569E+00    8.3871958839358971E+00
N    8.3919362095797041E+00    2.9177259089684848E+00    1.0320808558291459E+01
Ga    8.4072951640073796E+00    4.7865184136165357E+00    1.0989037758844441E+01
N    8.4049718265303657E+00    4.7899167956262723E+00    1.2912985253626118E+01
Ga    8.4530291807465652E+00    2.9621628329581458E+00    1.3646736474930849E+01
N    7.9843674475866138E+00    2.6810292502621964E+00    1.5524424569961074E+01
Ga    6.8233112249070889E+00    3.8614601861810978E+00    1.6711103249569575E+01
N    8.5895069636744008E+00    3.0447370044750608E+00    1.6903491485703661E+01
N    6.7386552720651789E+00    5.6783812121167356E+00   -1.5148541801624896E-01
Ga    6.7569050229290992E+00    7.5467937562260765E+00    5.1540500734792927E-01
N    6.7842510598483239E+00    7.5704693573903272E+00    2.4384402883975516E+00
Ga    6.7708879871913217E+00    5.7044575911692954E+00    3.1474720037359822E+00
N    6.7806487978461725E+00    5.7098433231772523E+00    5.0790602465377104E+00
Ga    6.8000622879069050E+00    7.5799495799493677E+00    5.7635114338682722E+00
N    6.8052808901806756E+00    7.5848289440523908E+00    7.6981967414628523E+00
Ga    6.7817691071773165E+00    5.7180858248791155E+00    8.3872557121293685E+00
N    6.7801322809953879E+00    5.7109470332028716E+00    1.0320566821401030E+01
Ga    6.7996235878779032E+00    7.5768602427649103E+00    1.1006731889497617E+01
N    6.8143302199760365E+00    7.5882906168846134E+00    1.2936175375767739E+01
Ga    6.8437890611967562E+00    5.7449461231460708E+00    1.3645185540679622E+01
N    6.3681351951624423E+00    5.4655524912237308E+00    1.5523065418168763E+01
Ga    5.2258054031373771E+00    6.6497293112171896E+00    1.6696524459430346E+01
N    6.9912400477972136E+00    5.7996679139228009E+00    1.6898118358063648E+01
N    5.1278394100227720E+00    8.4669729465852743E+00   -1.5318570890513988E-01
Ga    5.1461642222173198E+00    1.0335752825491909E+01    5.1143416129400221E-01
N    5.1740051075274893E+00    1.0358613994448177E+01    2.4342602836193099E+00
Ga    5.1593765013414368E+00    8.4950046060444571E+00    3.1457695380041750E+00
N    5.1692615260500290E+00    8.5023686070771873E+00    5.0788908792450860E+00
Ga    5.1889987287681665E+00    1.0369229576095846E+01    5.7733962240632541E+00
N    5.1894696032485079E+00    1.0373234873210647E+01    7.7088097210902324E+00
Ga    5.1732918991218035E+00    8.4978029940685449E+00    8.3797516404192596E+00
N    5.1713539365300933E+00    8.4825028806345912E+00    1.0307624813551778E+01
Ga    5.1711569182781147E+00    1.0355383767521644E+01    1.0962829775850821E+01
N    5.1562433010838395E+00    1.0351182492597410E+01    1.2870765275097547E+01
Ga    5.2329848947630753E+00    8.5475522049425336E+00    1.3657667946060684E+01
N    4.7246563578715097E+00    8.2389886678896733E+00    1.5528038400661677E+01
Ga    3.6015182439854510E+00    9.4375727039773967E+00    1.6763864571889719E+01
N    5.3490472004489682E+00    8.5967473959998504E+00    1.6889236532223151E+01
H    1.8609262627698975E-01    9.8947937757510152E-02   -1.1791504576831731E+00
H   -1.4255175034521868E+00    2.8910137867400887E+00   -1.1790271642118553E+00
H   -3.0354590225841060E+00    5.6770133076267513E+00   -1.1752290747275980E+00
H   -4.6440741033410928E+00    8.4659703434011142E+00   -1.1789830258412046E+00
H    3.4424299999675871E+00    9.9367573808722326E-02   -1.1786522922521008E+00
H    1.8329779940337596E+00    2.8880554763844546E+00   -1.1794679844276155E+00
H    2.1896855152723341E-01    5.6763235907019789E+00   -1.1782376238538688E+00
H   -1.3906320889857073E+00    8.4653660032926989E+00   -1.1784118462232893E+00
H    6.6969964593877567E+00    9.9491195604504590E-02   -1.1797540712444485E+00
H    5.0889161382642527E+00    2.8880206480556745E+00   -1.1788485529949253E+00
H    3.4789501175542084E+00    5.6739424446677535E+00   -1.1803801049357423E+00
H    1.8653613367820403E+00    8.4653132918858471E+00   -1.1808248439704652E+00
H    9.9557010671136901E+00    9.9183657398386832E-02   -1.1796592470205371E+00
H    8.3448364296908579E+00    2.8895478992994619E+00   -1.1785416470648280E+00
H    6.7365307145693132E+00    5.6747834715125522E+00   -1.1784071088097667E+00
H    5.1261064958289086E+00    8.4657551745320863E+00   -1.1801578976998586E+00
     &END COORD
     &KIND H
       BASIS_SET DZVP-MOLOPT-SR-GTH-q1
       POTENTIAL GTH-PBE-q1
       &POTENTIAL
1
0.2000000000000000E+00 2 -0.4178900440000000E+01  0.7244633100000000E+00
0
       &END POTENTIAL
     &END KIND
     &KIND N
       BASIS_SET DZVP-MOLOPT-SR-GTH
       POTENTIAL GTH-PBE-q5
       &POTENTIAL
2 3
0.2837905100000000E+00 2 -0.1241522559000000E+02  0.1868095920000000E+01
2
0.2554050000000000E+00 1  0.1363026257000000E+02
0.2454945300000000E+00 0
       &END POTENTIAL
     &END KIND
     &KIND Ga
       BASIS_SET DZVP-MOLOPT-SR-GTH
       POTENTIAL GTH-PBE-q13
       &POTENTIAL
2 1 10
0.4900000000000000E+00 0
3
0.4167772300000000E+00 3  0.1047568975000000E+02 -0.4921768140000000E+01  0.8707055900000000E+00
0.7770178090000000E+01 -0.2248152160000000E+01
0.1784415450000000E+01
0.5696265200000000E+00 2  0.1777985340000000E+01  0.1958597600000000E+00
-0.2317443900000000E+00
0.2381265000000000E+00 1 -0.1624868022000000E+02
       &END POTENTIAL
     &END KIND
     &TOPOLOGY
       NUMBER_OF_ATOMS  256
       MULTIPLE_UNIT_CELL  1 1 1
     &END TOPOLOGY
   &END SUBSYS
 &END FORCE_EVAL
