 # Version information for this restart file 
 # current date 2019-06-11 00:33:24.337
 # current working dir /lustre03/project/6037349/rzk/GaN-carbene/444-addat/00-Surface/RKS
 # Program compiled at                              Sun Apr  7 00:48:11 EDT 2019
 # Program compiled on                          beluga2.int.ets1.calculquebec.ca
 # Program compiled for                        Beluga-Linux-x86-64-intel-openmpi
 # Source code revision number                                         svn:18619
 &GLOBAL
   PRINT_LEVEL  MEDIUM
   PROJECT_NAME TEST
   RUN_TYPE  CELL_OPT
 &END GLOBAL
 &MOTION
   &CELL_OPT
     MAX_ITER  300
     STEP_START_VAL  109
     EXTERNAL_PRESSURE     1.0000000000000000E+00
     KEEP_ANGLES  T
     KEEP_SYMMETRY  T
     CONSTRAINT  Z
     PRESSURE_TOLERANCE     5.0000000000000000E+02
   &END CELL_OPT
 &END MOTION
 &FORCE_EVAL
   METHOD  QS
   STRESS_TENSOR  ANALYTICAL
   &DFT
     BASIS_SET_FILE_NAME BASIS_MOLOPT
     POTENTIAL_FILE_NAME GTH_POTENTIALS
     SURFACE_DIPOLE_CORRECTION  T
     SURF_DIP_DIR  Z
     &SCF
       MAX_SCF  100
       EPS_SCF     5.0000000000000004E-06
       &OT  T
         PRECONDITIONER  FULL_ALL
       &END OT
       &OUTER_SCF  T
         OPTIMIZER  NONE
         EPS_SCF     5.0000000000000004E-06
         MAX_SCF  4
       &END OUTER_SCF
       &PRINT
         &RESTART  OFF
           BACKUP_COPIES  1
           &EACH
             JUST_ENERGY  0
             QS_SCF  0
             MD  20
           &END EACH
         &END RESTART
       &END PRINT
     &END SCF
     &QS
       EPS_DEFAULT     1.0000000000000000E-14
       METHOD  GPW
     &END QS
     &MGRID
       NGRIDS  5
       CUTOFF     1.2000000000000000E+03
     &END MGRID
     &XC
       DENSITY_CUTOFF     1.0000000000000000E-10
       GRADIENT_CUTOFF     1.0000000000000000E-10
       TAU_CUTOFF     1.0000000000000000E-10
       &XC_FUNCTIONAL  NO_SHORTCUT
         &PBE  T
         &END PBE
       &END XC_FUNCTIONAL
       &VDW_POTENTIAL
         POTENTIAL_TYPE  PAIR_POTENTIAL
         &PAIR_POTENTIAL
           R_CUTOFF     1.0000000000000005E+01
           TYPE  DFTD3
           PARAMETER_FILE_NAME dftd3.dat
           REFERENCE_FUNCTIONAL PBE
           EPS_CN     9.9999999999999995E-07
           CALCULATE_C9_TERM  T
           REFERENCE_C9_TERM  T
           LONG_RANGE_CORRECTION  F
           VERBOSE_OUTPUT  F
         &END PAIR_POTENTIAL
       &END VDW_POTENTIAL
     &END XC
   &END DFT
   &SUBSYS
     &CELL
       A     1.3027833547737869E+01    0.0000000000000000E+00    0.0000000000000000E+00
       B    -6.4425346114698048E+00    1.1158797276586993E+01    0.0000000000000000E+00
       C     0.0000000000000000E+00    0.0000000000000000E+00    3.2000000000000000E+01
       MULTIPLE_UNIT_CELL  1 1 1
       &CELL_REF
         A     1.2982353780853531E+01    0.0000000000000000E+00    0.0000000000000000E+00
         B    -6.4911768904267628E+00    1.1243048175136114E+01    0.0000000000000000E+00
         C     0.0000000000000000E+00    0.0000000000000000E+00    3.2000000000000000E+01
         MULTIPLE_UNIT_CELL  1 1 1
       &END CELL_REF
     &END CELL
     &COORD
N    2.1661629079258066E-01    1.2091293146407588E-01   -1.5464746679362257E-01
Ga    2.3332148753540477E-01    1.9884413052314893E+00    5.1397263563545104E-01
N    2.3894688650941959E-01    1.9964416415879109E+00    2.4372373004587877E+00
Ga    2.2341156893721825E-01    1.2891777399773163E-01    3.1463229121593388E+00
N    2.2476499372365669E-01    1.2646497312480678E-01    5.0767522024615772E+00
Ga    2.4094486110072591E-01    1.9949067744816371E+00    5.7710328997039415E+00
N    2.4820622297254302E-01    2.0047709369472693E+00    7.7064194477199539E+00
Ga    2.2954893208542038E-01    1.3451828416177311E-01    8.3851082286459171E+00
N    2.2446073751834114E-01    1.2856858075913161E-01    1.0317845407700860E+01
Ga    2.4397462114975099E-01    1.9929627888360979E+00    1.1013233325549843E+01
N    2.5844104095789416E-01    1.9992487289190957E+00    1.2946664824289265E+01
Ga    2.0979797056577265E-01    1.2743975907680088E-01    1.3616609180239944E+01
N   -3.6206807665592122E-01   -2.0316232179738652E-01    1.5349232189395936E+01
Ga   -1.0536652822621690E+00    9.2334526009245133E-01    1.6749956002111372E+01
N    2.7671055661364835E-01    1.2536831706473364E-01    1.8008375915223230E+01
N   -1.3939144869208411E+00    2.9108653083078879E+00   -1.5281782091547022E-01
Ga   -1.3775251767738947E+00    4.7783602249055974E+00    5.1416747222729964E-01
N   -1.3717176443743067E+00    4.7859012441428987E+00    2.4372420831504211E+00
Ga   -1.3880235525431714E+00    2.9194249998392952E+00    3.1480847333610367E+00
N   -1.3863246000064491E+00    2.9186977714333238E+00    5.0784859005729590E+00
Ga   -1.3688303443512739E+00    4.7855015345238838E+00    5.7746139225364166E+00
N   -1.3616378677271543E+00    4.7940593976808001E+00    7.7103084685196857E+00
Ga   -1.3798885621609758E+00    2.9262938435440793E+00    8.3946123477288186E+00
N   -1.3828323991940199E+00    2.9230521952374304E+00    1.0332382519433292E+01
Ga   -1.3726975587686030E+00    4.7872370193921512E+00    1.1031618220842056E+01
N   -1.3674215189324570E+00    4.7984048363160650E+00    1.2971485434572745E+01
Ga   -1.3610472073727633E+00    2.9236054918402110E+00    1.3626821354079828E+01
N   -1.8929643424433304E+00    2.4601560249544976E+00    1.5441867822389309E+01
Ga   -2.9160988463496862E+00    4.1999252583668785E+00    1.6828788736939476E+01
N   -1.4236812239688543E+00    2.8999227444570290E+00    1.6730546523010950E+01
N   -3.0047171809239459E+00    5.7003746662954615E+00   -1.5310949181097797E-01
Ga   -2.9880813452253521E+00    7.5680233931988870E+00    5.1401179754517634E-01
N   -2.9821013567359351E+00    7.5748776865914902E+00    2.4373561105678845E+00
Ga   -2.9983962420708465E+00    5.7082206542227114E+00    3.1486140351007017E+00
N   -2.9971510390289948E+00    5.7060231171409566E+00    5.0798028542771485E+00
Ga   -2.9786178133108674E+00    7.5733618668739346E+00    5.7745827252589619E+00
N   -2.9706684956243929E+00    7.5826643994276779E+00    7.7106537272228941E+00
Ga   -2.9892198258331040E+00    5.7157084110550347E+00    8.3956607109329688E+00
N   -2.9943217740493462E+00    5.7099229518568153E+00    1.0332942515695844E+01
Ga   -2.9805843308305668E+00    7.5720029557630513E+00    1.1033265595929807E+01
N   -2.9729141008733366E+00    7.5780905815904411E+00    1.2974065926127981E+01
Ga   -3.0021684009200476E+00    5.7090648142670553E+00    1.3677731859878982E+01
N   -3.5223385941286889E+00    5.3952523668908556E+00    1.5436349015650441E+01
Ga   -4.2497062600040287E+00    6.5035382388236256E+00    1.6841397307853303E+01
N   -2.9112221826248454E+00    5.7318743494771320E+00    1.8092563277141164E+01
N   -4.6151737335127478E+00    8.4902947233190744E+00   -1.5274552693888327E-01
Ga   -4.5987450554293359E+00    1.0357952168452154E+01    5.1416575709075851E-01
N   -4.5922671092032346E+00    1.0364643980101109E+01    2.4371878532346871E+00
Ga   -4.6086153226723994E+00    8.4974814385858988E+00    3.1480611274614669E+00
N   -4.6057734126172978E+00    8.4958064350498503E+00    5.0787012546234278E+00
Ga   -4.5896372765449787E+00    1.0362925552420919E+01    5.7719980872932251E+00
N   -4.5823284138715197E+00    1.0371267669125203E+01    7.7068549018078825E+00
Ga   -4.5994637874264717E+00    8.5037226037115232E+00    8.3955946324429611E+00
N   -4.6016368011740232E+00    8.4994724956625891E+00    1.0333645929440969E+01
Ga   -4.5925298700339559E+00    1.0369111495262214E+01    1.1015159720218007E+01
N   -4.5838886490239181E+00    1.0386079901527042E+01    1.2949116416039507E+01
Ga   -4.5949449084416925E+00    8.5239506097444728E+00    1.3628774349393854E+01
N   -5.2493046292298535E+00    8.2899484348119454E+00    1.5449372505821923E+01
Ga   -6.1608194994153669E+00    9.7545488689806277E+00    1.6713529735974877E+01
N   -4.6204818301080479E+00    8.4425244855881711E+00    1.6739902360800034E+01
N    3.4737237837629240E+00    1.2119516238375774E-01   -1.5254775051633621E-01
Ga    3.4899677292383391E+00    1.9885400012769239E+00    5.1460628821505883E-01
N    3.4946354259178105E+00    1.9952013591499924E+00    2.4378350164008142E+00
Ga    3.4806525477477233E+00    1.2939823350185714E-01    3.1508907472615300E+00
N    3.4829316218753772E+00    1.2753894861060633E-01    5.0823371542388953E+00
Ga    3.4980538326637318E+00    1.9942577683913272E+00    5.7786655343382973E+00
N    3.5051606005767080E+00    2.0030493442629020E+00    7.7164575380726648E+00
Ga    3.4884427115972496E+00    1.3594412442486231E-01    8.4043926322828604E+00
N    3.4876889843813772E+00    1.3322085075150164E-01    1.0344487425507232E+01
Ga    3.5020107458120573E+00    1.9976968706826370E+00    1.1033874734728345E+01
N    3.5196059014648964E+00    2.0133432746209046E+00    1.2980875929544473E+01
Ga    3.4766447237780524E+00    1.6037712933806678E-01    1.3675991089023469E+01
N    2.8926066902901488E+00   -1.4402408940488551E-01    1.5531888675360499E+01
Ga    1.8062978860648324E+00    1.0067817454297570E+00    1.7519357829244797E+01
N    3.4628590914291055E+00    2.0441608487302501E-01    1.6867817553142874E+01
N    1.8632058817595516E+00    2.9108291261711985E+00   -1.5260732282612383E-01
Ga    1.8790918152777474E+00    4.7780386684834735E+00    5.1532787240109423E-01
N    1.8836873256927986E+00    4.7845560146787447E+00    2.4382370367249182E+00
Ga    1.8699464956270073E+00    2.9187996906398581E+00    3.1508707793734416E+00
N    1.8720663426416104E+00    2.9176218119137700E+00    5.0820309775689765E+00
Ga    1.8861038951100713E+00    4.7838580934100907E+00    5.7790129158026993E+00
N    1.8927700930618379E+00    4.7922069303600328E+00    7.7164317119951535E+00
Ga    1.8782024893191758E+00    2.9254841955000903E+00    8.4041627959039822E+00
N    1.8790185072190519E+00    2.9217816765127909E+00    1.0343713405616421E+01
Ga    1.8862748885094658E+00    4.7840087693785458E+00    1.1042184341834282E+01
N    1.8845091336696735E+00    4.7872803040005261E+00    1.2992373025763927E+01
Ga    1.8909177098616763E+00    2.9089819828616674E+00    1.3671390953844167E+01
N    1.3451986363099351E+00    2.5342415290502021E+00    1.5526476642356435E+01
Ga    2.0454127658562699E-01    3.8115362040649314E+00    1.6439383893594663E+01
N    1.9303873197646400E+00    2.8405067428615660E+00    1.6859753198341647E+01
N    2.5239203892849227E-01    5.7004432472572333E+00   -1.5208540145510513E-01
Ga    2.6849953226021989E-01    7.5678839241274298E+00    5.1492218182841465E-01
N    2.7324678883822151E-01    7.5744379230045009E+00    2.4379404845981787E+00
Ga    2.5882356244598120E-01    5.7088205272293173E+00    3.1508471981933872E+00
N    2.6087751569063983E-01    5.7076985633263213E+00    5.0823944613876471E+00
Ga    2.7670001071750983E-01    7.5737611654323054E+00    5.7807004956155250E+00
N    2.8354966332540393E-01    7.5826734138007117E+00    7.7193124995208224E+00
Ga    2.6741380763348305E-01    5.7149385556884402E+00    8.4086246152940163E+00
N    2.6377464175240206E-01    5.7112826179836631E+00    1.0349970704618086E+01
Ga    2.8335180306484126E-01    7.5786461635417259E+00    1.1030253684685427E+01
N    2.9587144843413560E-01    7.5924711250891450E+00    1.2975392551049897E+01
Ga    2.5945745113049123E-01    5.7395671735283349E+00    1.3671325986643904E+01
N   -3.2685627609545542E-01    5.4438132745937384E+00    1.5517902559102009E+01
Ga   -1.3914999616309269E+00    6.6054556441257617E+00    1.7535814653224250E+01
N    2.3581946229569392E-01    5.7815073000930157E+00    1.6856317830545564E+01
N   -1.3582097767536234E+00    8.4903779630225156E+00   -1.5199367546039100E-01
Ga   -1.3422152604105013E+00    1.0357710514702012E+01    5.1491470261392425E-01
N   -1.3374896576454245E+00    1.0364012058002020E+01    2.4380023581254586E+00
Ga   -1.3516172316900206E+00    8.4980665803725284E+00    3.1514613498341215E+00
N   -1.3490519043807765E+00    8.4965180705943322E+00    5.0831177834974515E+00
Ga   -1.3345706845136625E+00    1.0362491761318125E+01    5.7798130889761641E+00
N   -1.3282810825743880E+00    1.0370630936869835E+01    7.7173093500141627E+00
Ga   -1.3433358218277873E+00    8.5052817994278733E+00    8.4097535609583325E+00
N   -1.3458277124661193E+00    8.4999631563927736E+00    1.0352356406350856E+01
Ga   -1.3365209536262395E+00    1.0365078677229084E+01    1.1045158696787407E+01
N   -1.3368956960120375E+00    1.0369954750215513E+01    1.2996563321299147E+01
Ga   -1.3261636834444694E+00    8.4906714837935713E+00    1.3670312488009166E+01
N   -1.8625349596300536E+00    8.1146520446787100E+00    1.5521923706794745E+01
Ga   -3.0112113726219074E+00    9.3828990260365952E+00    1.6446414457544229E+01
N   -1.2869791096717478E+00    8.4244652144397758E+00    1.6853804820536027E+01
N    6.7298404557433047E+00    1.2096787419705417E-01   -1.5253111054365395E-01
Ga    6.7465818515940548E+00    1.9885434692658028E+00    5.1461681296693207E-01
N    6.7504331223404188E+00    1.9947167157097254E+00    2.4379860719727842E+00
Ga    6.7347491029312270E+00    1.2805000566127328E-01    3.1491551921588417E+00
N    6.7348814154307384E+00    1.2588040589468807E-01    5.0797474527544049E+00
Ga    6.7513259338454841E+00    1.9921728827223320E+00    5.7742277768561010E+00
N    6.7564050908072373E+00    1.9993149225719018E+00    7.7115665240018423E+00
Ga    6.7426162797776481E+00    1.3487165641661830E-01    8.4113743971778838E+00
N    6.7387399365044178E+00    1.2944086105414684E-01    1.0356435097492698E+01
Ga    6.7668275622683538E+00    1.9988193394267579E+00    1.1036689709794885E+01
N    6.7869654505445274E+00    2.0089335741709062E+00    1.2986460163186401E+01
Ga    6.7646694653376089E+00    1.4692698049048089E-01    1.3657053519211177E+01
N    6.1856029893754103E+00   -1.8762785478377594E-01    1.5490728472538605E+01
Ga    5.1378839304210144E+00    1.0691587115921672E+00    1.6588099904185270E+01
N    6.8283214445252698E+00    1.6332545917880553E-01    1.7071711495661845E+01
N    5.1195283441550519E+00    2.9105748371704734E+00   -1.5288110227952645E-01
Ga    5.1361358416701561E+00    4.7780303192857110E+00    5.1499483603166951E-01
N    5.1403105109577032E+00    4.7842012828154230E+00    2.4380995835109442E+00
Ga    5.1245301096513431E+00    2.9177783777266990E+00    3.1499529248253459E+00
N    5.1256465480413107E+00    2.9157337640051546E+00    5.0806066632140920E+00
Ga    5.1404722185009195E+00    4.7821977333684300E+00    5.7742936893234171E+00
N    5.1444467007390760E+00    4.7898042109695274E+00    7.7112598173570133E+00
Ga    5.1352767168048734E+00    2.9257939838302720E+00    8.4107719783705726E+00
N    5.1358793304059391E+00    2.9227222311054284E+00    1.0355572887027805E+01
Ga    5.1518059326656083E+00    4.7942306772953769E+00    1.1034757606478513E+01
N    5.1666580579898564E+00    4.8139944198708617E+00    1.2984732588745283E+01
Ga    5.1787440164412830E+00    2.9521163869066394E+00    1.3644642669154386E+01
N    4.6250742201842616E+00    2.6246685508675816E+00    1.5468031795303103E+01
Ga    3.5371459658502453E+00    3.8291907644155154E+00    1.6580780222980028E+01
N    5.2295050573151132E+00    2.9577978067525956E+00    1.7070522967331577E+01
N    3.5088415761122285E+00    5.6998349084039450E+00   -1.5269029249368257E-01
Ga    3.5254322637088946E+00    7.5675564808921640E+00    5.1358792306316536E-01
N    3.5293144970603780E+00    7.5733285248278097E+00    2.4365449709380593E+00
Ga    3.5138157665112275E+00    5.7069330344145826E+00    3.1489458003816360E+00
N    3.5142584309161524E+00    5.7042706012455362E+00    5.0793200149212776E+00
Ga    3.5296656452123423E+00    7.5709293272840670E+00    5.7709074240890503E+00
N    3.5331572793867467E+00    7.5767189638026489E+00    7.7065762254641292E+00
Ga    3.5215352284812456E+00    5.7139296668128896E+00    8.4100835617257843E+00
N    3.5176004876957951E+00    5.7088095610799234E+00    1.0353677617831000E+01
Ga    3.5426601636176049E+00    7.5782949437153038E+00    1.1033593741844733E+01
N    3.5602909982999451E+00    7.5885727720550182E+00    1.2981588624726108E+01
Ga    3.5405038946379945E+00    5.7299313993426582E+00    1.3653258252159153E+01
N    2.9616432982452494E+00    5.3831823503586698E+00    1.5481873055175374E+01
Ga    1.9161002044605904E+00    6.6410904969036810E+00    1.6578481974785486E+01
N    3.5972311179682714E+00    5.7289134381811770E+00    1.7069113775412038E+01
N    1.8980572981467663E+00    8.4899843492945894E+00   -1.5268448397623394E-01
Ga    1.9144929521778069E+00    1.0357777406475403E+01    5.1365801107010323E-01
N    1.9181815228329142E+00    1.0363924093275061E+01    2.4365952042378942E+00
Ga    1.9035438858360818E+00    8.4972562515324057E+00    3.1486072928601887E+00
N    1.9038511965464340E+00    8.4953148668330396E+00    5.0793080535674902E+00
Ga    1.9183963998941369E+00    1.0361972744400090E+01    5.7710618058077348E+00
N    1.9208560384668607E+00    1.0369106588659944E+01    7.7066361347118839E+00
Ga    1.9149575279023427E+00    8.5064478783110111E+00    8.4064675623465082E+00
N    1.9138752046272287E+00    8.5028370450560384E+00    1.0349767118316510E+01
Ga    1.9306321116612370E+00    1.0371408739509739E+01    1.1036056857120954E+01
N    1.9442147585786715E+00    1.0390433419587266E+01    1.2985058414660926E+01
Ga    1.9550372814218016E+00    8.5298362261520264E+00    1.3647303386979500E+01
N    1.3890159562541420E+00    8.1994798148666739E+00    1.5468683244441332E+01
Ga    3.1743146241203207E-01    9.4193963339347153E+00    1.6580501622163947E+01
N    1.9815919304908169E+00    8.5208709668615654E+00    1.7091065547734516E+01
N    9.9871019324839594E+00    1.2070559011698484E-01   -1.5380396617315303E-01
Ga    1.0003534785422321E+01    1.9885578846759486E+00    5.1297092461261984E-01
N    1.0008229030332091E+01    1.9958835259678915E+00    2.4363366059956526E+00
Ga    9.9916166551745338E+00    1.2845470084584884E-01    3.1460539484239840E+00
N    9.9916465199857232E+00    1.2586523538028943E-01    5.0760170701893568E+00
Ga    1.0011013542811204E+01    1.9946476145817544E+00    5.7661730546113850E+00
N    1.0018622121048523E+01    2.0045383527981624E+00    7.6991160558991272E+00
Ga    9.9936541726161270E+00    1.3701566944726246E-01    8.3781540548079665E+00
N    9.9814101136816387E+00    1.3495074906179888E-01    1.0309445392717370E+01
Ga    1.0013010404082038E+01    1.9933755443680072E+00    1.1005686843242703E+01
N    1.0024303742374519E+01    2.0017636349228063E+00    1.2939618244985384E+01
Ga    1.0064491069895951E+01    1.5534521978962026E-01    1.3660780794815896E+01
N    9.5373569841018426E+00   -1.5311393337781812E-01    1.5525084332637151E+01
Ga    8.4289226898544385E+00    1.0705465451185403E+00    1.6711463520507785E+01
N    1.0174772696928633E+01    1.9238031713384190E-01    1.6891212875081099E+01
N    8.3763207291562463E+00    2.9108449479704719E+00   -1.5323839235439490E-01
Ga    8.3931065595613941E+00    4.7782846583882552E+00    5.1400670099635415E-01
N    8.3978427447244819E+00    4.7850794833997874E+00    2.4371349517898695E+00
Ga    8.3812085767875448E+00    2.9184894973747353E+00    3.1486589380441310E+00
N    8.3811551169220113E+00    2.9163307541786532E+00    5.0792065775083728E+00
Ga    8.4005298285674090E+00    4.7835270509943646E+00    5.7723019594274820E+00
N    8.4058190820569987E+00    4.7913612974651176E+00    7.7070792126961862E+00
Ga    8.3898291003695231E+00    2.9205950930237035E+00    8.3881637829346758E+00
N    8.3858790454436463E+00    2.9131513827988380E+00    1.0323987333865736E+01
Ga    8.3946487765554867E+00    4.7829833793488907E+00    1.0990575566092353E+01
N    8.3895708230691692E+00    4.7853840903738982E+00    1.2910444858889083E+01
Ga    8.4456825321465008E+00    2.9619795542867271E+00    1.3651411210664342E+01
N    7.9618549016371833E+00    2.6554293642059053E+00    1.5523984307223481E+01
Ga    6.8165990111061667E+00    3.8551417162348800E+00    1.6711302520939661E+01
N    8.5727125018245331E+00    3.0128093426986955E+00    1.6906911202612832E+01
N    6.7659503969148664E+00    5.7000234530922400E+00   -1.5315000211396496E-01
Ga    6.7824905079326596E+00    7.5677072742941496E+00    5.1301594718883070E-01
N    6.7876320191628441E+00    7.5739485682005556E+00    2.4361982439320982E+00
Ga    6.7713063683763615E+00    5.7072459311663462E+00    3.1482007842203896E+00
N    6.7719926405041013E+00    5.7039322446006224E+00    5.0788469298957466E+00
Ga    6.7907581288298164E+00    7.5731274512514792E+00    5.7663091551204655E+00
N    6.7987633347966323E+00    7.5819951618527996E+00    7.6990760205431039E+00
Ga    6.7753338626041160E+00    5.7163310403457777E+00    8.3869967120376927E+00
N    6.7692372428121574E+00    5.7128372521828918E+00    1.0322584282666691E+01
Ga    6.7884052500889904E+00    7.5786525168879013E+00    1.1006579342059101E+01
N    6.7966758353873464E+00    7.5921468754775674E+00    1.2941166123195375E+01
Ga    6.8346940588565657E+00    5.7463309421650939E+00    1.3649197137858048E+01
N    6.3396681588429624E+00    5.4628156235430980E+00    1.5524379937292496E+01
Ga    5.2017854022940559E+00    6.6399942013850479E+00    1.6711437547234183E+01
N    6.9654549432155770E+00    5.7918027426595380E+00    1.6899669043684550E+01
N    5.1552378323584298E+00    8.4901017987727556E+00   -1.5366141652822948E-01
Ga    5.1719714298097559E+00    1.0357777042688047E+01    5.1364354172145532E-01
N    5.1766700423609651E+00    1.0364224873087618E+01    2.4362772794916121E+00
Ga    5.1604645401526517E+00    8.4964169225855635E+00    3.1462415284551657E+00
N    5.1605767029178908E+00    8.4936929007864297E+00    5.0761462582506605E+00
Ga    5.1780992481623862E+00    1.0362285335802847E+01    5.7655344581762575E+00
N    5.1816009926157358E+00    1.0369187726524183E+01    7.6987480278408631E+00
Ga    5.1671058383503556E+00    8.4973846782229501E+00    8.3786171379649126E+00
N    5.1611766913169657E+00    8.4840771654536802E+00    1.0309465471787474E+01
Ga    5.1624556697375477E+00    1.0356223138656791E+01    1.0965165147136787E+01
N    5.1543778221403302E+00    1.0356117070297229E+01    1.2870372178369369E+01
Ga    5.2146085710380818E+00    8.5517025736350920E+00    1.3658401446716883E+01
N    4.6948265756770180E+00    8.2207609696500761E+00    1.5520890402437383E+01
Ga    3.5660471823730133E+00    9.4213738861674639E+00    1.6744787977019119E+01
N    5.3176424602510100E+00    8.5850731400205085E+00    1.6882299536307031E+01
H    2.1629096843417506E-01    1.2106499458922100E-01   -1.1808210230282568E+00
H   -1.3944348099082251E+00    2.9118756289457304E+00   -1.1787888961113002E+00
H   -3.0047377666520370E+00    5.7007372790097772E+00   -1.1791139981092342E+00
H   -4.6148047966779826E+00    8.4897405156035344E+00   -1.1787015347576830E+00
H    3.4744917890580851E+00    1.2191341171948271E-01   -1.1785141526555061E+00
H    1.8639751667903757E+00    2.9114528015767998E+00   -1.1785908613202740E+00
H    2.5228448522829122E-01    5.7009178536258540E+00   -1.1780163924424019E+00
H   -1.3581213226227777E+00    8.4905138814204140E+00   -1.1778975542931782E+00
H    6.7287393225485630E+00    1.2032213118532989E-01   -1.1784504845591632E+00
H    5.1181527281156391E+00    2.9100364728795878E+00   -1.1789044167060585E+00
H    3.5074869945547889E+00    5.6999009140333978E+00   -1.1786484492781835E+00
H    1.8965843714401003E+00    8.4892861913752942E+00   -1.1785752945507912E+00
H    9.9857252757194761E+00    1.2051629065636850E-01   -1.1798008276082701E+00
H    8.3757114661275107E+00    2.9108667930477812E+00   -1.1792054640109215E+00
H    6.7655593004112431E+00    5.6998545429473628E+00   -1.1791100964960808E+00
H    5.1541312550816771E+00    8.4891585098462912E+00   -1.1796323843826826E+00
     &END COORD
     &KIND H
       BASIS_SET DZVP-MOLOPT-SR-GTH-q1
       POTENTIAL GTH-PBE-q1
       &POTENTIAL
1
0.2000000000000000E+00 2 -0.4178900440000000E+01  0.7244633100000000E+00
0
       &END POTENTIAL
     &END KIND
     &KIND N
       BASIS_SET DZVP-MOLOPT-SR-GTH
       POTENTIAL GTH-PBE-q5
       &POTENTIAL
2 3
0.2837905100000000E+00 2 -0.1241522559000000E+02  0.1868095920000000E+01
2
0.2554050000000000E+00 1  0.1363026257000000E+02
0.2454945300000000E+00 0
       &END POTENTIAL
     &END KIND
     &KIND Ga
       BASIS_SET DZVP-MOLOPT-SR-GTH
       POTENTIAL GTH-PBE-q13
       &POTENTIAL
2 1 10
0.4900000000000000E+00 0
3
0.4167772300000000E+00 3  0.1047568975000000E+02 -0.4921768140000000E+01  0.8707055900000000E+00
0.7770178090000000E+01 -0.2248152160000000E+01
0.1784415450000000E+01
0.5696265200000000E+00 2  0.1777985340000000E+01  0.1958597600000000E+00
-0.2317443900000000E+00
0.2381265000000000E+00 1 -0.1624868022000000E+02
       &END POTENTIAL
     &END KIND
     &TOPOLOGY
       NUMBER_OF_ATOMS  256
       MULTIPLE_UNIT_CELL  1 1 1
     &END TOPOLOGY
   &END SUBSYS
 &END FORCE_EVAL
