 # Version information for this restart file 
 # current date 2019-06-11 00:02:54.762
 # current working dir /lustre03/project/6037349/rzk/GaN-carbene/444-addat/00-Surface/RKS
 # Program compiled at                              Sun Apr  7 00:48:11 EDT 2019
 # Program compiled on                          beluga2.int.ets1.calculquebec.ca
 # Program compiled for                        Beluga-Linux-x86-64-intel-openmpi
 # Source code revision number                                         svn:18619
 &GLOBAL
   PRINT_LEVEL  MEDIUM
   PROJECT_NAME TEST
   RUN_TYPE  CELL_OPT
 &END GLOBAL
 &MOTION
   &CELL_OPT
     MAX_ITER  300
     STEP_START_VAL  92
     EXTERNAL_PRESSURE     1.0000000000000000E+00
     KEEP_ANGLES  T
     KEEP_SYMMETRY  T
     CONSTRAINT  Z
     PRESSURE_TOLERANCE     5.0000000000000000E+02
   &END CELL_OPT
 &END MOTION
 &FORCE_EVAL
   METHOD  QS
   STRESS_TENSOR  ANALYTICAL
   &DFT
     BASIS_SET_FILE_NAME BASIS_MOLOPT
     POTENTIAL_FILE_NAME GTH_POTENTIALS
     SURFACE_DIPOLE_CORRECTION  T
     SURF_DIP_DIR  Z
     &SCF
       MAX_SCF  100
       EPS_SCF     5.0000000000000004E-06
       &OT  T
         PRECONDITIONER  FULL_ALL
       &END OT
       &OUTER_SCF  T
         OPTIMIZER  NONE
         EPS_SCF     5.0000000000000004E-06
         MAX_SCF  4
       &END OUTER_SCF
       &PRINT
         &RESTART  OFF
           BACKUP_COPIES  1
           &EACH
             JUST_ENERGY  0
             QS_SCF  0
             MD  20
           &END EACH
         &END RESTART
       &END PRINT
     &END SCF
     &QS
       EPS_DEFAULT     1.0000000000000000E-14
       METHOD  GPW
     &END QS
     &MGRID
       NGRIDS  5
       CUTOFF     1.2000000000000000E+03
     &END MGRID
     &XC
       DENSITY_CUTOFF     1.0000000000000000E-10
       GRADIENT_CUTOFF     1.0000000000000000E-10
       TAU_CUTOFF     1.0000000000000000E-10
       &XC_FUNCTIONAL  NO_SHORTCUT
         &PBE  T
         &END PBE
       &END XC_FUNCTIONAL
       &VDW_POTENTIAL
         POTENTIAL_TYPE  PAIR_POTENTIAL
         &PAIR_POTENTIAL
           R_CUTOFF     1.0000000000000005E+01
           TYPE  DFTD3
           PARAMETER_FILE_NAME dftd3.dat
           REFERENCE_FUNCTIONAL PBE
           EPS_CN     9.9999999999999995E-07
           CALCULATE_C9_TERM  T
           REFERENCE_C9_TERM  T
           LONG_RANGE_CORRECTION  F
           VERBOSE_OUTPUT  F
         &END PAIR_POTENTIAL
       &END VDW_POTENTIAL
     &END XC
   &END DFT
   &SUBSYS
     &CELL
       A     1.3028361168962022E+01    0.0000000000000000E+00    0.0000000000000000E+00
       B    -6.4422177484881118E+00    1.1158248453803594E+01    0.0000000000000000E+00
       C     0.0000000000000000E+00    0.0000000000000000E+00    3.2000000000000000E+01
       MULTIPLE_UNIT_CELL  1 1 1
       &CELL_REF
         A     1.2982353780853531E+01    0.0000000000000000E+00    0.0000000000000000E+00
         B    -6.4911768904267628E+00    1.1243048175136114E+01    0.0000000000000000E+00
         C     0.0000000000000000E+00    0.0000000000000000E+00    3.2000000000000000E+01
         MULTIPLE_UNIT_CELL  1 1 1
       &END CELL_REF
     &END CELL
     &COORD
N    1.6273707475909055E-01    8.4571411783641554E-02   -1.5234615493343329E-01
Ga    1.8256535829167031E-01    1.9551193627327834E+00    5.1548783908726148E-01
N    2.1792450516218276E-01    1.9833557905655255E+00    2.4375140062685179E+00
Ga    2.0332075654969045E-01    1.1701858242770734E-01    3.1419140418399181E+00
N    2.2075700721296151E-01    1.2753388059450854E-01    5.0705669171486747E+00
Ga    2.3937448616834672E-01    1.9924287800381684E+00    5.7722766980326847E+00
N    2.4693985554942013E-01    2.0040859673299258E+00    7.7060876215118626E+00
Ga    2.3119429108390557E-01    1.3930030639197483E-01    8.3960166722401972E+00
N    2.3619660911337226E-01    1.3374313409968916E-01    1.0325500826125383E+01
Ga    2.5479638964394619E-01    2.0002739626226083E+00    1.1013573735056079E+01
N    2.6992277534485909E-01    1.9993972495954879E+00    1.2950094502463253E+01
Ga    2.1010493332956204E-01    1.2722523128701915E-01    1.3625174746287145E+01
N   -3.0259172704616122E-01   -1.6801836784054575E-01    1.5377120286712490E+01
Ga   -1.0041833620219702E+00    9.6100879024652819E-01    1.6765219216319085E+01
N    3.1249818115192640E-01    1.5984474901164575E-01    1.8041241161464662E+01
N   -1.4485872383701903E+00    2.8740738175227096E+00   -1.5017626772765191E-01
Ga   -1.4280600946422377E+00    4.7437574107551415E+00    5.1596893343424000E-01
N   -1.3922261473099820E+00    4.7710730523211717E+00    2.4374976301749012E+00
Ga   -1.4065763576931947E+00    2.9067424596897551E+00    3.1480917842513794E+00
N   -1.3866250213200333E+00    2.9174934565758983E+00    5.0765193399478372E+00
Ga   -1.3705420482972588E+00    4.7856136057056347E+00    5.7765719662155286E+00
N   -1.3628173757677067E+00    4.7938774537372151E+00    7.7103721908618255E+00
Ga   -1.3794906020948587E+00    2.9260577501562803E+00    8.3933350540434812E+00
N   -1.3721735364102383E+00    2.9309585906938853E+00    1.0331253212188534E+01
Ga   -1.3606654540785095E+00    4.7985263933360409E+00    1.1024696303902619E+01
N   -1.3473792106728675E+00    4.8164489273772801E+00    1.2967003811787041E+01
Ga   -1.3380320820708882E+00    2.9435822621297181E+00    1.3619616606672167E+01
N   -1.8659231992672034E+00    2.4986619218520771E+00    1.5436318794513911E+01
Ga   -2.8613662292312259E+00    4.2437745007672385E+00    1.6845604432378671E+01
N   -1.3836000663486407E+00    2.9332979368430210E+00    1.6717095359558261E+01
N   -3.0593185446070352E+00    5.6631827419859606E+00   -1.4839414545299892E-01
Ga   -3.0388962102601473E+00    7.5340487702183410E+00    5.1629648150401164E-01
N   -3.0035319375418430E+00    7.5624388239990052E+00    2.4380161792724375E+00
Ga   -3.0164096422548257E+00    5.6968551234973681E+00    3.1443859484777508E+00
N   -2.9976793273230253E+00    5.7079846433911072E+00    5.0744257328380318E+00
Ga   -2.9813039276942206E+00    7.5763761916863617E+00    5.7742556514744185E+00
N   -2.9736225671232748E+00    7.5869328360709973E+00    7.7086994668963724E+00
Ga   -2.9900719418465442E+00    5.7186053973914683E+00    8.3859762337403083E+00
N   -2.9819085813919051E+00    5.7165591799621644E+00    1.0323134979968559E+01
Ga   -2.9649999976107750E+00    7.5765496786894238E+00    1.1023454188205335E+01
N   -2.9438966395318253E+00    7.5892896533002396E+00    1.2968659987312689E+01
Ga   -2.9802171953905026E+00    5.7232348729009432E+00    1.3677727847209177E+01
N   -3.4333655509512133E+00    5.4491959443466031E+00    1.5459926737921013E+01
Ga   -4.1971175409035917E+00    6.5404386122262590E+00    1.6853834602967940E+01
N   -2.8594304116277849E+00    5.7800930174695768E+00    1.8117611186155504E+01
N   -4.6690986155954777E+00    8.4525409603538044E+00   -1.5021857094874255E-01
Ga   -4.6489502306429635E+00    1.0323106368670727E+01    5.1566683075683151E-01
N   -4.6131151953023162E+00    1.0350102232948336E+01    2.4374607818767000E+00
Ga   -4.6281943413817013E+00    8.4858765743624147E+00    3.1479960427898215E+00
N   -4.6088688803879556E+00    8.4982467951181846E+00    5.0764189013684140E+00
Ga   -4.5952782818638216E+00    1.0367191746734221E+01    5.7750047147322539E+00
N   -4.5859370966914179E+00    1.0374789279666214E+01    7.7090833452505789E+00
Ga   -4.6009820149972551E+00    8.5076375913548574E+00    8.3951230276755311E+00
N   -4.5886803394667215E+00    8.5049061290006396E+00    1.0332739793972758E+01
Ga   -4.5765365844220742E+00    1.0376121992827416E+01    1.1018665830135498E+01
N   -4.5755224257561613E+00    1.0397057625342557E+01    1.2956205848044414E+01
Ga   -4.5630987226551047E+00    8.5334205073313267E+00    1.3624655829144015E+01
N   -5.2049329219008031E+00    8.2989178318956025E+00    1.5443836444533931E+01
Ga   -6.1079854063194734E+00    9.7942796498381792E+00    1.6738920697931960E+01
N   -4.5814312295993203E+00    8.4788330596099843E+00    1.6725614102297367E+01
N    3.4199100435904408E+00    8.4539710751569824E-02   -1.5054782372604622E-01
Ga    3.4391094099792614E+00    1.9545431954507992E+00    5.1587856426330714E-01
N    3.4730788065941054E+00    1.9816100582342016E+00    2.4388151787466881E+00
Ga    3.4627896284214033E+00    1.1818977134669877E-01    3.1532562943608480E+00
N    3.4802354155454505E+00    1.2957128501747425E-01    5.0837253416116761E+00
Ga    3.5017941889341517E+00    1.9980036226389664E+00    5.7813075724960346E+00
N    3.5076125575544852E+00    2.0064080600429102E+00    7.7160204754940196E+00
Ga    3.4890001763997200E+00    1.3863871580633130E-01    8.3975550634264202E+00
N    3.5016544783173340E+00    1.3673539276659835E-01    1.0338344003514168E+01
Ga    3.5060690687277707E+00    1.9992228964054726E+00    1.1032508177960530E+01
N    3.5313474469845558E+00    2.0171989658412492E+00    1.2980439723796175E+01
Ga    3.4830803904864513E+00    1.6853412409183491E-01    1.3691409105814143E+01
N    2.9137070676564991E+00   -1.1046473484873186E-01    1.5550701223486124E+01
Ga    1.8430363413305990E+00    1.0314269542726187E+00    1.7529906356959685E+01
N    3.4999212720145558E+00    2.2525130894820611E-01    1.6880754438432742E+01
N    1.8093060799093024E+00    2.8739884651762879E+00   -1.5039307697779311E-01
Ga    1.8284915321841280E+00    4.7435166197896299E+00    5.1772095254715689E-01
N    1.8629560219441186E+00    4.7703758346630636E+00    2.4409676228645751E+00
Ga    1.8521590031084993E+00    2.9073337044119989E+00    3.1564959407314954E+00
N    1.8710347902768567E+00    2.9173005437521558E+00    5.0862142704849926E+00
Ga    1.8874115147879515E+00    4.7879622801606168E+00    5.7819532948237651E+00
N    1.8942885289800018E+00    4.7948388723095068E+00    7.7176062765576612E+00
Ga    1.8786474370183148E+00    2.9275112624798241E+00    8.3970310487439672E+00
N    1.8877542517909756E+00    2.9281508396046054E+00    1.0338654511532166E+01
Ga    1.8960093910426474E+00    4.7880014358940564E+00    1.1042852806172462E+01
N    1.9011836449572321E+00    4.7889960486662639E+00    1.2997691079732867E+01
Ga    1.9042117355722150E+00    2.9029107805893011E+00    1.3680205393268668E+01
N    1.3797058896486971E+00    2.5321703444387609E+00    1.5539704101977318E+01
Ga    2.4876059785484370E-01    3.8374200313944669E+00    1.6435664460037554E+01
N    1.9688778220723031E+00    2.8639148726805326E+00    1.6874097445606616E+01
N    1.9807072198446779E-01    5.6635706567620074E+00   -1.5022660501554794E-01
Ga    2.1743843749102479E-01    7.5335325566886064E+00    5.1780432076191052E-01
N    2.5270857595720342E-01    7.5614281368343867E+00    2.4406994847924648E+00
Ga    2.4086130606115960E-01    5.6978762581365814E+00    3.1531893881973541E+00
N    2.5901447393638988E-01    5.7091635789480177E+00    5.0834358069750811E+00
Ga    2.7846524575063930E-01    7.5761539973675571E+00    5.7861788684402056E+00
N    2.8402152230360161E-01    7.5838069347168204E+00    7.7223611950800626E+00
Ga    2.6820573088516286E-01    5.7144082443761510E+00    8.4029060233229274E+00
N    2.7613677193737829E-01    5.7152624708853832E+00    1.0344586633255656E+01
Ga    2.9318129190382597E-01    7.5827661355137810E+00    1.1026772124591577E+01
N    3.2653168322384230E-01    7.6073019190405597E+00    1.2976646950786822E+01
Ga    2.8287746919336210E-01    5.7520687593366642E+00    1.3669991066611335E+01
N   -2.7670028413536657E-01    5.4690242528838340E+00    1.5521946039871843E+01
Ga   -1.3336107516894029E+00    6.6396766204536473E+00    1.7577612768680069E+01
N    2.8287364474072740E-01    5.8244787313510571E+00    1.6844621992142901E+01
N   -1.4124593701557906E+00    8.4528021875515993E+00   -1.4972690585615409E-01
Ga   -1.3928711218105909E+00    1.0322780304839535E+01    5.1762576935909355E-01
N   -1.3580285302853317E+00    1.0349350628841723E+01    2.4405381425345376E+00
Ga   -1.3692738480398166E+00    8.4862890345513495E+00    3.1553211074628562E+00
N   -1.3493965270959793E+00    8.4973972572757841E+00    5.0854427367858452E+00
Ga   -1.3328511455225363E+00    1.0366372766378049E+01    5.7838003403585718E+00
N   -1.3254863421852592E+00    1.0375247488567899E+01    7.7191049842995874E+00
Ga   -1.3434661533230288E+00    8.5096263575338522E+00    8.4047505713716593E+00
N   -1.3338075926701800E+00    8.5079050595465766E+00    1.0348071905335548E+01
Ga   -1.3250390791354549E+00    1.0372218881962084E+01    1.1047970240978485E+01
N   -1.3257142831599529E+00    1.0384717350826842E+01    1.3003560763341262E+01
Ga   -1.2992323476238110E+00    8.5010623735763176E+00    1.3668866260204750E+01
N   -1.8162010475321344E+00    8.1491310608583429E+00    1.5526040712116581E+01
Ga   -2.9653712057659618E+00    9.4125019251897584E+00    1.6442311936012910E+01
N   -1.2286117096846216E+00    8.4522281424304531E+00    1.6845716246457535E+01
N    6.6749423555440739E+00    8.4459832858724188E-02   -1.5158126574502565E-01
Ga    6.6950638970756282E+00    1.9536653963297936E+00    5.1723961819624831E-01
N    6.7302836451932180E+00    1.9799165659650091E+00    2.4400321542663117E+00
Ga    6.7174988019680564E+00    1.1607895052204129E-01    3.1532385598629902E+00
N    6.7369275026694488E+00    1.2863205563077706E-01    5.0823350234012779E+00
Ga    6.7531407953897133E+00    1.9959369657267887E+00    5.7779375605523455E+00
N    6.7585367540495103E+00    2.0023961686249674E+00    7.7135095502890012E+00
Ga    6.7448105719731002E+00    1.3987114047378618E-01    8.4139826996762217E+00
N    6.7500108084780379E+00    1.3474443253823246E-01    1.0357660532010105E+01
Ga    6.7770410871916118E+00    2.0089837396789734E+00    1.1034466339733505E+01
N    6.8088033835452055E+00    2.0254772873021252E+00    1.2986263158818112E+01
Ga    6.7828683754335977E+00    1.6110670081308145E-01    1.3651782582777580E+01
N    6.2192993157702769E+00   -1.5469458453121010E-01    1.5489594557852698E+01
Ga    5.1792433160213305E+00    1.0932849145514065E+00    1.6590625582274743E+01
N    6.8830403353456333E+00    1.9590425038119300E-01    1.7063876598275204E+01
N    5.0657204989975595E+00    2.8737644436230267E+00   -1.5182610540926139E-01
Ga    5.0843458295392052E+00    4.7434605078802665E+00    5.1774793456702928E-01
N    5.1184215141971743E+00    4.7716479017894908E+00    2.4403805696104759E+00
Ga    5.1073882204904155E+00    2.9069386972404034E+00    3.1505886427990641E+00
N    5.1277237459196163E+00    2.9189352801630504E+00    5.0796259323477644E+00
Ga    5.1422922236819018E+00    4.7854367524575316E+00    5.7794933932316095E+00
N    5.1470315669360760E+00    4.7923681740398614E+00    7.7144199882385234E+00
Ga    5.1378673309324068E+00    2.9280769065165861E+00    8.4093852605596506E+00
N    5.1408497406217428E+00    2.9278518162299694E+00    1.0352934759040636E+01
Ga    5.1672050407772661E+00    4.8007768335806675E+00    1.1034282317417926E+01
N    5.1897204911581092E+00    4.8232022699658925E+00    1.2985959355806230E+01
Ga    5.1859799200957681E+00    2.9557337309305902E+00    1.3641038816679314E+01
N    4.6340722520309825E+00    2.6362916825709894E+00    1.5464326298571045E+01
Ga    3.5702406352299096E+00    3.8603171092398245E+00    1.6584267208752969E+01
N    5.2591448325091719E+00    2.9847570450097614E+00    1.7065566039479837E+01
N    3.4548778057501233E+00    5.6622131284422563E+00   -1.5241735386110061E-01
Ga    3.4730427435793159E+00    7.5322446489688648E+00    5.1519157127434412E-01
N    3.5065475886273449E+00    7.5597565288997579E+00    2.4385349343558640E+00
Ga    3.4956854822907966E+00    5.6971184616475457E+00    3.1534193418708476E+00
N    3.5160360099728578E+00    5.7079091598106855E+00    5.0822086599547474E+00
Ga    3.5321909928439452E+00    7.5754371233617865E+00    5.7781847894883684E+00
N    3.5359605094350433E+00    7.5797614689988153E+00    7.7110202752378934E+00
Ga    3.5247394446536413E+00    5.7162637266760292E+00    8.4129798127934041E+00
N    3.5283523048513694E+00    5.7133456656814543E+00    1.0355899222126375E+01
Ga    3.5556952814133407E+00    7.5844707224534345E+00    1.1035067186349741E+01
N    3.5902701208245795E+00    7.5976690189976175E+00    1.2984600285418585E+01
Ga    3.5570789522974366E+00    5.7330870285417834E+00    1.3645779697827935E+01
N    2.9932452960694951E+00    5.4044005735082603E+00    1.5479646442872875E+01
Ga    1.9679797007542148E+00    6.6811323508252096E+00    1.6569211085981905E+01
N    3.6439766106213787E+00    5.7653279939764959E+00    1.7066270964782102E+01
N    1.8431072799892763E+00    8.4521230114871120E+00   -1.5214256470684781E-01
Ga    1.8622358197315871E+00    1.0321877676018818E+01    5.1520320380050411E-01
N    1.8959002904729505E+00    1.0347618244932777E+01    2.4382490775991350E+00
Ga    1.8858255321039619E+00    8.4856704582842823E+00    3.1549710155877229E+00
N    1.9048041408482055E+00    8.4974776453694361E+00    5.0841840762783406E+00
Ga    1.9211608296625700E+00    1.0365408113640132E+01    5.7809027377578479E+00
N    1.9223789610215001E+00    1.0373408535717910E+01    7.7142095054859379E+00
Ga    1.9177017160829624E+00    8.5086190707871872E+00    8.4060342338633198E+00
N    1.9251787088815586E+00    8.5080745086900400E+00    1.0349830794940452E+01
Ga    1.9445664152045228E+00    1.0380016432748906E+01    1.1036752428388663E+01
N    1.9653502185396974E+00    1.0406602101639463E+01    1.2987449795221616E+01
Ga    1.9870568589160997E+00    8.5431545146454084E+00    1.3638202006469552E+01
N    1.4585179522564291E+00    8.2412927672866036E+00    1.5470815430669916E+01
Ga    3.8028344352206189E-01    9.4536250011640881E+00    1.6568572032524138E+01
N    2.0476417986520850E+00    8.5603739040940034E+00    1.7105388233444621E+01
N    9.9316557425133105E+00    8.4252112189944925E-02   -1.5193190045958668E-01
Ga    9.9517596526239451E+00    1.9543980274506516E+00    5.1514789551864171E-01
N    9.9864934636541562E+00    1.9808744968339120E+00    2.4377969550636878E+00
Ga    9.9726969240965904E+00    1.1463660399624505E-01    3.1465968907392439E+00
N    9.9912763453958959E+00    1.2444578201989381E-01    5.0756460656993516E+00
Ga    1.0013181487438866E+01    1.9934766546332607E+00    5.7668966259290722E+00
N    1.0020148553515781E+01    2.0058310698320336E+00    7.6978133137804052E+00
Ga    9.9966524506925420E+00    1.4105702307013657E-01    8.3808466053832547E+00
N    9.9947565495798099E+00    1.4203337414726730E-01    1.0310808609577517E+01
Ga    1.0026180493779069E+01    2.0009096288127663E+00    1.1004213068412019E+01
N    1.0042655433287033E+01    2.0187038518774960E+00    1.2938092997358970E+01
Ga    1.0086018057737418E+01    1.7604513524884435E-01    1.3659531124703905E+01
N    9.5954647299221971E+00   -1.1934749997597106E-01    1.5531875731572560E+01
Ga    8.4795887144623094E+00    1.1179149304909619E+00    1.6703774911500076E+01
N    1.0221667040336619E+01    2.3836187732298555E-01    1.6888638701746157E+01
N    8.3214851428355434E+00    2.8736333505822000E+00   -1.5026843253386052E-01
Ga    8.3410979877619038E+00    4.7427706257926712E+00    5.1710071087162268E-01
N    8.3755228334521998E+00    4.7694391353241681E+00    2.4394189983952201E+00
Ga    8.3634841299415150E+00    2.9053434006451155E+00    3.1519221951438561E+00
N    8.3820991244052596E+00    2.9162258400819847E+00    5.0804418634761612E+00
Ga    8.4017425776871377E+00    4.7872395514449062E+00    5.7734009292540795E+00
N    8.4054702429504680E+00    4.7939953332336991E+00    7.7063614427724447E+00
Ga    8.3941098026413226E+00    2.9229815221607227E+00    8.3833831881136884E+00
N    8.3999475034309992E+00    2.9205119884868216E+00    1.0320171704264007E+01
Ga    8.4100305768962720E+00    4.7910477398825835E+00    1.0984315788629180E+01
N    8.4150092463343693E+00    4.7967151073177838E+00    1.2910663412450592E+01
Ga    8.4678321311583744E+00    2.9750849507681836E+00    1.3650101806247729E+01
N    8.0039400503517406E+00    2.6977412995070260E+00    1.5529183910322718E+01
Ga    6.8476572620397960E+00    3.8792089414432387E+00    1.6711383205856631E+01
N    8.6211790917901485E+00    3.0583376466563510E+00    1.6905873983802717E+01
N    6.7116113800606705E+00    5.6621600886225982E+00   -1.5048838333496442E-01
Ga    6.7313037366753443E+00    7.5323939174707606E+00    5.1497028134500167E-01
N    6.7654867418096494E+00    7.5598046738891886E+00    2.4376059053719068E+00
Ga    6.7527743016739672E+00    5.6961819608201454E+00    3.1509270171373558E+00
N    6.7699977204334365E+00    5.7066456409501658E+00    5.0796495355981790E+00
Ga    6.7901074213151409E+00    7.5771706292449190E+00    5.7672332086026756E+00
N    6.7999413369104671E+00    7.5857585953476798E+00    7.6980230054330887E+00
Ga    6.7775681381947468E+00    5.7218015724741615E+00    8.3848310488343802E+00
N    6.7840035523758457E+00    5.7195011692523128E+00    1.0319524543497627E+01
Ga    6.8043235028863425E+00    7.5845328434208614E+00    1.1004088871051602E+01
N    6.8256826386203491E+00    7.5960017485976055E+00    1.2939285079290951E+01
Ga    6.8617918309286283E+00    5.7543468742401087E+00    1.3647671975644554E+01
N    6.3899605843846716E+00    5.4819810250452008E+00    1.5526512332708760E+01
Ga    5.2541224197860856E+00    6.6673907128117911E+00    1.6696603791551311E+01
N    7.0206179964934554E+00    5.8177823798735595E+00    1.6898045444519742E+01
N    5.1007759295550903E+00    8.4516040204347913E+00   -1.5163258037616095E-01
Ga    5.1204520653467949E+00    1.0322190664488261E+01    5.1317875857517781E-01
N    5.1543000179888248E+00    1.0347746489356041E+01    2.4353509904169144E+00
Ga    5.1409889680357788E+00    8.4840936849833319E+00    3.1495633107320122E+00
N    5.1594256675193462E+00    8.4966505981209686E+00    5.0778857230061423E+00
Ga    5.1802269082240917E+00    1.0366249658203312E+01    5.7741543264231732E+00
N    5.1848877677225751E+00    1.0373815131112334E+01    7.7063105234525970E+00
Ga    5.1707227613687969E+00    8.5006237370873237E+00    8.3799517908904981E+00
N    5.1745885379158274E+00    8.4872121797994140E+00    1.0309866398091840E+01
Ga    5.1746914023537327E+00    1.0359206313887906E+01    1.0957782759673274E+01
N    5.1605534325462221E+00    1.0359395588233824E+01    1.2868981488064339E+01
Ga    5.2452810925011830E+00    8.5576652510794791E+00    1.3659106315009812E+01
N    4.7542732288531360E+00    8.2557684463197774E+00    1.5529144505455728E+01
Ga    3.6352011052708790E+00    9.4622050935653874E+00    1.6769105818409088E+01
N    5.3798176778267655E+00    8.6151618331867965E+00    1.6889060037337185E+01
H    1.5988450608972310E-01    8.2597930179327816E-02   -1.1794851332720784E+00
H   -1.4514471814512182E+00    2.8752039679148069E+00   -1.1770924346713050E+00
H   -3.0613707298869417E+00    5.6616899998238814E+00   -1.1754505336216112E+00
H   -4.6701733745124896E+00    8.4500863930156243E+00   -1.1772070511974189E+00
H    3.4168950964799509E+00    8.3432716126604189E-02   -1.1774918963571888E+00
H    1.8070129462010343E+00    2.8721971030600537E+00   -1.1772101978121101E+00
H    1.9254481130838538E-01    5.6608460309380799E+00   -1.1773445148229018E+00
H   -1.4173180017951932E+00    8.4500851194864914E+00   -1.1767314507541953E+00
H    6.6705924043670093E+00    8.3190768491195569E-02   -1.1787313677193763E+00
H    5.0618387384909092E+00    2.8716984090200595E+00   -1.1790751856903119E+00
H    3.4517517034366305E+00    5.6590660520730047E+00   -1.1797010517446140E+00
H    1.8383030121631485E+00    8.4500410053071473E+00   -1.1792897505165669E+00
H    9.9294598501563804E+00    8.3368122132863209E-02   -1.1790545072300540E+00
H    8.3182067074062687E+00    2.8739756090699045E+00   -1.1772657777755930E+00
H    6.7097861395510803E+00    5.6601217430099044E+00   -1.1775799984166870E+00
H    5.0989126984506106E+00    8.4510769440815157E+00   -1.1786939613685405E+00
     &END COORD
     &KIND H
       BASIS_SET DZVP-MOLOPT-SR-GTH-q1
       POTENTIAL GTH-PBE-q1
       &POTENTIAL
1
0.2000000000000000E+00 2 -0.4178900440000000E+01  0.7244633100000000E+00
0
       &END POTENTIAL
     &END KIND
     &KIND N
       BASIS_SET DZVP-MOLOPT-SR-GTH
       POTENTIAL GTH-PBE-q5
       &POTENTIAL
2 3
0.2837905100000000E+00 2 -0.1241522559000000E+02  0.1868095920000000E+01
2
0.2554050000000000E+00 1  0.1363026257000000E+02
0.2454945300000000E+00 0
       &END POTENTIAL
     &END KIND
     &KIND Ga
       BASIS_SET DZVP-MOLOPT-SR-GTH
       POTENTIAL GTH-PBE-q13
       &POTENTIAL
2 1 10
0.4900000000000000E+00 0
3
0.4167772300000000E+00 3  0.1047568975000000E+02 -0.4921768140000000E+01  0.8707055900000000E+00
0.7770178090000000E+01 -0.2248152160000000E+01
0.1784415450000000E+01
0.5696265200000000E+00 2  0.1777985340000000E+01  0.1958597600000000E+00
-0.2317443900000000E+00
0.2381265000000000E+00 1 -0.1624868022000000E+02
       &END POTENTIAL
     &END KIND
     &TOPOLOGY
       NUMBER_OF_ATOMS  256
       MULTIPLE_UNIT_CELL  1 1 1
     &END TOPOLOGY
   &END SUBSYS
 &END FORCE_EVAL
