 # Version information for this restart file 
 # current date 2019-06-10 23:42:35.441
 # current working dir /lustre03/project/6037349/rzk/GaN-carbene/444-addat/00-Surface/RKS
 # Program compiled at                              Sun Apr  7 00:48:11 EDT 2019
 # Program compiled on                          beluga2.int.ets1.calculquebec.ca
 # Program compiled for                        Beluga-Linux-x86-64-intel-openmpi
 # Source code revision number                                         svn:18619
 &GLOBAL
   PRINT_LEVEL  MEDIUM
   PROJECT_NAME TEST
   RUN_TYPE  CELL_OPT
 &END GLOBAL
 &MOTION
   &CELL_OPT
     MAX_ITER  300
     STEP_START_VAL  84
     EXTERNAL_PRESSURE     1.0000000000000000E+00
     KEEP_ANGLES  T
     KEEP_SYMMETRY  T
     CONSTRAINT  Z
     PRESSURE_TOLERANCE     5.0000000000000000E+02
   &END CELL_OPT
 &END MOTION
 &FORCE_EVAL
   METHOD  QS
   STRESS_TENSOR  ANALYTICAL
   &DFT
     BASIS_SET_FILE_NAME BASIS_MOLOPT
     POTENTIAL_FILE_NAME GTH_POTENTIALS
     SURFACE_DIPOLE_CORRECTION  T
     SURF_DIP_DIR  Z
     &SCF
       MAX_SCF  100
       EPS_SCF     5.0000000000000004E-06
       &OT  T
         PRECONDITIONER  FULL_ALL
       &END OT
       &OUTER_SCF  T
         OPTIMIZER  NONE
         EPS_SCF     5.0000000000000004E-06
         MAX_SCF  4
       &END OUTER_SCF
       &PRINT
         &RESTART  OFF
           BACKUP_COPIES  1
           &EACH
             JUST_ENERGY  0
             QS_SCF  0
             MD  20
           &END EACH
         &END RESTART
       &END PRINT
     &END SCF
     &QS
       EPS_DEFAULT     1.0000000000000000E-14
       METHOD  GPW
     &END QS
     &MGRID
       NGRIDS  5
       CUTOFF     1.2000000000000000E+03
     &END MGRID
     &XC
       DENSITY_CUTOFF     1.0000000000000000E-10
       GRADIENT_CUTOFF     1.0000000000000000E-10
       TAU_CUTOFF     1.0000000000000000E-10
       &XC_FUNCTIONAL  NO_SHORTCUT
         &PBE  T
         &END PBE
       &END XC_FUNCTIONAL
       &VDW_POTENTIAL
         POTENTIAL_TYPE  PAIR_POTENTIAL
         &PAIR_POTENTIAL
           R_CUTOFF     1.0000000000000005E+01
           TYPE  DFTD3
           PARAMETER_FILE_NAME dftd3.dat
           REFERENCE_FUNCTIONAL PBE
           EPS_CN     9.9999999999999995E-07
           CALCULATE_C9_TERM  T
           REFERENCE_C9_TERM  T
           LONG_RANGE_CORRECTION  F
           VERBOSE_OUTPUT  F
         &END PAIR_POTENTIAL
       &END VDW_POTENTIAL
     &END XC
   &END DFT
   &SUBSYS
     &CELL
       A     1.3021091643109992E+01    0.0000000000000000E+00    0.0000000000000000E+00
       B    -6.4473246480124624E+00    1.1167093863248843E+01    0.0000000000000000E+00
       C     0.0000000000000000E+00    0.0000000000000000E+00    3.2000000000000000E+01
       MULTIPLE_UNIT_CELL  1 1 1
       &CELL_REF
         A     1.2982353780853531E+01    0.0000000000000000E+00    0.0000000000000000E+00
         B    -6.4911768904267628E+00    1.1243048175136114E+01    0.0000000000000000E+00
         C     0.0000000000000000E+00    0.0000000000000000E+00    3.2000000000000000E+01
         MULTIPLE_UNIT_CELL  1 1 1
       &END CELL_REF
     &END CELL
     &COORD
N    1.0223504218265776E-01    4.6169623301713779E-02   -1.5050417174055697E-01
Ga    1.1913785792552783E-01    1.9141380802716104E+00    5.1865954318431051E-01
N    1.6608106595261410E-01    1.9514006006116256E+00    2.4397522074561397E+00
Ga    1.5865995253644782E-01    8.9391497740847828E-02    3.1529032544726783E+00
N    2.0503009979172057E-01    1.1627398221215472E-01    5.0803808423774015E+00
Ga    2.2408495300701642E-01    1.9890346014846942E+00    5.7744792866099610E+00
N    2.5033825358643369E-01    2.0092423139068298E+00    7.7069080355623276E+00
Ga    2.2949243610783079E-01    1.3736982954986945E-01    8.3789234504834624E+00
N    2.4517143950849873E-01    1.4382443454798574E-01    1.0317974913639048E+01
Ga    2.7208087351547722E-01    2.0104834571051415E+00    1.1011857438113053E+01
N    3.0930701907624503E-01    2.0397912496119122E+00    1.2943850095858291E+01
Ga    2.7803791467965416E-01    1.6629302080998271E-01    1.3597944649981818E+01
N   -2.3484959615821269E-01   -1.2799340324712072E-01    1.5349862354945614E+01
Ga   -9.0294235122559008E-01    1.0162315013591352E+00    1.6737336569677300E+01
N    3.9309183122929631E-01    2.1271970136844945E-01    1.8041275035604968E+01
N   -1.5094370789697649E+00    2.8387159988192292E+00   -1.4717257695261879E-01
Ga   -1.4934801479883208E+00    4.7074225380286103E+00    5.2256865904988226E-01
N   -1.4468289255403670E+00    4.7448312460475437E+00    2.4434880353704265E+00
Ga   -1.4537474009900686E+00    2.8806468084504071E+00    3.1508200451351844E+00
N   -1.4085250986666067E+00    2.9100028884063138E+00    5.0784068380875782E+00
Ga   -1.3884972910781024E+00    4.7794623234972278E+00    5.7752209009786002E+00
N   -1.3635917230121744E+00    4.8009232786169340E+00    7.7096100838153525E+00
Ga   -1.3751346315930182E+00    2.9339646909505661E+00    8.3889339083637786E+00
N   -1.3586480619450365E+00    2.9362053883287835E+00    1.0328719590910634E+01
Ga   -1.3507468431514140E+00    4.8008078362920132E+00    1.1024867960665230E+01
N   -1.3166795733035535E+00    4.8320428990468063E+00    1.2962723517437757E+01
Ga   -1.3069274992566888E+00    2.9669435875057544E+00    1.3617386721802960E+01
N   -1.7988487789446130E+00    2.5426910990866980E+00    1.5447684520730162E+01
Ga   -2.7911275069428405E+00    4.2953509194360828E+00    1.6849108520868196E+01
N   -1.3017147528413702E+00    2.9902306954407702E+00    1.6718553359773992E+01
N   -3.1211860936340892E+00    5.6298708826890893E+00   -1.4936230884607796E-01
Ga   -3.1045800113675845E+00    7.4973657911716280E+00    5.2129981645285417E-01
N   -3.0576277056083967E+00    7.5338336201332776E+00    2.4422194402899069E+00
Ga   -3.0663851652567571E+00    5.6721711441013278E+00    3.1555073378321743E+00
N   -3.0198649706626832E+00    5.6998217143521730E+00    5.0828239264086479E+00
Ga   -2.9994495477221528E+00    7.5689395590342379E+00    5.7784640707415154E+00
N   -2.9740757468162147E+00    7.5906729695112762E+00    7.7120787660247743E+00
Ga   -2.9884163664009984E+00    5.7252402849077413E+00    8.3987212217483087E+00
N   -2.9759894548645134E+00    5.7303784881260640E+00    1.0336771688992705E+01
Ga   -2.9605843128270086E+00    7.5966183455791354E+00    1.1028933799571021E+01
N   -2.9216378584950560E+00    7.6170200727798036E+00    1.2969287874145969E+01
Ga   -2.9405737752749879E+00    5.7520343642000942E+00    1.3669431991955747E+01
N   -3.3947441269604015E+00    5.4876596238514948E+00    1.5452749576919338E+01
Ga   -4.1179445856444312E+00    6.5963497251449921E+00    1.6858404681589494E+01
N   -2.7561760395282739E+00    5.8373193777356196E+00    1.8099786579425523E+01
N   -4.7327869496820352E+00    8.4215626168773277E+00   -1.4709346633559103E-01
Ga   -4.7166772393931433E+00    1.0290742460268600E+01    5.1973604148227770E-01
N   -4.6697978563626945E+00    1.0327970463742600E+01    2.4410443980073833E+00
Ga   -4.6771917164004444E+00    8.4638421597583395E+00    3.1511941976044544E+00
N   -4.6299131375283205E+00    8.4900174016263872E+00    5.0788813915892250E+00
Ga   -4.6092982710709425E+00    1.0360413673187056E+01    5.7717176159274199E+00
N   -4.5848865063769511E+00    1.0383646470676638E+01    7.7041836771676513E+00
Ga   -4.5983295497839372E+00    8.5185986786426753E+00    8.3899206910924260E+00
N   -4.5821293533493224E+00    8.5249376064407034E+00    1.0329475558811623E+01
Ga   -4.5727101186125347E+00    1.0394786470500955E+01    1.1009926818094540E+01
N   -4.5287605992956319E+00    1.0421485150780041E+01    1.2945129460539903E+01
Ga   -4.5386550988027698E+00    8.5643482636263162E+00    1.3621064383420725E+01
N   -5.1458722771294667E+00    8.3607345339121295E+00    1.5452645498076807E+01
Ga   -6.0184406909705945E+00    9.8658731514216207E+00    1.6717226815386834E+01
N   -4.5042411771793178E+00    8.5316795817635569E+00    1.6732126120059302E+01
N    3.3576891338450565E+00    4.6628244414765173E-02   -1.4718164025791658E-01
Ga    3.3748254814377652E+00    1.9149441775000824E+00    5.2193781021601438E-01
N    3.4209517340337001E+00    1.9517721519864657E+00    2.4429868595986490E+00
Ga    3.4137771495713221E+00    8.9553328294221968E-02    3.1535619686807319E+00
N    3.4628697883763504E+00    1.1721618325579911E-01    5.0819833533999264E+00
Ga    3.4765471512877681E+00    1.9851468668170975E+00    5.7859374869661044E+00
N    3.5062461447326894E+00    2.0074403251367454E+00    7.7199182829109958E+00
Ga    3.4906017102032068E+00    1.4304297599132668E-01    8.4050665105135689E+00
N    3.5097220082564116E+00    1.5282608290347743E-01    1.0345317843595961E+01
Ga    3.5313698710598902E+00    2.0170532088034743E+00    1.1030006894144158E+01
N    3.5716485020959894E+00    2.0490732589430456E+00    1.2974611802274172E+01
Ga    3.5264727648208916E+00    2.0112665700370283E-01    1.3681263484480532E+01
N    2.9548615231394670E+00   -4.0237909962045099E-02    1.5566510445186065E+01
Ga    1.9402604105510195E+00    1.0925456389768029E+00    1.7625091762382613E+01
N    3.5580130455609766E+00    2.8792101679031173E-01    1.6892831554551339E+01
N    1.7461699048848440E+00    2.8382735408454773E+00   -1.4638245762980351E-01
Ga    1.7617588923749128E+00    4.7068556376226383E+00    5.2069580037538798E-01
N    1.8069318354820623E+00    4.7431470577133421E+00    2.4413807355985742E+00
Ga    1.8017830751776964E+00    2.8811393314350338E+00    3.1505701961443271E+00
N    1.8501900040418551E+00    2.9101159274185129E+00    5.0799466631125627E+00
Ga    1.8630815504138909E+00    4.7757247125061646E+00    5.7857526683529938E+00
N    1.8878503053780114E+00    4.7976544264729624E+00    7.7204237849726924E+00
Ga    1.8832282778503842E+00    2.9316445999505611E+00    8.4029340641432686E+00
N    1.9064919577643034E+00    2.9356271338126936E+00    1.0341019901418129E+01
Ga    1.9102706019891265E+00    4.7919860590073844E+00    1.1039202766254437E+01
N    1.9372906508424013E+00    4.8131592923721715E+00    1.2992130244488884E+01
Ga    1.9464098734932063E+00    2.9391747540771402E+00    1.3682968469124074E+01
N    1.4503800306956605E+00    2.5518903734685332E+00    1.5556795773233482E+01
Ga    3.2980909576653672E-01    3.8835122540161575E+00    1.6430644371791661E+01
N    2.0384202879459505E+00    2.9030619476215951E+00    1.6873058301576986E+01
N    1.3347912205750867E-01    5.6296477271075007E+00   -1.4586073062171520E-01
Ga    1.4980665046210567E-01    7.4977458883259098E+00    5.2066386266043296E-01
N    1.9405641927711281E-01    7.5331840856854990E+00    2.4416524083692863E+00
Ga    1.9006966414417167E-01    5.6720027605131964E+00    3.1555019276966232E+00
N    2.3698858526646080E-01    5.7000536018587340E+00    5.0839781757494862E+00
Ga    2.4928657111614147E-01    7.5667591689201483E+00    5.7875307399953382E+00
N    2.7574181923159452E-01    7.5880412055713871E+00    7.7238141497631263E+00
Ga    2.6642253654997833E-01    5.7228762520175271E+00    8.4128484295196770E+00
N    2.8848544369526091E-01    5.7266211314999156E+00    1.0356207466304570E+01
Ga    3.0659708793508500E-01    7.5998725635465014E+00    1.1027620621030289E+01
N    3.5121597908663132E-01    7.6311028565637287E+00    1.2969335535985630E+01
Ga    3.1718044884883972E-01    5.7799129968672336E+00    1.3650868799838635E+01
N   -2.0755335465681540E-01    5.5052039066902054E+00    1.5522231421535153E+01
Ga   -1.2457307572230256E+00    6.7116825888606204E+00    1.7545140774055117E+01
N    3.6183879494453636E-01    5.8575940157565718E+00    1.6854824479015733E+01
N   -1.4782525196967098E+00    8.4215300209609509E+00   -1.4549967223865662E-01
Ga   -1.4618508234023893E+00    1.0290047373196355E+01    5.2094928027713483E-01
N   -1.4167436116644174E+00    1.0326294544567357E+01    2.4417118713008779E+00
Ga   -1.4226661370645486E+00    8.4645545727711085E+00    3.1540283533060443E+00
N   -1.3759272306650210E+00    8.4920790408491111E+00    5.0835147023537690E+00
Ga   -1.3605577755653491E+00    1.0358265284270090E+01    5.7859286242794479E+00
N   -1.3362672237025692E+00    1.0379363583605146E+01    7.7206678391945420E+00
Ga   -1.3457404097022438E+00    8.5164910079130127E+00    8.4137683962590746E+00
N   -1.3261988741482178E+00    8.5260883117825639E+00    1.0355501589607199E+01
Ga   -1.3231725540354606E+00    1.0391938334503953E+01    1.1041889132394672E+01
N   -1.2936594595669151E+00    1.0414078771313330E+01    1.2996171422988917E+01
Ga   -1.2718467443747354E+00    8.5335192306128018E+00    1.3659905625459654E+01
N   -1.7593841667558630E+00    8.2132614510520963E+00    1.5521830813654232E+01
Ga   -2.9006458908194168E+00    9.4837861364134106E+00    1.6436796600506622E+01
N   -1.1716804642193892E+00    8.5251168595630258E+00    1.6847527862684260E+01
N    6.6119746124803767E+00    4.6348591755221318E-02   -1.4543148472418074E-01
Ga    6.6288439055200312E+00    1.9153478215698672E+00    5.2003981246610720E-01
N    6.6725583029833935E+00    1.9508755275135021E+00    2.4420948254412740E+00
Ga    6.6645138525836662E+00    8.8498075241606439E-02    3.1532695212607127E+00
N    6.7070125976547867E+00    1.1367284367244927E-01    5.0821754714735770E+00
Ga    6.7267227619506818E+00    1.9809963292538477E+00    5.7827015174021881E+00
N    6.7506756455382986E+00    2.0012820764225556E+00    7.7178348474206953E+00
Ga    6.7419835689722962E+00    1.3841379234397769E-01    8.4132471080191156E+00
N    6.7562217244447664E+00    1.4633196860445202E-01    1.0360428962029891E+01
Ga    6.7951944283501327E+00    2.0164116746152199E+00    1.1038398599683260E+01
N    6.8383293202422832E+00    2.0460873578610004E+00    1.2984789993679987E+01
Ga    6.8135778591041216E+00    1.8546022770956067E-01    1.3645291209988521E+01
N    6.2833235284250657E+00   -1.2138287539814531E-01    1.5488193021485012E+01
Ga    5.2365856989838875E+00    1.1406969995348153E+00    1.6578105467919354E+01
N    6.9284677704332687E+00    2.6332803068538169E-01    1.7070899341644733E+01
N    5.0004452148992753E+00    2.8380050539973594E+00   -1.4662923814715981E-01
Ga    5.0177195448602525E+00    4.7060979318664931E+00    5.2024027912994519E-01
N    5.0622764409141627E+00    4.7408009763472920E+00    2.4424554743870246E+00
Ga    5.0555397236803596E+00    2.8797293420755601E+00    3.1568947067146795E+00
N    5.1001012810031003E+00    2.9062865194837548E+00    5.0855246355249744E+00
Ga    5.1146491865561465E+00    4.7748106205037049E+00    5.7802522551549069E+00
N    5.1367902156908629E+00    4.7966253545012743E+00    7.7163699199364535E+00
Ga    5.1375993321729156E+00    2.9354720573314692E+00    8.4173421746717239E+00
N    5.1629003839963161E+00    2.9413720718789307E+00    1.0362683082663128E+01
Ga    5.1731748944934122E+00    4.8160286621805488E+00    1.1032179527395005E+01
N    5.2185250098915024E+00    4.8478703095495819E+00    1.2979812812756006E+01
Ga    5.2300908761407738E+00    2.9919255071817124E+00    1.3634115235412244E+01
N    4.7230941610236981E+00    2.6853162383587930E+00    1.5463331198207738E+01
Ga    3.6373073840044157E+00    3.8974307208997363E+00    1.6563016200290836E+01
N    5.3249392607560289E+00    3.0412161384832301E+00    1.7058020656111548E+01
N    3.3885277172782722E+00    5.6294670969553406E+00   -1.4531286335411819E-01
Ga    3.4057552501880530E+00    7.4982027034088512E+00    5.1884126699105337E-01
N    3.4495792691445599E+00    7.5320539332560292E+00    2.4405282232559555E+00
Ga    3.4426717832325444E+00    5.6691420715021126E+00    3.1528075279016710E+00
N    3.4852320013865312E+00    5.6946212423564191E+00    5.0815994467313388E+00
Ga    3.5004858186139072E+00    7.5631489884669065E+00    5.7760325973363047E+00
N    3.5229829040152416E+00    7.5835689423859884E+00    7.7109163815095458E+00
Ga    3.5171543701093193E+00    5.7245556596245066E+00    8.4124669424870664E+00
N    3.5342433750746687E+00    5.7253667007793112E+00    1.0357585792386660E+01
Ga    3.5664716959705007E+00    7.5981261770043851E+00    1.1033423944702044E+01
N    3.6047388877117306E+00    7.6231006853651238E+00    1.2977781730670101E+01
Ga    3.5899128420331898E+00    5.7618794570017897E+00    1.3643664214968597E+01
N    3.0551100294074369E+00    5.4432382788691269E+00    1.5480098614934850E+01
Ga    2.0402049462827185E+00    6.7273989280697215E+00    1.6582280423506262E+01
N    3.7052522010885469E+00    5.8022261336856582E+00    1.7068301368496691E+01
N    1.7763619548385416E+00    8.4214714722158241E+00   -1.4529205978715140E-01
Ga    1.7937349039537844E+00    1.0290791944540159E+01    5.1988839847859103E-01
N    1.8370612547153018E+00    1.0326585266451206E+01    2.4416762476649585E+00
Ga    1.8296182381994692E+00    8.4619479125495900E+00    3.1500661357819322E+00
N    1.8714769569696603E+00    8.4873204132828466E+00    5.0789372263389163E+00
Ga    1.8876648787554606E+00    1.0356093557458051E+01    5.7734213278705946E+00
N    1.9100423869821670E+00    1.0376224428869550E+01    7.7083371155482148E+00
Ga    1.9092355785823534E+00    8.5163835577106486E+00    8.4078608877030554E+00
N    1.9332156248343602E+00    8.5242534288435383E+00    1.0353525557969510E+01
Ga    1.9471014749199305E+00    1.0396053503101127E+01    1.1032749495125035E+01
N    1.9847960190312328E+00    1.0428999197657287E+01    1.2978729947747313E+01
Ga    2.0067028687246213E+00    8.5758951870655782E+00    1.3645291303656617E+01
N    1.5071126613835237E+00    8.2762672955203911E+00    1.5481158600466099E+01
Ga    4.3859368332908261E-01    9.5189916741443099E+00    1.6581920724787665E+01
N    2.1037243160051586E+00    8.6268313004802017E+00    1.7081835140466634E+01
N    9.8679191340903660E+00    4.6435233792078277E-02   -1.4862079429938002E-01
Ga    9.8848225267663778E+00    1.9149863820424697E+00    5.1838890582955544E-01
N    9.9304203088438285E+00    1.9516048583792889E+00    2.4397486959258856E+00
Ga    9.9212575513585968E+00    8.8580808814210696E-02    3.1487674035339905E+00
N    9.9618840235427157E+00    1.1447118657314911E-01    5.0766773484962417E+00
Ga    9.9863149214040234E+00    1.9847989442835334E+00    5.7725150141974018E+00
N    1.0012427439653047E+01    2.0048985078804580E+00    7.7030579486216082E+00
Ga    9.9933961020922641E+00    1.3577105206235776E-01    8.3798737458119756E+00
N    1.0003896889177451E+01    1.4608798917737853E-01    1.0315030713779210E+01
Ga    1.0032715923135385E+01    2.0062888633673963E+00    1.1000805939921451E+01
N    1.0069507841952433E+01    2.0311074025281641E+00    1.2934183882342525E+01
Ga    1.0108702255525190E+01    1.8479108406477873E-01    1.3657916392409582E+01
N    9.6333219205262139E+00   -7.6727033960890687E-02    1.5538149411523131E+01
Ga    8.5457722606356388E+00    1.1545504879260597E+00    1.6706831551745509E+01
N    1.0303503972965618E+01    2.8584473173523511E-01    1.6887342942466322E+01
N    8.2557760447938247E+00    2.8385504811047348E+00   -1.4716257616776646E-01
Ga    8.2736641093841090E+00    4.7075565165161910E+00    5.2002813320653341E-01
N    8.3191244078347282E+00    4.7434233446984981E+00    2.4418501246880853E+00
Ga    8.3097637059069012E+00    2.8790311089597402E+00    3.1499392697752371E+00
N    8.3530048686651703E+00    2.9047757937306442E+00    5.0794641155769504E+00
Ga    8.3737442514829947E+00    4.7750013985752497E+00    5.7709161243484468E+00
N    8.3995867266513891E+00    4.7980260259222085E+00    7.7041638447877343E+00
Ga    8.3874581128911210E+00    2.9306124997503069E+00    8.3855738688900505E+00
N    8.4057762823115247E+00    2.9329690539846331E+00    1.0324936284133889E+01
Ga    8.4123545027858171E+00    4.8017407715527769E+00    1.0991372123880581E+01
N    8.4389802480670841E+00    4.8255206937522104E+00    1.2916231852078759E+01
Ga    8.4967687235214076E+00    2.9970371997301766E+00    1.3645882202453244E+01
N    8.0714034686370155E+00    2.7417511289723291E+00    1.5539790071287197E+01
Ga    6.9200881941801837E+00    3.9297518879320812E+00    1.6724655031472736E+01
N    8.6851452052220104E+00    3.1019744923251453E+00    1.6919023210867305E+01
N    6.6442846229191712E+00    5.6299012026046942E+00   -1.4694422615353098E-01
Ga    6.6612298862606725E+00    7.4985632662172987E+00    5.1838869322647707E-01
N    6.7076479129316828E+00    7.5337396943139252E+00    2.4397637135948087E+00
Ga    6.6979450126224300E+00    5.6710625686297398E+00    3.1512284283245515E+00
N    6.7425409224344230E+00    5.6965386084773941E+00    5.0800339012093367E+00
Ga    6.7629694432168268E+00    7.5674062676084271E+00    5.7732472580956609E+00
N    6.7885566087396398E+00    7.5894183039461538E+00    7.7044638662013103E+00
Ga    6.7735750608829113E+00    5.7232358695153813E+00    8.3877155349513242E+00
N    6.7883438091149566E+00    5.7313132390335007E+00    1.0325042498425502E+01
Ga    6.8029783162972617E+00    7.6013111510289733E+00    1.1002321990561027E+01
N    6.8387681243354379E+00    7.6298381185632165E+00    1.2935935216189705E+01
Ga    6.8794035230403168E+00    5.7881805035780847E+00    1.3640519475814356E+01
N    6.4534005133453931E+00    5.5395546580275825E+00    1.5538322695238822E+01
Ga    5.3126868794326674E+00    6.7190087045839082E+00    1.6708663841431648E+01
N    7.0839845945875215E+00    5.8705800402687371E+00    1.6908547020018148E+01
N    5.0323796392086342E+00    8.4220861111346217E+00   -1.4820312833248053E-01
Ga    5.0497094976100225E+00    1.0291124207781769E+01    5.1853370626739481E-01
N    5.0956915252912225E+00    1.0327753940073411E+01    2.4408194524451714E+00
Ga    5.0865143719764578E+00    8.4618143437084470E+00    3.1459675951649770E+00
N    5.1289336318708463E+00    8.4840607355451443E+00    5.0745333089191069E+00
Ga    5.1468547629343204E+00    1.0355869597466329E+01    5.7628616691257166E+00
N    5.1697459932876706E+00    1.0377233627464529E+01    7.6936971111507502E+00
Ga    5.1587063663742470E+00    8.5126894495399092E+00    8.3808149494177737E+00
N    5.1764418288111695E+00    8.5118616887337062E+00    1.0314209800323191E+01
Ga    5.1803047253025660E+00    1.0379562999246913E+01    1.0978383902333004E+01
N    5.1997491870000578E+00    1.0391963360381105E+01    1.2891280255740535E+01
Ga    5.2586764773318473E+00    8.5846933783017256E+00    1.3663844953885929E+01
N    4.7999226914779198E+00    8.2886580579552369E+00    1.5536756794921684E+01
Ga    3.7046587952565599E+00    9.5216279433123017E+00    1.6768754475710320E+01
N    5.4504208315533731E+00    8.6764197727727499E+00    1.6877574228869534E+01
H    9.5817409046559804E-02    4.2823981979496349E-02   -1.1773356933454351E+00
H   -1.5167282520361984E+00    2.8349368563311317E+00   -1.1739797925858551E+00
H   -3.1288143043986256E+00    5.6259768900533791E+00   -1.1764709337619068E+00
H   -4.7388131753291560E+00    8.4158118697562170E+00   -1.1739464184774115E+00
H    3.3548160040627688E+00    4.3275270821820970E-02   -1.1739500666000713E+00
H    1.7416164266674301E+00    2.8363294495494524E+00   -1.1730168976546735E+00
H    1.2948451015255577E-01    5.6274945915753296E+00   -1.1725832851610583E+00
H   -1.4825135821530100E+00    8.4183047611117967E+00   -1.1722192998844052E+00
H    6.6047685490654615E+00    4.3093197103146727E-02   -1.1720466125001994E+00
H    4.9948939192666382E+00    2.8344391572675285E+00   -1.1732793813124884E+00
H    3.3821501638798921E+00    5.6254028535455118E+00   -1.1718795395704587E+00
H    1.7688350942933164E+00    8.4164310918576621E+00   -1.1719595123104842E+00
H    9.8599650406172650E+00    4.3411891163394632E-02   -1.1754639185446880E+00
H    8.2483090121719851E+00    2.8349694512852754E+00   -1.1740129270661679E+00
H    6.6377881112331156E+00    5.6250233342050544E+00   -1.1737364407888353E+00
H    5.0252751635304387E+00    8.4161196465624037E+00   -1.1750930676454414E+00
     &END COORD
     &KIND H
       BASIS_SET DZVP-MOLOPT-SR-GTH-q1
       POTENTIAL GTH-PBE-q1
       &POTENTIAL
1
0.2000000000000000E+00 2 -0.4178900440000000E+01  0.7244633100000000E+00
0
       &END POTENTIAL
     &END KIND
     &KIND N
       BASIS_SET DZVP-MOLOPT-SR-GTH
       POTENTIAL GTH-PBE-q5
       &POTENTIAL
2 3
0.2837905100000000E+00 2 -0.1241522559000000E+02  0.1868095920000000E+01
2
0.2554050000000000E+00 1  0.1363026257000000E+02
0.2454945300000000E+00 0
       &END POTENTIAL
     &END KIND
     &KIND Ga
       BASIS_SET DZVP-MOLOPT-SR-GTH
       POTENTIAL GTH-PBE-q13
       &POTENTIAL
2 1 10
0.4900000000000000E+00 0
3
0.4167772300000000E+00 3  0.1047568975000000E+02 -0.4921768140000000E+01  0.8707055900000000E+00
0.7770178090000000E+01 -0.2248152160000000E+01
0.1784415450000000E+01
0.5696265200000000E+00 2  0.1777985340000000E+01  0.1958597600000000E+00
-0.2317443900000000E+00
0.2381265000000000E+00 1 -0.1624868022000000E+02
       &END POTENTIAL
     &END KIND
     &TOPOLOGY
       NUMBER_OF_ATOMS  256
       MULTIPLE_UNIT_CELL  1 1 1
     &END TOPOLOGY
   &END SUBSYS
 &END FORCE_EVAL
