 # Version information for this restart file 
 # current date 2019-06-11 00:15:25.805
 # current working dir /lustre03/project/6037349/rzk/GaN-carbene/444-addat/00-Surface/RKS
 # Program compiled at                              Sun Apr  7 00:48:11 EDT 2019
 # Program compiled on                          beluga2.int.ets1.calculquebec.ca
 # Program compiled for                        Beluga-Linux-x86-64-intel-openmpi
 # Source code revision number                                         svn:18619
 &GLOBAL
   PRINT_LEVEL  MEDIUM
   PROJECT_NAME TEST
   RUN_TYPE  CELL_OPT
 &END GLOBAL
 &MOTION
   &CELL_OPT
     MAX_ITER  300
     STEP_START_VAL  98
     EXTERNAL_PRESSURE     1.0000000000000000E+00
     KEEP_ANGLES  T
     KEEP_SYMMETRY  T
     CONSTRAINT  Z
     PRESSURE_TOLERANCE     5.0000000000000000E+02
   &END CELL_OPT
 &END MOTION
 &FORCE_EVAL
   METHOD  QS
   STRESS_TENSOR  ANALYTICAL
   &DFT
     BASIS_SET_FILE_NAME BASIS_MOLOPT
     POTENTIAL_FILE_NAME GTH_POTENTIALS
     SURFACE_DIPOLE_CORRECTION  T
     SURF_DIP_DIR  Z
     &SCF
       MAX_SCF  100
       EPS_SCF     5.0000000000000004E-06
       &OT  T
         PRECONDITIONER  FULL_ALL
       &END OT
       &OUTER_SCF  T
         OPTIMIZER  NONE
         EPS_SCF     5.0000000000000004E-06
         MAX_SCF  4
       &END OUTER_SCF
       &PRINT
         &RESTART  OFF
           BACKUP_COPIES  1
           &EACH
             JUST_ENERGY  0
             QS_SCF  0
             MD  20
           &END EACH
         &END RESTART
       &END PRINT
     &END SCF
     &QS
       EPS_DEFAULT     1.0000000000000000E-14
       METHOD  GPW
     &END QS
     &MGRID
       NGRIDS  5
       CUTOFF     1.2000000000000000E+03
     &END MGRID
     &XC
       DENSITY_CUTOFF     1.0000000000000000E-10
       GRADIENT_CUTOFF     1.0000000000000000E-10
       TAU_CUTOFF     1.0000000000000000E-10
       &XC_FUNCTIONAL  NO_SHORTCUT
         &PBE  T
         &END PBE
       &END XC_FUNCTIONAL
       &VDW_POTENTIAL
         POTENTIAL_TYPE  PAIR_POTENTIAL
         &PAIR_POTENTIAL
           R_CUTOFF     1.0000000000000005E+01
           TYPE  DFTD3
           PARAMETER_FILE_NAME dftd3.dat
           REFERENCE_FUNCTIONAL PBE
           EPS_CN     9.9999999999999995E-07
           CALCULATE_C9_TERM  T
           REFERENCE_C9_TERM  T
           LONG_RANGE_CORRECTION  F
           VERBOSE_OUTPUT  F
         &END PAIR_POTENTIAL
       &END VDW_POTENTIAL
     &END XC
   &END DFT
   &SUBSYS
     &CELL
       A     1.3027717620020907E+01    0.0000000000000000E+00    0.0000000000000000E+00
       B    -6.4435287306403435E+00    1.1160519141499121E+01    0.0000000000000000E+00
       C     0.0000000000000000E+00    0.0000000000000000E+00    3.2000000000000000E+01
       MULTIPLE_UNIT_CELL  1 1 1
       &CELL_REF
         A     1.2982353780853531E+01    0.0000000000000000E+00    0.0000000000000000E+00
         B    -6.4911768904267628E+00    1.1243048175136114E+01    0.0000000000000000E+00
         C     0.0000000000000000E+00    0.0000000000000000E+00    3.2000000000000000E+01
         MULTIPLE_UNIT_CELL  1 1 1
       &END CELL_REF
     &END CELL
     &COORD
N    1.9612491334685023E-01    1.0713209210372968E-01   -1.5136791326717031E-01
Ga    2.1413247235743160E-01    1.9761648483572261E+00    5.1317954548962519E-01
N    2.3605596444342172E-01    1.9929958192113797E+00    2.4362162504963583E+00
Ga    2.2003742674340640E-01    1.2664426987811364E-01    3.1470085877700535E+00
N    2.2649892206226738E-01    1.3053912303041401E-01    5.0780599883360100E+00
Ga    2.4362181715909639E-01    1.9993655621126152E+00    5.7723631719097792E+00
N    2.4975151147400509E-01    2.0085127384290664E+00    7.7078623671543394E+00
Ga    2.3659833290296256E-01    1.3868042892728269E-01    8.3872507868587149E+00
N    2.3050442989546088E-01    1.2995994854988585E-01    1.0319749891342944E+01
Ga    2.4357358586699290E-01    1.9916283548048836E+00    1.1017014033159377E+01
N    2.5609041196300281E-01    1.9959788774335638E+00    1.2951415623526703E+01
Ga    2.0568378052460048E-01    1.2475633516462693E-01    1.3628042382404860E+01
N   -3.4673388975289138E-01   -1.9541821193172962E-01    1.5371342274632228E+01
Ga   -1.0416270723752166E+00    9.3237252311949059E-01    1.6766660250964719E+01
N    2.8951661175845494E-01    1.3915974003970386E-01    1.8034651163051201E+01
N   -1.4147779375073501E+00    2.8974852473033890E+00   -1.5192620260521666E-01
Ga   -1.3966919997603788E+00    4.7662872322876888E+00    5.1395178153422194E-01
N   -1.3753074209415861E+00    4.7847382815458301E+00    2.4371504997360107E+00
Ga   -1.3885149732821995E+00    2.9180704387117564E+00    3.1449396454889769E+00
N   -1.3825377931847718E+00    2.9210591380892996E+00    5.0742726416968482E+00
Ga   -1.3662783730720724E+00    4.7871929449193962E+00    5.7699792271477568E+00
N   -1.3593580513393420E+00    4.7962943433638632E+00    7.7058972884151009E+00
Ga   -1.3779837825593784E+00    2.9302369080832071E+00    8.3969103961892912E+00
N   -1.3787289999032457E+00    2.9258189408656778E+00    1.0332651740781296E+01
Ga   -1.3670520955360670E+00    4.7917583467375113E+00    1.1026687538227225E+01
N   -1.3565892722479591E+00    4.8066661977440797E+00    1.2966923807030899E+01
Ga   -1.3600141795680680E+00    2.9323640805470621E+00    1.3627830369740382E+01
N   -1.8930490095049395E+00    2.4795113419057175E+00    1.5441102679750278E+01
Ga   -2.9050338110157714E+00    4.2196970173690991E+00    1.6842150388252641E+01
N   -1.4188192629847431E+00    2.9112041883133637E+00    1.6728785454747701E+01
N   -3.0257138581743805E+00    5.6873539555368398E+00   -1.4841720619778637E-01
Ga   -3.0076720375175681E+00    7.5563963374304484E+00    5.1528215454237469E-01
N   -2.9857208462071063E+00    7.5739485073825339E+00    2.4384118332087095E+00
Ga   -3.0003452236448895E+00    5.7080330280393436E+00    3.1502859766716611E+00
N   -2.9948770100404372E+00    5.7117409069154110E+00    5.0801836686584769E+00
Ga   -2.9780845384902603E+00    7.5814655377977109E+00    5.7713438147160243E+00
N   -2.9703824104090431E+00    7.5884542202883249E+00    7.7076706118852361E+00
Ga   -2.9858732609162995E+00    5.7202890307014700E+00    8.3906139625306064E+00
N   -2.9890794189843599E+00    5.7141544270645275E+00    1.0327161443508533E+01
Ga   -2.9742598366780300E+00    7.5767465791861959E+00    1.1029084589260487E+01
N   -2.9601142561207943E+00    7.5836923748730651E+00    1.2968680058862816E+01
Ga   -2.9893962697504017E+00    5.7171380834418040E+00    1.3669445995289946E+01
N   -3.4764186222388762E+00    5.4267779605457056E+00    1.5448591335274539E+01
Ga   -4.2366244307422738E+00    6.5138892076220936E+00    1.6845992331059225E+01
N   -2.9083590891250402E+00    5.7453242791492292E+00    1.8117868824140185E+01
N   -4.6363953696843208E+00    8.4771644555754708E+00   -1.5186590123576008E-01
Ga   -4.6185148690722091E+00    1.0346379510066814E+01    5.1165532147382453E-01
N   -4.5975621007493359E+00    1.0365542120370169E+01    2.4347272258758266E+00
Ga   -4.6108381743149671E+00    8.5002712279955617E+00    3.1451481618221293E+00
N   -4.6045156142552557E+00    8.5036239206616724E+00    5.0746162626586964E+00
Ga   -4.5887049260362218E+00    1.0368552597571457E+01    5.7724819124162892E+00
N   -4.5792748560987571E+00    1.0375483700607122E+01    7.7072359311919163E+00
Ga   -4.5976549991019349E+00    8.5089630521871378E+00    8.3977237836103225E+00
N   -4.5974195397607014E+00    8.5043766112887109E+00    1.0334519744189622E+01
Ga   -4.5915576812475898E+00    1.0371451274195165E+01    1.1021956552674643E+01
N   -4.5874009900596251E+00    1.0387756509534469E+01    1.2955525442797455E+01
Ga   -4.5855998716764939E+00    8.5224029550467240E+00    1.3629449609539295E+01
N   -5.2356946501184751E+00    8.2812461396369184E+00    1.5447009692119671E+01
Ga   -6.1497471389689107E+00    9.7678960131958306E+00    1.6739485773155401E+01
N   -4.6139999345406215E+00    8.4510073994165005E+00    1.6737380777144566E+01
N    3.4539579820838973E+00    1.0756573248051916E-01   -1.5121268780501587E-01
Ga    3.4701231353241577E+00    1.9755773412584603E+00    5.1626468877305143E-01
N    3.4921659157155225E+00    1.9932979628649665E+00    2.4391920089615833E+00
Ga    3.4775072131047562E+00    1.2776584003765398E-01    3.1515886170444287E+00
N    3.4839445127480850E+00    1.3049007918344588E-01    5.0821935113578212E+00
Ga    3.5001163463122187E+00    1.9983285444331516E+00    5.7754846797212611E+00
N    3.5046646952128584E+00    2.0044669059120359E+00    7.7152230919112608E+00
Ga    3.4918055579867939E+00    1.3694200086602923E-01    8.4072614850332581E+00
N    3.4883444265719081E+00    1.3321921143078611E-01    1.0346747755651130E+01
Ga    3.5030260391673318E+00    1.9998424634896366E+00    1.1027653407692735E+01
N    3.5193515029484947E+00    2.0125952627025936E+00    1.2975529121342921E+01
Ga    3.4755589334001100E+00    1.6154021477056460E-01    1.3672470413104854E+01
N    2.9085236439759781E+00   -1.4954031365244394E-01    1.5532636332136063E+01
Ga    1.8118235692257585E+00    1.0097327455638079E+00    1.7503093859715676E+01
N    3.4712164874954232E+00    2.0242596963218110E-01    1.6872379918157140E+01
N    1.8430212137847226E+00    2.8977688681469878E+00   -1.5199858602687713E-01
Ga    1.8594103520445855E+00    4.7657090276493177E+00    5.1662605898587066E-01
N    1.8809356993938442E+00    4.7840278363296793E+00    2.4393152166560021E+00
Ga    1.8675931029217114E+00    2.9177607447452916E+00    3.1499704390922201E+00
N    1.8731503009919066E+00    2.9215590578214092E+00    5.0805714559476263E+00
Ga    1.8895990096151360E+00    4.7880124980117760E+00    5.7773391582801583E+00
N    1.8939903989323714E+00    4.7956703083738459E+00    7.7152196899820655E+00
Ga    1.8786523044130106E+00    2.9293063710226845E+00    8.4056121039522331E+00
N    1.8766535852135549E+00    2.9221291017176378E+00    1.0344326610217925E+01
Ga    1.8851631693978943E+00    4.7840672071043269E+00    1.1043911136420627E+01
N    1.8866409690749677E+00    4.7829744320372063E+00    1.2992064027304325E+01
Ga    1.8893291406081849E+00    2.9032825550257670E+00    1.3667161462453093E+01
N    1.3496476166205702E+00    2.5491433724687038E+00    1.5521852545204123E+01
Ga    2.1098883269570651E-01    3.8251901849405776E+00    1.6443050762794940E+01
N    1.9347268573586005E+00    2.8500311693591933E+00    1.6865965736271423E+01
N    2.3201289092908822E-01    5.6876067864554676E+00   -1.5042497230852300E-01
Ga    2.4841386347169306E-01    7.5558303302165211E+00    5.1663618002537059E-01
N    2.7062815702091714E-01    7.5737825383016233E+00    2.4395311938666238E+00
Ga    2.5662725708224576E-01    5.7084347057438318E+00    3.1521183354741504E+00
N    2.6294514062368829E-01    5.7117906810987327E+00    5.0828329392431790E+00
Ga    2.7823137830852601E-01    7.5790911865819979E+00    5.7795127932547139E+00
N    2.8436848618812138E-01    7.5867148312674839E+00    7.7183721130045928E+00
Ga    2.6789483623064220E-01    5.7189755466800625E+00    8.4063677222186950E+00
N    2.6780424293314270E-01    5.7172009399161912E+00    1.0347101146357982E+01
Ga    2.8868308384031643E-01    7.5847049528097434E+00    1.1031421893341715E+01
N    3.1185131047738623E-01    7.6001927009070327E+00    1.2978561344330304E+01
Ga    2.6911083921431139E-01    5.7458669623518741E+00    1.3669844317543101E+01
N   -3.1130108952471347E-01    5.4553602586443510E+00    1.5522366861549907E+01
Ga   -1.3887127588752961E+00    6.6123783940649288E+00    1.7552429054619079E+01
N    2.4500611256084764E-01    5.7953097283772239E+00    1.6857227291861726E+01
N   -1.3791551189755964E+00    8.4777637825665746E+00   -1.5089179743015044E-01
Ga   -1.3624575247343249E+00    1.0345977636023679E+01    5.1654564323296914E-01
N   -1.3408458762442841E+00    1.0364508411629576E+01    2.4394851291959738E+00
Ga   -1.3534831597075618E+00    8.4987974317054071E+00    3.1515943456000493E+00
N   -1.3474516717738734E+00    8.5024806730388836E+00    5.0821685282502251E+00
Ga   -1.3320195872909966E+00    1.0369255123529827E+01    5.7772984344711027E+00
N   -1.3268044922044615E+00    1.0374798317039064E+01    7.7156550616599580E+00
Ga   -1.3423709716030972E+00    8.5090044423616842E+00    8.4078406317309806E+00
N   -1.3407630120215268E+00    8.5046540809188311E+00    1.0349148395846834E+01
Ga   -1.3359228139168753E+00    1.0367825680117777E+01    1.1048554786008282E+01
N   -1.3371434782585445E+00    1.0373419812690896E+01    1.2997747792921169E+01
Ga   -1.3155251917001360E+00    8.4944580183786176E+00    1.3669974034683804E+01
N   -1.8447032695074514E+00    8.1217503463777359E+00    1.5522867073988424E+01
Ga   -2.9981546795495855E+00    9.3881700507077053E+00    1.6453212821460692E+01
N   -1.2661733242492395E+00    8.4307239984727094E+00    1.6855035744673174E+01
N    6.7093194436726016E+00    1.0669876828134546E-01   -1.5177921661034818E-01
Ga    6.7269804319961093E+00    1.9750006585232793E+00    5.1411208505933204E-01
N    6.7484239861072037E+00    1.9931456918618347E+00    2.4366083339657347E+00
Ga    6.7359243715323336E+00    1.2768379712458158E-01    3.1495752773029198E+00
N    6.7396219729641498E+00    1.3087235144057643E-01    5.0798914688612857E+00
Ga    6.7558815414769740E+00    1.9973108599460547E+00    5.7747906828407212E+00
N    6.7572444690582092E+00    2.0017482836177911E+00    7.7128622259499897E+00
Ga    6.7431817908415121E+00    1.3626794383614113E-01    8.4137300940519726E+00
N    6.7388366322778568E+00    1.3295670646842211E-01    1.0357828702477912E+01
Ga    6.7662196073505090E+00    2.0025345173692291E+00    1.1035509854711378E+01
N    6.7857650837248737E+00    2.0129994916273071E+00    1.2986848402961650E+01
Ga    6.7629160655708676E+00    1.5101248850431537E-01    1.3657669598580515E+01
N    6.1952634782179405E+00   -1.7393774583700114E-01    1.5495658588757420E+01
Ga    5.1442295114864010E+00    1.0713336021384356E+00    1.6600430797300778E+01
N    6.8453599709601258E+00    1.6981577464592573E-01    1.7060076746166470E+01
N    5.0989770793412692E+00    2.8971871870189503E+00   -1.5028280680217121E-01
Ga    5.1157436093339967E+00    4.7661192926000018E+00    5.1296737558585215E-01
N    5.1372270145866379E+00    4.7841272809211493E+00    2.4354732362554863E+00
Ga    5.1242911887399352E+00    2.9186047142985991E+00    3.1491514020779570E+00
N    5.1294029325237496E+00    2.9208789873045564E+00    5.0801817998330385E+00
Ga    5.1437941254502624E+00    4.7879594800532104E+00    5.7745813442033711E+00
N    5.1457240838735716E+00    4.7933384929814107E+00    7.7123449227187795E+00
Ga    5.1341691208027296E+00    2.9279704047213859E+00    8.4091769402701892E+00
N    5.1360237289537887E+00    2.9248450902971692E+00    1.0353015582351048E+01
Ga    5.1536152101567989E+00    4.7941983687402807E+00    1.1034383372955123E+01
N    5.1703519400403026E+00    4.8107592485677539E+00    1.2984978001046944E+01
Ga    5.1766707992191847E+00    2.9497229104570435E+00    1.3647681255518332E+01
N    4.6211342015838452E+00    2.6331024533430725E+00    1.5474802124572220E+01
Ga    3.5376979249998435E+00    3.8374242681300612E+00    1.6594289737976265E+01
N    5.2361066788033090E+00    2.9563973041021976E+00    1.7067624679497001E+01
N    3.4875874758509076E+00    5.6870585492577046E+00   -1.5174064914453902E-01
Ga    3.5043043392429660E+00    7.5558696330301327E+00    5.1372713061694675E-01
N    3.5259231506968933E+00    7.5745015735284804E+00    2.4365649256689612E+00
Ga    3.5134466312316639E+00    5.7087072347812677E+00    3.1493140464831635E+00
N    3.5175829838158301E+00    5.7105645980405120E+00    5.0796556989091313E+00
Ga    3.5331943890833974E+00    7.5768558047556613E+00    5.7736756218412628E+00
N    3.5336015871609812E+00    7.5790356984780152E+00    7.7102016199141001E+00
Ga    3.5214847633806925E+00    5.7151975167217817E+00    8.4121356896259503E+00
N    3.5181696414131434E+00    5.7077581571185725E+00    1.0355761147476430E+01
Ga    3.5500141580362672E+00    7.5787748505542440E+00    1.1031760323249904E+01
N    3.5716355677520086E+00    7.5828870336151200E+00    1.2980958380152758E+01
Ga    3.5436931648686487E+00    5.7231182388523960E+00    1.3652907286212178E+01
N    2.9691209432402692E+00    5.3959646546641817E+00    1.5486549471221755E+01
Ga    1.9227695408197063E+00    6.6548783107218021E+00    1.6574330934338438E+01
N    3.6146589089021837E+00    5.7340697675483545E+00    1.7057766802992884E+01
N    1.8764387153317048E+00    8.4768460516392743E+00   -1.5306325225748335E-01
Ga    1.8938307318330674E+00    1.0345064605945401E+01    5.1247415450654665E-01
N    1.9160372756108495E+00    1.0363225410992705E+01    2.4353907476138894E+00
Ga    1.9019506857643980E+00    8.4987967561581854E+00    3.1513657501631869E+00
N    1.9067905617591916E+00    8.5011485615617080E+00    5.0819432818474324E+00
Ga    1.9211613446966949E+00    1.0368072212027087E+01    5.7738429190533287E+00
N    1.9214351111720254E+00    1.0372182920956664E+01    7.7099422460293834E+00
Ga    1.9151200974057072E+00    8.5090545471988559E+00    8.4125464826944345E+00
N    1.9198074823243789E+00    8.5085468398862982E+00    1.0354225829634593E+01
Ga    1.9331524071735584E+00    1.0380501749346633E+01    1.1035673754389141E+01
N    1.9469349173086650E+00    1.0402441854332023E+01    1.2984645681342027E+01
Ga    1.9754589657979109E+00    8.5415043329845517E+00    1.3640724847349210E+01
N    1.4180530186696612E+00    8.2232036589738495E+00    1.5471426230816984E+01
Ga    3.3265346774199994E-01    9.4302889564516281E+00    1.6577105937530678E+01
N    2.0023014608307399E+00    8.5278243601484700E+00    1.7102220146000597E+01
N    9.9659024303397601E+00    1.0669833538769896E-01   -1.5233060060663414E-01
Ga    9.9840405196187252E+00    1.9752358129394711E+00    5.1399555502137129E-01
N    1.0005728891856624E+01    1.9921570162929478E+00    2.4368924221616788E+00
Ga    9.9918277342887976E+00    1.2554440295263128E-01    3.1486095665782750E+00
N    9.9962483620428770E+00    1.2969327492626367E-01    5.0786721904251584E+00
Ga    1.0015080011749811E+01    2.0006489378440677E+00    5.7642483688995911E+00
N    1.0019756813027600E+01    2.0098870302771741E+00    7.6982275097217769E+00
Ga    9.9946498931741878E+00    1.4199508836388908E-01    8.3795501833278401E+00
N    9.9865979041895372E+00    1.3988246556910977E-01    1.0308810973994293E+01
Ga    1.0015034384982044E+01    1.9993106994604863E+00    1.1002927108558692E+01
N    1.0030263813358610E+01    2.0077109292825797E+00    1.2936832350215242E+01
Ga    1.0069526232223964E+01    1.6176793599872949E-01    1.3660048087913921E+01
N    9.5478560002555284E+00   -1.4559163486847726E-01    1.5528461923644022E+01
Ga    8.4444163160553387E+00    1.0889992539013900E+00    1.6704095031332429E+01
N    1.0184774217489341E+01    2.0422502960857097E-01    1.6894719172180189E+01
N    8.3554978045219137E+00    2.8971320593091781E+00   -1.5124121464909568E-01
Ga    8.3729436481611970E+00    4.7656315740479380E+00    5.1471366882879632E-01
N    8.3949437309602324E+00    4.7841108874230445E+00    2.4371833873535942E+00
Ga    8.3803290724379895E+00    2.9177833507499322E+00    3.1471399272685701E+00
N    8.3849620501588653E+00    2.9213245916854222E+00    5.0767405771506517E+00
Ga    8.4027920205413427E+00    4.7883830439545640E+00    5.7687119893367464E+00
N    8.4080215442123691E+00    4.7954534566749771E+00    7.7037392145070580E+00
Ga    8.3901210275103342E+00    2.9261431296095628E+00    8.3888816019015557E+00
N    8.3859108789861541E+00    2.9181608483584056E+00    1.0322941168210464E+01
Ga    8.4030905633020492E+00    4.7873053567466162E+00    1.0992590589861260E+01
N    8.3996421917832045E+00    4.7912658684912977E+00    1.2914094365701818E+01
Ga    8.4488997647291768E+00    2.9633957177621268E+00    1.3642957095870248E+01
N    7.9768839057058649E+00    2.6727664729904537E+00    1.5522305450876027E+01
Ga    6.8181021111418607E+00    3.8616247600905296E+00    1.6710712214076270E+01
N    8.5789684279234013E+00    3.0356503607987086E+00    1.6903570024602704E+01
N    6.7449385435308047E+00    5.6870519150708301E+00   -1.5109141494904879E-01
Ga    6.7620471726561435E+00    7.5559406226023418E+00    5.1426513288450071E-01
N    6.7831001946745229E+00    7.5741881362849588E+00    2.4371241301448490E+00
Ga    6.7691883855870891E+00    5.7072304047418001E+00    3.1475566225796161E+00
N    6.7746601223367025E+00    5.7097811202800539E+00    5.0772650235757810E+00
Ga    6.7948777818507589E+00    7.5795591196103622E+00    5.7644915096464162E+00
N    6.8020715128607456E+00    7.5846384955948940E+00    7.6984053194049320E+00
Ga    6.7787294603324062E+00    5.7180636646460634E+00    8.3882917440824869E+00
N    6.7737235911532379E+00    5.7120206678175522E+00    1.0323589852731969E+01
Ga    6.7952608903932665E+00    7.5791245250362653E+00    1.1003758081435430E+01
N    6.8062494298305154E+00    7.5936067799830349E+00    1.2938252743156431E+01
Ga    6.8378906535335187E+00    5.7477659750241150E+00    1.3642641754756065E+01
N    6.3553327302012059E+00    5.4665210004553515E+00    1.5521242560676210E+01
Ga    5.2158587057340604E+00    6.6491708573687234E+00    1.6698409473133751E+01
N    6.9795531444524874E+00    5.7987346779512698E+00    1.6899811824357194E+01
N    5.1335882067622611E+00    8.4764711781630560E+00   -1.5293569781217359E-01
Ga    5.1508432898360033E+00    1.0345459428517604E+01    5.1010806316304891E-01
N    5.1723886971952782E+00    1.0363976777162767E+01    2.4328586881773044E+00
Ga    5.1577283505157672E+00    8.4997817356490923E+00    3.1477987678463313E+00
N    5.1631776028777177E+00    8.5019863231661734E+00    5.0780609437273645E+00
Ga    5.1811393614451129E+00    1.0369280952646466E+01    5.7712198160669823E+00
N    5.1845874005056292E+00    1.0374417912748372E+01    7.7049876057137423E+00
Ga    5.1697699198528806E+00    8.4990052378835994E+00    8.3790399430766502E+00
N    5.1681210224715413E+00    8.4862450204681750E+00    1.0308582346701332E+01
Ga    5.1671495777252954E+00    1.0359958686428165E+01    1.0967614183399219E+01
N    5.1567729712998274E+00    1.0355960873427080E+01    1.2871956448835984E+01
Ga    5.2242227718823893E+00    8.5499812916851727E+00    1.3656608905567762E+01
N    4.7041363526213207E+00    8.2321022508142452E+00    1.5524435345290970E+01
Ga    3.5819602811825888E+00    9.4353676720884394E+00    1.6753850599313065E+01
N    5.3327291222043414E+00    8.5952714586996475E+00    1.6889938023433967E+01
H    1.9631292565510977E-01    1.0613338739410562E-01   -1.1783217599999321E+00
H   -1.4160596429661825E+00    2.8977210907265429E+00   -1.1792012649040093E+00
H   -3.0270141410327081E+00    5.6856326550039356E+00   -1.1754061809349057E+00
H   -4.6363825932262399E+00    8.4758059056867339E+00   -1.1791366833536183E+00
H    3.4522297967036826E+00    1.0613055458499451E-01   -1.1783883254297944E+00
H    1.8418107136223298E+00    2.8962722277944399E+00   -1.1793267647811450E+00
H    2.2874328389634638E-01    5.6855797087083166E+00   -1.1776527091624271E+00
H   -1.3818411898239136E+00    8.4756225099339542E+00   -1.1782317217206617E+00
H    6.7058045739572840E+00    1.0607572133741111E-01   -1.1790285473592736E+00
H    5.0973358424584125E+00    2.8958701974220835E+00   -1.1774431378576005E+00
H    3.4862554474593481E+00    5.6828742231245766E+00   -1.1789969695054523E+00
H    1.8728685805193059E+00    8.4747885046160913E+00   -1.1803813832192454E+00
H    9.9631074617482014E+00    1.0584302917261730E-01   -1.1794130962836731E+00
H    8.3523405623518414E+00    2.8966223816164960E+00   -1.1784690613805842E+00
H    6.7431221588050398E+00    5.6834513839546918E+00   -1.1782458471512163E+00
H    5.1321102273810988E+00    8.4743890068932011E+00   -1.1801523683372619E+00
     &END COORD
     &KIND H
       BASIS_SET DZVP-MOLOPT-SR-GTH-q1
       POTENTIAL GTH-PBE-q1
       &POTENTIAL
1
0.2000000000000000E+00 2 -0.4178900440000000E+01  0.7244633100000000E+00
0
       &END POTENTIAL
     &END KIND
     &KIND N
       BASIS_SET DZVP-MOLOPT-SR-GTH
       POTENTIAL GTH-PBE-q5
       &POTENTIAL
2 3
0.2837905100000000E+00 2 -0.1241522559000000E+02  0.1868095920000000E+01
2
0.2554050000000000E+00 1  0.1363026257000000E+02
0.2454945300000000E+00 0
       &END POTENTIAL
     &END KIND
     &KIND Ga
       BASIS_SET DZVP-MOLOPT-SR-GTH
       POTENTIAL GTH-PBE-q13
       &POTENTIAL
2 1 10
0.4900000000000000E+00 0
3
0.4167772300000000E+00 3  0.1047568975000000E+02 -0.4921768140000000E+01  0.8707055900000000E+00
0.7770178090000000E+01 -0.2248152160000000E+01
0.1784415450000000E+01
0.5696265200000000E+00 2  0.1777985340000000E+01  0.1958597600000000E+00
-0.2317443900000000E+00
0.2381265000000000E+00 1 -0.1624868022000000E+02
       &END POTENTIAL
     &END KIND
     &TOPOLOGY
       NUMBER_OF_ATOMS  256
       MULTIPLE_UNIT_CELL  1 1 1
     &END TOPOLOGY
   &END SUBSYS
 &END FORCE_EVAL
