 # Version information for this restart file 
 # current date 2019-06-10 16:13:34.164
 # current working dir /lustre03/project/6037349/rzk/GaN-carbene/444-addat/00-Surface/RKS
 # Program compiled at                              Sun Apr  7 00:48:11 EDT 2019
 # Program compiled on                          beluga2.int.ets1.calculquebec.ca
 # Program compiled for                        Beluga-Linux-x86-64-intel-openmpi
 # Source code revision number                                         svn:18619
 &GLOBAL
   PRINT_LEVEL  MEDIUM
   PROJECT_NAME TEST
   RUN_TYPE  CELL_OPT
 &END GLOBAL
 &MOTION
   &CELL_OPT
     MAX_ITER  300
     STEP_START_VAL  57
     EXTERNAL_PRESSURE     1.0000000000000000E+00
     KEEP_ANGLES  T
     KEEP_SYMMETRY  T
     CONSTRAINT  Z
     PRESSURE_TOLERANCE     5.0000000000000000E+02
   &END CELL_OPT
 &END MOTION
 &FORCE_EVAL
   METHOD  QS
   STRESS_TENSOR  ANALYTICAL
   &DFT
     BASIS_SET_FILE_NAME BASIS_MOLOPT
     POTENTIAL_FILE_NAME GTH_POTENTIALS
     SURFACE_DIPOLE_CORRECTION  T
     SURF_DIP_DIR  Z
     &SCF
       MAX_SCF  100
       EPS_SCF     5.0000000000000004E-06
       &OT  T
         PRECONDITIONER  FULL_ALL
       &END OT
       &OUTER_SCF  T
         OPTIMIZER  NONE
         EPS_SCF     5.0000000000000004E-06
         MAX_SCF  4
       &END OUTER_SCF
       &PRINT
         &RESTART  OFF
           BACKUP_COPIES  1
           &EACH
             JUST_ENERGY  0
             QS_SCF  0
             MD  20
           &END EACH
         &END RESTART
       &END PRINT
     &END SCF
     &QS
       EPS_DEFAULT     1.0000000000000000E-14
       METHOD  GPW
     &END QS
     &MGRID
       NGRIDS  5
       CUTOFF     1.2000000000000000E+03
     &END MGRID
     &XC
       DENSITY_CUTOFF     1.0000000000000000E-10
       GRADIENT_CUTOFF     1.0000000000000000E-10
       TAU_CUTOFF     1.0000000000000000E-10
       &XC_FUNCTIONAL  NO_SHORTCUT
         &PBE  T
         &END PBE
       &END XC_FUNCTIONAL
       &VDW_POTENTIAL
         POTENTIAL_TYPE  PAIR_POTENTIAL
         &PAIR_POTENTIAL
           R_CUTOFF     1.0000000000000004E+01
           TYPE  DFTD3
           PARAMETER_FILE_NAME dftd3.dat
           REFERENCE_FUNCTIONAL PBE
           EPS_CN     9.9999999999999995E-07
           CALCULATE_C9_TERM  T
           REFERENCE_C9_TERM  T
           LONG_RANGE_CORRECTION  F
           VERBOSE_OUTPUT  F
         &END PAIR_POTENTIAL
       &END VDW_POTENTIAL
     &END XC
   &END DFT
   &SUBSYS
     &CELL
       A     1.2995014675109347E+01    0.0000000000000000E+00    0.0000000000000000E+00
       B    -6.4552718548320778E+00    1.1180858829238522E+01    0.0000000000000000E+00
       C     0.0000000000000000E+00    0.0000000000000000E+00    3.2000000000000000E+01
       MULTIPLE_UNIT_CELL  1 1 1
       &CELL_REF
         A     1.2982353780853531E+01    0.0000000000000000E+00    0.0000000000000000E+00
         B    -6.4911768904267628E+00    1.1243048175136114E+01    0.0000000000000000E+00
         C     0.0000000000000000E+00    0.0000000000000000E+00    3.2000000000000000E+01
         MULTIPLE_UNIT_CELL  1 1 1
       &END CELL_REF
     &END CELL
     &COORD
N    1.4857951755509647E-02   -4.4385613247851907E-03   -1.4793508629120414E-01
Ga    2.7890485461218820E-02    1.8661402292326794E+00    5.1617753185515103E-01
N    5.0308793218815415E-02    1.8758502123123235E+00    2.4383825124100724E+00
Ga    4.6079314847418618E-02    1.2364696134718838E-02    3.1592134974479138E+00
N    8.5534723651415415E-02    3.0549108726017543E-02    5.0917805965084471E+00
Ga    1.0268320109644848E-01    1.9043989370138761E+00    5.7797686328303648E+00
N    1.9068990192179658E-01    1.9703436885572938E+00    7.7137111863030077E+00
Ga    1.9269146060865153E-01    1.1053566863622903E-01    8.3934328132450293E+00
N    3.2151482752801697E-01    1.8983708968689522E-01    1.0324356437299640E+01
Ga    3.4349447918221193E-01    2.0607494661896055E+00    1.1010856330628766E+01
N    4.5650629165537016E-01    2.1300631008305926E+00    1.2941470014149218E+01
Ga    4.3169694099578337E-01    2.7662432365817152E-01    1.3608190943221887E+01
N   -1.2530958236471054E-01   -6.0037539608420114E-02    1.5343710100662729E+01
Ga   -8.6479413373485869E-01    1.0948522563877741E+00    1.6698068641953626E+01
N    5.3683205775513310E-01    3.1091808777992297E-01    1.7868498078981190E+01
N   -1.5989449897076655E+00    2.7907119876439532E+00   -1.4715773434913534E-01
Ga   -1.5865142097214007E+00    4.6620587565565188E+00    5.1549747381488886E-01
N   -1.5648087319733508E+00    4.6728521995392036E+00    2.4373182585446105E+00
Ga   -1.5671006428973435E+00    2.8087163477958139E+00    3.1540703282183231E+00
N   -1.5271505159855225E+00    2.8274729809418000E+00    5.0852021452291476E+00
Ga   -1.5097329641461048E+00    4.6985736517378021E+00    5.7819267683242206E+00
N   -1.4216036222925259E+00    4.7643304375507194E+00    7.7138125701470486E+00
Ga   -1.4227593626315034E+00    2.9037424752504473E+00    8.3997713836212764E+00
N   -1.2922222131862247E+00    2.9899143107246418E+00    1.0338332266305125E+01
Ga   -1.2826963560926370E+00    4.8684950428297613E+00    1.1039236452162454E+01
N   -1.1820146411663692E+00    4.9489580460916835E+00    1.2972973760551900E+01
Ga   -1.1455729637005037E+00    3.0766663228616684E+00    1.3626856641156296E+01
N   -1.6137286922618148E+00    2.6331709221023711E+00    1.5460520865125092E+01
Ga   -2.6509131154533239E+00    4.3903943139895789E+00    1.6764578773530875E+01
N   -1.1608979857883228E+00    3.0918521247117070E+00    1.6752212773353129E+01
N   -3.2127680431513226E+00    5.5859267968354640E+00   -1.4863875511877367E-01
Ga   -3.1998047517286610E+00    7.4565839165913195E+00    5.1535076661788004E-01
N   -3.1775497106016211E+00    7.4666703387599282E+00    2.4375743686701461E+00
Ga   -3.1818905974887999E+00    5.6032235856538621E+00    3.1586750459004644E+00
N   -3.1426668722481867E+00    5.6216153748247848E+00    5.0908483815979473E+00
Ga   -3.1255240970534315E+00    7.4965857314427407E+00    5.7765520855579799E+00
N   -3.0381681440127268E+00    7.5619897714881050E+00    7.7089566595179724E+00
Ga   -3.0359355150232172E+00    5.6998246089015305E+00    8.3886710420217501E+00
N   -2.9049486267406763E+00    5.7819484126144269E+00    1.0322539845560060E+01
Ga   -2.8870756735660676E+00    7.6428669815464394E+00    1.1035563025461368E+01
N   -2.7813018036896828E+00    7.7204847650984734E+00    1.2973031387367062E+01
Ga   -2.7985239462163638E+00    5.8633477580838242E+00    1.3669368186526190E+01
N   -3.3413357089098943E+00    5.5253761583853223E+00    1.5405866158862189E+01
Ga   -3.9877552608936386E+00    6.6898092790336454E+00    1.6768810114834672E+01
N   -2.6850553056891187E+00    5.8967927968924041E+00    1.8061888818399929E+01
N   -4.8266594599168426E+00    8.3812815899285162E+00   -1.4722314135328068E-01
Ga   -4.8140019308465822E+00    1.0252653782650754E+01    5.1587036782837992E-01
N   -4.7921261435611386E+00    1.0263820758872452E+01    2.4377259496639692E+00
Ga   -4.7943135275253219E+00    8.4001827557809179E+00    3.1538625232552082E+00
N   -4.7548671420024160E+00    8.4205630146908668E+00    5.0851570198812146E+00
Ga   -4.7382120794934091E+00    1.0290613297994030E+01    5.7877146510027613E+00
N   -4.6503065659507268E+00    1.0357144460996638E+01    7.7195944708329343E+00
Ga   -4.6505519913818523E+00    8.4928119970116303E+00    8.3972627348501714E+00
N   -4.5155447856575766E+00    8.5757798312753089E+00    1.0335988106757961E+01
Ga   -4.5010994340612127E+00    1.0456717894969520E+01    1.1017276358427839E+01
N   -4.4031605172709023E+00    1.0550706041543849E+01    1.2944985301509819E+01
Ga   -4.3863498902046834E+00    8.6886638833049936E+00    1.3625765232602461E+01
N   -4.9966078982766664E+00    8.4984054971336729E+00    1.5465103717290948E+01
Ga   -5.9587682115576133E+00    9.8980354463603515E+00    1.6690827830317311E+01
N   -4.3803350231800744E+00    8.6402897805285246E+00    1.6756537702489045E+01
N    3.2635527593778613E+00   -4.2985168459784510E-03   -1.4818761819161996E-01
Ga    3.2757566327826404E+00    1.8662455229300494E+00    5.1599631642666011E-01
N    3.2971579253484395E+00    1.8762242860603526E+00    2.4385189819007000E+00
Ga    3.2940624623516190E+00    1.3217426904711272E-02    3.1593317710776101E+00
N    3.3345428272142739E+00    3.2496022313044534E-02    5.0924811523644307E+00
Ga    3.3492862797316936E+00    1.9028874190446101E+00    5.7882696004889622E+00
N    3.4324942214457397E+00    1.9666147532803226E+00    7.7242995219730091E+00
Ga    3.4470291664396728E+00    1.1096050937350344E-01    8.4218696182777002E+00
N    3.5781477810113254E+00    1.9046513866109663E-01    1.0362258447933581E+01
Ga    3.5932199200201937E+00    2.0574220594576840E+00    1.1063054138408905E+01
N    3.7046995684029498E+00    2.1403520307968535E+00    1.3001312621342418E+01
Ga    3.6778410148263156E+00    2.9083252043739155E-01    1.3702817385114358E+01
N    3.1136861059093071E+00    8.2431308815532735E-04    1.5562708748812733E+01
Ga    2.0430577741049167E+00    1.1680447168445298E+00    1.7217995460543339E+01
N    3.7537397055197816E+00    3.5868819750496878E-01    1.6936713801817604E+01
N    1.6497782944777117E+00    2.7907629634818369E+00   -1.4815898858988280E-01
Ga    1.6618464358835374E+00    4.6612848500434660E+00    5.1621473213420754E-01
N    1.6831396751509229E+00    4.6713226127272680E+00    2.4384935386508828E+00
Ga    1.6810909018780056E+00    2.8081071634444568E+00    3.1591316640205473E+00
N    1.7220171749949722E+00    2.8278135002900631E+00    5.0919562248636367E+00
Ga    1.7353761519323421E+00    4.6989063378903388E+00    5.7878019600379016E+00
N    1.8199854626564154E+00    4.7614228081910257E+00    7.7247755128270725E+00
Ga    1.8310461168909249E+00    2.9064637042604149E+00    8.4273737654175989E+00
N    1.9661429096394056E+00    2.9881329957333782E+00    1.0368476892686559E+01
Ga    1.9631493756956413E+00    4.8578860208208789E+00    1.1076713908893542E+01
N    2.0567717500059222E+00    4.9350247927991306E+00    1.3018769239461523E+01
Ga    2.0816862030800061E+00    3.0536851167321437E+00    1.3693233841269787E+01
N    1.5624084855198326E+00    2.6915971333170341E+00    1.5548829734843867E+01
Ga    4.7881611421232179E-01    3.9741487180474504E+00    1.6559226790549459E+01
N    2.1908339181166938E+00    3.0668838418912086E+00    1.6939017118527406E+01
N    3.5910975427428236E-02    5.5861121491418606E+00   -1.4816887410287263E-01
Ga    4.8093855705350637E-02    7.4568350798634082E+00    5.1607546584911501E-01
N    6.9502318774061531E-02    7.4671561268929167E+00    2.4383551704469113E+00
Ga    6.6519869247155097E-02    5.6038260662494039E+00    3.1573457852887565E+00
N    1.0756422862710538E-01    5.6235668739085423E+00    5.0902179882403988E+00
Ga    1.2192928739051533E-01    7.4934365869936430E+00    5.7894814367802487E+00
N    2.0729353797319292E-01    7.5567558330676965E+00    7.7264578026155570E+00
Ga    2.1610785423478504E-01    5.6987314989945661E+00    8.4225927248596530E+00
N    3.4114850515611955E-01    5.7792534749887912E+00    1.0365703072358812E+01
Ga    3.6694110912279609E-01    7.6499094043959612E+00    1.1056058147809136E+01
N    4.7526986337137428E-01    7.7335328372247343E+00    1.2992562806171716E+01
Ga    4.4425145104124403E-01    5.8878276755315104E+00    1.3694883916743544E+01
N   -9.8094838079752916E-02    5.5747304762681047E+00    1.5567662597207448E+01
Ga   -1.1390153348686225E+00    6.7866056470622258E+00    1.7646107555910334E+01
N    4.5363794486474140E-01    5.9770064921402044E+00    1.6853777250020055E+01
N   -1.5778255182535785E+00    8.3811710542241347E+00   -1.4864580756975007E-01
Ga   -1.5658267475441934E+00    1.0251844073091622E+01    5.1595654776861732E-01
N   -1.5446760234472015E+00    1.0262300384370981E+01    2.4385543207204616E+00
Ga   -1.5467558812184243E+00    8.3990163271833840E+00    3.1588769145670081E+00
N   -1.5050620217500796E+00    8.4190545494358329E+00    5.0915155000849328E+00
Ga   -1.4921419707238570E+00    1.0289470375471003E+01    5.7868816181522185E+00
N   -1.4074420823002534E+00    1.0351714041642870E+01    7.7236585615142861E+00
Ga   -1.3992263926465756E+00    8.4951457870656295E+00    8.4287303641849523E+00
N   -1.2683540496355445E+00    8.5726756915396578E+00    1.0373119906667448E+01
Ga   -1.2607160433550477E+00    1.0442780608641620E+01    1.1076881326588957E+01
N   -1.1666354933319569E+00    1.0518652264360407E+01    1.3019172676984034E+01
Ga   -1.1438171335112430E+00    8.6374521616681790E+00    1.3683080896764318E+01
N   -1.6616656836983288E+00    8.2947022464565858E+00    1.5551434986689458E+01
Ga   -2.7646588405719212E+00    9.5947543509372792E+00    1.6561560982747856E+01
N   -1.0568721952158624E+00    8.5825522177080789E+00    1.6847913142392741E+01
N    6.5120638092872376E+00   -4.7156688254962192E-03   -1.4785219738716454E-01
Ga    6.5246328548953549E+00    1.8661201848317359E+00    5.1484495522026075E-01
N    6.5453046108233011E+00    1.8755519327935097E+00    2.4372341741445944E+00
Ga    6.5420837916858865E+00    1.2191019879493430E-02    3.1570461471997744E+00
N    6.5802654999187320E+00    3.0557258593675776E-02    5.0904406366172354E+00
Ga    6.5929367471996034E+00    1.8991713321792816E+00    5.7864629943215604E+00
N    6.6730636948590041E+00    1.9584570528399985E+00    7.7219749337233869E+00
Ga    6.6780746021626110E+00    1.0374053051332438E-01    8.4263137495137368E+00
N    6.8026870408060782E+00    1.8185446373986380E-01    1.0373128603007753E+01
Ga    6.8439353174967144E+00    2.0633224740567480E+00    1.1040006290314485E+01
N    6.9690347906686370E+00    2.1442514477294359E+00    1.2981673030669803E+01
Ga    6.9557815692430260E+00    2.8965330904835185E-01    1.3673136796799279E+01
N    6.3964560080261501E+00   -4.7877466443307683E-02    1.5495562202224528E+01
Ga    5.3909085325951649E+00    1.2521024366393727E+00    1.6599958535778971E+01
N    7.0443113448193033E+00    3.2574534599009031E-01    1.7093135533783045E+01
N    4.8982461610189212E+00    2.7905237131842284E+00   -1.4822228028444928E-01
Ga    4.9108718618608744E+00    4.6613195205103697E+00    5.1499086222653390E-01
N    4.9314282536244018E+00    4.6708853380536421E+00    2.4370550418778527E+00
Ga    4.9283500061024288E+00    2.8074883726879944E+00    3.1566986843712233E+00
N    4.9667911046364113E+00    2.8265782793928795E+00    5.0915712601387000E+00
Ga    4.9777654338614319E+00    4.6970762314313941E+00    5.7910898742219619E+00
N    5.0551129857520465E+00    4.7618438545424180E+00    7.7266066866278420E+00
Ga    5.0690414580690248E+00    2.9020009679032395E+00    8.4208829544723010E+00
N    5.2011313739855849E+00    2.9828339334230263E+00    1.0368268151229476E+01
Ga    5.2236581182101549E+00    4.8659756884460084E+00    1.1038452089133418E+01
N    5.3313673866115723E+00    4.9589722563047411E+00    1.2978336550493976E+01
Ga    5.3728195837612196E+00    3.1024800427706865E+00    1.3656746101890727E+01
N    4.8314443087378827E+00    2.7714138823456156E+00    1.5483804725393476E+01
Ga    3.7911886899465577E+00    4.0190545452386113E+00    1.6609566449168376E+01
N    5.4676859162825089E+00    3.1505348159054360E+00    1.7071792300839558E+01
N    3.2844432958106768E+00    5.5857210022105006E+00   -1.4748177828987305E-01
Ga    3.2970570484016939E+00    7.4566847842556809E+00    5.1536847922940843E-01
N    3.3180333251419789E+00    7.4663396638769770E+00    2.4378318086437525E+00
Ga    3.3146737276077323E+00    5.6023704836362569E+00    3.1563466312696415E+00
N    3.3526819518211268E+00    5.6205022474080044E+00    5.0898348065210772E+00
Ga    3.3660196261291029E+00    7.4888393585683071E+00    5.7857786432938756E+00
N    3.4467100440273497E+00    7.5474522665383939E+00    7.7206597246408526E+00
Ga    3.4490656128924937E+00    5.6947006738457304E+00    8.4280036202227055E+00
N    3.5745227823418184E+00    5.7726204139698112E+00    1.0373300701744096E+01
Ga    3.6178029414803348E+00    7.6501429834913548E+00    1.1040009193816344E+01
N    3.7372164434417443E+00    7.7315552609454903E+00    1.2977367508757943E+01
Ga    3.7292448303071684E+00    5.8831395460438518E+00    1.3675354671051025E+01
N    3.1659797299381500E+00    5.5331698475342384E+00    1.5501310000738695E+01
Ga    2.1437021522318815E+00    6.8322101079276054E+00    1.6555301571653651E+01
N    3.8265361306722392E+00    5.9249581071489361E+00    1.7093855702542690E+01
N    1.6706644767235355E+00    8.3809354711456425E+00   -1.4769016200300072E-01
Ga    1.6831891958628038E+00    1.0251859418860423E+01    5.1514298274878778E-01
N    1.7039684661025338E+00    1.0261804085484410E+01    2.4374989224690720E+00
Ga    1.7007154653811041E+00    8.3982224279389150E+00    3.1578261196594002E+00
N    1.7393923011032530E+00    8.4171283589022678E+00    5.0924051074104533E+00
Ga    1.7507303426047176E+00    1.0287686870200689E+01    5.7883218684215381E+00
N    1.8294487336564549E+00    1.0351194390113815E+01    7.7232001838590421E+00
Ga    1.8460384237612129E+00    8.4929184025268043E+00    8.4192868057777659E+00
N    1.9772347278271758E+00    8.5735591162718450E+00    1.0366519161132093E+01
Ga    1.9970097196388026E+00    1.0457502051570813E+01    1.1039132194791295E+01
N    2.1058566632240230E+00    1.0549728874719950E+01    1.2976709817450688E+01
Ga    2.1512262637865862E+00    8.6962816651331192E+00    1.3638042291671807E+01
N    1.5966535779686089E+00    8.3547154821821614E+00    1.5456360016969921E+01
Ga    5.4727659377070215E-01    9.6081239876407807E+00    1.6557684745409837E+01
N    2.1943157848313133E+00    8.7230205887090975E+00    1.7080038388226665E+01
N    9.7610936168437448E+00   -4.3116235007034810E-03   -1.4748966212984319E-01
Ga    9.7734377962228738E+00    1.8663878571875427E+00    5.1646021813225185E-01
N    9.7949048729523511E+00    1.8761871920211162E+00    2.4386416613997834E+00
Ga    9.7900173644870545E+00    1.1044047856823324E-02    3.1547559249742561E+00
N    9.8262772682089956E+00    2.7586831180503545E-02    5.0874933693092590E+00
Ga    9.8471393073602727E+00    1.9023588652030818E+00    5.7689555511201842E+00
N    9.9318884406157313E+00    1.9660052384604989E+00    7.6993409102750130E+00
Ga    9.9259016532405528E+00    1.0812466718484992E-01    8.3830546184953132E+00
N    1.0048451819908234E+01    1.9170467002318861E-01    1.0317027269059601E+01
Ga    1.0091454937296287E+01    2.0598911923874623E+00    1.1006501105632879E+01
N    1.0207268486051223E+01    2.1405771833877725E+00    1.2934559020519684E+01
Ga    1.0238617282129777E+01    2.9691594580321068E-01    1.3650336105639536E+01
N    9.7372633299832092E+00   -9.2042791493852777E-03    1.5515697605249843E+01
Ga    8.6530565351353097E+00    1.2381859296889064E+00    1.6746241472845014E+01
N    1.0363743537402609E+01    3.4847710455670183E-01    1.6888474673786828E+01
N    8.1472965873312546E+00    2.7906697463761194E+00   -1.4801114369811910E-01
Ga    8.1600240844072527E+00    4.6616896934573928E+00    5.1557172438119381E-01
N    8.1817568613619187E+00    4.6717007572278080E+00    2.4381049997836381E+00
Ga    8.1754977240430939E+00    2.8069633322950676E+00    3.1554090297106474E+00
N    8.2119984729619002E+00    2.8228584213115004E+00    5.0880231589802154E+00
Ga    8.2295174189096478E+00    4.6963239759164139E+00    5.7753234016650756E+00
N    8.3108377187167441E+00    4.7587834235361450E+00    7.7078062216688181E+00
Ga    8.3187181021237961E+00    2.8940972234082292E+00    8.3916896437929864E+00
N    8.4494967536972130E+00    2.9718363421894756E+00    1.0327664540396823E+01
Ga    8.4666195405068887E+00    4.8575467545261519E+00    1.0977299143325020E+01
N    8.5589696023237654E+00    4.9358735752910654E+00    1.2883290633981128E+01
Ga    8.6252432749598107E+00    3.1136257721711691E+00    1.3629694184794266E+01
N    8.1716822045002413E+00    2.8008045287626606E+00    1.5520100482417682E+01
Ga    7.0501684011075110E+00    4.0288938687135722E+00    1.6694343684896054E+01
N    8.8014557889140104E+00    3.1738377128444006E+00    1.6889233001934084E+01
N    6.5333976685621122E+00    5.5861095812119714E+00   -1.4783330095640537E-01
Ga    6.5458740025991062E+00    7.4567948318491419E+00    5.1656423050890177E-01
N    6.5674274692344232E+00    7.4669133652130171E+00    2.4389639369628795E+00
Ga    6.5620476724624588E+00    5.6009306911885401E+00    3.1544214553259162E+00
N    6.5972928492923391E+00    5.6175714006553914E+00    5.0868689425137354E+00
Ga    6.6198568223929346E+00    7.4925231597455637E+00    5.7667120441410544E+00
N    6.7036054679055699E+00    7.5553244722690671E+00    7.6973470072390606E+00
Ga    6.6996348290237595E+00    5.6984072138445558E+00    8.3896146010706918E+00
N    6.8256718555258615E+00    5.7799128610739743E+00    1.0323795657326448E+01
Ga    6.8630355086742911E+00    7.6537156443265637E+00    1.1005943038971624E+01
N    6.9759056173928187E+00    7.7378290657592146E+00    1.2934391752994735E+01
Ga    7.0134745067568787E+00    5.8851583540281585E+00    1.3634097753558317E+01
N    6.5378595492606610E+00    5.6226677014942181E+00    1.5511780444106817E+01
Ga    5.4358754945627705E+00    6.8163922847176499E+00    1.6738384402934479E+01
N    7.1812502355143222E+00    5.9894957227875008E+00    1.6871736328744007E+01
N    4.9196794003670128E+00    8.3811252914713226E+00   -1.4758204296258717E-01
Ga    4.9323823181107072E+00    1.0252132806999093E+01    5.1606682271311100E-01
N    4.9540430355512903E+00    1.0262354801930540E+01    2.4384694684009314E+00
Ga    4.9480623287188692E+00    8.3980038694023449E+00    3.1551431748401040E+00
N    4.9844220353475048E+00    8.4149998304830511E+00    5.0877384985140077E+00
Ga    5.0035444308973789E+00    1.0287694723382268E+01    5.7789052264381837E+00
N    5.0857678492281027E+00    1.0349401705740139E+01    7.7110631935849350E+00
Ga    5.0905083811940912E+00    8.4816683328837232E+00    8.3846933654851963E+00
N    5.2191171031124579E+00    8.5586000381809999E+00    1.0320960208267204E+01
Ga    5.2305022932502583E+00    1.0444037991149473E+01    1.0963125132775806E+01
N    5.3237734229569771E+00    1.0522340899847462E+01    1.2876391276783336E+01
Ga    5.3971005131920879E+00    8.7037668493075309E+00    1.3639705416101368E+01
N    4.8879502260361436E+00    8.3620369207400032E+00    1.5503324297687065E+01
Ga    3.7755942343711530E+00    9.5855431263918121E+00    1.6720075236077744E+01
N    5.5099596729024523E+00    8.7472239746337781E+00    1.6895545542223850E+01
H    1.2133896383602743E-02   -5.3579265826097372E-03   -1.1742789003041094E+00
H   -1.6017753182070693E+00    2.7900987298159197E+00   -1.1735445414235921E+00
H   -3.2149992486068899E+00    5.5851470802608771E+00   -1.1749475169673720E+00
H   -4.8296255932064804E+00    8.3807976517786607E+00   -1.1735786672913209E+00
H    3.2611066779031099E+00   -4.8811872969687113E-03   -1.1745075195232779E+00
H    1.6474923671215487E+00    2.7906218681362200E+00   -1.1745021117727494E+00
H    3.3834919311977192E-02    5.5853994212674332E+00   -1.1745193934347424E+00
H   -1.5799343396708931E+00    8.3806837465226174E+00   -1.1750183901534488E+00
H    6.5098678029408585E+00   -5.5742205594042334E-03   -1.1741225437413112E+00
H    4.8956245260264390E+00    2.7902420994898409E+00   -1.1745124136720373E+00
H    3.2818957224217384E+00    5.5850118203431416E+00   -1.1737371725334869E+00
H    1.6682588732239372E+00    8.3804696800435021E+00   -1.1739772861485307E+00
H    9.7588462613940621E+00   -4.7286642857078736E-03   -1.1738355545836849E+00
H    8.1453222663276676E+00    2.7898297060645039E+00   -1.1743475843256010E+00
H    6.5306507802116540E+00    5.5858857767559007E+00   -1.1741732326311924E+00
H    4.9174349519830525E+00    8.3807675552112393E+00   -1.1739416306578991E+00
     &END COORD
     &KIND H
       BASIS_SET DZVP-MOLOPT-SR-GTH-q1
       POTENTIAL GTH-PBE-q1
       &POTENTIAL
 1
  0.2000000000000000E+00 2 -0.4178900440000000E+01  0.7244633100000000E+00
 0
         # Potential name:  GTH-PBE-Q1  for symbol:  H
         # Potential read from the potential filename: GTH_POTENTIALS
       &END POTENTIAL
     &END KIND
     &KIND N
       BASIS_SET DZVP-MOLOPT-SR-GTH
       POTENTIAL GTH-PBE-q5
       &POTENTIAL
 2 3
  0.2837905100000000E+00 2 -0.1241522559000000E+02  0.1868095920000000E+01
 2
  0.2554050000000000E+00 1  0.1363026257000000E+02
  0.2454945300000000E+00 0
         # Potential name:  GTH-PBE-Q5  for symbol:  N
         # Potential read from the potential filename: GTH_POTENTIALS
       &END POTENTIAL
     &END KIND
     &KIND Ga
       BASIS_SET DZVP-MOLOPT-SR-GTH
       POTENTIAL GTH-PBE-q13
       &POTENTIAL
 2 1 10
  0.4900000000000000E+00 0
 3
  0.4167772300000000E+00 3  0.1047568975000000E+02 -0.4921768140000000E+01  0.8707055900000000E+00
  0.7770178090000000E+01 -0.2248152160000000E+01
  0.1784415450000000E+01
  0.5696265200000000E+00 2  0.1777985340000000E+01  0.1958597600000000E+00
 -0.2317443900000000E+00
  0.2381265000000000E+00 1 -0.1624868022000000E+02
         # Potential name:  GTH-PBE-Q13  for symbol:  GA
         # Potential read from the potential filename: GTH_POTENTIALS
       &END POTENTIAL
     &END KIND
     &TOPOLOGY
       NUMBER_OF_ATOMS  256
       MULTIPLE_UNIT_CELL  1 1 1
     &END TOPOLOGY
   &END SUBSYS
 &END FORCE_EVAL
