 # Version information for this restart file 
 # current date 2019-06-10 23:57:22.216
 # current working dir /lustre03/project/6037349/rzk/GaN-carbene/444-addat/00-Surface/RKS
 # Program compiled at                              Sun Apr  7 00:48:11 EDT 2019
 # Program compiled on                          beluga2.int.ets1.calculquebec.ca
 # Program compiled for                        Beluga-Linux-x86-64-intel-openmpi
 # Source code revision number                                         svn:18619
 &GLOBAL
   PRINT_LEVEL  MEDIUM
   PROJECT_NAME TEST
   RUN_TYPE  CELL_OPT
 &END GLOBAL
 &MOTION
   &CELL_OPT
     MAX_ITER  300
     STEP_START_VAL  90
     EXTERNAL_PRESSURE     1.0000000000000000E+00
     KEEP_ANGLES  T
     KEEP_SYMMETRY  T
     CONSTRAINT  Z
     PRESSURE_TOLERANCE     5.0000000000000000E+02
   &END CELL_OPT
 &END MOTION
 &FORCE_EVAL
   METHOD  QS
   STRESS_TENSOR  ANALYTICAL
   &DFT
     BASIS_SET_FILE_NAME BASIS_MOLOPT
     POTENTIAL_FILE_NAME GTH_POTENTIALS
     SURFACE_DIPOLE_CORRECTION  T
     SURF_DIP_DIR  Z
     &SCF
       MAX_SCF  100
       EPS_SCF     5.0000000000000004E-06
       &OT  T
         PRECONDITIONER  FULL_ALL
       &END OT
       &OUTER_SCF  T
         OPTIMIZER  NONE
         EPS_SCF     5.0000000000000004E-06
         MAX_SCF  4
       &END OUTER_SCF
       &PRINT
         &RESTART  OFF
           BACKUP_COPIES  1
           &EACH
             JUST_ENERGY  0
             QS_SCF  0
             MD  20
           &END EACH
         &END RESTART
       &END PRINT
     &END SCF
     &QS
       EPS_DEFAULT     1.0000000000000000E-14
       METHOD  GPW
     &END QS
     &MGRID
       NGRIDS  5
       CUTOFF     1.2000000000000000E+03
     &END MGRID
     &XC
       DENSITY_CUTOFF     1.0000000000000000E-10
       GRADIENT_CUTOFF     1.0000000000000000E-10
       TAU_CUTOFF     1.0000000000000000E-10
       &XC_FUNCTIONAL  NO_SHORTCUT
         &PBE  T
         &END PBE
       &END XC_FUNCTIONAL
       &VDW_POTENTIAL
         POTENTIAL_TYPE  PAIR_POTENTIAL
         &PAIR_POTENTIAL
           R_CUTOFF     1.0000000000000005E+01
           TYPE  DFTD3
           PARAMETER_FILE_NAME dftd3.dat
           REFERENCE_FUNCTIONAL PBE
           EPS_CN     9.9999999999999995E-07
           CALCULATE_C9_TERM  T
           REFERENCE_C9_TERM  T
           LONG_RANGE_CORRECTION  F
           VERBOSE_OUTPUT  F
         &END PAIR_POTENTIAL
       &END VDW_POTENTIAL
     &END XC
   &END DFT
   &SUBSYS
     &CELL
       A     1.3021901295225204E+01    0.0000000000000000E+00    0.0000000000000000E+00
       B    -6.4461867135066360E+00    1.1165122902869131E+01    0.0000000000000000E+00
       C     0.0000000000000000E+00    0.0000000000000000E+00    3.2000000000000000E+01
       MULTIPLE_UNIT_CELL  1 1 1
       &CELL_REF
         A     1.2982353780853531E+01    0.0000000000000000E+00    0.0000000000000000E+00
         B    -6.4911768904267628E+00    1.1243048175136114E+01    0.0000000000000000E+00
         C     0.0000000000000000E+00    0.0000000000000000E+00    3.2000000000000000E+01
         MULTIPLE_UNIT_CELL  1 1 1
       &END CELL_REF
     &END CELL
     &COORD
N    1.4959117665792121E-01    7.5873610797101115E-02   -1.5237110199244183E-01
Ga    1.6811411827672917E-01    1.9473199185390504E+00    5.1375184758488024E-01
N    2.0777917732271811E-01    1.9795546445129721E+00    2.4373286486315280E+00
Ga    1.9712897155513456E-01    1.1458003835428636E-01    3.1447201668183951E+00
N    2.2017285916930535E-01    1.2812698514468285E-01    5.0739110722137228E+00
Ga    2.3806429857248865E-01    1.9943277045939580E+00    5.7697298847244021E+00
N    2.4681540200718941E-01    2.0047046759609821E+00    7.7043814213599227E+00
Ga    2.3013868768262219E-01    1.4052970425357658E-01    8.3976468950582817E+00
N    2.3645144096585147E-01    1.3717266289051397E-01    1.0326274865058647E+01
Ga    2.5581289514983668E-01    2.0043792569580301E+00    1.1011000181785226E+01
N    2.7920636598002246E-01    2.0076814974885031E+00    1.2949127598197634E+01
Ga    2.1534073019968189E-01    1.3144633055930616E-01    1.3618827635878397E+01
N   -2.8547785278767163E-01   -1.5625669633515601E-01    1.5377657336071911E+01
Ga   -9.8177503244936626E-01    9.7219206340603259E-01    1.6759109625952828E+01
N    3.2336057840949228E-01    1.6839067884209724E-01    1.8045892803872654E+01
N   -1.4626195648100384E+00    2.8675493839011414E+00   -1.4880566048477500E-01
Ga   -1.4435706708824017E+00    4.7378420462585265E+00    5.1629894821671218E-01
N   -1.4032120634211478E+00    4.7682756760572484E+00    2.4391573195533320E+00
Ga   -1.4148898266098235E+00    2.9045234491762226E+00    3.1501697835634341E+00
N   -1.3883491867657856E+00    2.9193639497146671E+00    5.0801778828620776E+00
Ga   -1.3732554610925363E+00    4.7890936975203102E+00    5.7753225995353121E+00
N   -1.3654506760313105E+00    4.7979821081452076E+00    7.7108804346072883E+00
Ga   -1.3790833803641849E+00    2.9286262992246224E+00    8.3930621078982703E+00
N   -1.3704114558255227E+00    2.9319799380164620E+00    1.0328326983575595E+01
Ga   -1.3630432572308515E+00    4.7995109187246818E+00    1.1023730056878067E+01
N   -1.3463000315665294E+00    4.8247882206158446E+00    1.2965388844480218E+01
Ga   -1.3380433030594820E+00    2.9464186224395537E+00    1.3618385275021673E+01
N   -1.8541768839876767E+00    2.5091848658193712E+00    1.5432493466445154E+01
Ga   -2.8446329997365898E+00    4.2541077616127527E+00    1.6850163867424676E+01
N   -1.3719686185377480E+00    2.9399702149393638E+00    1.6717031792002654E+01
N   -3.0742722606328083E+00    5.6579716932711204E+00   -1.4887922376904925E-01
Ga   -3.0553805891614449E+00    7.5296199486544797E+00    5.1558026423993297E-01
N   -3.0154370101645251E+00    7.5616779739470461E+00    2.4386033527218078E+00
Ga   -3.0257623364552075E+00    5.6970549008728080E+00    3.1451720040061595E+00
N   -3.0001943099255364E+00    5.7119613009639032E+00    5.0758752147357242E+00
Ga   -2.9842892038735718E+00    7.5798679983420456E+00    5.7735409254524788E+00
N   -2.9756017547060001E+00    7.5913482054829906E+00    7.7092255440728215E+00
Ga   -2.9913680544534618E+00    5.7239165604985818E+00    8.3907278883915648E+00
N   -2.9819851118240672E+00    5.7222324893156555E+00    1.0324587184837354E+01
Ga   -2.9686054966666116E+00    7.5828128951287814E+00    1.1026210925179354E+01
N   -2.9414865009734710E+00    7.5944499712315459E+00    1.2967693635166999E+01
Ga   -2.9772381924192719E+00    5.7308765109217985E+00    1.3674941229668464E+01
N   -3.4252053899940642E+00    5.4627604207215033E+00    1.5467264467146363E+01
Ga   -4.1824940487472437E+00    6.5577636789865874E+00    1.6858295933885554E+01
N   -2.8443286358634587E+00    5.7941803588951188E+00    1.8114180233268801E+01
N   -4.6850351313814018E+00    8.4492891052978791E+00   -1.4890325844509603E-01
Ga   -4.6663400067079079E+00    1.0320771579127651E+01    5.1531240170058135E-01
N   -4.6254474867150615E+00    1.0350398023413680E+01    2.4387262654985200E+00
Ga   -4.6381800996880687E+00    8.4863736902756628E+00    3.1501650346883512E+00
N   -4.6125531748428452E+00    8.5021536249578666E+00    5.0801903291505015E+00
Ga   -4.5984043096583660E+00    1.0372558601336658E+01    5.7707968105878020E+00
N   -4.5913133047871133E+00    1.0382673322828349E+01    7.7067411846406007E+00
Ga   -4.6032065176994816E+00    8.5142419465315200E+00    8.3948544145612942E+00
N   -4.5922817582807633E+00    8.5107175675888005E+00    1.0330749963109639E+01
Ga   -4.5786035143414159E+00    1.0382401508370210E+01    1.1013796108495592E+01
N   -4.5702628512430348E+00    1.0407183136776450E+01    1.2950798108735851E+01
Ga   -4.5635530396821666E+00    8.5382348968854505E+00    1.3622597022325042E+01
N   -5.1969176870953717E+00    8.3145413389308853E+00    1.5442326619763204E+01
Ga   -6.0889650707602128E+00    9.8187145278892185E+00    1.6736522938246850E+01
N   -4.5693413586538814E+00    8.4928379622617420E+00    1.6725219167495606E+01
N    3.4050045412392440E+00    7.6028899842588996E-02   -1.4956810549621180E-01
Ga    3.4233517093889798E+00    1.9468968714822161E+00    5.1488973806034699E-01
N    3.4618406071914913E+00    1.9774476854462526E+00    2.4384257327295615E+00
Ga    3.4547072254101008E+00    1.1499940549801048E-01    3.1534783618989333E+00
N    3.4789634808448771E+00    1.3065234209634091E-01    5.0857548486394339E+00
Ga    3.4986738143380256E+00    1.9987167789631262E+00    5.7810931228093843E+00
N    3.5083369299262190E+00    2.0096170465451215E+00    7.7184411824225094E+00
Ga    3.4868338760010293E+00    1.4052008539206765E-01    8.3985335766174423E+00
N    3.4997358557005476E+00    1.3990884094229980E-01    1.0335644090118468E+01
Ga    3.5066460108536961E+00    2.0019144745533972E+00    1.1033006756467801E+01
N    3.5329004599005360E+00    2.0203172902840381E+00    1.2982081865538134E+01
Ga    3.4877456957605282E+00    1.7300389353610690E-01    1.3694372049834552E+01
N    2.9124468890017883E+00   -9.2104412249126147E-02    1.5560701197371090E+01
Ga    1.8563029373590210E+00    1.0461320999857826E+00    1.7557428880540950E+01
N    3.5120061500170476E+00    2.3066887956690962E-01    1.6884156850758718E+01
N    1.7936243350384722E+00    2.8671589233781041E+00   -1.4862093250078359E-01
Ga    1.8112714956711646E+00    4.7377674948130002E+00    5.1600768384269580E-01
N    1.8503006612725033E+00    4.7676751325750999E+00    2.4396997702814662E+00
Ga    1.8424375326198450E+00    2.9055539959468062E+00    3.1575411554359536E+00
N    1.8684842315769119E+00    2.9191255692159439E+00    5.0890447664008214E+00
Ga    1.8824416660995746E+00    4.7902316803617726E+00    5.7813679179912310E+00
N    1.8914359157318683E+00    4.7982298923432012E+00    7.7185733440426416E+00
Ga    1.8765738760929995E+00    2.9292407419997515E+00    8.3962918351973705E+00
N    1.8866518499456764E+00    2.9277227867644067E+00    1.0335637333589114E+01
Ga    1.8963869278308771E+00    4.7894738320195094E+00    1.1043122852265149E+01
N    1.9020752846178521E+00    4.7942493042548460E+00    1.2996074630260338E+01
Ga    1.9068618941427899E+00    2.9080652086883259E+00    1.3681473143093942E+01
N    1.3888518113820822E+00    2.5227705699602834E+00    1.5545157349297577E+01
Ga    2.6304519427458672E-01    3.8528872373533170E+00    1.6429842816451121E+01
N    1.9814778065390801E+00    2.8705696072633091E+00    1.6879075646901974E+01
N    1.8108292339035661E-01    5.6581149925375751E+00   -1.4911118077078825E-01
Ga    1.9935704491872619E-01    7.5291411249748670E+00    5.1684262568856276E-01
N    2.3833721164927443E-01    7.5603656349824542E+00    2.4398449983785557E+00
Ga    2.3051611486541371E-01    5.6979993453836606E+00    3.1536886686439156E+00
N    2.5542123499137298E-01    5.7129845729383462E+00    5.0857968878967670E+00
Ga    2.7252819537668344E-01    7.5800246178983874E+00    5.7852313766228765E+00
N    2.7949505151069010E-01    7.5887013899770510E+00    7.7237259593138425E+00
Ga    2.6522054461391942E-01    5.7183317785852195E+00    8.4067589904852777E+00
N    2.7267523045856457E-01    5.7183851660134746E+00    1.0344721904977131E+01
Ga    2.9139961125287356E-01    7.5880310576200287E+00    1.1024385667064200E+01
N    3.2395486812246105E-01    7.6133887785098615E+00    1.2975184304446010E+01
Ga    2.8187045815717926E-01    5.7574307761532735E+00    1.3668625539902877E+01
N   -2.6516185416286842E-01    5.4800932637334352E+00    1.5519296606210343E+01
Ga   -1.3128667903024969E+00    6.6620277589113917E+00    1.7578485888518877E+01
N    2.9975621320284224E-01    5.8292519777421363E+00    1.6840717322262154E+01
N   -1.4303845754354525E+00    8.4493897424994007E+00   -1.4820698514280725E-01
Ga   -1.4119759671077416E+00    1.0320396508435090E+01    5.1631988604907597E-01
N   -1.3727456515899645E+00    1.0349896538629572E+01    2.4398305236343432E+00
Ga   -1.3810838986715612E+00    8.4876041532794417E+00    3.1563001171282119E+00
N   -1.3546951606429622E+00    8.5021548520969912E+00    5.0877687708482000E+00
Ga   -1.3398202906764709E+00    1.0371379250065239E+01    5.7834026203889373E+00
N   -1.3308597084912945E+00    1.0382530253725193E+01    7.7207435766310279E+00
Ga   -1.3481037865460572E+00    8.5159665129620343E+00    8.4059814742379597E+00
N   -1.3383181745694614E+00    8.5127783871027827E+00    1.0347567680774834E+01
Ga   -1.3289288294009824E+00    1.0381296413673271E+01    1.1048305644430965E+01
N   -1.3269803417578763E+00    1.0395648566819048E+01    1.3001861302091767E+01
Ga   -1.2988248549652910E+00    8.5098476438862249E+00    1.3663363954578424E+01
N   -1.8142233245443444E+00    8.1651097892414928E+00    1.5524397953852276E+01
Ga   -2.9575438377834167E+00    9.4342236481889330E+00    1.6434843223870381E+01
N   -1.2152979554138079E+00    8.4739067876724867E+00    1.6845078127925404E+01
N    6.6585842160136357E+00    7.5989259013640204E-02   -1.5019588289707936E-01
Ga    6.6774357871374370E+00    1.9463907247283609E+00    5.1696464647262341E-01
N    6.7169097908286304E+00    1.9756870366663026E+00    2.4398559368025832E+00
Ga    6.7054561978793901E+00    1.1239812695418255E-01    3.1549188690176950E+00
N    6.7318277658603183E+00    1.2836446788877673E-01    5.0851393900522082E+00
Ga    6.7467265735253550E+00    1.9959090196801132E+00    5.7774444924926449E+00
N    6.7538979480027264E+00    2.0044744855145069E+00    7.7140885922359548E+00
Ga    6.7426544417155903E+00    1.4163722691408814E-01    8.4160821041739613E+00
N    6.7504798667934933E+00    1.3830561771062105E-01    1.0356450102691671E+01
Ga    6.7759547161097844E+00    2.0102632152642381E+00    1.1035011530623136E+01
N    6.8071725357988955E+00    2.0294576620767151E+00    1.2987400041109348E+01
Ga    6.7869937643804441E+00    1.6519336236368390E-01    1.3647500619631975E+01
N    6.2286973032831687E+00   -1.5320037548521417E-01    1.5488436892599154E+01
Ga    5.1875067958126548E+00    1.1052009906497013E+00    1.6583618828378317E+01
N    6.8881762800331909E+00    2.1021903382218407E-01    1.7067483815510549E+01
N    5.0482622236501529E+00    2.8670289251434071E+00   -1.5123633054314625E-01
Ga    5.0659906640046390E+00    4.7374059842819474E+00    5.1827629708812839E-01
N    5.1043266069387006E+00    4.7685087140478029E+00    2.4408613833830399E+00
Ga    5.0954643795494370E+00    2.9042178738745581E+00    3.1530474981456824E+00
N    5.1220194127006122E+00    2.9201084223715208E+00    5.0833786563274277E+00
Ga    5.1352989528238622E+00    4.7869577737687878E+00    5.7789115265241637E+00
N    5.1411073683391093E+00    4.7946982866231114E+00    7.7148156757133455E+00
Ga    5.1360377965241222E+00    2.9322212966073553E+00    8.4125685014602816E+00
N    5.1424276020474631E+00    2.9320257366841953E+00    1.0353329920085828E+01
Ga    5.1639618475563198E+00    4.8036422436104171E+00    1.1033634480157021E+01
N    5.1868243609832536E+00    4.8308991191557373E+00    1.2985958494995547E+01
Ga    5.1890524169481909E+00    2.9611136097268749E+00    1.3637725977144834E+01
N    4.6425829134492949E+00    2.6416619606665308E+00    1.5460845329431846E+01
Ga    3.5751117155315848E+00    3.8733098686464529E+00    1.6574256985727292E+01
N    5.2650099187330719E+00    2.9930580741927972E+00    1.7064498795624910E+01
N    3.4366843679577488E+00    5.6568925941141668E+00   -1.5094677727329872E-01
Ga    3.4538251246720844E+00    7.5280055715677578E+00    5.1433385888840744E-01
N    3.4910588636890285E+00    7.5578602677773548E+00    2.4372382550957292E+00
Ga    3.4824111602145469E+00    5.6958473886919698E+00    3.1551455271722557E+00
N    3.5095048517657381E+00    5.7110259192841930E+00    5.0854243170093527E+00
Ga    3.5230919153565168E+00    7.5787510641189346E+00    5.7761277056891078E+00
N    3.5298291409598210E+00    7.5857191646571991E+00    7.7103994361578794E+00
Ga    3.5207277414914295E+00    5.7217595714370990E+00    8.4135821849093801E+00
N    3.5276331580611044E+00    5.7197611087685836E+00    1.0354627463802800E+01
Ga    3.5487937017252569E+00    7.5908327170768022E+00    1.1035565907893050E+01
N    3.5859393256647421E+00    7.6042280816777659E+00    1.2987659073244188E+01
Ga    3.5599717873317234E+00    5.7443653922181701E+00    1.3641390948024126E+01
N    3.0000844228269936E+00    5.4070804526903684E+00    1.5475837912610320E+01
Ga    1.9789146788122811E+00    6.6983018052867047E+00    1.6570469929367551E+01
N    3.6515667012359150E+00    5.7775388901111606E+00    1.7070530308879395E+01
N    1.8238765513177291E+00    8.4489498024874035E+00   -1.5043481574324491E-01
Ga    1.8418782140440011E+00    1.0319999077939526E+01    5.1556806357015994E-01
N    1.8789156232817088E+00    1.0348625516818421E+01    2.4383452104429071E+00
Ga    1.8713728491236401E+00    8.4861023543426342E+00    3.1552500388106903E+00
N    1.8970957119188316E+00    8.5011650295974963E+00    5.0861364736995167E+00
Ga    1.9115206901164477E+00    1.0369787673620401E+01    5.7782247710318444E+00
N    1.9148209636780376E+00    1.0379707215548148E+01    7.7134803969227779E+00
Ga    1.9116547760499829E+00    8.5153046098545246E+00    8.4080953178749578E+00
N    1.9226170771731219E+00    8.5155243738718998E+00    1.0346274760582020E+01
Ga    1.9375450799572456E+00    1.0384827463738706E+01    1.1035857950907143E+01
N    1.9615493601612755E+00    1.0414118775405493E+01    1.2987131213750541E+01
Ga    1.9829584684627537E+00    8.5502352430917234E+00    1.3640522749539681E+01
N    1.4639063596559931E+00    8.2515806085022145E+00    1.5473572246669429E+01
Ga    3.8780191109197093E-01    9.4767666767205778E+00    1.6567126156071570E+01
N    2.0596360201638770E+00    8.5785052613232509E+00    1.7101660166260515E+01
N    9.9138394161365362E+00    7.5659586285357211E-02   -1.5134982941810873E-01
Ga    9.9331272797996597E+00    1.9471328335207916E+00    5.1346517359487553E-01
N    9.9720652901014830E+00    1.9776250395773260E+00    2.4367208532396663E+00
Ga    9.9595162380996936E+00    1.1185170944844039E-01    3.1480605525881038E+00
N    9.9844127150430886E+00    1.2422477400009005E-01    5.0773211372814897E+00
Ga    1.0006246753148117E+01    1.9936686320417791E+00    5.7660781136155599E+00
N    1.0014336450757849E+01    2.0057445741607927E+00    7.6989241019440371E+00
Ga    9.9924747742581452E+00    1.4107361964646767E-01    8.3842796708531804E+00
N    9.9918997554612101E+00    1.4094950486800623E-01    1.0310610778282463E+01
Ga    1.0022603148011029E+01    2.0021439607780702E+00    1.1005016836734463E+01
N    1.0041426469835397E+01    2.0197226259828551E+00    1.2940000796652278E+01
Ga    1.0082780439360237E+01    1.7784298140334770E-01    1.3659425118735752E+01
N    9.6029324107952085E+00   -1.0868597823529559E-01    1.5534170849744724E+01
Ga    8.4889605127567336E+00    1.1267307275278009E+00    1.6703196286607561E+01
N    1.0237999206272072E+01    2.4907515774422745E-01    1.6887457854990675E+01
N    8.3025130486006304E+00    2.8669781785348780E+00   -1.4926545223222606E-01
Ga    8.3216690347882949E+00    4.7373569641341806E+00    5.1621181604560951E-01
N    8.3601798931627176E+00    4.7667182922754963E+00    2.4394076499025026E+00
Ga    8.3500106499562143E+00    2.9026754400828079E+00    3.1542751800968265E+00
N    8.3746291137178375E+00    2.9163917146851062E+00    5.0832933883245177E+00
Ga    8.3944073163726340E+00    4.7893005747054653E+00    5.7698965064471617E+00
N    8.3984538763623302E+00    4.7969520601175502E+00    7.7052071883371989E+00
Ga    8.3885578842025286E+00    2.9247156724621766E+00    8.3845472323366224E+00
N    8.3957332836277825E+00    2.9213696361068733E+00    1.0316974334575999E+01
Ga    8.4034759033682143E+00    4.7936118282580464E+00    1.0985061431417373E+01
N    8.4125686283614467E+00    4.8022497883780897E+00    1.2909758499768262E+01
Ga    8.4674058369808485E+00    2.9821612007531031E+00    1.3649695333671035E+01
N    8.0083364957343317E+00    2.7090936238384087E+00    1.5531906558069521E+01
Ga    6.8571460919309875E+00    3.8889051591176771E+00    1.6713579622622767E+01
N    8.6312270040004293E+00    3.0673110544180147E+00    1.6911786642264723E+01
N    6.6914913163470695E+00    5.6568995505971813E+00   -1.4963147010497507E-01
Ga    6.7107367193882705E+00    7.5285986006409207E+00    5.1314849092082482E-01
N    6.7498912693318545E+00    7.5588622352437440E+00    2.4361878804689674E+00
Ga    6.7383390606531197E+00    5.6959172243121747E+00    3.1526464846337006E+00
N    6.7612575273343225E+00    5.7103384041210079E+00    5.0824518190558328E+00
Ga    6.7810316537982818E+00    7.5811189312070111E+00    5.7676744843006160E+00
N    6.7904941862965060E+00    7.5914558676290920E+00    7.6994476770175169E+00
Ga    6.7700027215806022E+00    5.7268170658315869E+00    8.3853173498192461E+00
N    6.7760807133120640E+00    5.7271563830958163E+00    1.0318188187697539E+01
Ga    6.7975835361996504E+00    7.5916448880222784E+00    1.1004411169089654E+01
N    6.8203097947068612E+00    7.6055364558517207E+00    1.2940607645736787E+01
Ga    6.8603280657847989E+00    5.7609748446563156E+00    1.3646424664390548E+01
N    6.3958432131923839E+00    5.4943814554913404E+00    1.5528038955806819E+01
Ga    5.2597752738887769E+00    6.6789283362236977E+00    1.6696403792051804E+01
N    7.0311484241352744E+00    5.8293399292633472E+00    1.6902304081728126E+01
N    5.0798701103430961E+00    8.4486326753038359E+00   -1.5053024483745531E-01
Ga    5.0989766832193757E+00    1.0320500123933828E+01    5.1302029249668246E-01
N    5.1372580686340346E+00    1.0348889912077482E+01    2.4353707745132436E+00
Ga    5.1257963586264257E+00    8.4839158415343583E+00    3.1511326744853920E+00
N    5.1497772175632779E+00    8.4993054825546075E+00    5.0800452171113122E+00
Ga    5.1693595757696755E+00    1.0370513654637227E+01    5.7666190508354962E+00
N    5.1752805252281773E+00    1.0379716734220406E+01    7.7017693915191971E+00
Ga    5.1628601642712963E+00    8.5077023991241756E+00    8.3820456872015825E+00
N    5.1681435222108218E+00    8.4944486625967741E+00    1.0309557882338698E+01
Ga    5.1667433465654620E+00    1.0365598126583745E+01    1.0967699866505669E+01
N    5.1564279023613979E+00    1.0367647149534138E+01    1.2868510042064315E+01
Ga    5.2406280318905276E+00    8.5647182533979525E+00    1.3659036996177218E+01
N    4.7590743506784605E+00    8.2639467891511860E+00    1.5532556272096826E+01
Ga    3.6465712221659188E+00    9.4834203292255790E+00    1.6772219283204940E+01
N    5.3936862582561869E+00    8.6334147803497654E+00    1.6888020858092183E+01
H    1.4523008031166182E-01    7.3730084729880907E-02   -1.1793647562208702E+00
H   -1.4668879991684274E+00    2.8673918608317814E+00   -1.1753829662419641E+00
H   -3.0779554231332913E+00    5.6562442350757518E+00   -1.1757527208738572E+00
H   -4.6876146994253727E+00    8.4455036156146637E+00   -1.1755099124508983E+00
H    3.4020037563066805E+00    7.4551912992758984E-02   -1.1763083102931875E+00
H    1.7904629895466730E+00    2.8653026198341691E+00   -1.1751618458546826E+00
H    1.7566290237747326E-01    5.6557464456366349E+00   -1.1759139965084331E+00
H   -1.4354969543364042E+00    8.4464211367616890E+00   -1.1748565465600629E+00
H    6.6531857487667869E+00    7.4150852051711250E-02   -1.1770623923363310E+00
H    5.0434471794853106E+00    2.8641693352255269E+00   -1.1783114524086464E+00
H    3.4319979505077045E+00    5.6541285581001803E+00   -1.1778814114075644E+00
H    1.8179958373160270E+00    8.4458568533929181E+00   -1.1772396454797822E+00
H    9.9106611480057598E+00    7.4803390171811840E-02   -1.1782694825765296E+00
H    8.2985460400946085E+00    2.8666998654320568E+00   -1.1759739011765757E+00
H    6.6891692353100973E+00    5.6551710070088106E+00   -1.1764644417880712E+00
H    5.0770166683301801E+00    8.4469847736495645E+00   -1.1772685693635616E+00
     &END COORD
     &KIND H
       BASIS_SET DZVP-MOLOPT-SR-GTH-q1
       POTENTIAL GTH-PBE-q1
       &POTENTIAL
1
0.2000000000000000E+00 2 -0.4178900440000000E+01  0.7244633100000000E+00
0
       &END POTENTIAL
     &END KIND
     &KIND N
       BASIS_SET DZVP-MOLOPT-SR-GTH
       POTENTIAL GTH-PBE-q5
       &POTENTIAL
2 3
0.2837905100000000E+00 2 -0.1241522559000000E+02  0.1868095920000000E+01
2
0.2554050000000000E+00 1  0.1363026257000000E+02
0.2454945300000000E+00 0
       &END POTENTIAL
     &END KIND
     &KIND Ga
       BASIS_SET DZVP-MOLOPT-SR-GTH
       POTENTIAL GTH-PBE-q13
       &POTENTIAL
2 1 10
0.4900000000000000E+00 0
3
0.4167772300000000E+00 3  0.1047568975000000E+02 -0.4921768140000000E+01  0.8707055900000000E+00
0.7770178090000000E+01 -0.2248152160000000E+01
0.1784415450000000E+01
0.5696265200000000E+00 2  0.1777985340000000E+01  0.1958597600000000E+00
-0.2317443900000000E+00
0.2381265000000000E+00 1 -0.1624868022000000E+02
       &END POTENTIAL
     &END KIND
     &TOPOLOGY
       NUMBER_OF_ATOMS  256
       MULTIPLE_UNIT_CELL  1 1 1
     &END TOPOLOGY
   &END SUBSYS
 &END FORCE_EVAL
