 # Version information for this restart file 
 # current date 2019-06-10 23:05:40.288
 # current working dir /lustre03/project/6037349/rzk/GaN-carbene/444-addat/00-Surface/RKS
 # Program compiled at                              Sun Apr  7 00:48:11 EDT 2019
 # Program compiled on                          beluga2.int.ets1.calculquebec.ca
 # Program compiled for                        Beluga-Linux-x86-64-intel-openmpi
 # Source code revision number                                         svn:18619
 &GLOBAL
   PRINT_LEVEL  MEDIUM
   PROJECT_NAME TEST
   RUN_TYPE  CELL_OPT
 &END GLOBAL
 &MOTION
   &CELL_OPT
     MAX_ITER  300
     STEP_START_VAL  64
     EXTERNAL_PRESSURE     1.0000000000000000E+00
     KEEP_ANGLES  T
     KEEP_SYMMETRY  T
     CONSTRAINT  Z
     PRESSURE_TOLERANCE     5.0000000000000000E+02
   &END CELL_OPT
 &END MOTION
 &FORCE_EVAL
   METHOD  QS
   STRESS_TENSOR  ANALYTICAL
   &DFT
     BASIS_SET_FILE_NAME BASIS_MOLOPT
     POTENTIAL_FILE_NAME GTH_POTENTIALS
     SURFACE_DIPOLE_CORRECTION  T
     SURF_DIP_DIR  Z
     &SCF
       MAX_SCF  100
       EPS_SCF     5.0000000000000004E-06
       &OT  T
         PRECONDITIONER  FULL_ALL
       &END OT
       &OUTER_SCF  T
         OPTIMIZER  NONE
         EPS_SCF     5.0000000000000004E-06
         MAX_SCF  4
       &END OUTER_SCF
       &PRINT
         &RESTART  OFF
           BACKUP_COPIES  1
           &EACH
             JUST_ENERGY  0
             QS_SCF  0
             MD  20
           &END EACH
         &END RESTART
       &END PRINT
     &END SCF
     &QS
       EPS_DEFAULT     1.0000000000000000E-14
       METHOD  GPW
     &END QS
     &MGRID
       NGRIDS  5
       CUTOFF     1.2000000000000000E+03
     &END MGRID
     &XC
       DENSITY_CUTOFF     1.0000000000000000E-10
       GRADIENT_CUTOFF     1.0000000000000000E-10
       TAU_CUTOFF     1.0000000000000000E-10
       &XC_FUNCTIONAL  NO_SHORTCUT
         &PBE  T
         &END PBE
       &END XC_FUNCTIONAL
       &VDW_POTENTIAL
         POTENTIAL_TYPE  PAIR_POTENTIAL
         &PAIR_POTENTIAL
           R_CUTOFF     1.0000000000000005E+01
           TYPE  DFTD3
           PARAMETER_FILE_NAME dftd3.dat
           REFERENCE_FUNCTIONAL PBE
           EPS_CN     9.9999999999999995E-07
           CALCULATE_C9_TERM  T
           REFERENCE_C9_TERM  T
           LONG_RANGE_CORRECTION  F
           VERBOSE_OUTPUT  F
         &END PAIR_POTENTIAL
       &END VDW_POTENTIAL
     &END XC
   &END DFT
   &SUBSYS
     &CELL
       A     1.3036335772991222E+01    0.0000000000000000E+00    0.0000000000000000E+00
       B    -6.4423631429710149E+00    1.1158500284434899E+01    0.0000000000000000E+00
       C     0.0000000000000000E+00    0.0000000000000000E+00    3.2000000000000000E+01
       MULTIPLE_UNIT_CELL  1 1 1
       &CELL_REF
         A     1.2982353780853531E+01    0.0000000000000000E+00    0.0000000000000000E+00
         B    -6.4911768904267628E+00    1.1243048175136114E+01    0.0000000000000000E+00
         C     0.0000000000000000E+00    0.0000000000000000E+00    3.2000000000000000E+01
         MULTIPLE_UNIT_CELL  1 1 1
       &END CELL_REF
     &END CELL
     &COORD
N    2.1013810752990667E-02   -2.6710113540955793E-03   -1.4287589613660193E-01
Ga    4.0795230699743744E-02    1.8661008966085482E+00    5.1998310820981597E-01
N    6.9811238141645401E-02    1.8847790174616907E+00    2.4416976634230338E+00
Ga    5.5605732534464894E-02    1.8311737428032070E-02    3.1558521997709383E+00
N    1.0423224951719964E-01    4.6773790972790018E-02    5.0866616181277964E+00
Ga    1.2977099112907722E-01    1.9212988759077458E+00    5.7799730592202296E+00
N    2.1754934697104922E-01    1.9847078728247050E+00    7.7103262831933366E+00
Ga    2.1031254616967482E-01    1.1885872699456543E-01    8.3910621575790909E+00
N    3.1454004654714779E-01    1.8629393803683125E-01    1.0323417413545830E+01
Ga    3.4712905893346840E-01    2.0603143975874221E+00    1.1019225547898392E+01
N    4.4230759139390419E-01    2.1233339999915244E+00    1.2950527873453824E+01
Ga    3.8701496958695691E-01    2.3827516509575758E-01    1.3582587134742301E+01
N   -1.9565064516085973E-01   -9.2769776695281761E-02    1.5312631042772654E+01
Ga   -8.5123709450720730E-01    1.0574272724436837E+00    1.6715237423008855E+01
N    5.1855544933718556E-01    2.9790785893898841E-01    1.7938422554407150E+01
N   -1.5892464123523447E+00    2.7867955398446211E+00   -1.4212080337294203E-01
Ga   -1.5697577017079845E+00    4.6561076456124475E+00    5.1930746261113381E-01
N   -1.5405838338048623E+00    4.6744810641695844E+00    2.4416165803096401E+00
Ga   -1.5545997689469260E+00    2.8073491086890390E+00    3.1538785497716129E+00
N   -1.5056377668259782E+00    2.8356321248444671E+00    5.0838250331864394E+00
Ga   -1.4806118454680308E+00    4.7092642457451710E+00    5.7760392689191411E+00
N   -1.3929354771045976E+00    4.7714008419090277E+00    7.7095563444442332E+00
Ga   -1.4007198574672244E+00    2.9102252890337286E+00    8.3972912857741324E+00
N   -1.2926798011978839E+00    2.9740082079077919E+00    1.0332753065317448E+01
Ga   -1.2721350856084446E+00    4.8484639942783501E+00    1.1031383284635066E+01
N   -1.1914052648865681E+00    4.9139737964159789E+00    1.2974043464581410E+01
Ga   -1.1746674049576513E+00    3.0461130817398510E+00    1.3628705641245638E+01
N   -1.6425341443233159E+00    2.5938231984163034E+00    1.5464719579914457E+01
Ga   -2.6762952548021266E+00    4.3558712034304437E+00    1.6800061821480153E+01
N   -1.1808080424864391E+00    3.0602456924025527E+00    1.6752485309128666E+01
N   -3.1999931093981195E+00    5.5767111464551418E+00   -1.4315244949558509E-01
Ga   -3.1803896317062561E+00    7.4456605388580392E+00    5.1956712150419304E-01
N   -3.1513493410702855E+00    7.4641505260975487E+00    2.4414071756419551E+00
Ga   -3.1661419860223545E+00    5.5971051320040166E+00    3.1543481202005936E+00
N   -3.1178021851532960E+00    5.6251337149260037E+00    5.0856892178747461E+00
Ga   -3.0906496955406602E+00    7.4990310674646201E+00    5.7802315136210751E+00
N   -3.0024133259680146E+00    7.5609945499564049E+00    7.7117226309582350E+00
Ga   -3.0087201536049237E+00    5.6996737887882958E+00    8.3968180825863090E+00
N   -2.9067253716851105E+00    5.7652778898831336E+00    1.0331355232866171E+01
Ga   -2.8810712987088167E+00    7.6359974121661702E+00    1.1034280556708378E+01
N   -2.7940935620414939E+00    7.6900378981915383E+00    1.2977444250284540E+01
Ga   -2.8291253746417468E+00    5.8195052625967607E+00    1.3656688040051614E+01
N   -3.3517992530091383E+00    5.5141033819834986E+00    1.5416079442339363E+01
Ga   -4.0055030603998620E+00    6.6637971406881862E+00    1.6808067830612679E+01
N   -2.6832109116670271E+00    5.8909335995217242E+00    1.8065756868148792E+01
N   -4.8106483459782909E+00    8.3664438552074678E+00   -1.4225379956386577E-01
Ga   -4.7910676897071172E+00    1.0235439245520050E+01    5.1961831589090390E-01
N   -4.7620137668028892E+00    1.0253912485282999E+01    2.4417907044313969E+00
Ga   -4.7761315673350779E+00    8.3867599205930574E+00    3.1539923306223323E+00
N   -4.7263930663160441E+00    8.4134338650948255E+00    5.0837622879115569E+00
Ga   -4.7007696640496848E+00    1.0287098692186991E+01    5.7755408504537247E+00
N   -4.6111544127756900E+00    1.0347376511148244E+01    7.7082237130564959E+00
Ga   -4.6191118499978625E+00    8.4861956078098526E+00    8.3985752624996692E+00
N   -4.5138739383428321E+00    8.5523210348510954E+00    1.0332951387664114E+01
Ga   -4.4882329641364205E+00    1.0431606363898592E+01    1.1015049030037092E+01
N   -4.3982216506506813E+00    1.0497274361423839E+01    1.2949548312464891E+01
Ga   -4.4090242934498285E+00    8.6435555027829469E+00    1.3631006588777472E+01
N   -5.0284844544822400E+00    8.4594461307237552E+00    1.5465772549586779E+01
Ga   -5.9487149734305840E+00    9.9015593016499928E+00    1.6700349345825558E+01
N   -4.3847459830193420E+00    8.5994953314378968E+00    1.6753768908019648E+01
N    3.2802849827643246E+00   -2.4049411998489944E-03   -1.4264890791533477E-01
Ga    3.2996667610399197E+00    1.8661939819963866E+00    5.2097417093231280E-01
N    3.3279282357915227E+00    1.8843784761680014E+00    2.4431110911157949E+00
Ga    3.3155249923020480E+00    1.8708227807064975E-02    3.1591513951961807E+00
N    3.3652681335000607E+00    4.6697414622712860E-02    5.0909156124817230E+00
Ga    3.3873928370021620E+00    1.9188198215740317E+00    5.7894979432495370E+00
N    3.4772787248058412E+00    1.9795614570599291E+00    7.7223638813292856E+00
Ga    3.4710689783369717E+00    1.1894919135106553E-01    8.4119916316064707E+00
N    3.5822928910046605E+00    1.9103048257277655E-01    1.0349480907824985E+01
Ga    3.6045104344737942E+00    2.0613986977208278E+00    1.1044753057038221E+01
N    3.6964766094605248E+00    2.1204743576009033E+00    1.2989433293945501E+01
Ga    3.6626366546031415E+00    2.7412584961491798E-01    1.3690815413114183E+01
N    3.1168510980474324E+00    2.1417130746657943E-02    1.5556551867339163E+01
Ga    2.0235846555331531E+00    1.1473244592823306E+00    1.7312557915196116E+01
N    3.7362940132601472E+00    3.4257294075986222E-01    1.6912324231822936E+01
N    1.6697840579277070E+00    2.7868638129937646E+00   -1.4224479403417534E-01
Ga    1.6888274332287647E+00    4.6557219695332215E+00    5.2025629676136986E-01
N    1.7168204717896798E+00    4.6736126384134149E+00    2.4426347531833827E+00
Ga    1.7047243368271427E+00    2.8077883194275879E+00    3.1581548221415106E+00
N    1.7535612420237199E+00    2.8354565217836214E+00    5.0903632014842515E+00
Ga    1.7750683435401857E+00    4.7077606153938856E+00    5.7884217134080727E+00
N    1.8596045684701075E+00    4.7700879606370687E+00    7.7224370088842607E+00
Ga    1.8608627106199382E+00    2.9084036268721616E+00    8.4080669072751935E+00
N    1.9719781352558636E+00    2.9762170477531429E+00    1.0345982155998195E+01
Ga    1.9859545145575832E+00    4.8443780024215775E+00    1.1056245049011887E+01
N    2.0577792623381583E+00    4.9031854320589057E+00    1.3013858995437891E+01
Ga    2.0777297960308849E+00    3.0270857275224721E+00    1.3687766204631052E+01
N    1.5804588632183849E+00    2.6665423979725738E+00    1.5547444676781954E+01
Ga    4.6647632816102880E-01    3.9576331952450245E+00    1.6519703467399069E+01
N    2.1898005328057732E+00    3.0331941966060749E+00    1.6905631210285652E+01
N    5.9337722259936068E-02    5.5768849752487162E+00   -1.4265047573965067E-01
Ga    7.8673397784172844E-02    7.4455317812226456E+00    5.2018754889722862E-01
N    1.0738167717782314E-01    7.4636054312166094E+00    2.4424042066996279E+00
Ga    9.4500111778758569E-02    5.5981475526067319E+00    3.1594274092960259E+00
N    1.4288720788997866E-01    5.6262228222619868E+00    5.0912099874110686E+00
Ga    1.6529941849346316E-01    7.4973021786156115E+00    5.7917609997608084E+00
N    2.5214033643026218E-01    7.5574139112765266E+00    7.7262172519355294E+00
Ga    2.4628495640748205E-01    5.6968246204995090E+00    8.4165395388694542E+00
N    3.5739883825689550E-01    5.7633718790408786E+00    1.0355983901216558E+01
Ga    3.8245489152580886E-01    7.6389400145658257E+00    1.1039805335927825E+01
N    4.6999485314480566E-01    7.6971092782318689E+00    1.2983342444864828E+01
Ga    4.3744548126922150E-01    5.8554296019645973E+00    1.3691625619424157E+01
N   -1.1792302846146724E-01    5.5844482144184395E+00    1.5557680323076267E+01
Ga   -1.1430586702303187E+00    6.7659930495515184E+00    1.7611770252175617E+01
N    4.6312899417242581E-01    5.9302567706852667E+00    1.6863865515551034E+01
N   -1.5512551841635263E+00    8.3663917641367540E+00   -1.4263575424077088E-01
Ga   -1.5325420049405425E+00    1.0235143567599655E+01    5.2030059632088621E-01
N   -1.5045836775482959E+00    1.0253216228875010E+01    2.4424052803007195E+00
Ga   -1.5158227714591315E+00    8.3870930727013793E+00    3.1573645143906868E+00
N   -1.4674281531348885E+00    8.4140228289417642E+00    5.0900574810802102E+00
Ga   -1.4448968099204456E+00    1.0285815665287281E+01    5.7898887921457360E+00
N   -1.3582609465357651E+00    1.0345816913898407E+01    7.7236384643314899E+00
Ga   -1.3638249652889149E+00    8.4859483867705663E+00    8.4122221625801856E+00
N   -1.2569590101322849E+00    8.5539197503798761E+00    1.0352089925931001E+01
Ga   -1.2358803430938552E+00    1.0425456377463435E+01    1.1056913513266389E+01
N   -1.1624072624405215E+00    1.0479036938567338E+01    1.3014070635796907E+01
Ga   -1.1470161340474405E+00    8.6001191535212342E+00    1.3690763082783251E+01
N   -1.6633469318034615E+00    8.2443222997920298E+00    1.5554661305710173E+01
Ga   -2.7728506598742695E+00    9.5553829103390093E+00    1.6519194783084707E+01
N   -1.0542767546742606E+00    8.5627369905501034E+00    1.6859703355163909E+01
N    6.5390694796865567E+00   -3.1662304805876182E-03   -1.4288793358090671E-01
Ga    6.5577556633249294E+00    1.8658020196524516E+00    5.1988427541720106E-01
N    6.5844874529115902E+00    1.8836133623944438E+00    2.4425202644805624E+00
Ga    6.5715293417142462E+00    1.7176026858132774E-02    3.1588094532693769E+00
N    6.6172766797343590E+00    4.3727513289031315E-02    5.0904212986176427E+00
Ga    6.6417735093306911E+00    1.9161646613585930E+00    5.7851746757750231E+00
N    6.7265871482014274E+00    1.9754320969835419E+00    7.7183569549318118E+00
Ga    6.7234024012306151E+00    1.1676556425929004E-01    8.4199299527399507E+00
N    6.8259435365082073E+00    1.8328408715450667E-01    1.0360369953939069E+01
Ga    6.8703224323711627E+00    2.0611390565361107E+00    1.1044645700723059E+01
N    6.9634583460463730E+00    2.1220625062698097E+00    1.2989404828532814E+01
Ga    6.9509409039782781E+00    2.6329244063939677E-01    1.3649989887332522E+01
N    6.4072820339918914E+00   -4.7992229906489083E-02    1.5496728624106716E+01
Ga    5.3875996699171003E+00    1.2320902447308413E+00    1.6611868211696258E+01
N    7.0633787080038832E+00    3.1227930319620939E-01    1.7079896265180992E+01
N    4.9281863511775965E+00    2.7865883650576504E+00   -1.4323106034397787E-01
Ga    4.9472789892059907E+00    4.6551907295499975E+00    5.1956929181949785E-01
N    4.9742363583893781E+00    4.6724933796170642E+00    2.4424907681739247E+00
Ga    4.9612214459729360E+00    2.8066377753374083E+00    3.1598846013504467E+00
N    5.0080187877826434E+00    2.8327770005900357E+00    5.0907302148686613E+00
Ga    5.0309124278329396E+00    4.7054533978433595E+00    5.7817773655117195E+00
N    5.1150696711361503E+00    4.7646134344004603E+00    7.7162461859745086E+00
Ga    5.1178529591263473E+00    2.9080069671612798E+00    8.4200049465037292E+00
N    5.2266407630729637E+00    2.9755488786283153E+00    1.0359539077002410E+01
Ga    5.2539136101961708E+00    4.8568524990590323E+00    1.1041452617146863E+01
N    5.3451993693100857E+00    4.9241976462731456E+00    1.2987801264294442E+01
Ga    5.3551036509685668E+00    3.0647378580583204E+00    1.3647551270503349E+01
N    4.8536603896555004E+00    2.7750673539339763E+00    1.5486485907557014E+01
Ga    3.7971150273801726E+00    3.9999489996771813E+00    1.6615393069906450E+01
N    5.4926003633278375E+00    3.1303357227127440E+00    1.7071114104656917E+01
N    3.3175977375146308E+00    5.5766221789961099E+00   -1.4290452850413607E-01
Ga    3.3365262038103078E+00    7.4451423978517708E+00    5.2046283519845005E-01
N    3.3628540518117482E+00    7.4625025909939771E+00    2.4428414599247938E+00
Ga    3.3504898327998425E+00    5.5961930421575872E+00    3.1592223809954114E+00
N    3.3962984245969130E+00    5.6223533981121525E+00    5.0904653942978673E+00
Ga    3.4207921443075757E+00    7.4953195915082862E+00    5.7829559121876848E+00
N    3.5049810878314180E+00    7.5543889524679351E+00    7.7158724850267824E+00
Ga    3.5022135207869085E+00    5.6955097956630150E+00    8.4200219856192859E+00
N    3.6049772611512370E+00    5.7597920414337436E+00    1.0360616823813688E+01
Ga    3.6496410747021586E+00    7.6398282363702812E+00    1.1035164308927358E+01
N    3.7409817773068728E+00    7.6974708511650602E+00    1.2976606573896767E+01
Ga    3.7269261701062364E+00    5.8449703757226450E+00    1.3650216229702338E+01
N    3.1937208925954108E+00    5.5278263061724946E+00    1.5490078176720777E+01
Ga    2.1459436828965175E+00    6.7904838617969530E+00    1.6578936812116186E+01
N    3.8291692709315321E+00    5.8922534792431103E+00    1.7086006910859272E+01
N    1.7073765048391245E+00    8.3660690776581994E+00   -1.4329152596580741E-01
Ga    1.7262350465309171E+00    1.0234366643494875E+01    5.2035577692751911E-01
N    1.7529802860801120E+00    1.0251294389236024E+01    2.4428649347915479E+00
Ga    1.7399737545296718E+00    8.3856752750141688E+00    3.1593687134450046E+00
N    1.7858086783960678E+00    8.4116656976251303E+00    5.0905811366862634E+00
Ga    1.8095512744836262E+00    1.0285285010707828E+01    5.7815112926001717E+00
N    1.8923549286549042E+00    1.0345132594795995E+01    7.7151184979811518E+00
Ga    1.8950260988407204E+00    8.4874613837483466E+00    8.4162398774854488E+00
N    2.0047020475228843E+00    8.5546875603870909E+00    1.0354544403942880E+01
Ga    2.0333801080658001E+00    1.0436899119029940E+01    1.1033419661707292E+01
N    2.1219910243007298E+00    1.0503895014727235E+01    1.2976593702893489E+01
Ga    2.1375840513268827E+00    8.6454652284019069E+00    1.3634320397708390E+01
N    1.6005691611304338E+00    8.3385851157328190E+00    1.5461161161049327E+01
Ga    5.4247204622642509E-01    9.5676369601282705E+00    1.6568447717363398E+01
N    2.2052882772937874E+00    8.6657495614553124E+00    1.7092893005681358E+01
N    9.7982516409409381E+00   -2.9765301686971940E-03   -1.4240161873953905E-01
Ga    9.8175314084910603E+00    1.8658639491731059E+00    5.2004214905800128E-01
N    9.8454021678620691E+00    1.8837828348691632E+00    2.4420785727948040E+00
Ga    9.8303366433198605E+00    1.6530041164040898E-02    3.1566204580541899E+00
N    9.8764612203138338E+00    4.3668544604110855E-02    5.0868469168322630E+00
Ga    9.9061334277714312E+00    1.9195258968901041E+00    5.7730879366443233E+00
N    9.9947250131086260E+00    1.9824238325201147E+00    7.7015017409346074E+00
Ga    9.9799272578201439E+00    1.2023077825884498E-01    8.3882665794242826E+00
N    1.0077413742442451E+01    1.9111880415288740E-01    1.0313069666196109E+01
Ga    1.0119333688119751E+01    2.0569735114016896E+00    1.1012254893948294E+01
N    1.0212031204919862E+01    2.1191347168127619E+00    1.2945189479942892E+01
Ga    1.0246518678565472E+01    2.6931238870711732E-01    1.3653341410791612E+01
N    9.7387102704648285E+00   -1.2161079509485875E-02    1.5516215075804404E+01
Ga    8.6617594966188243E+00    1.2213178650004388E+00    1.6723204403954902E+01
N    1.0390591349346568E+01    3.3542795278372606E-01    1.6877335274073484E+01
N    8.1876592135470361E+00    2.7865746990014650E+00   -1.4265594329536707E-01
Ga    8.2067460978993498E+00    4.6555944100593729E+00    5.1914100152403164E-01
N    8.2339390691387795E+00    4.6731149452833884E+00    2.4415519556644303E+00
Ga    8.2196704710763804E+00    2.8059321792615495E+00    3.1551255621874321E+00
N    8.2657553515038913E+00    2.8325205765434900E+00    5.0862336019278178E+00
Ga    8.2940313238392758E+00    4.7073532784191201E+00    5.7755015826148641E+00
N    8.3809884838348321E+00    4.7688601886246156E+00    7.7082775682044975E+00
Ga    8.3733933332270691E+00    2.9014098961155423E+00    8.3870001080793219E+00
N    8.4790336125766519E+00    2.9600044576999851E+00    1.0318757785062807E+01
Ga    8.4940336629895139E+00    4.8407006953085929E+00    1.0975430864162606E+01
N    8.5653575771335220E+00    4.8938628431477404E+00    1.2889647909472023E+01
Ga    8.6340218509934612E+00    3.0800151654101509E+00    1.3643597584964279E+01
N    8.2050391727689984E+00    2.7955730601872797E+00    1.5521876809057137E+01
Ga    7.0793622028640284E+00    4.0192094601718713E+00    1.6694708723135733E+01
N    8.8284868506071899E+00    3.1588834898872724E+00    1.6882441186069837E+01
N    6.5769006789936970E+00    5.5766687183032699E+00   -1.4259486705392876E-01
Ga    6.5962877634674566E+00    7.4453766041887937E+00    5.2007561620754628E-01
N    6.6241951196386299E+00    7.4629581460300782E+00    2.4420453061967393E+00
Ga    6.6089189809786015E+00    5.5959956742781589E+00    3.1563968894476067E+00
N    6.6558904136119157E+00    5.6224002277945306E+00    5.0871980127285195E+00
Ga    6.6851633225166722E+00    7.4984119372938007E+00    5.7734595620814888E+00
N    6.7757071048220636E+00    7.5600638144459502E+00    7.7020054968110436E+00
Ga    6.7581450320932994E+00    5.6988373612000336E+00    8.3899654848545282E+00
N    6.8573993483507962E+00    5.7699261451259680E+00    1.0320830812606268E+01
Ga    6.8940795608258583E+00    7.6417675218702881E+00    1.1009525804689011E+01
N    6.9871519957429884E+00    7.7070437329394208E+00    1.2942328618239724E+01
Ga    7.0236793498892407E+00    5.8598884998727758E+00    1.3636917133986081E+01
N    6.5720738636956497E+00    5.6206167033061272E+00    1.5521818238281487E+01
Ga    5.4353756599872058E+00    6.7874268186236284E+00    1.6718768492365822E+01
N    7.2157921825260489E+00    5.9594083668322524E+00    1.6878368909450518E+01
N    4.9662854031864256E+00    8.3662133615626733E+00   -1.4227110363107395E-01
Ga    4.9858198953323587E+00    1.0234964748469546E+01    5.2005420488129672E-01
N    5.0136993576132429E+00    1.0252797875148689E+01    2.4423600490188271E+00
Ga    4.9984743262960194E+00    8.3851529216473448E+00    3.1557235440831848E+00
N    5.0452499208304422E+00    8.4106356684944750E+00    5.0858891046837602E+00
Ga    5.0722949087621396E+00    1.0285999093600898E+01    5.7721969428552944E+00
N    5.1574187683712109E+00    1.0346960314896508E+01    7.7032089029545752E+00
Ga    5.1534288247418329E+00    8.4809506088216100E+00    8.3862446359150056E+00
N    5.2581737053700923E+00    8.5365418554435841E+00    1.0310634034064503E+01
Ga    5.2669495582977408E+00    1.0415383984141863E+01    1.0964794656783214E+01
N    5.3236931741119102E+00    1.0463047715383395E+01    1.2858509064713530E+01
Ga    5.3969199574100184E+00    8.6608209720493541E+00    1.3658281751813240E+01
N    4.9039907918315810E+00    8.3559008552387848E+00    1.5515967553444208E+01
Ga    3.7812851714008073E+00    9.5647018622497075E+00    1.6708616237172670E+01
N    5.5390759072939169E+00    8.7312846300509026E+00    1.6872823565083419E+01
H    1.9296496499295789E-02   -2.3759329451363423E-03   -1.1697569268748464E+00
H   -1.5910209360222984E+00    2.7868959582975799E+00   -1.1688677173940003E+00
H   -3.2017558692920209E+00    5.5767688243231026E+00   -1.1697220545902776E+00
H   -4.8125610939227919E+00    8.3665579547570736E+00   -1.1688932872200271E+00
H    3.2789762262639406E+00   -1.9879695027536100E-03   -1.1694499543675041E+00
H    1.6683018566150427E+00    2.7874429994824514E+00   -1.1691513398817255E+00
H    5.7949065590454797E-02    5.5771977273550730E+00   -1.1692327620078422E+00
H   -1.5526741569583089E+00    8.3668147675087283E+00   -1.1692419559061957E+00
H    6.5370784733828167E+00   -3.0648203858191889E-03   -1.1695637247041497E+00
H    4.9262939531282033E+00    2.7866988869036935E+00   -1.1699448256383065E+00
H    3.3156690291855084E+00    5.5765150098261609E+00   -1.1695400199343862E+00
H    1.7054928217357046E+00    8.3660815255523318E+00   -1.1698113541521065E+00
H    9.7968324554836013E+00   -2.3200537871341646E-03   -1.1691086468622764E+00
H    8.1863782982878153E+00    2.7869910976601417E+00   -1.1692847028952769E+00
H    6.5755298895144270E+00    5.5772094972634143E+00   -1.1691799551131221E+00
H    4.9650463013374901E+00    8.3664220553991413E+00   -1.1689024402093229E+00
     &END COORD
     &KIND H
       BASIS_SET DZVP-MOLOPT-SR-GTH-q1
       POTENTIAL GTH-PBE-q1
       &POTENTIAL
1
0.2000000000000000E+00 2 -0.4178900440000000E+01  0.7244633100000000E+00
0
       &END POTENTIAL
     &END KIND
     &KIND N
       BASIS_SET DZVP-MOLOPT-SR-GTH
       POTENTIAL GTH-PBE-q5
       &POTENTIAL
2 3
0.2837905100000000E+00 2 -0.1241522559000000E+02  0.1868095920000000E+01
2
0.2554050000000000E+00 1  0.1363026257000000E+02
0.2454945300000000E+00 0
       &END POTENTIAL
     &END KIND
     &KIND Ga
       BASIS_SET DZVP-MOLOPT-SR-GTH
       POTENTIAL GTH-PBE-q13
       &POTENTIAL
2 1 10
0.4900000000000000E+00 0
3
0.4167772300000000E+00 3  0.1047568975000000E+02 -0.4921768140000000E+01  0.8707055900000000E+00
0.7770178090000000E+01 -0.2248152160000000E+01
0.1784415450000000E+01
0.5696265200000000E+00 2  0.1777985340000000E+01  0.1958597600000000E+00
-0.2317443900000000E+00
0.2381265000000000E+00 1 -0.1624868022000000E+02
       &END POTENTIAL
     &END KIND
     &TOPOLOGY
       NUMBER_OF_ATOMS  256
       MULTIPLE_UNIT_CELL  1 1 1
     &END TOPOLOGY
   &END SUBSYS
 &END FORCE_EVAL
