 # Version information for this restart file 
 # current date 2019-06-10 11:40:02.136
 # current working dir /lustre03/project/6037349/rzk/GaN-carbene/444-addat/00-Surface/RKS
 # Program compiled at                              Sun Apr  7 00:48:11 EDT 2019
 # Program compiled on                          beluga2.int.ets1.calculquebec.ca
 # Program compiled for                        Beluga-Linux-x86-64-intel-openmpi
 # Source code revision number                                         svn:18619
 &GLOBAL
   PRINT_LEVEL  MEDIUM
   PROJECT_NAME TEST
   RUN_TYPE  CELL_OPT
 &END GLOBAL
 &MOTION
   &CELL_OPT
     MAX_ITER  300
     STEP_START_VAL  21
     EXTERNAL_PRESSURE     1.0000000000000000E+00
     KEEP_ANGLES  T
     KEEP_SYMMETRY  T
     CONSTRAINT  Z
     PRESSURE_TOLERANCE     5.0000000000000000E+02
   &END CELL_OPT
 &END MOTION
 &FORCE_EVAL
   METHOD  QS
   STRESS_TENSOR  ANALYTICAL
   &DFT
     BASIS_SET_FILE_NAME BASIS_MOLOPT
     POTENTIAL_FILE_NAME GTH_POTENTIALS
     SURFACE_DIPOLE_CORRECTION  T
     SURF_DIP_DIR  Z
     &SCF
       MAX_SCF  100
       EPS_SCF     5.0000000000000004E-06
       &OT  T
         PRECONDITIONER  FULL_ALL
       &END OT
       &OUTER_SCF  T
         OPTIMIZER  NONE
         EPS_SCF     5.0000000000000004E-06
         MAX_SCF  4
       &END OUTER_SCF
       &PRINT
         &RESTART  OFF
           BACKUP_COPIES  1
           &EACH
             JUST_ENERGY  0
             QS_SCF  0
             MD  20
           &END EACH
         &END RESTART
       &END PRINT
     &END SCF
     &QS
       EPS_DEFAULT     1.0000000000000000E-14
       METHOD  GPW
     &END QS
     &MGRID
       NGRIDS  5
       CUTOFF     1.2000000000000000E+03
     &END MGRID
     &XC
       DENSITY_CUTOFF     1.0000000000000000E-10
       GRADIENT_CUTOFF     1.0000000000000000E-10
       TAU_CUTOFF     1.0000000000000000E-10
       &XC_FUNCTIONAL  NO_SHORTCUT
         &PBE  T
         &END PBE
       &END XC_FUNCTIONAL
       &VDW_POTENTIAL
         POTENTIAL_TYPE  PAIR_POTENTIAL
         &PAIR_POTENTIAL
           R_CUTOFF     1.0000000000000004E+01
           TYPE  DFTD3
           PARAMETER_FILE_NAME dftd3.dat
           REFERENCE_FUNCTIONAL PBE
           EPS_CN     9.9999999999999995E-07
           CALCULATE_C9_TERM  T
           REFERENCE_C9_TERM  T
           LONG_RANGE_CORRECTION  F
           VERBOSE_OUTPUT  F
         &END PAIR_POTENTIAL
       &END VDW_POTENTIAL
     &END XC
   &END DFT
   &SUBSYS
     &CELL
       A     1.2851885022862172E+01    0.0000000000000000E+00    0.0000000000000000E+00
       B    -6.4494948487570349E+00    1.1170852761200885E+01    0.0000000000000000E+00
       C     0.0000000000000000E+00    0.0000000000000000E+00    3.2000000000000000E+01
       MULTIPLE_UNIT_CELL  1 1 1
       &CELL_REF
         A     1.2982353780853531E+01    0.0000000000000000E+00    0.0000000000000000E+00
         B    -6.4911768904267628E+00    1.1243048175136114E+01    0.0000000000000000E+00
         C     0.0000000000000000E+00    0.0000000000000000E+00    3.2000000000000000E+01
         MULTIPLE_UNIT_CELL  1 1 1
       &END CELL_REF
     &END CELL
     &COORD
N    5.2335314307094349E-04    4.4750885194461262E-04   -1.2379753562959998E-01
Ga   -3.9001349478937218E-03    1.8613038384000109E+00    5.3476489602995170E-01
N   -4.3922211117909792E-03    1.8604367632274175E+00    2.4312842287879399E+00
Ga    5.6766366825296765E-04    4.6785947982044115E-05    3.1240449393642584E+00
N    1.8480320865066403E-03    3.1965032509633884E-04    5.0292716688764836E+00
Ga   -2.2774898583003650E-03    1.8612185703541988E+00    5.7228868608210473E+00
N    2.8224362716897300E-03    1.8598942249900958E+00    7.6509889919163934E+00
Ga    7.3910711350840142E-03   -1.0465504106705553E-03    8.3637540199166569E+00
N    2.6860719860337112E-02   -2.7289580144673731E-03    1.0293570148547294E+01
Ga    3.3884520219580341E-02    1.8592569124290719E+00    1.0987696534413860E+01
N    9.4415077939508874E-02    1.8651812852556480E+00    1.2931448765900205E+01
Ga    8.6190913477088307E-02    3.2461948196482867E-03    1.3643609147958500E+01
N   -3.8255473585369205E-03    5.6770351715659258E-02    1.5553984650502887E+01
Ga   -1.4956563013386484E-01    1.8493868678429921E+00    1.6696989957846011E+01
N    1.4125233777075430E+00    9.0116724642122459E-01    1.7442650292316149E+01
N   -1.6118257262178404E+00    2.7931282746762389E+00   -1.2378176421894461E-01
Ga   -1.6162831100253159E+00    4.6540124521370458E+00    5.3481391468478112E-01
N   -1.6168555049161308E+00    4.6532488645846453E+00    2.4312784370877938E+00
Ga   -1.6117754788976701E+00    2.7930047482786233E+00    3.1237639682490679E+00
N   -1.6103751519690874E+00    2.7933937538944194E+00    5.0287670761574619E+00
Ga   -1.6151618397848528E+00    4.6535584730096335E+00    5.7240300526529007E+00
N   -1.6113485710147308E+00    4.6517908802174652E+00    7.6523513925262927E+00
Ga   -1.6034681616212956E+00    2.7900405238017729E+00    8.3650141377494300E+00
N   -1.5808223994550150E+00    2.7875183090320799E+00    1.0294477808683094E+01
Ga   -1.5871327394832941E+00    4.6500078510733012E+00    1.0980830413506892E+01
N   -1.5400627336524337E+00    4.6520311567446297E+00    1.2921253173459585E+01
Ga   -1.5067660014244362E+00    2.7969544953226309E+00    1.3648179619069959E+01
N   -1.5344999317935095E+00    2.8917941215984064E+00    1.5569790158546786E+01
Ga   -1.7401070973094501E+00    4.6665642834891541E+00    1.6633983481128332E+01
N   -1.5817679078836358E-01    3.7145498939304051E+00    1.7444451090720854E+01
N   -3.2242085260882902E+00    5.5858716292920096E+00   -1.2378238803625467E-01
Ga   -3.2286253064571788E+00    7.4466722394988816E+00    5.3478209442992852E-01
N   -3.2290929424280179E+00    7.4458086680971558E+00    2.4312592089107303E+00
Ga   -3.2242175575360768E+00    5.5854959055168605E+00    3.1241762270635300E+00
N   -3.2230644792886753E+00    5.5858401831240823E+00    5.0293677276899551E+00
Ga   -3.2270138876661298E+00    7.4466223749921552E+00    5.7230011704599795E+00
N   -3.2219569352655424E+00    7.4450252747292058E+00    7.6512742200984158E+00
Ga   -3.2178805260785803E+00    5.5841247240721836E+00    8.3639915977106707E+00
N   -3.1994982663854863E+00    5.5818006550363073E+00    1.0293854580831502E+01
Ga   -3.1914160742655593E+00    7.4423335533897008E+00    1.0987173354781721E+01
N   -3.1319499792640024E+00    7.4447477295043836E+00    1.2931445054539443E+01
Ga   -3.1432264473805134E+00    5.5819008363553815E+00    1.3641025964612361E+01
N   -3.2397090947997542E+00    5.6345838456340385E+00    1.5553758052117310E+01
Ga   -3.3653593020079753E+00    7.4322253903823592E+00    1.6692158327772447E+01
N   -1.7949412509823566E+00    6.5035760952124919E+00    1.7448046137531790E+01
N   -4.8365813850253403E+00    8.3785657263818418E+00   -1.2375285564275521E-01
Ga   -4.8409889505995007E+00    1.0239396031824461E+01    5.3475848479407928E-01
N   -4.8415325966705138E+00    1.0238658570284969E+01    2.4311744047590214E+00
Ga   -4.8364681614249321E+00    8.3783932286632385E+00    3.1236827014644541E+00
N   -4.8349629445805808E+00    8.3788060305647676E+00    5.0287604954278118E+00
Ga   -4.8397659427416295E+00    1.0238914220258257E+01    5.7243204627053084E+00
N   -4.8355471732401085E+00    1.0236896119074148E+01    7.6526193927942376E+00
Ga   -4.8280823389208791E+00    8.3751662306849823E+00    8.3652213986643762E+00
N   -4.8052820267904606E+00    8.3719938573088299E+00    1.0295150717619407E+01
Ga   -4.8115934544798469E+00    1.0234591204470251E+01    1.0980486079683512E+01
N   -4.7644182914107294E+00    1.0234804199244454E+01    1.2921942202310545E+01
Ga   -4.7313680572741532E+00    8.3787323879787472E+00    1.3648453202554572E+01
N   -4.7531077898714953E+00    8.4689837944256769E+00    1.5568516533035838E+01
Ga   -4.9693407201124238E+00    1.0233936285896970E+01    1.6637090534956481E+01
N   -3.3822210330175113E+00    9.2985434309558244E+00    1.7449192203978566E+01
N    3.2135638582316175E+00    4.8126954109309724E-04   -1.2380878230972282E-01
Ga    3.2091239796848532E+00    1.8612882719457371E+00    5.3489020420845679E-01
N    3.2086297713228689E+00    1.8604219686867383E+00    2.4314355530060938E+00
Ga    3.2132626357547225E+00   -1.4965915269730837E-04    3.1238897821343454E+00
N    3.2144065868835914E+00   -4.9454074594059768E-05    5.0290367379911975E+00
Ga    3.2103544616229360E+00    1.8608258586837361E+00    5.7217937773062690E+00
N    3.2152509961072275E+00    1.8587526737806230E+00    7.6499066953972665E+00
Ga    3.2206957263456162E+00   -1.9794242526282361E-03    8.3641772362545481E+00
N    3.2413814351857093E+00   -5.6908900211145820E-03    1.0294525858398956E+01
Ga    3.2459343223722272E+00    1.8537301759664879E+00    1.0989294694483213E+01
N    3.3082332195413580E+00    1.8485854644008108E+00    1.2937505567326637E+01
Ga    3.3008689776802012E+00   -1.5287443389735009E-02    1.3654413978097244E+01
N    3.2033953015494485E+00   -2.3499398060484268E-02    1.5579347495552188E+01
Ga    3.0336727230262288E+00    1.8280202743570824E+00    1.6787550442095601E+01
N    4.6383983160446070E+00    9.2253222923750766E-01    1.7395654906939107E+01
N    1.6011861505492171E+00    2.7931757027508213E+00   -1.2381201208219145E-01
Ga    1.5967076969208771E+00    4.6540279487551510E+00    5.3486366091547399E-01
N    1.5961493986279665E+00    4.6532620756632141E+00    2.4313542544829390E+00
Ga    1.6009340714462443E+00    2.7928450044908608E+00    3.1235991371787888E+00
N    1.6023075203460631E+00    2.7931797242423126E+00    5.0284949479212386E+00
Ga    1.5975842819423183E+00    4.6533833597622740E+00    5.7231124328194456E+00
N    1.6015383517991737E+00    4.6513005896800559E+00    7.6511917610744691E+00
Ga    1.6101911011650805E+00    2.7899068218532088E+00    8.3645991807965618E+00
N    1.6353130393790607E+00    2.7869644454548181E+00    1.0294499412267937E+01
Ga    1.6275569827102792E+00    4.6473053798021269E+00    1.0982660818977610E+01
N    1.6797751268610266E+00    4.6433958578762482E+00    1.2928514291425902E+01
Ga    1.7154991944666436E+00    2.7878472147583673E+00    1.3663874156496981E+01
N    1.6827190631628051E+00    2.8318030949619222E+00    1.5599508882191254E+01
Ga    1.4647083101234164E+00    4.6482999008488424E+00    1.6679183079600183E+01
N    3.0543945209261287E+00    3.7084447775217488E+00    1.7403640656642850E+01
N   -1.1191477935861539E-02    5.5859247360484874E+00   -1.2383233524664287E-01
Ga   -1.5654011540452116E-02    7.4466798106572547E+00    5.3489921953916031E-01
N   -1.6125995866455207E-02    7.4459122946873428E+00    2.4313847346877013E+00
Ga   -1.1545472053464997E-02    5.5853636010102345E+00    3.1239557585526252E+00
N   -1.0502620543212162E-02    5.5856731360732272E+00    5.0291186365806739E+00
Ga   -1.4383884405182757E-02    7.4465490249447193E+00    5.7220025311022660E+00
N   -9.3994121749001666E-03    7.4449416897854821E+00    7.6502085504539163E+00
Ga   -4.3642830592866355E-03    5.5839493910119149E+00    8.3632395118039735E+00
N    1.6379773292377244E-02    5.5807345646069644E+00    1.0293806956180028E+01
Ga    2.1941781371764283E-02    7.4399309417550086E+00    1.0988600150004373E+01
N    8.5158589378158234E-02    7.4364734688300596E+00    1.2937352972691512E+01
Ga    7.8100808326996479E-02    5.5723562634009633E+00    1.3649790502569841E+01
N   -1.5868271043085802E-02    5.5651192492416941E+00    1.5579621582370327E+01
Ga   -1.7700034157441499E-01    7.4343016311264174E+00    1.6788427034223908E+01
N    1.4129477946983962E+00    6.5045639350325288E+00    1.7398601290302150E+01
N   -1.6235466287890172E+00    8.3785923665713664E+00   -1.2384463196244780E-01
Ga   -1.6280193368812594E+00    1.0239453039528566E+01    5.3485293440039994E-01
N   -1.6285320283742970E+00    1.0238676331072490E+01    2.4312972607523164E+00
Ga   -1.6238221964862063E+00    8.3782617023577277E+00    3.1235572990446756E+00
N   -1.6225155293817228E+00    8.3786213405739751E+00    5.0285254755059610E+00
Ga   -1.6271258326386182E+00    1.0238717804475696E+01    5.7231712662910796E+00
N   -1.6232123714297710E+00    1.0236414112191447E+01    7.6514214856830556E+00
Ga   -1.6148584553419063E+00    8.3751312275805567E+00    8.3651285649891580E+00
N   -1.5904860253953579E+00    8.3711394577653948E+00    1.0295375834266574E+01
Ga   -1.5977904973999113E+00    1.0230993353254791E+01    1.0984372344113652E+01
N   -1.5476481771302233E+00    1.0224864762116217E+01    1.2929784945002561E+01
Ga   -1.5121672241040900E+00    8.3678641541139012E+00    1.3664884024170247E+01
N   -1.5459094767607569E+00    8.4092340618092738E+00    1.5599406618935491E+01
Ga   -1.7566358558665840E+00    1.0232197607850464E+01    1.6679499088517989E+01
N   -1.6218482918355523E-01    9.3122390252265674E+00    1.7413423347793916E+01
N    6.4265283564236642E+00    4.2083640030286947E-04   -1.2367144264952046E-01
Ga    6.4220086194499943E+00    1.8612436105780588E+00    5.3497258538676351E-01
N    6.4215345827422379E+00    1.8603873053519124E+00    2.4314650420750410E+00
Ga    6.4262607011471369E+00   -3.6816031714529001E-05    3.1239841479418105E+00
N    6.4273202424321436E+00    2.4405980620560331E-04    5.0291714775928273E+00
Ga    6.4233942760075342E+00    1.8611629418645648E+00    5.7221271599900341E+00
N    6.4278509862223290E+00    1.8598143670220622E+00    7.6501115168602283E+00
Ga    6.4317927111211803E+00   -1.3627124357072076E-03    8.3626934938162414E+00
N    6.4501316307278884E+00   -2.5708509552752235E-03    1.0292661099295078E+01
Ga    6.4570089247016078E+00    1.8589554421929591E+00    1.0982834270751628E+01
N    6.5142393106608631E+00    1.8626264333995124E+00    1.2927435309952793E+01
Ga    6.5085875507195317E+00    3.1534660122237491E-03    1.3640842655374200E+01
N    6.4162069821144279E+00    5.0708031985987528E-02    1.5557496790461732E+01
Ga    6.2766290992446487E+00    1.8466692613484426E+00    1.6691704580579067E+01
N    7.8482525318045848E+00    9.1833471779642362E-01    1.7446555988598671E+01
N    4.8141143926700565E+00    2.7931616218908948E+00   -1.2366958029719248E-01
Ga    4.8096384853321235E+00    4.6539620300343252E+00    5.3495293102085728E-01
N    4.8091415736899181E+00    4.6532415987253275E+00    2.4313565480360575E+00
Ga    4.8140025724671176E+00    2.7929039928925543E+00    3.1236609394992643E+00
N    4.8153046791369949E+00    2.7933344619475093E+00    5.0285776260436137E+00
Ga    4.8106816295147219E+00    4.6536526200074650E+00    5.7231296041934749E+00
N    4.8144286881995697E+00    4.6520458805650948E+00    7.6510949328967470E+00
Ga    4.8211612341966479E+00    2.7901677074537981E+00    8.3632988493375606E+00
N    4.8433953168246857E+00    2.7887146410823784E+00    1.0293026000369624E+01
Ga    4.8371643981219465E+00    4.6517751915916410E+00    1.0976748992000950E+01
N    4.8827305877520644E+00    4.6540174726481593E+00    1.2919603806031153E+01
Ga    4.9184318119126278E+00    2.7992933526577244E+00    1.3646770098555624E+01
N    4.9024432951853267E+00    2.8871899233836200E+00    1.5567068469147021E+01
Ga    4.6796453031372600E+00    4.6470847232517620E+00    1.6637098058581969E+01
N    6.2652995277661621E+00    3.7113854793145271E+00    1.7451566020588416E+01
N    3.2017541316074984E+00    5.5858905614899248E+00   -1.2365861208133395E-01
Ga    3.1972582629731781E+00    7.4466596173399653E+00    5.3495555066929579E-01
N    3.1967723907482908E+00    7.4459391288030821E+00    2.4314882891325440E+00
Ga    3.2015313957838640E+00    5.5854218414624448E+00    3.1238994677320595E+00
N    3.2026270123911686E+00    5.5858622069823998E+00    5.0290374010667582E+00
Ga    3.1986821198658122E+00    7.4469607586855737E+00    5.7218867660327639E+00
N    3.2033981503211213E+00    7.4462342280367277E+00    7.6498544344071258E+00
Ga    3.2072560485521353E+00    5.5849729445035496E+00    8.3619030747435499E+00
N    3.2260525435206135E+00    5.5846543044531831E+00    1.0291581437610345E+01
Ga    3.2333926987163628E+00    7.4463601186816168E+00    1.0984329800591150E+01
N    3.2924154337548242E+00    7.4529322644278890E+00    1.2929593572318554E+01
Ga    3.2864402981391083E+00    5.5925066674864734E+00    1.3642573069611398E+01
N    3.1976513574652463E+00    5.6401730537088852E+00    1.5555401401481232E+01
Ga    3.0447968527527722E+00    7.4291046173629622E+00    1.6700685892925136E+01
N    4.6124837513154429E+00    6.4860759721913857E+00    1.7441500348597032E+01
N    1.5893964812009267E+00    8.3786123375835704E+00   -1.2366927267722665E-01
Ga    1.5848395631144063E+00    1.0239404163168256E+01    5.3494649369117797E-01
N    1.5843648903062006E+00    1.0238699122274873E+01    2.4314242717779377E+00
Ga    1.5891888584153468E+00    8.3783535130224376E+00    3.1236567601431191E+00
N    1.5904378165934203E+00    8.3789522334930666E+00    5.0286111982899389E+00
Ga    1.5858751740730876E+00    1.0239106450909823E+01    5.7233987313586931E+00
N    1.5894924076099195E+00    1.0237699028546045E+01    7.6514344077292531E+00
Ga    1.5967631875807000E+00    8.3760720027715010E+00    8.3642527313179418E+00
N    1.6192096258644157E+00    8.3751112157193930E+00    1.0294005564174455E+01
Ga    1.6129999986174657E+00    1.0237731356603989E+01    1.0979265946874282E+01
N    1.6589595675793121E+00    1.0241179720158106E+01    1.2921417674357343E+01
Ga    1.6956540222488357E+00    8.3875405046792029E+00    1.3648322406829173E+01
N    1.6764050478340893E+00    8.4771804931040400E+00    1.5573651475779844E+01
Ga    1.4587821929950859E+00    1.0251165434727564E+01    1.6636750992610978E+01
N    3.0352906715589159E+00    9.2931349370086060E+00    1.7447334709900609E+01
N    9.6394569231511973E+00    4.2624840752308966E-04   -1.2366043811350333E-01
Ga    9.6350353593754168E+00    1.8612808280555837E+00    5.3495527278797395E-01
N    9.6345415977883047E+00    1.8604007949980381E+00    2.4314493379211077E+00
Ga    9.6392903417570608E+00   -8.3907884963344154E-06    3.1240085340801542E+00
N    9.6403298540887352E+00    2.8441137413145432E-04    5.0291109604869071E+00
Ga    9.6366992985358859E+00    1.8613610816590493E+00    5.7217640833346168E+00
N    9.6415544069649375E+00    1.8600023246421524E+00    7.6495979491110999E+00
Ga    9.6460184034447227E+00   -8.1256293185389176E-04    8.3618904360307784E+00
N    9.6654964901926288E+00   -3.0390339437826402E-03    1.0292014413875627E+01
Ga    9.6705212984496693E+00    1.8568928902077084E+00    1.0986743133237329E+01
N    9.7280069630118469E+00    1.8574281030379669E+00    1.2934239650860519E+01
Ga    9.7244861499939077E+00   -3.6338287439632360E-03    1.3647487163340820E+01
N    9.6172969333911844E+00    1.8841261877429640E-03    1.5575601992534928E+01
Ga    9.4568059194988994E+00    1.8686921091703437E+00    1.6767311778856744E+01
N    1.1050692377801463E+01    9.3691280874422633E-01    1.7376712568883253E+01
N    8.0270830927373069E+00    2.7931385717479476E+00   -1.2360000505516439E-01
Ga    8.0226354096095580E+00    4.6540252211143907E+00    5.3492423572724890E-01
N    8.0221414509789337E+00    4.6532733864086975E+00    2.4314064473854811E+00
Ga    8.0269906074464590E+00    2.7929231710117812E+00    3.1236101400984335E+00
N    8.0282652402089401E+00    2.7933355475215684E+00    5.0285233563409149E+00
Ga    8.0239168068582707E+00    4.6537592104776442E+00    5.7229314537912579E+00
N    8.0277381786188489E+00    4.6521667070301769E+00    7.6509149168979649E+00
Ga    8.0354154378723219E+00    2.7904263782189043E+00    8.3625427182076333E+00
N    8.0582928935439799E+00    2.7875125991191574E+00    1.0292208211095142E+01
Ga    8.0505638914712492E+00    4.6481305652754221E+00    1.0981667304952660E+01
N    8.0957449626521480E+00    4.6449752894261414E+00    1.2925095727513849E+01
Ga    8.1302404498262053E+00    2.7907238215933248E+00    1.3657988232778724E+01
N    8.0775942373643304E+00    2.8444049890699303E+00    1.5589081504560076E+01
Ga    7.8822044997123797E+00    4.6581600148193889E+00    1.6665576865416959E+01
N    9.4807399945897881E+00    3.7436132643880637E+00    1.7411490396765977E+01
N    6.4147231295867844E+00    5.5858511439993483E+00   -1.2365084274080608E-01
Ga    6.4103064663770954E+00    7.4466766264477187E+00    5.3498346071910774E-01
N    6.4097985982476242E+00    7.4458353154871437E+00    2.4314521854277431E+00
Ga    6.4145606477702426E+00    5.5854072515122795E+00    3.1239670519072615E+00
N    6.4156733349238051E+00    5.5857175112397099E+00    5.0290318196456010E+00
Ga    6.4120043875848118E+00    7.4468176465734963E+00    5.7217522455943755E+00
N    6.4168526129496426E+00    7.4454074501245513E+00    7.6497057918012947E+00
Ga    6.4212451086424212E+00    5.5845298830313306E+00    8.3619168943261606E+00
N    6.4403871585165762E+00    5.5820501557401947E+00    1.0291700814345194E+01
Ga    6.4456907302487725E+00    7.4413831658944893E+00    1.0987761077708589E+01
N    6.5036405551735612E+00    7.4398489483210817E+00    1.2935642626735866E+01
Ga    6.4967551723658676E+00    5.5781607028715543E+00    1.3650361393026820E+01
N    6.3881129239001710E+00    5.5817015843577611E+00    1.5573708953016126E+01
Ga    6.2237686236041219E+00    7.4292291773665831E+00    1.6771509713722548E+01
N    7.8306119478898735E+00    6.5238450451113508E+00    1.7380035462270151E+01
N    4.8023258722247313E+00    8.3786108716046162E+00   -1.2361743535591520E-01
Ga    4.7978773112682793E+00    1.0239402823715858E+01    5.3492849382275576E-01
N    4.7973261456392269E+00    1.0238716419349348E+01    2.4313786724965873E+00
Ga    4.8022992198384262E+00    8.3783725247764025E+00    3.1236707862302788E+00
N    4.8036519494478780E+00    8.3788936330432318E+00    5.0285543312929244E+00
Ga    4.7992564556363533E+00    1.0239234597237576E+01    5.7231091943237100E+00
N    4.8031838651938354E+00    1.0237693879909592E+01    7.6510791482730554E+00
Ga    4.8110543727484094E+00    8.3762553153795487E+00    8.3632202515285741E+00
N    4.8349075509491657E+00    8.3741183505930543E+00    1.0292965265571947E+01
Ga    4.8273597216250526E+00    1.0235065993313770E+01    1.0982078968132594E+01
N    4.8754419694345623E+00    1.0234699984730192E+01    1.2926250237886210E+01
Ga    4.9107608017149200E+00    8.3810569492597384E+00    1.3659957680562758E+01
N    4.8612887900892510E+00    8.4362957820193731E+00    1.5592292245251214E+01
Ga    4.6490061221205181E+00    1.0242351719999029E+01    1.6670245708251638E+01
N    6.2440608892926539E+00    9.3090726213412136E+00    1.7398866737476016E+01
H    3.7074301464113302E-04    3.8416362043202349E-04   -1.1483761654347000E+00
H   -1.6120114783197219E+00    2.7930962089862432E+00   -1.1483906427709019E+00
H   -3.2243706698223495E+00    5.5857836534381793E+00   -1.1483984038051129E+00
H   -4.8367494001124562E+00    8.3784848779630554E+00   -1.1484222955473447E+00
H    3.2135692781679435E+00    5.3038245707225822E-04   -1.1484422093699633E+00
H    1.6012102203822647E+00    2.7932191967408198E+00   -1.1484509490273602E+00
H   -1.1191212024835554E-02    5.5859230238523319E+00   -1.1484145063774336E+00
H   -1.6235481225409103E+00    8.3786434251826467E+00   -1.1484290315001309E+00
H    6.4265065488997299E+00    4.8110348377056037E-04   -1.1482965784030184E+00
H    4.8141328675901907E+00    2.7931851112553350E+00   -1.1482962617885197E+00
H    3.2017532771832329E+00    5.5858901813866080E+00   -1.1483005758112181E+00
H    1.5893771179801350E+00    8.3786151793642567E+00   -1.1483156320650547E+00
H    9.6392303359162508E+00    3.6321251058927503E-04   -1.1482506066026825E+00
H    8.0268815552532065E+00    2.7930642036696094E+00   -1.1482372668489418E+00
H    6.4145094230274715E+00    5.5857671605252808E+00   -1.1482627667353729E+00
H    4.8021404217789199E+00    8.3784714325325282E+00   -1.1482266106615882E+00
     &END COORD
     &KIND H
       BASIS_SET DZVP-MOLOPT-SR-GTH-q1
       POTENTIAL GTH-PBE-q1
       &POTENTIAL
 1
  0.2000000000000000E+00 2 -0.4178900440000000E+01  0.7244633100000000E+00
 0
         # Potential name:  GTH-PBE-Q1  for symbol:  H
         # Potential read from the potential filename: GTH_POTENTIALS
       &END POTENTIAL
     &END KIND
     &KIND N
       BASIS_SET DZVP-MOLOPT-SR-GTH
       POTENTIAL GTH-PBE-q5
       &POTENTIAL
 2 3
  0.2837905100000000E+00 2 -0.1241522559000000E+02  0.1868095920000000E+01
 2
  0.2554050000000000E+00 1  0.1363026257000000E+02
  0.2454945300000000E+00 0
         # Potential name:  GTH-PBE-Q5  for symbol:  N
         # Potential read from the potential filename: GTH_POTENTIALS
       &END POTENTIAL
     &END KIND
     &KIND Ga
       BASIS_SET DZVP-MOLOPT-SR-GTH
       POTENTIAL GTH-PBE-q13
       &POTENTIAL
 2 1 10
  0.4900000000000000E+00 0
 3
  0.4167772300000000E+00 3  0.1047568975000000E+02 -0.4921768140000000E+01  0.8707055900000000E+00
  0.7770178090000000E+01 -0.2248152160000000E+01
  0.1784415450000000E+01
  0.5696265200000000E+00 2  0.1777985340000000E+01  0.1958597600000000E+00
 -0.2317443900000000E+00
  0.2381265000000000E+00 1 -0.1624868022000000E+02
         # Potential name:  GTH-PBE-Q13  for symbol:  GA
         # Potential read from the potential filename: GTH_POTENTIALS
       &END POTENTIAL
     &END KIND
     &TOPOLOGY
       NUMBER_OF_ATOMS  256
       MULTIPLE_UNIT_CELL  1 1 1
     &END TOPOLOGY
   &END SUBSYS
 &END FORCE_EVAL
