 # Version information for this restart file 
 # current date 2019-06-10 22:53:05.338
 # current working dir /lustre03/project/6037349/rzk/GaN-carbene/444-addat/00-Surface/RKS
 # Program compiled at                              Sun Apr  7 00:48:11 EDT 2019
 # Program compiled on                          beluga2.int.ets1.calculquebec.ca
 # Program compiled for                        Beluga-Linux-x86-64-intel-openmpi
 # Source code revision number                                         svn:18619
 &GLOBAL
   PRINT_LEVEL  MEDIUM
   PROJECT_NAME TEST
   RUN_TYPE  CELL_OPT
 &END GLOBAL
 &MOTION
   &CELL_OPT
     MAX_ITER  300
     STEP_START_VAL  60
     EXTERNAL_PRESSURE     1.0000000000000000E+00
     KEEP_ANGLES  T
     KEEP_SYMMETRY  T
     CONSTRAINT  Z
     PRESSURE_TOLERANCE     5.0000000000000000E+02
   &END CELL_OPT
 &END MOTION
 &FORCE_EVAL
   METHOD  QS
   STRESS_TENSOR  ANALYTICAL
   &DFT
     BASIS_SET_FILE_NAME BASIS_MOLOPT
     POTENTIAL_FILE_NAME GTH_POTENTIALS
     SURFACE_DIPOLE_CORRECTION  T
     SURF_DIP_DIR  Z
     &SCF
       MAX_SCF  100
       EPS_SCF     5.0000000000000004E-06
       &OT  T
         PRECONDITIONER  FULL_ALL
       &END OT
       &OUTER_SCF  T
         OPTIMIZER  NONE
         EPS_SCF     5.0000000000000004E-06
         MAX_SCF  4
       &END OUTER_SCF
       &PRINT
         &RESTART  OFF
           BACKUP_COPIES  1
           &EACH
             JUST_ENERGY  0
             QS_SCF  0
             MD  20
           &END EACH
         &END RESTART
       &END PRINT
     &END SCF
     &QS
       EPS_DEFAULT     1.0000000000000000E-14
       METHOD  GPW
     &END QS
     &MGRID
       NGRIDS  5
       CUTOFF     1.2000000000000000E+03
     &END MGRID
     &XC
       DENSITY_CUTOFF     1.0000000000000000E-10
       GRADIENT_CUTOFF     1.0000000000000000E-10
       TAU_CUTOFF     1.0000000000000000E-10
       &XC_FUNCTIONAL  NO_SHORTCUT
         &PBE  T
         &END PBE
       &END XC_FUNCTIONAL
       &VDW_POTENTIAL
         POTENTIAL_TYPE  PAIR_POTENTIAL
         &PAIR_POTENTIAL
           R_CUTOFF     1.0000000000000005E+01
           TYPE  DFTD3
           PARAMETER_FILE_NAME dftd3.dat
           REFERENCE_FUNCTIONAL PBE
           EPS_CN     9.9999999999999995E-07
           CALCULATE_C9_TERM  T
           REFERENCE_C9_TERM  T
           LONG_RANGE_CORRECTION  F
           VERBOSE_OUTPUT  F
         &END PAIR_POTENTIAL
       &END VDW_POTENTIAL
     &END XC
   &END DFT
   &SUBSYS
     &CELL
       A     1.3017453902996094E+01    0.0000000000000000E+00    0.0000000000000000E+00
       B    -6.4540043404578267E+00    1.1178663429942988E+01    0.0000000000000000E+00
       C     0.0000000000000000E+00    0.0000000000000000E+00    3.2000000000000000E+01
       MULTIPLE_UNIT_CELL  1 1 1
       &CELL_REF
         A     1.2982353780853531E+01    0.0000000000000000E+00    0.0000000000000000E+00
         B    -6.4911768904267628E+00    1.1243048175136114E+01    0.0000000000000000E+00
         C     0.0000000000000000E+00    0.0000000000000000E+00    3.2000000000000000E+01
         MULTIPLE_UNIT_CELL  1 1 1
       &END CELL_REF
     &END CELL
     &COORD
N    1.7945301371184254E-02   -3.2675037817071280E-03   -1.4493925194369459E-01
Ga    3.2638852149745282E-02    1.8657313964085556E+00    5.2468934462182437E-01
N    5.7542198999931814E-02    1.8785423501887855E+00    2.4472618943741020E+00
Ga    5.1192929632728222E-02    1.5692799039991497E-02    3.1564891882081243E+00
N    9.5255416045724670E-02    3.8651929515576833E-02    5.0856719831341177E+00
Ga    1.1461742252706657E-01    1.9129335785949781E+00    5.7779520667913182E+00
N    2.0623113875240937E-01    1.9807042668621981E+00    7.7129612087396691E+00
Ga    2.0678121076343506E-01    1.1992275062864326E-01    8.3841385205124048E+00
N    3.3092965357574466E-01    1.9404973006736978E-01    1.0315608557286728E+01
Ga    3.5025037629412598E-01    2.0641720831070796E+00    1.1008594292901259E+01
N    4.4186731474131274E-01    2.1199692030378845E+00    1.2943592589945926E+01
Ga    4.2280255081983609E-01    2.6875528877203508E-01    1.3607501512191211E+01
N   -1.4438548802652953E-01   -6.7808745981380245E-02    1.5339637991569949E+01
Ga   -8.7669975317966264E-01    1.0878049145688460E+00    1.6701200048292346E+01
N    5.2369481077532576E-01    3.0338788484956414E-01    1.7869934131446630E+01
N   -1.5954864365930392E+00    2.7913807301248670E+00   -1.4407824156950033E-01
Ga   -1.5814781055553029E+00    4.6612145352540679E+00    5.2364847027160732E-01
N   -1.5571866089435289E+00    4.6750991249034231E+00    2.4460094178685021E+00
Ga   -1.5618817697800660E+00    2.8116707728298143E+00    3.1517952887564693E+00
N   -1.5171793411183829E+00    2.8349860796876531E+00    5.0797513903192133E+00
Ga   -1.4980154532632086E+00    4.7060838264446652E+00    5.7792669274926389E+00
N   -1.4075732820052915E+00    4.7727442518274588E+00    7.7117302697109338E+00
Ga   -1.4075134338835498E+00    2.9162041633885543E+00    8.3961792263825892E+00
N   -1.2822189753047200E+00    2.9981750721358136E+00    1.0332319492958041E+01
Ga   -1.2745794782899358E+00    4.8673303987116485E+00    1.1041989655910136E+01
N   -1.1881974945118023E+00    4.9267126792873448E+00    1.2981419785073502E+01
Ga   -1.1643035880871104E+00    3.0557535953189299E+00    1.3625314991253999E+01
N   -1.6223752978046440E+00    2.6219165467755361E+00    1.5454825876505145E+01
Ga   -2.6576013052601324E+00    4.3934504048933141E+00    1.6775711573669017E+01
N   -1.1844047649557647E+00    3.0785923868153091E+00    1.6754345991599326E+01
N   -3.2090966639381611E+00    5.5860373154346608E+00   -1.4567621106623119E-01
Ga   -3.1943570990816355E+00    7.4551156273157568E+00    5.2382429651432771E-01
N   -3.1695833192760889E+00    7.4684217160765227E+00    2.4466338759780393E+00
Ga   -3.1761954003652431E+00    5.6053968698241441E+00    3.1557143897041531E+00
N   -3.1326530365983118E+00    5.6280548014785312E+00    5.0842307076475404E+00
Ga   -3.1124919605602006E+00    7.5031594854382666E+00    5.7741404152076274E+00
N   -3.0210596102282619E+00    7.5686863964913469E+00    7.7090883231906249E+00
Ga   -3.0201477055213743E+00    5.7094402608647616E+00    8.3871387181120820E+00
N   -2.8942721582238251E+00    5.7854404481536550E+00    1.0322551659763727E+01
Ga   -2.8800002585127871E+00    7.6470564567717743E+00    1.1037734105372177E+01
N   -2.7980219879819903E+00    7.7119803597887211E+00    1.2977759862003152E+01
Ga   -2.8147211201833264E+00    5.8496069810956328E+00    1.3674519036939321E+01
N   -3.3674714376333021E+00    5.5083438871585626E+00    1.5405383639489981E+01
Ga   -3.9856012919861934E+00    6.6774077769510169E+00    1.6783620989577887E+01
N   -2.6885887292956836E+00    5.8927084684603521E+00    1.8078821946917049E+01
N   -4.8225584469516445E+00    8.3809245421826049E+00   -1.4416644631428882E-01
Ga   -4.8082866809189859E+00    1.0250727992481105E+01    5.2397941773705969E-01
N   -4.7838783592778409E+00    1.0264965322188903E+01    2.4462324280835896E+00
Ga   -4.7886229438734427E+00    8.4021387060725932E+00    3.1517699538992514E+00
N   -4.7448130531712920E+00    8.4268310312766168E+00    5.0799747361397252E+00
Ga   -4.7255782620051088E+00    1.0296507378134919E+01    5.7838975737842802E+00
N   -4.6334417964350978E+00    1.0362749612805919E+01    7.7157056707203218E+00
Ga   -4.6330592127128156E+00    8.5024739194465244E+00    8.3942279058304337E+00
N   -4.5032979990024744E+00    8.5812250870913562E+00    1.0331592586792770E+01
Ga   -4.4936986094911076E+00    1.0455977068654777E+01    1.1018768702488064E+01
N   -4.4106218175578018E+00    1.0529982748734032E+01    1.2952143527118130E+01
Ga   -4.4066912118292416E+00    8.6677914148104591E+00    1.3625482984410796E+01
N   -5.0089079500716345E+00    8.4863161732022832E+00    1.5459357566824293E+01
Ga   -5.9736676152768933E+00    9.8878938913242429E+00    1.6690868764108828E+01
N   -4.3891890985776785E+00    8.6146345692721429E+00    1.6752950113043738E+01
N    3.2723303747279164E+00   -3.0894711428825390E-03   -1.4524566673246769E-01
Ga    3.2861204074491934E+00    1.8658471462652024E+00    5.2471786333145698E-01
N    3.3103318231939745E+00    1.8789427348916836E+00    2.4477441432182139E+00
Ga    3.3050339530854789E+00    1.6620807092481569E-02    3.1573495544720713E+00
N    3.3504822086724513E+00    4.0283404886716591E-02    5.0875093759710257E+00
Ga    3.3656838592355593E+00    1.9108056294697235E+00    5.7871227032825390E+00
N    3.4531530379301039E+00    1.9752218114370539E+00    7.7245692454942141E+00
Ga    3.4643985814878282E+00    1.1931868728712747E-01    8.4162225779931834E+00
N    3.5888685692405042E+00    1.9377371226474724E-01    1.0353985004809978E+01
Ga    3.6065154576060161E+00    2.0621054090921489E+00    1.1052755303356433E+01
N    3.6967076594121480E+00    2.1347723407060939E+00    1.2997761108591165E+01
Ga    3.6709953534710440E+00    2.8387235706847669E-01    1.3698455974497808E+01
N    3.1062517031054795E+00    1.3769761332301377E-03    1.5559145428398356E+01
Ga    2.0399918992389234E+00    1.1650997595429402E+00    1.7267888782520433E+01
N    3.7527214194485197E+00    3.4114077865532694E-01    1.6932710687127770E+01
N    1.6588490377265481E+00    2.7914750711365093E+00   -1.4517775041977207E-01
Ga    1.6724811782318494E+00    4.6603554529082425E+00    5.2470503654717060E-01
N    1.6964826663632593E+00    4.6736675081726444E+00    2.4472401471236958E+00
Ga    1.6924183907068560E+00    2.8114943915014301E+00    3.1566495750642911E+00
N    1.7379128285792584E+00    2.8359850113589631E+00    5.0861397395552084E+00
Ga    1.7524683681048652E+00    4.7052652098947441E+00    5.7889013510357907E+00
N    1.8398687237618652E+00    4.7682944336840452E+00    7.7258189878933132E+00
Ga    1.8504055307775411E+00    2.9157006213062098E+00    8.4236710598496067E+00
N    1.9801251151006740E+00    2.9924289196336504E+00    1.0360386150980682E+01
Ga    1.9764405609498212E+00    4.8585051751217803E+00    1.1066986255851273E+01
N    2.0554499160466997E+00    4.9141814340163332E+00    1.3010697520845753E+01
Ga    2.0773855993709209E+00    3.0415468267127674E+00    1.3687900482938284E+01
N    1.5757042924248446E+00    2.6833494991671776E+00    1.5553608254293588E+01
Ga    4.6239074103585964E-01    3.9601007403990103E+00    1.6520356541448940E+01
N    2.1844190420844187E+00    3.0566565553738103E+00    1.6928998395514242E+01
N    4.5364757338691081E-02    5.5862275558858894E+00   -1.4510611576014382E-01
Ga    5.9067862168359297E-02    7.4553981540741132E+00    5.2448258532782333E-01
N    8.3215418897753357E-02    7.4688153498349843E+00    2.4471933233055179E+00
Ga    7.8320623498793568E-02    5.6063162761859413E+00    3.1557449294315760E+00
N    1.2451631970745321E-01    5.6304341589573612E+00    5.0858501065974497E+00
Ga    1.3884733053856887E-01    7.4999853226719404E+00    5.7900282047107456E+00
N    2.2700125257725898E-01    7.5643270971687748E+00    7.7283205382590845E+00
Ga    2.3240954400621033E-01    5.7066551778482593E+00    8.4196375938970895E+00
N    3.5166975154687402E-01    5.7827124830764944E+00    1.0360156869778457E+01
Ga    3.7754571004628046E-01    7.6527686189957800E+00    1.1046748827557314E+01
N    4.6848089523906850E-01    7.7243651956377137E+00    1.2989744619746089E+01
Ga    4.4051611817898845E-01    5.8744653277216816E+00    1.3690595600773156E+01
N   -9.4862844313334652E-02    5.5678486246567642E+00    1.5562627975565224E+01
Ga   -1.1419948856193132E+00    6.7800283460806474E+00    1.7683428638483083E+01
N    4.5047919633049244E-01    5.9614113093274339E+00    1.6851578092986241E+01
N   -1.5681223969085156E+00    8.3809132667587765E+00   -1.4568615812155766E-01
Ga   -1.5545922373401715E+00    1.0249838414784982E+01    5.2468741044463507E-01
N   -1.5307414064994718E+00    1.0263473302102280E+01    2.4475546168109723E+00
Ga   -1.5343940841834416E+00    8.4010632597089394E+00    3.1564303232642006E+00
N   -1.4877679488609679E+00    8.4253505971386282E+00    5.0855243331269593E+00
Ga   -1.4740814296934894E+00    1.0293902974537241E+01    5.7877311600429184E+00
N   -1.3860973437380129E+00    1.0355040177074541E+01    7.7251191482107000E+00
Ga   -1.3802870140911367E+00    8.5016769566317265E+00    8.4283675356749299E+00
N   -1.2542962879111426E+00    8.5750823203571986E+00    1.0368372345975596E+01
Ga   -1.2484490351187989E+00    1.0442776751899169E+01    1.1066087266084041E+01
N   -1.1713429797872770E+00    1.0501095140943235E+01    1.3011109924349947E+01
Ga   -1.1485369989489247E+00    8.6254582823020680E+00    1.3683959963369627E+01
N   -1.6610625186715984E+00    8.2940129722976703E+00    1.5555516100409534E+01
Ga   -2.7841772675864300E+00    9.5837431442880554E+00    1.6520078313829213E+01
N   -1.0570009951913126E+00    8.5725196100555205E+00    1.6850051147153373E+01
N    6.5263463980110954E+00   -3.5366827057398608E-03   -1.4492897855513662E-01
Ga    6.5403888126155412E+00    1.8656540030735691E+00    5.2309239128002538E-01
N    6.5630463755631974E+00    1.8781077570640219E+00    2.4460889477983065E+00
Ga    6.5581548709217090E+00    1.5755758441491755E-02    3.1560484175140906E+00
N    6.6007278491364332E+00    3.8514010486787736E-02    5.0863904021064457E+00
Ga    6.6157650166452351E+00    1.9072467201472203E+00    5.7857722629274360E+00
N    6.7000111134299747E+00    1.9689209155252105E+00    7.7219940742322404E+00
Ga    6.7032273553292470E+00    1.1418830950817162E-01    8.4230349789889196E+00
N    6.8245951700616674E+00    1.8819655498327487E-01    1.0367251885773724E+01
Ga    6.8630115868511856E+00    2.0684093500658882E+00    1.1036509111714189E+01
N    6.9623314705946298E+00    2.1327478906531123E+00    1.2987065793467139E+01
Ga    6.9456169850427569E+00    2.7523031410538523E-01    1.3669579017376478E+01
N    6.3880080802847887E+00   -5.3842855657491077E-02    1.5491754377791491E+01
Ga    5.3913995049061443E+00    1.2424886491201181E+00    1.6601639598515153E+01
N    7.0440279985756158E+00    3.1526223409053555E-01    1.7080997706107393E+01
N    4.9129227466806284E+00    2.7911875041375973E+00   -1.4540515758752379E-01
Ga    4.9269219940419049E+00    4.6602631216993453E+00    5.2289223855139388E-01
N    4.9494835582308134E+00    4.6726867570571704E+00    2.4454942372017046E+00
Ga    4.9449383551068449E+00    2.8107827904039424E+00    3.1571347319921470E+00
N    4.9878223357967446E+00    2.8346944180768174E+00    5.0886504190517652E+00
Ga    5.0005559786549112E+00    4.7042009296018961E+00    5.7905430422287480E+00
N    5.0831147014429430E+00    4.7684361628784817E+00    7.7250207853016652E+00
Ga    5.0947961044042609E+00    2.9117863744626127E+00    8.4187901868261541E+00
N    5.2246906598389344E+00    2.9893029028603180E+00    1.0362788376181111E+01
Ga    5.2426234195919204E+00    4.8657559869617479E+00    1.1039051399202764E+01
N    5.3322881826356960E+00    4.9411043127507748E+00    1.2987217560650290E+01
Ga    5.3640308620318908E+00    3.0838235731582357E+00    1.3654508463780589E+01
N    4.8212972734780806E+00    2.7592282344132104E+00    1.5478121569644415E+01
Ga    3.7883782229901439E+00    4.0100520228332428E+00    1.6606043815506069E+01
N    5.4739226742276834E+00    3.1377636291604292E+00    1.7075382121764999E+01
N    3.2993623497830673E+00    5.5858247874707283E+00   -1.4459381062477933E-01
Ga    3.3133889793921814E+00    7.4551181287251698E+00    5.2380295168180391E-01
N    3.3362276795533785E+00    7.4676092263814056E+00    2.4467390486710223E+00
Ga    3.3314285535604635E+00    5.6044712103110959E+00    3.1555899845467903E+00
N    3.3738741572937645E+00    5.6268094108431885E+00    5.0862476125471829E+00
Ga    3.3888189828552315E+00    7.4955182034026242E+00    5.7835467742397020E+00
N    3.4724898567810376E+00    7.5559495455046015E+00    7.7188387757754162E+00
Ga    3.4754027768849340E+00    5.7033355263222472E+00    8.4226539827346052E+00
N    3.5982133028170624E+00    5.7769095616444384E+00    1.0365969439386683E+01
Ga    3.6360390804902201E+00    7.6529645482218598E+00    1.1033564370627241E+01
N    3.7306064639079248E+00    7.7172279453660071E+00    1.2979974731486527E+01
Ga    3.7193185379200027E+00    5.8657984737762625E+00    1.3676265329008771E+01
N    3.1614790190631790E+00    5.5305957808823187E+00    1.5501917750044012E+01
Ga    2.1372006534064845E+00    6.8152542656021158E+00    1.6558534506895114E+01
N    3.8192490925118703E+00    5.9160357767128442E+00    1.7080373249121859E+01
N    1.6859771426279728E+00    8.3805777374059431E+00   -1.4490642287252156E-01
Ga    1.6998724416759021E+00    1.0249721048978872E+01    5.2346793628020316E-01
N    1.7225506168672848E+00    1.0262524361892865E+01    2.4462976890288100E+00
Ga    1.7176243906315005E+00    8.4001126139770914E+00    3.1575345765387022E+00
N    1.7607032087224102E+00    8.4230472800765117E+00    5.0885546032225122E+00
Ga    1.7738135490244222E+00    1.0292937295185146E+01    5.7863798134814752E+00
N    1.8558893604719269E+00    1.0355983821830705E+01    7.7206515480580640E+00
Ga    1.8706231877567132E+00    8.5005946776218622E+00    8.4180825617583857E+00
N    1.9972439607791492E+00    8.5779549373881583E+00    1.0361462177526136E+01
Ga    2.0154128819905166E+00    1.0456959910615907E+01    1.1035088109629893E+01
N    2.1047579122935329E+00    1.0531447212420019E+01    1.2980831111231353E+01
Ga    2.1411540719583275E+00    8.6772526718727132E+00    1.3635717428222684E+01
N    1.5830808362466544E+00    8.3399153248200193E+00    1.5448077105828611E+01
Ga    5.3547892959237597E-01    9.5935444097642133E+00    1.6557345389261361E+01
N    2.1804595539407865E+00    8.6962655656124870E+00    1.7078978069444972E+01
N    9.7809941900199444E+00   -3.2400098724829941E-03   -1.4445558661576594E-01
Ga    9.7950080986798405E+00    1.8660280802370917E+00    5.2453320302099593E-01
N    9.8185944674522325E+00    1.8787819618541468E+00    2.4471908455683069E+00
Ga    9.8112417240879193E+00    1.4155561629148421E-02    3.1530802409431216E+00
N    9.8520478656315582E+00    3.5147957323075033E-02    5.0827995847798171E+00
Ga    9.8748216668711954E+00    1.9109778825590733E+00    5.7671178453647371E+00
N    9.9635346378440151E+00    1.9779309531643587E+00    7.6990833473076936E+00
Ga    9.9567724338182675E+00    1.1801169724121631E-01    8.3773708628515760E+00
N    1.0074442700283186E+01    1.9427599539563109E-01    1.0309903541443131E+01
Ga    1.0113387928700089E+01    2.0644560102053413E+00    1.0995759578974267E+01
N    1.0202915653128985E+01    2.1279131480278304E+00    1.2934057321213210E+01
Ga    1.0238934222757957E+01    2.8610066412406437E-01    1.3644202524966227E+01
N    9.7406510634072205E+00   -1.7733777594102745E-02    1.5518326149757645E+01
Ga    8.6428871799759683E+00    1.2302314852250642E+00    1.6725366990795784E+01
N    1.0367994751650716E+01    3.3335115513563929E-01    1.6891740018857849E+01
N    8.1674528804042161E+00    2.7913386206506430E+00   -1.4509144339451349E-01
Ga    8.1819742467912260E+00    4.6607466863997447E+00    5.2406631424098971E-01
N    8.2057441296835663E+00    4.6735608407188955E+00    2.4469053522265480E+00
Ga    8.1970550475834330E+00    2.8094015710393747E+00    3.1530958463441707E+00
N    8.2378857763210469E+00    2.8302756905187194E+00    5.0821495962827212E+00
Ga    8.2585603408043742E+00    4.7032425166578635E+00    5.7727897594605695E+00
N    8.3461883032699582E+00    4.7673923111689342E+00    7.7058273749768267E+00
Ga    8.3496216110620676E+00    2.9067498126082363E+00    8.3919889954891929E+00
N    8.4753014255147345E+00    2.9817557271962563E+00    1.0323308993337644E+01
Ga    8.4924576381172834E+00    4.8607524600653447E+00    1.0978211596440380E+01
N    8.5625001833344676E+00    4.9149337206905619E+00    1.2891855919169311E+01
Ga    8.6267864620669172E+00    3.1016958173247460E+00    1.3638118580921956E+01
N    8.1907909967037380E+00    2.7910364368780138E+00    1.5522974647985137E+01
Ga    7.0583305158588772E+00    4.0304925219989833E+00    1.6686821150026631E+01
N    8.8100962732601200E+00    3.1814083772298685E+00    1.6890461966597389E+01
N    6.5539256274277102E+00    5.5861252895156044E+00   -1.4480696108215738E-01
Ga    6.5681183824148199E+00    7.4553312948028321E+00    5.2482611235024512E-01
N    6.5919710442471642E+00    7.4681967957639257E+00    2.4475473089942708E+00
Ga    6.5836191058784612E+00    5.6028410592047067E+00    3.1522088655856026E+00
N    6.6233919644647861E+00    5.6236214246103957E+00    5.0818695201334929E+00
Ga    6.6485030941320922E+00    7.4986561415860393E+00    5.7658984996552336E+00
N    6.7375577100415889E+00    7.5632112608518067E+00    7.6981126588642663E+00
Ga    6.7324258055605881E+00    5.7059488975464694E+00    8.3864805971933301E+00
N    6.8526789089069924E+00    5.7814804774696054E+00    1.0319195931292255E+01
Ga    6.8869273284024723E+00    7.6567916180200655E+00    1.0994550864283871E+01
N    6.9697411769041491E+00    7.7239743261456839E+00    1.2932690601408563E+01
Ga    7.0169991896735828E+00    5.8766252095519249E+00    1.3633096018632754E+01
N    6.5478135894629581E+00    5.6257374621143832E+00    1.5513338587965110E+01
Ga    5.4310352180654586E+00    6.8047384005667082E+00    1.6723150094923394E+01
N    7.1936550987525312E+00    5.9749728333248671E+00    1.6878785866115546E+01
N    4.9404892196540686E+00    8.3807308086947252E+00   -1.4463624121778040E-01
Ga    4.9549773924433351E+00    1.0250186604556955E+01    5.2448714306214783E-01
N    4.9789119047495358E+00    1.0263360221956816E+01    2.4471941516793727E+00
Ga    4.9703916622410516E+00    8.3994456135318085E+00    3.1529998582498444E+00
N    5.0111626745451456E+00    8.4205286579901450E+00    5.0823702442666008E+00
Ga    5.0330298894106518E+00    1.0293165673719216E+01    5.7748310885974226E+00
N    5.1205737772436013E+00    1.0356541149247159E+01    7.7062558585873742E+00
Ga    5.1218655074646016E+00    8.4919612075731781E+00    8.3826746035414192E+00
N    5.2454611038478216E+00    8.5668897168033737E+00    1.0315290799723737E+01
Ga    5.2583169157972334E+00    1.0447811954089483E+01    1.0966422361116047E+01
N    5.3309502577778298E+00    1.0500309772265473E+01    1.2885506684160562E+01
Ga    5.3935047972592365E+00    8.6862341734671737E+00    1.3634115786557487E+01
N    4.8945492757166917E+00    8.3615983912962584E+00    1.5513467419127583E+01
Ga    3.7685503804605145E+00    9.5762500405363422E+00    1.6715547563139051E+01
N    5.5112952519129195E+00    8.7435418943838705E+00    1.6897394086467060E+01
H    1.5149156782182031E-02   -4.5759455385721275E-03   -1.1726337061576704E+00
H   -1.5983901772836999E+00    2.7902600792721790E+00   -1.1718081105903704E+00
H   -3.2113789999360733E+00    5.5848324815763100E+00   -1.1733899084809711E+00
H   -4.8256841153963466E+00    8.3800296373589021E+00   -1.1718811841283803E+00
H    3.2696160043988298E+00   -4.1668187736835531E-03   -1.1729863081699201E+00
H    1.6562758718019732E+00    2.7908405870679607E+00   -1.1729731587017778E+00
H    4.3046413337732022E-02    5.5851004058383396E+00   -1.1728321499261032E+00
H   -1.5704100693202250E+00    8.3798639354775233E+00   -1.1734589889948706E+00
H    6.5239566281989800E+00   -4.9264538930566381E-03   -1.1725837607897915E+00
H    4.9100658991645041E+00    2.7903958794813377E+00   -1.1731031127321745E+00
H    3.2965983109419983E+00    5.5845954106646003E+00   -1.1722190477778123E+00
H    1.6833266863115033E+00    8.3795170339351301E+00   -1.1725106377498078E+00
H    9.7786686186682079E+00   -3.9941341333733192E-03   -1.1721420578014157E+00
H    8.1654540484762723E+00    2.7900150497468283E+00   -1.1728290972038242E+00
H    6.5510812794114495E+00    5.5855598914205826E+00   -1.1725246715345254E+00
H    4.9381882161362300E+00    8.3798893357131057E+00   -1.1723497834220660E+00
     &END COORD
     &KIND H
       BASIS_SET DZVP-MOLOPT-SR-GTH-q1
       POTENTIAL GTH-PBE-q1
       &POTENTIAL
1
0.2000000000000000E+00 2 -0.4178900440000000E+01  0.7244633100000000E+00
0
       &END POTENTIAL
     &END KIND
     &KIND N
       BASIS_SET DZVP-MOLOPT-SR-GTH
       POTENTIAL GTH-PBE-q5
       &POTENTIAL
2 3
0.2837905100000000E+00 2 -0.1241522559000000E+02  0.1868095920000000E+01
2
0.2554050000000000E+00 1  0.1363026257000000E+02
0.2454945300000000E+00 0
       &END POTENTIAL
     &END KIND
     &KIND Ga
       BASIS_SET DZVP-MOLOPT-SR-GTH
       POTENTIAL GTH-PBE-q13
       &POTENTIAL
2 1 10
0.4900000000000000E+00 0
3
0.4167772300000000E+00 3  0.1047568975000000E+02 -0.4921768140000000E+01  0.8707055900000000E+00
0.7770178090000000E+01 -0.2248152160000000E+01
0.1784415450000000E+01
0.5696265200000000E+00 2  0.1777985340000000E+01  0.1958597600000000E+00
-0.2317443900000000E+00
0.2381265000000000E+00 1 -0.1624868022000000E+02
       &END POTENTIAL
     &END KIND
     &TOPOLOGY
       NUMBER_OF_ATOMS  256
       MULTIPLE_UNIT_CELL  1 1 1
     &END TOPOLOGY
   &END SUBSYS
 &END FORCE_EVAL
