 # Version information for this restart file 
 # current date 2019-07-20 23:39:49.664
 # current working dir /lustre04/scratch/rzk/rzk/GaN-carbene/443-adatoms-both-2x2/12-CH3O-H2C-H/01-Start-1101
 # Program compiled at                              Sun Apr  7 00:48:11 EDT 2019
 # Program compiled on                          beluga2.int.ets1.calculquebec.ca
 # Program compiled for                        Beluga-Linux-x86-64-intel-openmpi
 # Source code revision number                                         svn:18619
 &GLOBAL
   PRINT_LEVEL  MEDIUM
   PROJECT_NAME TEST
   RUN_TYPE  GEO_OPT
 &END GLOBAL
 &MOTION
   &GEO_OPT
     MAX_ITER  500
     STEP_START_VAL  14
   &END GEO_OPT
 &END MOTION
 &FORCE_EVAL
   METHOD  QS
   STRESS_TENSOR  ANALYTICAL
   &DFT
     BASIS_SET_FILE_NAME BASIS_MOLOPT
     POTENTIAL_FILE_NAME GTH_POTENTIALS
     UKS  T
     SURFACE_DIPOLE_CORRECTION  T
     SURF_DIP_DIR  Z
     &SCF
       MAX_SCF  80
       EPS_SCF     5.0000000000000004E-06
       &OT  T
         PRECONDITIONER  FULL_ALL
       &END OT
       &OUTER_SCF  T
         OPTIMIZER  NONE
         EPS_SCF     5.0000000000000004E-06
         MAX_SCF  4
       &END OUTER_SCF
       &PRINT
         &RESTART  OFF
           BACKUP_COPIES  1
           &EACH
             JUST_ENERGY  0
             QS_SCF  0
             MD  20
           &END EACH
         &END RESTART
       &END PRINT
     &END SCF
     &QS
       EPS_DEFAULT     1.0000000000000000E-14
       METHOD  GPW
     &END QS
     &MGRID
       NGRIDS  5
       CUTOFF     1.2000000000000000E+03
     &END MGRID
     &XC
       DENSITY_CUTOFF     1.0000000000000000E-10
       GRADIENT_CUTOFF     1.0000000000000000E-10
       TAU_CUTOFF     1.0000000000000000E-10
       &XC_FUNCTIONAL  NO_SHORTCUT
         &PBE  T
         &END PBE
       &END XC_FUNCTIONAL
       &VDW_POTENTIAL
         POTENTIAL_TYPE  PAIR_POTENTIAL
         &PAIR_POTENTIAL
           R_CUTOFF     1.0000000000000004E+01
           TYPE  DFTD3
           PARAMETER_FILE_NAME dftd3.dat
           REFERENCE_FUNCTIONAL PBE
           EPS_CN     9.9999999999999995E-07
           CALCULATE_C9_TERM  T
           REFERENCE_C9_TERM  T
           LONG_RANGE_CORRECTION  F
           VERBOSE_OUTPUT  F
         &END PAIR_POTENTIAL
       &END VDW_POTENTIAL
     &END XC
   &END DFT
   &SUBSYS
     &CELL
       A     1.2864472766435110E+01    0.0000000000000000E+00    0.0000000000000000E+00
       B    -6.4322363581020028E+00    1.1140960178524473E+01    0.0000000000000000E+00
       C     0.0000000000000000E+00    0.0000000000000000E+00    3.2000000000000000E+01
       MULTIPLE_UNIT_CELL  1 1 1
       &CELL_REF
         A     1.2982353780853531E+01    0.0000000000000000E+00    0.0000000000000000E+00
         B    -6.4911768904267628E+00    1.1243048175136114E+01    0.0000000000000000E+00
         C     0.0000000000000000E+00    0.0000000000000000E+00    3.2000000000000000E+01
         MULTIPLE_UNIT_CELL  1 1 1
       &END CELL_REF
     &END CELL
     &COORD
N    6.8704244682597976E-02    2.1246829404323253E+00    2.5448159400253654E+00
Ga    8.8649060382934158E-02    1.5380880779374687E-01    2.9473227821742207E+00
N    5.8032400583525150E-02    1.4219941816958284E-01    5.0968344550078140E+00
Ga    6.3801537558491980E-02    1.9555544984745139E+00    5.8677301419436905E+00
N    8.0420445482123432E-02    1.9784716233043744E+00    7.8503456740415594E+00
Ga    8.3602378063296789E-02    1.2688345543372606E-01    8.4923448633083733E+00
N    8.0005010149554467E-02    1.2724646561025213E-01    1.0461165290258037E+01
Ga    7.8648410398728871E-02    1.9658960442311855E+00    1.1121114630570972E+01
N    7.7621086349606808E-02    1.9464718017538640E+00    1.3108222655695471E+01
Ga    7.8077835479033644E-02    1.2646414502433234E-01    1.3925021547761810E+01
N    7.7121542941964050E-02    1.2695157881918434E-01    1.6112060950437151E+01
Ga    7.6363039821888537E-02    2.1743730155193530E+00    1.6532899767297472E+01
Ga    3.2926347583771269E-02    3.8612166687591931E+00    1.3729462889651505E+00
N   -1.4119780425923791E+00    4.7103388513087818E+00    2.5540932501436973E+00
Ga   -1.6095474997336368E+00    2.8801058317052779E+00    3.3237284132937299E+00
N   -1.5279589232098056E+00    2.9199874895094218E+00    5.3022924817508228E+00
Ga   -1.5648893711451313E+00    4.7845678892548760E+00    5.8629724297432952E+00
N   -1.5375437549910167E+00    4.7776250917182947E+00    7.8505185690893269E+00
Ga   -1.5214560509091049E+00    2.9214878555206538E+00    8.4955516748705673E+00
N   -1.5186775319881605E+00    2.9199089816918944E+00    1.0480659376128399E+01
Ga   -1.5476576704483203E+00    4.7802631840811820E+00    1.1121810537102048E+01
N   -1.5636470832566718E+00    4.7884846547124731E+00    1.3109286567225206E+01
Ga   -1.5192224762587017E+00    2.9188939145633759E+00    1.3671764601579795E+01
N   -1.5459123552357330E+00    2.9027838034091107E+00    1.5627987295649858E+01
Ga   -1.3702211924094314E+00    4.6761075093289817E+00    1.6533310201051609E+01
N    7.6431031755033213E-02    3.8467616106469400E+00    1.7674261226331680E+01
N   -3.1465596794194250E+00    7.6253890634861747E+00    2.5067276582307518E+00
Ga   -3.1253646701095774E+00    5.7020332011167572E+00    2.9227718209960689E+00
N   -3.1349245300374147E+00    5.6902341793130651E+00    5.0816413250110051E+00
Ga   -3.1386771454447375E+00    7.5314164447234653E+00    5.8148191038941741E+00
N   -3.1348601021782287E+00    7.5478264050279007E+00    7.8202245314698171E+00
Ga   -3.1395314528879918E+00    5.7060736320451610E+00    8.4892593480400418E+00
N   -3.1391399662259358E+00    5.7005688234822731E+00    1.0460387955409058E+01
Ga   -3.1406195034573474E+00    7.5395087239087086E+00    1.1117688385309554E+01
N   -3.1396062094818169E+00    7.5178810838367109E+00    1.3105834843567813E+01
Ga   -3.1397529509913604E+00    5.6990708035933064E+00    1.3923376900259216E+01
N   -3.1397025758977777E+00    5.6989176695380941E+00    1.6112706824265505E+01
Ga   -3.1396654910600974E+00    7.7521662278484973E+00    1.6536181379610770E+01
Ga   -3.3618820832054928E+00    8.8961224650708193E+00    7.3578872398534678E-01
N   -4.7280714574233071E+00    1.0305594571509289E+01    2.5300827544965387E+00
Ga   -4.8077279644381949E+00    8.4589396353673205E+00    3.2383906712919148E+00
N   -4.7432882262288212E+00    8.4876403928604098E+00    5.2534777028030488E+00
Ga   -4.7848829536227484E+00    1.0351249436507748E+01    5.8217277714814077E+00
N   -4.7521123386486046E+00    1.0350031102488838E+01    7.8198794325342398E+00
Ga   -4.7327265398198479E+00    8.4905392769941344E+00    8.4702516639885879E+00
N   -4.7344539236777576E+00    8.4914574388765551E+00    1.0463844596915450E+01
Ga   -4.7603927994749951E+00    1.0347103619851135E+01    1.1117778567174934E+01
N   -4.7786682291064482E+00    1.0357634442659288E+01    1.3106158139310010E+01
Ga   -4.7368405238599491E+00    8.4883302587383511E+00    1.3670257065199248E+01
N   -4.7649131037618435E+00    8.4705208942077395E+00    1.5624877169304089E+01
Ga   -4.5813995447122924E+00    1.0243433499461061E+01    1.6535564873270165E+01
N   -3.1400397937655673E+00    9.4168255063551491E+00    1.7666659793246307E+01
N    3.2863436925171849E+00    2.1915562136125786E+00    2.5085728434399006E+00
Ga    3.2947247807693865E+00   -1.6796546591395742E-01    3.2867091422748951E+00
N    3.2949742335749757E+00    1.4127766987628695E-01    5.2184694385582437E+00
Ga    3.2945360012928071E+00    1.9669962578856701E+00    5.9162186399617065E+00
N    3.2951700639947790E+00    1.9804381758004346E+00    7.8771698162486485E+00
Ga    3.2939509306346544E+00    1.1158879690846603E-01    8.4802845975563041E+00
N    3.2942228114523098E+00    1.1513144711303192E-01    1.0467795568297914E+01
Ga    3.2936142109888165E+00    1.9828288542679458E+00    1.1077235760053918E+01
N    3.2928789081707390E+00    1.9837895342006626E+00    1.3040506060054501E+01
Ga    3.2925952396327793E+00    1.1385992176959397E-01    1.3672045004553729E+01
N    3.2926604075578152E+00    1.4934512880165079E-01    1.5626673548284826E+01
Ga    3.2929524067359521E+00    1.9846948887351341E+00    1.5909134587571353E+01
N    1.5560837337522444E+00    4.7168161920206444E+00    2.5469019173474483E+00
Ga    1.6148881413917076E+00    2.9317392432101324E+00    3.3750267688294828E+00
N    1.7027376969877586E+00    2.9072202875371254E+00    5.2907180758526398E+00
Ga    1.7156912226037593E+00    4.7950010819108515E+00    5.8625651946132802E+00
N    1.6949732740933028E+00    4.7743793778604537E+00    7.8421452681642903E+00
Ga    1.6789384466048587E+00    2.9164990242132860E+00    8.4912521855523693E+00
N    1.6768614544139571E+00    2.9192548021275924E+00    1.0474395261070930E+01
Ga    1.7008501432086218E+00    4.7776967671555202E+00    1.1124328700607407E+01
N    1.7173530333365237E+00    4.7875440185216762E+00    1.3110328688758848E+01
Ga    1.6740086897665305E+00    2.9178529023455844E+00    1.3672338960775386E+01
N    1.6997147619980937E+00    2.9025486086148242E+00    1.5628243441333652E+01
Ga    1.5227186725040247E+00    4.6759182381980517E+00    1.6533482030459680E+01
N    7.7802400702663241E-02    7.5508239173617540E+00    2.7131940684405818E+00
Ga    5.6805615345891479E-02    5.7108914485004663E+00    3.3718248163521225E+00
N    7.8308680019334914E-02    5.7152449948859356E+00    5.3049125477636698E+00
Ga    5.2823136181824708E-02    7.5642008945677306E+00    5.9396585543714133E+00
N    7.4256101473444747E-02    7.5586024839024368E+00    7.8988452460955685E+00
Ga    7.5405405777614232E-02    5.6882190850547660E+00    8.4951552253397082E+00
N    7.8649940588464126E-02    5.6854767401844839E+00    1.0478435254064912E+01
Ga    7.4233692196557691E-02    7.5556879773684695E+00    1.1078318813870503E+01
N    7.5413903643871821E-02    7.5540861195665157E+00    1.3040821969657733E+01
Ga    7.6542048506655552E-02    5.6853198267106526E+00    1.3671999956142063E+01
N    7.6795057625000024E-02    5.7152464835115300E+00    1.5628813782826661E+01
Ga    7.6934967147966729E-02    7.5534150046519848E+00    1.5911071056811295E+01
N   -1.5289323716217755E+00    1.0324518741018300E+01    2.5444369731752476E+00
Ga   -1.5607894410307674E+00    8.5069227504918690E+00    3.2355254085349179E+00
N   -1.5194132297061582E+00    8.4792587148572149E+00    5.2279601134631228E+00
Ga   -1.4914368335223367E+00    1.0350955249858126E+01    5.8200882471366508E+00
N   -1.5242148730306322E+00    1.0345799118009920E+01    7.8168815505876692E+00
Ga   -1.5484366339856719E+00    8.4927593983980572E+00    8.4845097774022129E+00
N   -1.5432382784342353E+00    8.4921101854149601E+00    1.0471248438323418E+01
Ga   -1.5173866498514954E+00    1.0348808406888999E+01    1.1121912339500728E+01
N   -1.4992415572941808E+00    1.0358239755547487E+01    1.3108628319274290E+01
Ga   -1.5429811413561130E+00    8.4885185751038392E+00    1.3672050258010632E+01
N   -1.5137359113455731E+00    8.4703191805625355E+00    1.5626196736543251E+01
Ga   -1.6979059122067772E+00    1.0243563052391302E+01    1.6535543917329736E+01
N    6.5268622142972186E+00    2.1068042477102646E+00    2.5554648768123771E+00
Ga    6.5147667615523206E+00    1.3988079588431457E-01    2.9793154976197314E+00
N    6.5364886546869956E+00    1.4110170347274306E-01    5.1120029318835236E+00
Ga    6.5249257443188098E+00    1.9592149157446523E+00    5.8704131282269714E+00
N    6.5078968081944781E+00    1.9799239966026267E+00    7.8504435565147128E+00
Ga    6.5033942747556432E+00    1.2748600847035563E-01    8.4933062149745826E+00
N    6.5065858565318671E+00    1.2711994716997130E-01    1.0461102303321988E+01
Ga    6.5087629823148632E+00    1.9665688079991825E+00    1.1121528865519291E+01
N    6.5086402114916169E+00    1.9464069335921419E+00    1.3108172742665573E+01
Ga    6.5086901819095697E+00    1.2728340218041623E-01    1.3927276236864714E+01
N    6.5086845439883607E+00    1.2726384962935275E-01    1.6112856996075017E+01
Ga    6.5085719439963698E+00    2.1752235974961693E+00    1.6533107613793600E+01
Ga    6.5866322620863249E+00    3.8789156107501288E+00    1.3942603851104094E+00
N    5.0056410090380137E+00    4.7188001700947551E+00    2.5675602959492054E+00
Ga    4.9651668193714169E+00    2.9276688267446698E+00    3.3627012936897405E+00
N    4.8881329460700238E+00    2.9022170002624113E+00    5.2795805680014221E+00
Ga    4.8777965619645514E+00    4.7951200347252261E+00    5.8474125693281769E+00
N    4.8899255317064769E+00    4.7725346972526372E+00    7.8342355784742681E+00
Ga    4.9088178045095061E+00    2.9189729256433541E+00    8.4920757301999430E+00
N    4.9107521475274103E+00    2.9196967734644046E+00    1.0474563533691542E+01
Ga    4.8879110070036020E+00    4.7789251103801504E+00    1.1122649073036259E+01
N    4.8696241217714586E+00    4.7877185293120359E+00    1.3109036914532073E+01
Ga    4.9119919299443380E+00    2.9181340846061956E+00    1.3671564468179069E+01
N    4.8856627103811467E+00    2.9028083708679802E+00    1.5627354294552999E+01
Ga    5.0626385263645552E+00    4.6759235179370826E+00    1.6533457721994679E+01
N    6.5082865810077477E+00    3.8472053414334582E+00    1.7674379890265900E+01
N    3.2834941426326361E+00    7.6843206697307611E+00    2.5773116696342862E+00
N    3.2883665765721188E+00    5.7022625865289118E+00    5.0667344817681741E+00
Ga    3.2981932544965380E+00    7.5253141330354492E+00    5.8628142948700654E+00
N    3.2914908447551645E+00    7.5432034858483830E+00    7.8468005343845917E+00
Ga    3.2950744818985642E+00    5.6964976517234955E+00    8.4995854820833507E+00
N    3.2936856858859369E+00    5.6967138324480615E+00    1.0464352376573901E+01
Ga    3.2955044731222705E+00    7.5364986574419754E+00    1.1124878525439350E+01
N    3.2937111678915607E+00    7.5165250991758716E+00    1.3110421709769330E+01
Ga    3.2938883067416667E+00    5.6977454393213751E+00    1.3925628542426036E+01
N    3.2929345590277292E+00    5.6983545557985789E+00    1.6113085605406130E+01
Ga    3.2929885066919096E+00    7.7518910636417164E+00    1.6535472778714428E+01
Ga    3.3237427263415449E+00    9.4431816392483299E+00    1.5893911807743522E+00
N    1.8029758107912601E+00    1.0279333458829447E+01    2.5936620044146590E+00
Ga    1.6445907261986454E+00    8.4729070592861842E+00    3.3932323023024717E+00
N    1.6713593350198306E+00    8.4801235552408212E+00    5.3133744268126213E+00
Ga    1.6683039541868581E+00    1.0363892159540629E+01    5.8847778679375224E+00
N    1.6792426216822753E+00    1.0343314393255197E+01    7.8624971414147060E+00
Ga    1.6942693485324036E+00    8.4873295017931589E+00    8.5027270346172816E+00
N    1.6965951726698381E+00    8.4884305984450670E+00    1.0483169529741611E+01
Ga    1.6684071962944023E+00    1.0349985512316584E+01    1.1124238867180384E+01
N    1.6517258878420564E+00    1.0358470667763235E+01    1.3110649203305991E+01
Ga    1.6951431261781706E+00    8.4880726384510652E+00    1.3671540360688867E+01
N    1.6674059877504435E+00    8.4701838472391238E+00    1.5625957219599668E+01
Ga    1.8508736921817535E+00    1.0243755206852024E+01    1.6534843611406281E+01
N    3.2932233063990664E+00    9.4168268484778341E+00    1.7666763960249352E+01
N    9.7339943681143399E+00    1.9944441393933263E+00    2.6696012379258041E+00
Ga    9.7328227066793254E+00    2.6372141461624032E-01    3.3649343305161983E+00
N    9.7258518475385785E+00    1.3124827629226263E-01    5.3178910049451193E+00
Ga    9.7294900910957516E+00    1.9967468130439974E+00    5.9290021955055874E+00
N    9.7257393776883259E+00    1.9871080543765975E+00    7.9010547481355022E+00
Ga    9.7290096322699107E+00    1.2095409017279393E-01    8.5021045781563718E+00
N    9.7259425951141978E+00    1.1627218485326546E-01    1.0485174059259739E+01
Ga    9.7262025957344065E+00    1.9868761336917624E+00    1.1081890179773382E+01
N    9.7252599102458497E+00    1.9853532104161564E+00    1.3045094052310480E+01
Ga    9.7260942903061238E+00    1.1397452621881167E-01    1.3671355743335184E+01
N    9.7255224328522125E+00    1.4894991318670464E-01    1.5626512405846878E+01
Ga    9.7250050833047030E+00    1.9847511298292593E+00    1.5906707091468052E+01
N    8.0225952547038268E+00    4.7123018269454118E+00    2.5757274742357295E+00
Ga    8.2178274917176957E+00    2.8747343410085544E+00    3.3250890871752232E+00
N    8.1173396931843680E+00    2.9178447010830508E+00    5.2968329504638021E+00
Ga    8.1456006014395150E+00    4.7888955547312486E+00    5.8507288724534119E+00
N    8.1268629694680357E+00    4.7766051770166609E+00    7.8442311716369790E+00
Ga    8.1102605558910668E+00    2.9238406064712108E+00    8.4961777925538904E+00
N    8.1059642082544716E+00    2.9199538500296143E+00    1.0480405164657968E+01
Ga    8.1323216856924354E+00    4.7810968863280703E+00    1.1119834648452608E+01
N    8.1492569496714431E+00    4.7888473348313356E+00    1.3107773917966030E+01
Ga    8.1052871283793113E+00    2.9196935247033751E+00    1.3671423411790908E+01
N    8.1315940040739267E+00    2.9030811354626085E+00    1.5627588254162459E+01
Ga    7.9545758926831400E+00    4.6759569401884029E+00    1.6533001222457667E+01
N    6.5149276705561210E+00    7.5549334332424705E+00    2.6354316277723022E+00
Ga    6.5248893743601872E+00    5.8118482228705144E+00    3.3109421704391382E+00
N    6.5087885567702397E+00    5.6980680283272287E+00    5.2863572730410446E+00
Ga    6.5286926228709845E+00    7.5605362737071342E+00    5.9032534342816714E+00
N    6.5116082812342952E+00    7.5560301950879234E+00    7.8826930082567968E+00
Ga    6.5113697925594982E+00    5.6899554128493479E+00    8.4829859599573254E+00
N    6.5079725749452075E+00    5.6850518272758084E+00    1.0471722583173023E+01
Ga    6.5127307810054980E+00    7.5556354451992744E+00    1.1071651165073293E+01
N    6.5104565847681952E+00    7.5542836956333046E+00    1.3036675604513649E+01
Ga    6.5098495717540965E+00    5.6865544919510915E+00    1.3670513914842283E+01
N    6.5089110211799737E+00    5.7155115868724371E+00    1.5627519379883539E+01
Ga    6.5094078868101359E+00    7.5533824694605753E+00    1.5911460732829816E+01
N    4.7941781674313253E+00    1.0287981854272950E+01    2.6000648930385020E+00
Ga    5.0278800990583399E+00    8.4249498153811899E+00    3.3441926424729749E+00
N    4.9003180925750573E+00    8.4840124534530617E+00    5.3025345395004280E+00
Ga    4.9247221697314689E+00    1.0356531033321355E+01    5.8684036852838330E+00
N    4.9105517470121045E+00    1.0345634631496607E+01    7.8552206163759042E+00
Ga    4.8972933910444674E+00    8.4874095713466282E+00    8.4905066868366763E+00
N    4.8905121486905729E+00    8.4885051633680906E+00    1.0476760680322156E+01
Ga    4.9192428910042514E+00    1.0348012106219814E+01    1.1121868781026935E+01
N    4.9348702333466266E+00    1.0357953240343438E+01    1.3109188685529274E+01
Ga    4.8924857152269032E+00    8.4880996588581858E+00    1.3670700311016518E+01
N    4.9189976821686807E+00    8.4703622848215865E+00    1.5625422108780926E+01
Ga    4.7350244107182968E+00    1.0243770144380225E+01    1.6534417256509496E+01
O    1.4698282280319960E-01    3.7903540776952553E+00   -4.3938959250625315E-01
C   -9.7035037150445058E-01    3.1681475825970877E+00   -1.0995318604104329E+00
H   -1.1623540993873078E+00    2.1473814229977113E+00   -7.2905762965111320E-01
H   -1.8968922780629340E+00    3.7540752480998481E+00   -9.8469351621039125E-01
H   -7.2731847943310679E-01    3.1095293434149145E+00   -2.1703421981100335E+00
Ga    3.2827440678583759E+00    5.6856358634254454E+00    2.9179591511404337E+00
H    1.3534634802480824E-01    7.5248067730160377E+00    1.6886395518953625E+00
C    3.2703353484454678E+00    1.8875303343733492E+00    1.2544716495389305E+00
H    4.2050413529141695E+00    1.7153879047002343E+00    7.0284297357434411E-01
H    2.3247495271902263E+00    1.7656232432875738E+00    7.0658643203584104E-01
     &END COORD
     &KIND C
       BASIS_SET DZVP-MOLOPT-SR-GTH-q4
       POTENTIAL GTH-PBE-q4
       &POTENTIAL
 2 2
  0.3384712400000000E+00 2 -0.8803673979999999E+01  0.1339210850000000E+01
 2
  0.3025757500000000E+00 1  0.9622486650000001E+01
  0.2915069400000000E+00 0
         # Potential name:  GTH-PBE-Q4  for symbol:  C
         # Potential read from the potential filename: GTH_POTENTIALS
       &END POTENTIAL
     &END KIND
     &KIND O
       BASIS_SET DZVP-MOLOPT-SR-GTH-q6
       POTENTIAL GTH-PBE-q6
       &POTENTIAL
 2 4
  0.2445543000000000E+00 2 -0.1666721480000000E+02  0.2487311320000000E+01
 2
  0.2209559200000000E+00 1  0.1833745811000000E+02
  0.2113324700000000E+00 0
         # Potential name:  GTH-PBE-Q6  for symbol:  O
         # Potential read from the potential filename: GTH_POTENTIALS
       &END POTENTIAL
     &END KIND
     &KIND H
       BASIS_SET DZVP-MOLOPT-SR-GTH-q1
       POTENTIAL GTH-PBE-q1
       &POTENTIAL
 1
  0.2000000000000000E+00 2 -0.4178900440000000E+01  0.7244633100000000E+00
 0
         # Potential name:  GTH-PBE-Q1  for symbol:  H
         # Potential read from the potential filename: GTH_POTENTIALS
       &END POTENTIAL
     &END KIND
     &KIND N
       BASIS_SET DZVP-MOLOPT-SR-GTH
       POTENTIAL GTH-PBE-q5
       &POTENTIAL
 2 3
  0.2837905100000000E+00 2 -0.1241522559000000E+02  0.1868095920000000E+01
 2
  0.2554050000000000E+00 1  0.1363026257000000E+02
  0.2454945300000000E+00 0
         # Potential name:  GTH-PBE-Q5  for symbol:  N
         # Potential read from the potential filename: GTH_POTENTIALS
       &END POTENTIAL
     &END KIND
     &KIND Ga
       BASIS_SET DZVP-MOLOPT-SR-GTH
       POTENTIAL GTH-PBE-q13
       &POTENTIAL
 2 1 10
  0.4900000000000000E+00 0
 3
  0.4167772300000000E+00 3  0.1047568975000000E+02 -0.4921768140000000E+01  0.8707055900000000E+00
  0.7770178090000000E+01 -0.2248152160000000E+01
  0.1784415450000000E+01
  0.5696265200000000E+00 2  0.1777985340000000E+01  0.1958597600000000E+00
 -0.2317443900000000E+00
  0.2381265000000000E+00 1 -0.1624868022000000E+02
         # Potential name:  GTH-PBE-Q13  for symbol:  GA
         # Potential read from the potential filename: GTH_POTENTIALS
       &END POTENTIAL
     &END KIND
     &TOPOLOGY
       NUMBER_OF_ATOMS  209
       MULTIPLE_UNIT_CELL  1 1 1
     &END TOPOLOGY
   &END SUBSYS
 &END FORCE_EVAL
