 # Version information for this restart file 
 # current date 2019-07-20 23:26:49.178
 # current working dir /lustre04/scratch/rzk/rzk/GaN-carbene/443-adatoms-both-2x2/12-CH3O-H2C-H/01-Start-1101
 # Program compiled at                              Sun Apr  7 00:48:11 EDT 2019
 # Program compiled on                          beluga2.int.ets1.calculquebec.ca
 # Program compiled for                        Beluga-Linux-x86-64-intel-openmpi
 # Source code revision number                                         svn:18619
 &GLOBAL
   PRINT_LEVEL  MEDIUM
   PROJECT_NAME TEST
   RUN_TYPE  GEO_OPT
 &END GLOBAL
 &MOTION
   &GEO_OPT
     MAX_ITER  500
     STEP_START_VAL  11
   &END GEO_OPT
 &END MOTION
 &FORCE_EVAL
   METHOD  QS
   STRESS_TENSOR  ANALYTICAL
   &DFT
     BASIS_SET_FILE_NAME BASIS_MOLOPT
     POTENTIAL_FILE_NAME GTH_POTENTIALS
     UKS  T
     SURFACE_DIPOLE_CORRECTION  T
     SURF_DIP_DIR  Z
     &SCF
       MAX_SCF  80
       EPS_SCF     5.0000000000000004E-06
       &OT  T
         PRECONDITIONER  FULL_ALL
       &END OT
       &OUTER_SCF  T
         OPTIMIZER  NONE
         EPS_SCF     5.0000000000000004E-06
         MAX_SCF  4
       &END OUTER_SCF
       &PRINT
         &RESTART  OFF
           BACKUP_COPIES  1
           &EACH
             JUST_ENERGY  0
             QS_SCF  0
             MD  20
           &END EACH
         &END RESTART
       &END PRINT
     &END SCF
     &QS
       EPS_DEFAULT     1.0000000000000000E-14
       METHOD  GPW
     &END QS
     &MGRID
       NGRIDS  5
       CUTOFF     1.2000000000000000E+03
     &END MGRID
     &XC
       DENSITY_CUTOFF     1.0000000000000000E-10
       GRADIENT_CUTOFF     1.0000000000000000E-10
       TAU_CUTOFF     1.0000000000000000E-10
       &XC_FUNCTIONAL  NO_SHORTCUT
         &PBE  T
         &END PBE
       &END XC_FUNCTIONAL
       &VDW_POTENTIAL
         POTENTIAL_TYPE  PAIR_POTENTIAL
         &PAIR_POTENTIAL
           R_CUTOFF     1.0000000000000004E+01
           TYPE  DFTD3
           PARAMETER_FILE_NAME dftd3.dat
           REFERENCE_FUNCTIONAL PBE
           EPS_CN     9.9999999999999995E-07
           CALCULATE_C9_TERM  T
           REFERENCE_C9_TERM  T
           LONG_RANGE_CORRECTION  F
           VERBOSE_OUTPUT  F
         &END PAIR_POTENTIAL
       &END VDW_POTENTIAL
     &END XC
   &END DFT
   &SUBSYS
     &CELL
       A     1.2864472766435110E+01    0.0000000000000000E+00    0.0000000000000000E+00
       B    -6.4322363581020028E+00    1.1140960178524473E+01    0.0000000000000000E+00
       C     0.0000000000000000E+00    0.0000000000000000E+00    3.2000000000000000E+01
       MULTIPLE_UNIT_CELL  1 1 1
       &CELL_REF
         A     1.2982353780853531E+01    0.0000000000000000E+00    0.0000000000000000E+00
         B    -6.4911768904267628E+00    1.1243048175136114E+01    0.0000000000000000E+00
         C     0.0000000000000000E+00    0.0000000000000000E+00    3.2000000000000000E+01
         MULTIPLE_UNIT_CELL  1 1 1
       &END CELL_REF
     &END CELL
     &COORD
N    6.8154042634085893E-02    2.1228971571280297E+00    2.5444312762854828E+00
Ga    8.5209054502078704E-02    1.5211504718801896E-01    2.9453821273184189E+00
N    5.9034227323410897E-02    1.4130104874066640E-01    5.0969813643461874E+00
Ga    6.2292411143296915E-02    1.9536763216319670E+00    5.8682598815165399E+00
N    7.8768339651378375E-02    1.9779201769343364E+00    7.8516440743534899E+00
Ga    8.2283201121918600E-02    1.2492869187264224E-01    8.4910439693973494E+00
N    7.9066667910699995E-02    1.2615407379660531E-01    1.0461362500743620E+01
Ga    7.7724222622983008E-02    1.9644315689718488E+00    1.1122191164500240E+01
N    7.7364390021149310E-02    1.9463888092551680E+00    1.3109816869618053E+01
Ga    7.7605616482893061E-02    1.2679672994454760E-01    1.3929133165548821E+01
N    7.6651584994610736E-02    1.2712442942105223E-01    1.6112906264997353E+01
Ga    7.6138889141627974E-02    2.1741608809225248E+00    1.6533140406427226E+01
Ga    3.3859347747846658E-02    3.8596458171101276E+00    1.3738163417671645E+00
N   -1.4110818496567743E+00    4.7086698628452428E+00    2.5516101781476737E+00
Ga   -1.6102973220672929E+00    2.8796063851205571E+00    3.3215919063681105E+00
N   -1.5291221102316253E+00    2.9185863528657272E+00    5.3006315594637137E+00
Ga   -1.5655048539230620E+00    4.7826859869124396E+00    5.8635821478900416E+00
N   -1.5382095723522509E+00    4.7761149051005924E+00    7.8514438112273650E+00
Ga   -1.5226195425701590E+00    2.9205346431347254E+00    8.4973049555262552E+00
N   -1.5195596541805516E+00    2.9192311751418867E+00    1.0482157073717989E+01
Ga   -1.5480363677580553E+00    4.7797015999477654E+00    1.1122585059897819E+01
N   -1.5635564196870970E+00    4.7881674612323870E+00    1.3110669814893908E+01
Ga   -1.5197767376578430E+00    2.9185638873792392E+00    1.3671440622722358E+01
N   -1.5462200826286401E+00    2.9033053176183010E+00    1.5628947283623232E+01
Ga   -1.3705231905601956E+00    4.6756139575816791E+00    1.6532741922131223E+01
N    7.6087325922916532E-02    3.8457809634493820E+00    1.7675087985116345E+01
N   -3.1403742499637373E+00    7.6269194377516598E+00    2.5015012004293902E+00
Ga   -3.1217867760000604E+00    5.7052077978486535E+00    2.9206086772854620E+00
N   -3.1348183751310859E+00    5.6896550156680332E+00    5.0829311614685659E+00
Ga   -3.1419400464878273E+00    7.5324205638719777E+00    5.8139153647613986E+00
N   -3.1367861321539743E+00    7.5481994241843440E+00    7.8210242072043510E+00
Ga   -3.1397822627889980E+00    5.7062587079089475E+00    8.4893825815238451E+00
N   -3.1394180041744932E+00    5.7003112793138095E+00    1.0461240912874469E+01
Ga   -3.1410630075181003E+00    7.5386874894902185E+00    1.1119253796951545E+01
N   -3.1395971562908693E+00    7.5179509780222658E+00    1.3107549758716333E+01
Ga   -3.1397781206684559E+00    5.6987162517141332E+00    1.3926413913727432E+01
N   -3.1401620414516382E+00    5.6995310046225276E+00    1.6113851353523817E+01
Ga   -3.1398753984327819E+00    7.7519128203259440E+00    1.6535907596352040E+01
Ga   -3.3022001864728630E+00    8.9789218561566866E+00    7.3669850169125461E-01
N   -4.7253434294367436E+00    1.0311642441511959E+01    2.5233420659603834E+00
Ga   -4.8011340315507089E+00    8.4579130690026982E+00    3.2213199483456254E+00
N   -4.7438360734214369E+00    8.4867286367684418E+00    5.2428561215423741E+00
Ga   -4.7850720714315438E+00    1.0347846915151715E+01    5.8190846381821428E+00
N   -4.7523655841697314E+00    1.0347916419196709E+01    7.8191630084258739E+00
Ga   -4.7343289349728916E+00    8.4898374694033798E+00    8.4724756997245354E+00
N   -4.7357256097196503E+00    8.4905660606487707E+00    1.0464980693028222E+01
Ga   -4.7619164080281555E+00    1.0346842837173387E+01    1.1119823473288784E+01
N   -4.7788618147637649E+00    1.0357630822156667E+01    1.3108000641214987E+01
Ga   -4.7371027047266541E+00    8.4882672666115457E+00    1.3670561655305949E+01
N   -4.7654553952778471E+00    8.4710958211992580E+00    1.5625844599064054E+01
Ga   -4.5810919100630345E+00    1.0242798113629064E+01    1.6534503547299053E+01
N   -3.1400659607263077E+00    9.4160272327838381E+00    1.7667258026695770E+01
N    3.2860097146325682E+00    2.1964825298615058E+00    2.5095147567493874E+00
Ga    3.2932041546911623E+00   -1.6234225311326791E-01    3.2899481827384833E+00
N    3.2954988200991737E+00    1.4183174532779760E-01    5.2205452288764720E+00
Ga    3.2911277864429302E+00    1.9658436158910522E+00    5.9200216430894441E+00
N    3.2933325657814718E+00    1.9792160369746550E+00    7.8801364258345590E+00
Ga    3.2916979564701672E+00    1.1001007215739980E-01    8.4833442219682063E+00
N    3.2932983495100472E+00    1.1443914564597724E-01    1.0470131615346196E+01
Ga    3.2931921266258617E+00    1.9822375354563906E+00    1.1078556300049890E+01
N    3.2928849640246938E+00    1.9831855580495328E+00    1.3042375976195530E+01
Ga    3.2926928302736438E+00    1.1372193746063418E-01    1.3672743783016918E+01
N    3.2924169793421862E+00    1.4982433071084861E-01    1.5628600469768907E+01
Ga    3.2925360175954590E+00    1.9855412828067345E+00    1.5910184250292414E+01
N    1.5560942552692667E+00    4.7151522372451273E+00    2.5479856407203543E+00
Ga    1.6119698173744865E+00    2.9308332019190408E+00    3.3763346784942758E+00
N    1.7003430947684406E+00    2.9062126418023171E+00    5.2919221410976549E+00
Ga    1.7147637473051454E+00    4.7930733620471093E+00    5.8644809833127729E+00
N    1.6935795178919448E+00    4.7731647739913496E+00    7.8442076431185797E+00
Ga    1.6766922297213451E+00    2.9157802643352384E+00    8.4939727788742001E+00
N    1.6760895085509380E+00    2.9185909586960328E+00    1.0476775056425771E+01
Ga    1.7010034741168680E+00    4.7777296342209219E+00    1.1124363288676085E+01
N    1.7173163695315465E+00    4.7873523491872847E+00    1.3111216495095244E+01
Ga    1.6738009166050916E+00    2.9179134471146151E+00    1.3671962316542656E+01
N    1.6993010357369258E+00    2.9030768632427790E+00    1.5629252276198027E+01
Ga    1.5224868953311188E+00    4.6754158537360198E+00    1.6533753522447640E+01
N    7.5135533345243824E-02    7.5499384044808364E+00    2.7170834910238142E+00
Ga    5.5835895240835876E-02    5.7092617018151088E+00    3.3716636335524552E+00
N    7.7745585601213266E-02    5.7127661682570876E+00    5.3047213571573231E+00
Ga    5.1066561384948125E-02    7.5623485430784720E+00    5.9403435781343221E+00
N    7.2700012521063215E-02    7.5574338794433231E+00    7.8994386146043407E+00
Ga    7.4331104849580790E-02    5.6871721783105986E+00    8.4964691516239643E+00
N    7.8231096218131374E-02    5.6851482719659723E+00    1.0479530734762605E+01
Ga    7.5303871986171195E-02    7.5555863344037899E+00    1.1078083973228242E+01
N    7.6066253685671992E-02    7.5538542750301687E+00    1.3041763098422468E+01
Ga    7.6644894306985387E-02    5.6850981008909107E+00    1.3672119736140582E+01
N    7.6435833129260236E-02    5.7149319373618646E+00    1.5630399224079351E+01
Ga    7.6330584838942422E-02    7.5533631541951198E+00    1.5912221836685410E+01
N   -1.5339143076145592E+00    1.0323523521805276E+01    2.5402701189358421E+00
Ga   -1.5617474673794578E+00    8.5042951887925344E+00    3.2418229507911627E+00
N   -1.5206430323988316E+00    8.4805730256657910E+00    5.2326634206702440E+00
Ga   -1.4936423905816192E+00    1.0350379241677523E+01    5.8250290560437756E+00
N   -1.5256887866099629E+00    1.0345095438596619E+01    7.8203007351943468E+00
Ga   -1.5496299557940849E+00    8.4913513151229836E+00    8.4867486447809934E+00
N   -1.5432510167575020E+00    8.4911262497196276E+00    1.0473384924917031E+01
Ga   -1.5172914675131925E+00    1.0348468412574212E+01    1.1123463117306875E+01
N   -1.4994320324740738E+00    1.0358092653723368E+01    1.3110398453573705E+01
Ga   -1.5424174792487571E+00    8.4884592869788627E+00    1.3671652378604012E+01
N   -1.5136875551150568E+00    8.4709075157353304E+00    1.5626961510526916E+01
Ga   -1.6984588847163740E+00    1.0243014067568495E+01    1.6535070042022728E+01
N    6.5246778503896623E+00    2.1071630361924876E+00    2.5594483568018922E+00
Ga    6.5157647129550229E+00    1.3650668661892248E-01    2.9789818100186611E+00
N    6.5341940367476932E+00    1.4017882491397785E-01    5.1121723087547100E+00
Ga    6.5244392116410861E+00    1.9572926658105796E+00    5.8749180798450427E+00
N    6.5069087283056346E+00    1.9785054617755096E+00    7.8543622862265385E+00
Ga    6.5035278552387608E+00    1.2528540429551263E-01    8.4944932787511256E+00
N    6.5065379650498008E+00    1.2607494484963941E-01    1.0462760732112697E+01
Ga    6.5083504047489553E+00    1.9656260805995542E+00    1.1121914616394596E+01
N    6.5083342301493863E+00    1.9463009708516550E+00    1.3109518251326143E+01
Ga    6.5086236447936843E+00    1.2731363390545641E-01    1.3930656201612342E+01
N    6.5084699286519818E+00    1.2746891266802693E-01    1.6113621186671743E+01
Ga    6.5086465219698182E+00    2.1751948716861378E+00    1.6533370487338161E+01
Ga    6.5795824048814033E+00    3.8792603689540894E+00    1.4184472043068193E+00
N    5.0057524018524777E+00    4.7149899404645756E+00    2.5723285062424082E+00
Ga    4.9618041035523337E+00    2.9248117334023043E+00    3.3730489648245401E+00
N    4.8871775021377175E+00    2.9005520683908470E+00    5.2868966248791542E+00
Ga    4.8788457379834949E+00    4.7954431548603234E+00    5.8503748254994807E+00
N    4.8906187275699198E+00    4.7721061940739684E+00    7.8362843047649395E+00
Ga    4.9075428436932853E+00    2.9184694186716880E+00    8.4935788426686862E+00
N    4.9096876387534492E+00    2.9192128812686922E+00    1.0476316878379894E+01
Ga    4.8866583683276446E+00    4.7790359361736892E+00    1.1122447092502361E+01
N    4.8690040904149248E+00    4.7874279564681714E+00    1.3109774275165968E+01
Ga    4.9119113908941525E+00    2.9180600069895171E+00    1.3671475347279420E+01
N    4.8853742581572046E+00    2.9031553876288605E+00    1.5628567671504252E+01
Ga    5.0628504135073742E+00    4.6753906321764971E+00    1.6533219300874329E+01
N    6.5086210259074448E+00    3.8463090099964847E+00    1.7674987768985659E+01
N    3.2812452941581336E+00    7.6796984618815216E+00    2.5812434670580156E+00
N    3.2894702543325161E+00    5.6992521717357203E+00    5.0717239182425287E+00
Ga    3.2998045101209703E+00    7.5250728629177379E+00    5.8603476888714701E+00
N    3.2918899911437296E+00    7.5433853453637969E+00    7.8449182994619244E+00
Ga    3.2942235269299234E+00    5.6974268878995726E+00    8.4974270499246405E+00
N    3.2930852862482918E+00    5.6969370378416473E+00    1.0463642302532632E+01
Ga    3.2948735179688171E+00    7.5361954475557766E+00    1.1123754921325508E+01
N    3.2932566281727418E+00    7.5164965194191602E+00    1.3110608810122233E+01
Ga    3.2933543834239445E+00    5.6976362106377740E+00    1.3929018248525011E+01
N    3.2925752763496181E+00    5.6991115597144244E+00    1.6114389012023228E+01
Ga    3.2930934220662831E+00    7.7516659126406946E+00    1.6535387900644778E+01
Ga    3.3229068566955173E+00    9.4394747475298804E+00    1.5714345541157733E+00
N    1.8014768330764803E+00    1.0278372503955641E+01    2.5942535889884146E+00
Ga    1.6466220309800859E+00    8.4706940576297338E+00    3.3927574605657504E+00
N    1.6697090045631304E+00    8.4776866479381159E+00    5.3135407641814867E+00
Ga    1.6688429690475135E+00    1.0362162372868710E+01    5.8825290875367875E+00
N    1.6784178423133691E+00    1.0342511728139133E+01    7.8615522207448851E+00
Ga    1.6942251571344429E+00    8.4862306723039449E+00    8.4995097541207567E+00
N    1.6964442644978159E+00    8.4875775396572593E+00    1.0481621259444291E+01
Ga    1.6686089006238161E+00    1.0348745077259041E+01    1.1123857202299790E+01
N    1.6517265130992977E+00    1.0357921762580043E+01    1.3111489346776002E+01
Ga    1.6950788544854265E+00    8.4880651891782275E+00    1.3671495349647364E+01
N    1.6666386135336739E+00    8.4706612594792254E+00    1.5627210886657773E+01
Ga    1.8512023601841434E+00    1.0243363482221733E+01    1.6533746480622778E+01
N    3.2933465011452241E+00    9.4162977334145044E+00    1.7666094283566906E+01
N    9.7323491713360522E+00    1.9937939370012221E+00    2.6703021935741145E+00
Ga    9.7351220830932679E+00    2.6061916253467682E-01    3.3606166810110611E+00
N    9.7254583719530014E+00    1.3083612821737917E-01    5.3164887161952841E+00
Ga    9.7295754406682011E+00    1.9947178785601147E+00    5.9305331800466430E+00
N    9.7246884114687084E+00    1.9857817918279304E+00    7.9019321811818317E+00
Ga    9.7285746588407083E+00    1.1872113531348584E-01    8.5006726467688996E+00
N    9.7256105878592827E+00    1.1520587319316147E-01    1.0484719934694951E+01
Ga    9.7253192109835176E+00    1.9850575432785700E+00    1.1081679631877190E+01
N    9.7249442226894462E+00    1.9842571163653244E+00    1.3045892805422888E+01
Ga    9.7254339614974921E+00    1.1369774390111212E-01    1.3671717594228783E+01
N    9.7248452496025948E+00    1.4983465383886665E-01    1.5628391842282127E+01
Ga    9.7245312353116979E+00    1.9859834577961515E+00    1.5908372718719617E+01
N    8.0257860275650099E+00    4.7123404177950698E+00    2.5803896232851828E+00
Ga    8.2204883552352630E+00    2.8749231596509839E+00    3.3312692316863441E+00
N    8.1164545315452035E+00    2.9168045768336230E+00    5.3011258534225840E+00
Ga    8.1458612916764146E+00    4.7892508265173381E+00    5.8525759287755053E+00
N    8.1258349748875691E+00    4.7762359407026400E+00    7.8455045470518829E+00
Ga    8.1097508540893308E+00    2.9233301292549929E+00    8.4970443842282837E+00
N    8.1057259342567907E+00    2.9194111349264822E+00    1.0481814379352285E+01
Ga    8.1320208700490966E+00    4.7806446421172373E+00    1.1120157635487997E+01
N    8.1489151945238447E+00    4.7883731339988733E+00    1.3108941004333289E+01
Ga    8.1051251340201276E+00    2.9191330151604733E+00    1.3670822707692063E+01
N    8.1312049484478415E+00    2.9033041362670735E+00    1.5628231872220862E+01
Ga    7.9544310525725495E+00    4.6755736021885417E+00    1.6532756838081962E+01
N    6.5125499827185171E+00    7.5549040821078535E+00    2.6369428799612815E+00
Ga    6.5284255860195266E+00    5.8135008945723152E+00    3.3172993192882254E+00
N    6.5094585615244211E+00    5.6977250950845768E+00    5.2868561541982446E+00
Ga    6.5297315647181291E+00    7.5619747449146857E+00    5.9028909789382249E+00
N    6.5112660011213279E+00    7.5560292336216390E+00    7.8793891051250569E+00
Ga    6.5109996401812911E+00    5.6910409861715330E+00    8.4836414566161373E+00
N    6.5074128027336222E+00    5.6855928775203024E+00    1.0471630310778707E+01
Ga    6.5112498841554105E+00    7.5554734460309243E+00    1.1072435708676213E+01
N    6.5098554044599704E+00    7.5539214327167761E+00    1.3037541236035517E+01
Ga    6.5092943726803174E+00    5.6857427608537554E+00    1.3670826182690694E+01
N    6.5082819198514370E+00    5.7152262979729977E+00    1.5628915365453105E+01
Ga    6.5092266211211944E+00    7.5532844937555037E+00    1.5911464079938137E+01
N    4.7938143716660617E+00    1.0289313051301285E+01    2.5994323158232779E+00
Ga    5.0234505938095149E+00    8.4296940416662896E+00    3.3423302046901218E+00
N    4.9007660052499942E+00    8.4836683794857759E+00    5.2980320124916549E+00
Ga    4.9249003976007399E+00    1.0355285528911462E+01    5.8651923718783685E+00
N    4.9093712609789586E+00    1.0343993201335316E+01    7.8532171368318133E+00
Ga    4.8966853565161346E+00    8.4867043357681151E+00    8.4884384007207814E+00
N    4.8902963206789964E+00    8.4877015134971590E+00    1.0474945118807248E+01
Ga    4.9184679252718277E+00    1.0347324305440662E+01    1.1122148408134617E+01
N    4.9341691447225537E+00    1.0357670642906928E+01    1.3110336664889282E+01
Ga    4.8916006729826380E+00    8.4880048931321213E+00    1.3670546415516764E+01
N    4.9189816864438685E+00    8.4706000736749818E+00    1.5626277928576211E+01
Ga    4.7347456336431195E+00    1.0243370220654032E+01    1.6533450538812858E+01
O    1.4642175735768490E-01    3.7851437055528141E+00   -4.3809894289082263E-01
C   -9.7487707784773725E-01    3.1677488654784045E+00   -1.0971700786154666E+00
H   -1.1715442367380013E+00    2.1487272341918788E+00   -7.2468777243029592E-01
H   -1.8982475961634993E+00    3.7580286555634737E+00   -9.8037132996888510E-01
H   -7.3451562567571205E-01    3.1063722038549342E+00   -2.1682736444251147E+00
Ga    3.2819074330730240E+00    5.6898540432198912E+00    2.9231464994633956E+00
H    1.2688760026830337E-01    7.5237457808752470E+00    1.6922991500073676E+00
C    3.2737168438861071E+00    1.9033379165819002E+00    1.2538303451925350E+00
H    4.2096690759668833E+00    1.7463610140744290E+00    6.9935034178378297E-01
H    2.3295968313666244E+00    1.7860787762669652E+00    7.0321377130243545E-01
     &END COORD
     &KIND C
       BASIS_SET DZVP-MOLOPT-SR-GTH-q4
       POTENTIAL GTH-PBE-q4
       &POTENTIAL
 2 2
  0.3384712400000000E+00 2 -0.8803673979999999E+01  0.1339210850000000E+01
 2
  0.3025757500000000E+00 1  0.9622486650000001E+01
  0.2915069400000000E+00 0
         # Potential name:  GTH-PBE-Q4  for symbol:  C
         # Potential read from the potential filename: GTH_POTENTIALS
       &END POTENTIAL
     &END KIND
     &KIND O
       BASIS_SET DZVP-MOLOPT-SR-GTH-q6
       POTENTIAL GTH-PBE-q6
       &POTENTIAL
 2 4
  0.2445543000000000E+00 2 -0.1666721480000000E+02  0.2487311320000000E+01
 2
  0.2209559200000000E+00 1  0.1833745811000000E+02
  0.2113324700000000E+00 0
         # Potential name:  GTH-PBE-Q6  for symbol:  O
         # Potential read from the potential filename: GTH_POTENTIALS
       &END POTENTIAL
     &END KIND
     &KIND H
       BASIS_SET DZVP-MOLOPT-SR-GTH-q1
       POTENTIAL GTH-PBE-q1
       &POTENTIAL
 1
  0.2000000000000000E+00 2 -0.4178900440000000E+01  0.7244633100000000E+00
 0
         # Potential name:  GTH-PBE-Q1  for symbol:  H
         # Potential read from the potential filename: GTH_POTENTIALS
       &END POTENTIAL
     &END KIND
     &KIND N
       BASIS_SET DZVP-MOLOPT-SR-GTH
       POTENTIAL GTH-PBE-q5
       &POTENTIAL
 2 3
  0.2837905100000000E+00 2 -0.1241522559000000E+02  0.1868095920000000E+01
 2
  0.2554050000000000E+00 1  0.1363026257000000E+02
  0.2454945300000000E+00 0
         # Potential name:  GTH-PBE-Q5  for symbol:  N
         # Potential read from the potential filename: GTH_POTENTIALS
       &END POTENTIAL
     &END KIND
     &KIND Ga
       BASIS_SET DZVP-MOLOPT-SR-GTH
       POTENTIAL GTH-PBE-q13
       &POTENTIAL
 2 1 10
  0.4900000000000000E+00 0
 3
  0.4167772300000000E+00 3  0.1047568975000000E+02 -0.4921768140000000E+01  0.8707055900000000E+00
  0.7770178090000000E+01 -0.2248152160000000E+01
  0.1784415450000000E+01
  0.5696265200000000E+00 2  0.1777985340000000E+01  0.1958597600000000E+00
 -0.2317443900000000E+00
  0.2381265000000000E+00 1 -0.1624868022000000E+02
         # Potential name:  GTH-PBE-Q13  for symbol:  GA
         # Potential read from the potential filename: GTH_POTENTIALS
       &END POTENTIAL
     &END KIND
     &TOPOLOGY
       NUMBER_OF_ATOMS  209
       MULTIPLE_UNIT_CELL  1 1 1
     &END TOPOLOGY
   &END SUBSYS
 &END FORCE_EVAL
