 # Version information for this restart file 
 # current date 2019-07-21 03:54:59.239
 # current working dir /lustre04/scratch/rzk/rzk/GaN-carbene/443-adatoms-both-2x2/12-CH3O-H2C-H/01-Start-1101
 # Program compiled at                              Sun Apr  7 00:48:11 EDT 2019
 # Program compiled on                          beluga2.int.ets1.calculquebec.ca
 # Program compiled for                        Beluga-Linux-x86-64-intel-openmpi
 # Source code revision number                                         svn:18619
 &GLOBAL
   PRINT_LEVEL  MEDIUM
   PROJECT_NAME TEST
   RUN_TYPE  GEO_OPT
 &END GLOBAL
 &MOTION
   &GEO_OPT
     MAX_ITER  500
     STEP_START_VAL  46
   &END GEO_OPT
 &END MOTION
 &FORCE_EVAL
   METHOD  QS
   STRESS_TENSOR  ANALYTICAL
   &DFT
     BASIS_SET_FILE_NAME BASIS_MOLOPT
     POTENTIAL_FILE_NAME GTH_POTENTIALS
     UKS  T
     SURFACE_DIPOLE_CORRECTION  T
     SURF_DIP_DIR  Z
     &SCF
       MAX_SCF  80
       EPS_SCF     5.0000000000000004E-06
       &OT  T
         PRECONDITIONER  FULL_ALL
       &END OT
       &OUTER_SCF  T
         OPTIMIZER  NONE
         EPS_SCF     5.0000000000000004E-06
         MAX_SCF  4
       &END OUTER_SCF
       &PRINT
         &RESTART  OFF
           BACKUP_COPIES  1
           &EACH
             JUST_ENERGY  0
             QS_SCF  0
             MD  20
           &END EACH
         &END RESTART
       &END PRINT
     &END SCF
     &QS
       EPS_DEFAULT     1.0000000000000000E-14
       METHOD  GPW
     &END QS
     &MGRID
       NGRIDS  5
       CUTOFF     1.2000000000000000E+03
     &END MGRID
     &XC
       DENSITY_CUTOFF     1.0000000000000000E-10
       GRADIENT_CUTOFF     1.0000000000000000E-10
       TAU_CUTOFF     1.0000000000000000E-10
       &XC_FUNCTIONAL  NO_SHORTCUT
         &PBE  T
         &END PBE
       &END XC_FUNCTIONAL
       &VDW_POTENTIAL
         POTENTIAL_TYPE  PAIR_POTENTIAL
         &PAIR_POTENTIAL
           R_CUTOFF     1.0000000000000004E+01
           TYPE  DFTD3
           PARAMETER_FILE_NAME dftd3.dat
           REFERENCE_FUNCTIONAL PBE
           EPS_CN     9.9999999999999995E-07
           CALCULATE_C9_TERM  T
           REFERENCE_C9_TERM  T
           LONG_RANGE_CORRECTION  F
           VERBOSE_OUTPUT  F
         &END PAIR_POTENTIAL
       &END VDW_POTENTIAL
     &END XC
   &END DFT
   &SUBSYS
     &CELL
       A     1.2864472766435110E+01    0.0000000000000000E+00    0.0000000000000000E+00
       B    -6.4322363581020028E+00    1.1140960178524473E+01    0.0000000000000000E+00
       C     0.0000000000000000E+00    0.0000000000000000E+00    3.2000000000000000E+01
       MULTIPLE_UNIT_CELL  1 1 1
       &CELL_REF
         A     1.2982353780853531E+01    0.0000000000000000E+00    0.0000000000000000E+00
         B    -6.4911768904267628E+00    1.1243048175136114E+01    0.0000000000000000E+00
         C     0.0000000000000000E+00    0.0000000000000000E+00    3.2000000000000000E+01
         MULTIPLE_UNIT_CELL  1 1 1
       &END CELL_REF
     &END CELL
     &COORD
N    6.9819960718907656E-02    2.1192056316715195E+00    2.5553817041196076E+00
Ga    8.6827460323712927E-02    1.5055714257580652E-01    2.9509944123280509E+00
N    5.8240113254439833E-02    1.4041846096347663E-01    5.1081252027481074E+00
Ga    6.5179009736515581E-02    1.9543091301460598E+00    5.8699863893623405E+00
N    8.1467013235711455E-02    1.9790148201195989E+00    7.8591335000568350E+00
Ga    8.4245924686117121E-02    1.2657424130761447E-01    8.4911489162807001E+00
N    8.1660442818967754E-02    1.2855028798635890E-01    1.0467064991342815E+01
Ga    8.0643336297316862E-02    1.9676231531984496E+00    1.1118451332276502E+01
N    8.0688870532164933E-02    1.9495109525231455E+00    1.3114352773806401E+01
Ga    8.1070483001209129E-02    1.2684095010734733E-01    1.3914074545167166E+01
N    7.9790950288696275E-02    1.2644043379059550E-01    1.6118018578556278E+01
Ga    8.0013485174905571E-02    2.1579956696071059E+00    1.6521882706640966E+01
Ga    3.3548056424913479E-02    3.8567146213751662E+00    1.3823590826621854E+00
N   -1.4124512115604417E+00    4.7060362514639866E+00    2.5626539914739870E+00
Ga   -1.6106496469851967E+00    2.8779441641496475E+00    3.3294473260411266E+00
N   -1.5270103078781485E+00    2.9179045675862496E+00    5.3115441860823269E+00
Ga   -1.5657000047196254E+00    4.7825407319209239E+00    5.8666847859716516E+00
N   -1.5360298644667434E+00    4.7770143914234469E+00    7.8603496058380422E+00
Ga   -1.5214252140541484E+00    2.9207287021556256E+00    8.4948634141153043E+00
N   -1.5174709019396599E+00    2.9207327619157573E+00    1.0488045544663365E+01
Ga   -1.5455772957407292E+00    4.7814314707781724E+00    1.1118845957167386E+01
N   -1.5603654410251995E+00    4.7909372680643685E+00    1.3114894799064372E+01
Ga   -1.5162914966561873E+00    2.9219182843546916E+00    1.3669005451605692E+01
N   -1.5424932667438243E+00    2.9066484054687591E+00    1.5635232958402879E+01
Ga   -1.3788713030733712E+00    4.6860630953403346E+00    1.6521743207504851E+01
N    7.1488789209200682E-02    3.8380539623700303E+00    1.7652914446746667E+01
N   -3.1478124445922488E+00    7.6153653794684528E+00    2.5174587473775314E+00
Ga   -3.1377177535437770E+00    5.6864280346308318E+00    2.9263740307960777E+00
N   -3.1336669916092346E+00    5.6883576064031400E+00    5.0957532596172737E+00
Ga   -3.1389554759380820E+00    7.5280649099419339E+00    5.8180569851496609E+00
N   -3.1341555417785800E+00    7.5487625511435175E+00    7.8303496220427027E+00
Ga   -3.1397507185143736E+00    5.7055732179237824E+00    8.4880115437073780E+00
N   -3.1372136905155226E+00    5.7021368238678720E+00    1.0466593139217665E+01
Ga   -3.1389986839937651E+00    7.5414408181577492E+00    1.1115249046373219E+01
N   -3.1367412898236817E+00    7.5216926488847680E+00    1.3110440893028134E+01
Ga   -3.1385217263413949E+00    5.7024961224274202E+00    1.3913220400598078E+01
N   -3.1385987950562924E+00    5.7015530554605824E+00    1.6118510134872519E+01
Ga   -3.1368321969733559E+00    7.7463693814449170E+00    1.6535047921457064E+01
Ga   -3.3868551867916610E+00    8.8392760480984887E+00    7.3978013652635732E-01
N   -4.7315159915769964E+00    1.0300902347637264E+01    2.5427049069631633E+00
Ga   -4.8085066717126459E+00    8.4543873105984524E+00    3.2474586579349531E+00
N   -4.7433123959632288E+00    8.4855663006976663E+00    5.2633217236110976E+00
Ga   -4.7832166805471719E+00    1.0350204174442723E+01    5.8227946899902419E+00
N   -4.7506190443247105E+00    1.0349458462545853E+01    7.8279841379666442E+00
Ga   -4.7336251902468023E+00    8.4900026246177553E+00    8.4693296430997531E+00
N   -4.7340492637161420E+00    8.4920876388315492E+00    1.0470511266267085E+01
Ga   -4.7581570238425561E+00    1.0348232689468835E+01    1.1115009097243945E+01
N   -4.7746039779216325E+00    1.0359536550234942E+01    1.3110266014632792E+01
Ga   -4.7333398661677135E+00    8.4913890000682937E+00    1.3669731993589936E+01
N   -4.7609311764131288E+00    8.4755706625157110E+00    1.5631457134525478E+01
Ga   -4.5809590038096575E+00    1.0247237992977777E+01    1.6535262815700559E+01
N   -3.1433591217919421E+00    9.4101898073413714E+00    1.7672708556956088E+01
N    3.2913532580438112E+00    2.1833223387251959E+00    2.5161714401310058E+00
Ga    3.2962203864696646E+00   -1.7055733057027878E-01    3.2858232563781704E+00
N    3.2951756625694206E+00    1.3876821442219636E-01    5.2245449499168606E+00
Ga    3.3000290169296016E+00    1.9675458123283434E+00    5.9120093843921104E+00
N    3.2965001706015054E+00    1.9802144938287385E+00    7.8814576844667190E+00
Ga    3.2951069601855218E+00    1.1257064345932384E-01    8.4792289068946989E+00
N    3.2959910981316991E+00    1.1669890185110897E-01    1.0473887987994578E+01
Ga    3.2959912211034839E+00    1.9837798192627578E+00    1.1076601083850120E+01
N    3.2957784904865375E+00    1.9858226016989839E+00    1.3048050353525934E+01
Ga    3.2961501350106115E+00    1.1600618317910835E-01    1.3671004306811147E+01
N    3.2972298755734100E+00    1.4892185658257001E-01    1.5631370389551346E+01
Ga    3.2970322363306881E+00    1.9857324552417084E+00    1.5912306345139182E+01
N    1.5552980229742324E+00    4.7133476786467687E+00    2.5555731759858200E+00
Ga    1.6215463449531711E+00    2.9272369965670153E+00    3.3770660386943758E+00
N    1.7026266690447971E+00    2.9053485431853630E+00    5.2974199754467586E+00
Ga    1.7173990187440147E+00    4.7929991592323784E+00    5.8642396827443939E+00
N    1.6952344463192290E+00    4.7739425939816806E+00    7.8506903808787758E+00
Ga    1.6812020151804616E+00    2.9162091356839621E+00    8.4903376894508575E+00
N    1.6793413144929361E+00    2.9201579397758723E+00    1.0481288939707657E+01
Ga    1.7035555590165665E+00    4.7792778072472792E+00    1.1119965214657077E+01
N    1.7199347745387812E+00    4.7897515376305924E+00    1.3114011899725124E+01
Ga    1.6776788603203441E+00    2.9211495252453252E+00    1.3669350266209156E+01
N    1.7040089800475207E+00    2.9082546499319992E+00    1.5633923754297543E+01
Ga    1.5312947474815779E+00    4.6815762377940056E+00    1.6522973711156109E+01
N    7.4602935170816426E-02    7.5447207338768321E+00    2.7204280844098871E+00
Ga    5.5486880199087991E-02    5.7050767827171081E+00    3.3779793530365207E+00
N    7.8192284983136962E-02    5.7120797437719153E+00    5.3138803067343643E+00
Ga    5.1795683269388125E-02    7.5620213201956545E+00    5.9407936157732104E+00
N    7.5128567914488353E-02    7.5583762834602632E+00    7.9056561978005089E+00
Ga    7.6820510617576082E-02    5.6880478500548080E+00    8.4952080171216409E+00
N    8.0667893266106336E-02    5.6873775520741088E+00    1.0485667755391384E+01
Ga    7.6677324339781167E-02    7.5570385914996381E+00    1.1078424885997752E+01
N    7.8729657358677055E-02    7.5565296193779421E+00    1.3049740488757969E+01
Ga    8.0148978119826811E-02    5.6874929657680591E+00    1.3669345298157840E+01
N    8.2220422132501775E-02    5.7171460736353987E+00    1.5633898384919050E+01
Ga    7.9689175838173004E-02    7.5580504801408424E+00    1.5911014550086049E+01
N   -1.5253907597356937E+00    1.0319670676735322E+01    2.5556568727814257E+00
Ga   -1.5624079901773378E+00    8.5036935381389398E+00    3.2377097694550940E+00
N   -1.5208011066648355E+00    8.4769739837163804E+00    5.2361338240860436E+00
Ga   -1.4917925232445108E+00    1.0349500945066367E+01    5.8206104615529437E+00
N   -1.5237986124139415E+00    1.0344859542520247E+01    7.8249572145352859E+00
Ga   -1.5470618753398011E+00    8.4928704938773905E+00    8.4851476104938168E+00
N   -1.5404279380020423E+00    8.4929493264802574E+00    1.0478947850105625E+01
Ga   -1.5151380403142141E+00    1.0350674040850706E+01    1.1118494044312344E+01
N   -1.4973158792243999E+00    1.0360339029888674E+01    1.3111872802661276E+01
Ga   -1.5404201928692163E+00    8.4922179579518637E+00    1.3670934770435244E+01
N   -1.5112295675189757E+00    8.4767607869106492E+00    1.5631276030631822E+01
Ga   -1.6964604261816036E+00    1.0245029625359042E+01    1.6536475229903822E+01
N    6.5297534139983195E+00    2.0960088405076660E+00    2.5574343776097499E+00
Ga    6.5126627122323466E+00    1.5114948705085873E-01    2.9780417305813964E+00
N    6.5363880260016787E+00    1.3694731268823385E-01    5.1238079568725272E+00
Ga    6.5243121513664013E+00    1.9608029468930064E+00    5.8641523782191252E+00
N    6.5084288965092103E+00    1.9798707250597471E+00    7.8554404278024030E+00
Ga    6.5047812460896957E+00    1.2849573030896444E-01    8.4899692696373830E+00
N    6.5088447757808288E+00    1.2862697680644575E-01    1.0465735424195310E+01
Ga    6.5106564364194002E+00    1.9686924653178366E+00    1.1117358674405114E+01
N    6.5115325362999910E+00    1.9496669204633297E+00    1.3113010901711107E+01
Ga    6.5104668978538092E+00    1.2904861083722319E-01    1.3917592970644526E+01
N    6.5107327717379659E+00    1.2836932377632723E-01    1.6118576741254650E+01
Ga    6.5120332167264801E+00    2.1664862149263313E+00    1.6528641911717752E+01
Ga    6.6033928686712828E+00    3.8783616770053535E+00    1.2950824071203968E+00
N    4.9973643195167252E+00    4.7216771204365724E+00    2.5677054354657156E+00
Ga    4.9827225880593859E+00    2.9383273604416029E+00    3.3472022176100253E+00
N    4.8890969016882062E+00    2.9013812879630745E+00    5.2775425305371462E+00
Ga    4.8803246559836566E+00    4.7925964634326661E+00    5.8397552403201942E+00
N    4.8912905103651143E+00    4.7724981676916780E+00    7.8380401011850784E+00
Ga    4.9102002994127609E+00    2.9198003309216984E+00    8.4877566367423203E+00
N    4.9116575082058835E+00    2.9206745054059260E+00    1.0479893424238053E+01
Ga    4.8900208607534914E+00    4.7801371168080156E+00    1.1117924789538455E+01
N    4.8728890900186093E+00    4.7898438387715929E+00    1.3112597166656913E+01
Ga    4.9153338548945529E+00    2.9213718033619069E+00    1.3669658138918837E+01
N    4.8872264189335173E+00    2.9066333925535917E+00    1.5633162315600986E+01
Ga    5.0628122061239109E+00    4.6807721617694567E+00    1.6528782255178598E+01
N    6.5053464325756742E+00    3.8378507584954002E+00    1.7661792396841363E+01
N    3.2800960619762036E+00    7.6803466215118137E+00    2.5824129531833679E+00
N    3.2863194162996359E+00    5.7018913726410414E+00    5.0795604429125873E+00
Ga    3.2989391531382339E+00    7.5227424555299942E+00    5.8617155458502657E+00
N    3.2924588923419971E+00    7.5449127131022475E+00    7.8525325775317212E+00
Ga    3.2974866201119304E+00    5.6971853451468393E+00    8.4951427099678973E+00
N    3.2957782186685685E+00    5.6988929089757390E+00    1.0468104840657510E+01
Ga    3.2974348881930773E+00    7.5384804997456785E+00    1.1120718403291377E+01
N    3.2964718568797524E+00    7.5200126306319488E+00    1.3114086266330517E+01
Ga    3.2972442898838130E+00    5.7004516847124975E+00    1.3914676669282553E+01
N    3.2963492713857088E+00    5.7006650514506001E+00    1.6118792663578859E+01
Ga    3.2961137236102762E+00    7.7431264836856331E+00    1.6530511326334395E+01
Ga    3.3230683247877653E+00    9.4395773650965520E+00    1.5985364267371085E+00
N    1.8016431462609679E+00    1.0275283310517223E+01    2.5988838397601968E+00
Ga    1.6420940982830003E+00    8.4680235688748660E+00    3.3957512045646339E+00
N    1.6702300998099802E+00    8.4776436044339736E+00    5.3185074167567956E+00
Ga    1.6676913518923508E+00    1.0362024401604533E+01    5.8852036956222422E+00
N    1.6806229389547229E+00    1.0342450150283916E+01    7.8694043211897435E+00
Ga    1.6956660349809882E+00    8.4872084564919650E+00    8.5005189763981512E+00
N    1.6977910709409290E+00    8.4892652504279322E+00    1.0488971440479869E+01
Ga    1.6707701718837638E+00    1.0351297619995783E+01    1.1119996670520568E+01
N    1.6553242168523121E+00    1.0360662313097581E+01    1.3114635286676998E+01
Ga    1.6991273545007284E+00    8.4915357767124355E+00    1.3669908051550960E+01
N    1.6718902710456374E+00    8.4746697414740240E+00    1.5632680260058324E+01
Ga    1.8460847482762013E+00    1.0250978114114558E+01    1.6530386624796023E+01
N    3.2882577312972683E+00    9.4114467462647191E+00    1.7665097640257759E+01
N    9.7324423322497928E+00    1.9935060619477543E+00    2.6836291967809536E+00
Ga    9.7312864067646458E+00    2.6257685949381299E-01    3.3682212707129593E+00
N    9.7261185731156274E+00    1.2832350450296920E-01    5.3249416009440056E+00
Ga    9.7255704537657852E+00    1.9968516295056156E+00    5.9259306981999780E+00
N    9.7267028726855127E+00    1.9863759776051915E+00    7.9062533849006167E+00
Ga    9.7300407307793026E+00    1.2106034329262046E-01    8.4988996725901380E+00
N    9.7278901612045896E+00    1.1735417196257859E-01    1.0489833685157533E+01
Ga    9.7270991692823134E+00    1.9871648388279954E+00    1.1079941611697272E+01
N    9.7283425509358317E+00    1.9872574746736529E+00    1.3052050778401595E+01
Ga    9.7292093326553726E+00    1.1619322180555822E-01    1.3669264209020975E+01
N    9.7309460494640803E+00    1.4874664741416521E-01    1.5631535118300807E+01
Ga    9.7282893415440217E+00    1.9867543997896049E+00    1.5910380075821054E+01
N    8.0249011607560377E+00    4.7077460117558259E+00    2.5754100524400485E+00
Ga    8.2014712119861226E+00    2.8789234861934756E+00    3.3106412548128499E+00
N    8.1185890688476086E+00    2.9154296802135624E+00    5.2995312317339653E+00
Ga    8.1419386415665951E+00    4.7857490778759244E+00    5.8457470715337259E+00
N    8.1272419761381904E+00    4.7765381734375909E+00    7.8499998380492242E+00
Ga    8.1106492876577967E+00    2.9238164145440950E+00    8.4913258534783029E+00
N    8.1083020850490222E+00    2.9208142360339608E+00    1.0485359586657101E+01
Ga    8.1333072756941114E+00    4.7819301780965286E+00    1.1115041668580472E+01
N    8.1513807790935005E+00    4.7909360951329969E+00    1.3110925715154028E+01
Ga    8.1083810656834032E+00    2.9230027937547871E+00    1.3668998373649588E+01
N    8.1372518324985350E+00    2.9081767570557724E+00    1.5631844213119720E+01
Ga    7.9563620722153079E+00    4.6780549229208885E+00    1.6528946600328482E+01
N    6.5169603565891627E+00    7.5480495225864246E+00    2.6490936405421204E+00
Ga    6.5230700296604738E+00    5.7872523538665757E+00    3.2950349530302696E+00
N    6.5090802237288568E+00    5.6970114689211666E+00    5.2860034198959971E+00
Ga    6.5271167765107485E+00    7.5530986964088935E+00    5.9001677396841981E+00
N    6.5118725248805314E+00    7.5560868595527904E+00    7.8861688082435579E+00
Ga    6.5116436151945285E+00    5.6898672126918921E+00    8.4780428954821421E+00
N    6.5094730684688473E+00    5.6871256555406093E+00    1.0475898703804228E+01
Ga    6.5135879580902474E+00    7.5562083958997084E+00    1.1070872036233192E+01
N    6.5129008152482744E+00    7.5566481524054163E+00    1.3044378497118245E+01
Ga    6.5129556418132406E+00    5.6883647460856377E+00    1.3668542047093345E+01
N    6.5133386990320439E+00    5.7186064981031448E+00    1.5631137368067302E+01
Ga    6.5131896999644336E+00    7.5573886350627726E+00    1.5910786740348820E+01
N    4.7941318252624638E+00    1.0285333497586260E+01    2.6070452385600662E+00
Ga    5.0264576984581062E+00    8.4186979898312959E+00    3.3450957580364933E+00
N    4.8999771511096579E+00    8.4825644120572843E+00    5.3054087226136284E+00
Ga    4.9250325240842328E+00    1.0353526942661409E+01    5.8680552772039496E+00
N    4.9111549678814077E+00    1.0344849590571540E+01    7.8614697673509220E+00
Ga    4.8985571576531752E+00    8.4868496099414656E+00    8.4871821659551436E+00
N    4.8927692511089091E+00    8.4894502452857399E+00    1.0481179484660283E+01
Ga    4.9203640764895313E+00    1.0348970945410649E+01    1.1117760804434131E+01
N    4.9365729184184088E+00    1.0359819498827365E+01    1.3112328152662238E+01
Ga    4.8948035283312610E+00    8.4913115226482176E+00    1.3668816466601093E+01
N    4.9211470962928221E+00    8.4768703168272594E+00    1.5630866503245564E+01
Ga    4.7390053320509935E+00    1.0246500051628711E+01    1.6530983093071885E+01
O    1.5075206486519796E-01    3.7939192080005926E+00   -4.2879410106062932E-01
C   -9.5664377284570912E-01    3.1659307638077898E+00   -1.1005313320833343E+00
H   -1.1325449796654354E+00    2.1366719037761617E+00   -7.4652133505829199E-01
H   -1.8925350107007990E+00    3.7348864199601399E+00   -9.7762897789668979E-01
H   -7.1141061557508289E-01    3.1278444005208117E+00   -2.1717125060678950E+00
Ga    3.2922164901320188E+00    5.6760634718329070E+00    2.9152617714382547E+00
H    1.2971574246793630E-01    7.5155391919601779E+00    1.6957677882447981E+00
C    3.2749109174958733E+00    1.8502865762719141E+00    1.2695685240773311E+00
H    4.2105528997920745E+00    1.6696459400627797E+00    7.2165878506677694E-01
H    2.3293486658267049E+00    1.7096380484830902E+00    7.2660355179221947E-01
     &END COORD
     &KIND C
       BASIS_SET DZVP-MOLOPT-SR-GTH-q4
       POTENTIAL GTH-PBE-q4
       &POTENTIAL
 2 2
  0.3384712400000000E+00 2 -0.8803673979999999E+01  0.1339210850000000E+01
 2
  0.3025757500000000E+00 1  0.9622486650000001E+01
  0.2915069400000000E+00 0
         # Potential name:  GTH-PBE-Q4  for symbol:  C
         # Potential read from the potential filename: GTH_POTENTIALS
       &END POTENTIAL
     &END KIND
     &KIND O
       BASIS_SET DZVP-MOLOPT-SR-GTH-q6
       POTENTIAL GTH-PBE-q6
       &POTENTIAL
 2 4
  0.2445543000000000E+00 2 -0.1666721480000000E+02  0.2487311320000000E+01
 2
  0.2209559200000000E+00 1  0.1833745811000000E+02
  0.2113324700000000E+00 0
         # Potential name:  GTH-PBE-Q6  for symbol:  O
         # Potential read from the potential filename: GTH_POTENTIALS
       &END POTENTIAL
     &END KIND
     &KIND H
       BASIS_SET DZVP-MOLOPT-SR-GTH-q1
       POTENTIAL GTH-PBE-q1
       &POTENTIAL
 1
  0.2000000000000000E+00 2 -0.4178900440000000E+01  0.7244633100000000E+00
 0
         # Potential name:  GTH-PBE-Q1  for symbol:  H
         # Potential read from the potential filename: GTH_POTENTIALS
       &END POTENTIAL
     &END KIND
     &KIND N
       BASIS_SET DZVP-MOLOPT-SR-GTH
       POTENTIAL GTH-PBE-q5
       &POTENTIAL
 2 3
  0.2837905100000000E+00 2 -0.1241522559000000E+02  0.1868095920000000E+01
 2
  0.2554050000000000E+00 1  0.1363026257000000E+02
  0.2454945300000000E+00 0
         # Potential name:  GTH-PBE-Q5  for symbol:  N
         # Potential read from the potential filename: GTH_POTENTIALS
       &END POTENTIAL
     &END KIND
     &KIND Ga
       BASIS_SET DZVP-MOLOPT-SR-GTH
       POTENTIAL GTH-PBE-q13
       &POTENTIAL
 2 1 10
  0.4900000000000000E+00 0
 3
  0.4167772300000000E+00 3  0.1047568975000000E+02 -0.4921768140000000E+01  0.8707055900000000E+00
  0.7770178090000000E+01 -0.2248152160000000E+01
  0.1784415450000000E+01
  0.5696265200000000E+00 2  0.1777985340000000E+01  0.1958597600000000E+00
 -0.2317443900000000E+00
  0.2381265000000000E+00 1 -0.1624868022000000E+02
         # Potential name:  GTH-PBE-Q13  for symbol:  GA
         # Potential read from the potential filename: GTH_POTENTIALS
       &END POTENTIAL
     &END KIND
     &TOPOLOGY
       NUMBER_OF_ATOMS  209
       MULTIPLE_UNIT_CELL  1 1 1
     &END TOPOLOGY
   &END SUBSYS
 &END FORCE_EVAL
