 # Version information for this restart file 
 # current date 2019-07-20 23:29:08.754
 # current working dir /lustre04/scratch/rzk/rzk/GaN-carbene/443-adatoms-both-2x2/12-CH3O-H2C-H/01-Start-1101
 # Program compiled at                              Sun Apr  7 00:48:11 EDT 2019
 # Program compiled on                          beluga2.int.ets1.calculquebec.ca
 # Program compiled for                        Beluga-Linux-x86-64-intel-openmpi
 # Source code revision number                                         svn:18619
 &GLOBAL
   PRINT_LEVEL  MEDIUM
   PROJECT_NAME TEST
   RUN_TYPE  GEO_OPT
 &END GLOBAL
 &MOTION
   &GEO_OPT
     MAX_ITER  500
     STEP_START_VAL  12
   &END GEO_OPT
 &END MOTION
 &FORCE_EVAL
   METHOD  QS
   STRESS_TENSOR  ANALYTICAL
   &DFT
     BASIS_SET_FILE_NAME BASIS_MOLOPT
     POTENTIAL_FILE_NAME GTH_POTENTIALS
     UKS  T
     SURFACE_DIPOLE_CORRECTION  T
     SURF_DIP_DIR  Z
     &SCF
       MAX_SCF  80
       EPS_SCF     5.0000000000000004E-06
       &OT  T
         PRECONDITIONER  FULL_ALL
       &END OT
       &OUTER_SCF  T
         OPTIMIZER  NONE
         EPS_SCF     5.0000000000000004E-06
         MAX_SCF  4
       &END OUTER_SCF
       &PRINT
         &RESTART  OFF
           BACKUP_COPIES  1
           &EACH
             JUST_ENERGY  0
             QS_SCF  0
             MD  20
           &END EACH
         &END RESTART
       &END PRINT
     &END SCF
     &QS
       EPS_DEFAULT     1.0000000000000000E-14
       METHOD  GPW
     &END QS
     &MGRID
       NGRIDS  5
       CUTOFF     1.2000000000000000E+03
     &END MGRID
     &XC
       DENSITY_CUTOFF     1.0000000000000000E-10
       GRADIENT_CUTOFF     1.0000000000000000E-10
       TAU_CUTOFF     1.0000000000000000E-10
       &XC_FUNCTIONAL  NO_SHORTCUT
         &PBE  T
         &END PBE
       &END XC_FUNCTIONAL
       &VDW_POTENTIAL
         POTENTIAL_TYPE  PAIR_POTENTIAL
         &PAIR_POTENTIAL
           R_CUTOFF     1.0000000000000004E+01
           TYPE  DFTD3
           PARAMETER_FILE_NAME dftd3.dat
           REFERENCE_FUNCTIONAL PBE
           EPS_CN     9.9999999999999995E-07
           CALCULATE_C9_TERM  T
           REFERENCE_C9_TERM  T
           LONG_RANGE_CORRECTION  F
           VERBOSE_OUTPUT  F
         &END PAIR_POTENTIAL
       &END VDW_POTENTIAL
     &END XC
   &END DFT
   &SUBSYS
     &CELL
       A     1.2864472766435110E+01    0.0000000000000000E+00    0.0000000000000000E+00
       B    -6.4322363581020028E+00    1.1140960178524473E+01    0.0000000000000000E+00
       C     0.0000000000000000E+00    0.0000000000000000E+00    3.2000000000000000E+01
       MULTIPLE_UNIT_CELL  1 1 1
       &CELL_REF
         A     1.2982353780853531E+01    0.0000000000000000E+00    0.0000000000000000E+00
         B    -6.4911768904267628E+00    1.1243048175136114E+01    0.0000000000000000E+00
         C     0.0000000000000000E+00    0.0000000000000000E+00    3.2000000000000000E+01
         MULTIPLE_UNIT_CELL  1 1 1
       &END CELL_REF
     &END CELL
     &COORD
N    6.8387615188565717E-02    2.1235010314068856E+00    2.5442726371229734E+00
Ga    8.6015397476831790E-02    1.5266472993311056E-01    2.9458061320881703E+00
N    5.8530935271058585E-02    1.4151097039346114E-01    5.0967671871522446E+00
Ga    6.2802098521927877E-02    1.9540285718752453E+00    5.8676370566364540E+00
N    7.9109496857956221E-02    1.9780068352955480E+00    7.8510151398701735E+00
Ga    8.2884179294801713E-02    1.2537346208570538E-01    8.4907302313093300E+00
N    7.9443206656990048E-02    1.2638210450844145E-01    1.0460935975483009E+01
Ga    7.7978754458586222E-02    1.9645214612013937E+00    1.1121800680723751E+01
N    7.7415523125769575E-02    1.9461330695480035E+00    1.3109426495762669E+01
Ga    7.7673627155257760E-02    1.2661540569406607E-01    1.3927737127036785E+01
N    7.6914889542806078E-02    1.2703738539861512E-01    1.6112142714797056E+01
Ga    7.6122540946854236E-02    2.1740727292392421E+00    1.6533156999422683E+01
Ga    3.3942301101476051E-02    3.8605209805886225E+00    1.3734880519308350E+00
N   -1.4115816321245609E+00    4.7093298695812766E+00    2.5519382421427323E+00
Ga   -1.6097282523660290E+00    2.8801255590890111E+00    3.3217998905300505E+00
N   -1.5286825506933883E+00    2.9190303407929279E+00    5.3010273609273080E+00
Ga   -1.5655689807247390E+00    4.7831764134841892E+00    5.8633102683479494E+00
N   -1.5381149529407681E+00    4.7764731518614090E+00    7.8511295658765059E+00
Ga   -1.5222095171682370E+00    2.9208491197981870E+00    8.4963893418514758E+00
N   -1.5192053308093418E+00    2.9193787928701909E+00    1.0481628201929146E+01
Ga   -1.5480669780962757E+00    4.7798617073802951E+00    1.1122445456678305E+01
N   -1.5637886460968298E+00    4.7883387238650945E+00    1.3110547809300236E+01
Ga   -1.5194243888224037E+00    2.9186833456622168E+00    1.3671635148294751E+01
N   -1.5461321533621104E+00    2.9031953915263715E+00    1.5628971115507952E+01
Ga   -1.3705937818341172E+00    4.6758965584794918E+00    1.6532937066167744E+01
N    7.6164205700136212E-02    3.8461718576857584E+00    1.7674597096920834E+01
N   -3.1417520556000889E+00    7.6259086913619054E+00    2.5025311943070094E+00
Ga   -3.1232747061225292E+00    5.7040074812631785E+00    2.9208141056362606E+00
N   -3.1345840838681878E+00    5.6898202528144637E+00    5.0825148485128429E+00
Ga   -3.1414735041315929E+00    7.5319972326894860E+00    5.8139381422996070E+00
N   -3.1363645383902115E+00    7.5480006450162653E+00    7.8207341710862357E+00
Ga   -3.1397527708373314E+00    5.7062223629585258E+00    8.4889143105526035E+00
N   -3.1392461472892124E+00    5.7003913272554421E+00    1.0460832089472785E+01
Ga   -3.1411333861846886E+00    7.5388675243656769E+00    1.1118622576559829E+01
N   -3.1396692202877485E+00    7.5178473216011046E+00    1.3107076280906602E+01
Ga   -3.1398666269028888E+00    5.6989227730930949E+00    1.3925572619356490E+01
N   -3.1399354280693124E+00    5.6994247484808289E+00    1.6113238505019464E+01
Ga   -3.1398703915650463E+00    7.7518497268752151E+00    1.6535984028118762E+01
Ga   -3.3190850986246629E+00    8.9569307755678995E+00    7.3613766378497514E-01
N   -4.7265058953369916E+00    1.0310490701860891E+01    2.5243824968489004E+00
Ga   -4.8028624221984222E+00    8.4582210347533557E+00    3.2252482054958276E+00
N   -4.7437299304731111E+00    8.4869884944215599E+00    5.2457232466411901E+00
Ga   -4.7853114393257252E+00    1.0348627720584433E+01    5.8190244505453252E+00
N   -4.7522809982124228E+00    1.0348388668832486E+01    7.8188588707053164E+00
Ga   -4.7340911765330551E+00    8.4899340150867850E+00    8.4709691099735114E+00
N   -4.7353991454153563E+00    8.4908463994544388E+00    1.0464239701404004E+01
Ga   -4.7616225010917423E+00    1.0346774654251453E+01    1.1119112442164919E+01
N   -4.7789239960815442E+00    1.0357665781325906E+01    1.3107545351940770E+01
Ga   -4.7369517142566080E+00    8.4883936832618438E+00    1.3670533507657051E+01
N   -4.7653472965413952E+00    8.4708627225102759E+00    1.5625752005294142E+01
Ga   -4.5811217194718488E+00    1.0242883238268906E+01    1.6534942050267400E+01
N   -3.1399678898508618E+00    9.4161774038550465E+00    1.7667639317079335E+01
N    3.2859452564334588E+00    2.1935683282992748E+00    2.5093734059967865E+00
Ga    3.2931707348950767E+00   -1.6403030455673950E-01    3.2885167616911750E+00
N    3.2951058790713663E+00    1.4164429292948588E-01    5.2195978798100100E+00
Ga    3.2922747171175484E+00    1.9661122563183098E+00    5.9184088316788275E+00
N    3.2936590404451889E+00    1.9795316624524468E+00    7.8790886108952396E+00
Ga    3.2919568522953648E+00    1.1032287033902266E-01    8.4818531580809893E+00
N    3.2934900621832859E+00    1.1443043028816674E-01    1.0469213460296487E+01
Ga    3.2932349639994865E+00    1.9821982665430533E+00    1.1078139648924484E+01
N    3.2928085121135031E+00    1.9833662449269052E+00    1.3042126560218481E+01
Ga    3.2926003823997099E+00    1.1365335991641554E-01    1.3672573548089561E+01
N    3.2924651326537249E+00    1.4973681695048399E-01    1.5628316169180058E+01
Ga    3.2926689469188855E+00    1.9853993839265973E+00    1.5910067906614140E+01
N    1.5558288364576098E+00    4.7163607262511285E+00    2.5478143939650875E+00
Ga    1.6129358513558205E+00    2.9315574957112647E+00    3.3755004665300326E+00
N    1.7011086356819916E+00    2.9065648947631755E+00    5.2913641040983288E+00
Ga    1.7150908557398756E+00    4.7936756527698741E+00    5.8639483831992205E+00
N    1.6938784323951885E+00    4.7735157880451862E+00    7.8436579163541564E+00
Ga    1.6771041896679226E+00    2.9159392222307732E+00    8.4926218199332819E+00
N    1.6761808216000544E+00    2.9186580317101631E+00    1.0475838913401493E+01
Ga    1.7009883543133002E+00    4.7776567216641945E+00    1.1124263864079159E+01
N    1.7174912322540312E+00    4.7874682886595270E+00    1.3111126057565748E+01
Ga    1.6736502957635160E+00    2.9179435185847482E+00    1.3672150072464982E+01
N    1.6992986045277139E+00    2.9030127636140737E+00    1.5629250771427852E+01
Ga    1.5226699742165788E+00    4.6757628915548883E+00    1.6533735206915825E+01
N    7.6216347389633635E-02    7.5500635674874799E+00    2.7163811206791335E+00
Ga    5.5625788535789478E-02    5.7093717172297920E+00    3.3718343824469650E+00
N    7.7713817154430195E-02    5.7135248713255429E+00    5.3049212207979926E+00
Ga    5.1233298746021914E-02    7.5629424579565594E+00    5.9401586410737570E+00
N    7.2959902506144508E-02    7.5576008541836330E+00    7.8994007794587056E+00
Ga    7.4446556644493053E-02    5.6871708003863040E+00    8.4957091059617600E+00
N    7.8273539680331988E-02    5.6850636924256506E+00    1.0479079711186266E+01
Ga    7.4921156083088622E-02    7.5555655652905029E+00    1.1078100651297051E+01
N    7.5881605097912266E-02    7.5537970006160347E+00    1.3041740354428565E+01
Ga    7.6643118583791969E-02    5.6849557496399648E+00    1.3672233216309630E+01
N    7.6534055646210353E-02    5.7150027737107045E+00    1.5630318804081806E+01
Ga    7.6563943319012548E-02    7.5533634715893641E+00    1.5912154461636511E+01
N   -1.5329343026331759E+00    1.0323253190256134E+01    2.5409169494623329E+00
Ga   -1.5615931380390400E+00    8.5044806763743281E+00    3.2400097712613873E+00
N   -1.5206214156789208E+00    8.4801879248886216E+00    5.2313047582237076E+00
Ga   -1.4933347581501959E+00    1.0350637598498611E+01    5.8233236408407576E+00
N   -1.5254362227653200E+00    1.0345248102609569E+01    7.8192820220750514E+00
Ga   -1.5497080360723698E+00    8.4915920681266481E+00    8.4857392864849874E+00
N   -1.5433883043052210E+00    8.4914549632496232E+00    1.0472675514153925E+01
Ga   -1.5174195591655497E+00    1.0348517964095773E+01    1.1123173509491258E+01
N   -1.4992978645596282E+00    1.0358242019560187E+01    1.3110174896764372E+01
Ga   -1.5426298482484260E+00    8.4885074263426041E+00    1.3671794114248907E+01
N   -1.5137412810257804E+00    8.4706995452983573E+00    1.5626939403636625E+01
Ga   -1.6982824870659348E+00    1.0243182768376583E+01    1.6535273372328962E+01
N    6.5254795276928821E+00    2.1078046385355353E+00    2.5593415163646496E+00
Ga    6.5149817156560035E+00    1.3804117442251701E-01    2.9794198354869277E+00
N    6.5352046946912301E+00    1.4033625340809072E-01    5.1128940019687201E+00
Ga    6.5245919238603038E+00    1.9584139707741535E+00    5.8738057641507835E+00
N    6.5072698829940254E+00    1.9787990373466624E+00    7.8535658773995589E+00
Ga    6.5033093143499325E+00    1.2575368989652791E-01    8.4941010536576442E+00
N    6.5064379804074886E+00    1.2616624341013588E-01    1.0462402866866400E+01
Ga    6.5083784195591932E+00    1.9657105464987068E+00    1.1121825116702148E+01
N    6.5083791034817429E+00    1.9460782988587053E+00    1.3109294522182955E+01
Ga    6.5086377091751197E+00    1.2728672716506806E-01    1.3929529358567880E+01
N    6.5084280776597749E+00    1.2727952845164084E-01    1.6112982926736095E+01
Ga    6.5086148348662567E+00    2.1749074160063508E+00    1.6533294170291860E+01
Ga    6.5816068978906159E+00    3.8795759525334947E+00    1.4104094522673980E+00
N    5.0060936290770703E+00    4.7166803661645158E+00    2.5708226642435958E+00
Ga    4.9620815569446775E+00    2.9263894011326776E+00    3.3700924017248273E+00
N    4.8874078098288338E+00    2.9012937598023565E+00    5.2849093672933565E+00
Ga    4.8793371511038863E+00    4.7958704355520405E+00    5.8493987606459683E+00
N    4.8903275947428471E+00    4.7722502942239755E+00    7.8357601424376577E+00
Ga    4.9077343646505671E+00    2.9187943913105041E+00    8.4926605757590607E+00
N    4.9099265908342016E+00    2.9192546602407128E+00    1.0475708979285892E+01
Ga    4.8869740021188388E+00    4.7791055350976821E+00    1.1122303138857575E+01
N    4.8690421085534172E+00    4.7875945779981306E+00    1.3109637995720671E+01
Ga    4.9120223346472089E+00    2.9181369613030919E+00    1.3671532439683752E+01
N    4.8855834351771517E+00    2.9031499858809147E+00    1.5628497998891330E+01
Ga    5.0626057286741801E+00    4.6757431260765072E+00    1.6533275231840172E+01
N    6.5085344370008800E+00    3.8466255231413831E+00    1.7674500891960520E+01
N    3.2817957007026091E+00    7.6807941700730824E+00    2.5806768633554493E+00
N    3.2890486039185283E+00    5.7004930140184440E+00    5.0709960004770975E+00
Ga    3.2999871800941714E+00    7.5250766800127948E+00    5.8620342593947710E+00
N    3.2916832765440027E+00    7.5433123804228579E+00    7.8460508329032308E+00
Ga    3.2945145348179574E+00    5.6970644115134306E+00    8.4977909238036951E+00
N    3.2931256822019783E+00    5.6967646491229891E+00    1.0463804456413554E+01
Ga    3.2951787630536855E+00    7.5361890626695462E+00    1.1123672028728389E+01
N    3.2934227461335821E+00    7.5165089411130488E+00    1.3110475560760541E+01
Ga    3.2935250307925723E+00    5.6977924669935174E+00    1.3927889131804099E+01
N    3.2926024813612025E+00    5.6988214189812325E+00    1.6113657008692982E+01
Ga    3.2930478603868938E+00    7.7513623982452371E+00    1.6535416147137106E+01
Ga    3.3246303821211747E+00    9.4395813904685930E+00    1.5794591940155784E+00
N    1.8018527851227215E+00    1.0278396818861209E+01    2.5954635101301649E+00
Ga    1.6462142252689005E+00    8.4706506236324710E+00    3.3940375634260760E+00
N    1.6705029641811295E+00    8.4782403107592739E+00    5.3143488922682458E+00
Ga    1.6688760824998539E+00    1.0362554723660697E+01    5.8839736879333744E+00
N    1.6787071165599923E+00    1.0342612499606677E+01    7.8623788903483653E+00
Ga    1.6942346937906685E+00    8.4862598258989905E+00    8.5003464491225547E+00
N    1.6964382117830281E+00    8.4877625468707123E+00    1.0482188357298144E+01
Ga    1.6685079231333340E+00    1.0349000166627754E+01    1.1123984288072373E+01
N    1.6516434706118852E+00    1.0358114668787923E+01    1.3111488492608695E+01
Ga    1.6951309102735366E+00    8.4880641886222481E+00    1.3671511828684496E+01
N    1.6669887475529228E+00    8.4705405414355042E+00    1.5627074222490144E+01
Ga    1.8509117805219344E+00    1.0243593666964420E+01    1.6534114029700017E+01
N    3.2932710202556672E+00    9.4163974368367356E+00    1.7666455384918880E+01
N    9.7330183398297603E+00    1.9940907234554037E+00    2.6710232081448892E+00
Ga    9.7351073992740034E+00    2.6176168066943339E-01    3.3626197684181665E+00
N    9.7259136725676925E+00    1.3083231110283389E-01    5.3176499561901691E+00
Ga    9.7295728544068751E+00    1.9956518375893082E+00    5.9299025739451920E+00
N    9.7250389406502968E+00    1.9861792049309952E+00    7.9017237736257115E+00
Ga    9.7289865935183766E+00    1.1934762484667179E-01    8.5009747112871938E+00
N    9.7256923142427265E+00    1.1532213590935726E-01    1.0484970792621793E+01
Ga    9.7255698736682596E+00    1.9854312822215920E+00    1.1081701032226182E+01
N    9.7250645440704222E+00    1.9846007355676736E+00    1.3045930009774398E+01
Ga    9.7256494982885400E+00    1.1367205934966067E-01    1.3671550644138323E+01
N    9.7250329004165312E+00    1.4951641819740513E-01    1.5628061120886239E+01
Ga    9.7245904246812618E+00    1.9856390570810614E+00    1.5908110225366542E+01
N    8.0247422762502154E+00    4.7125982969844031E+00    2.5786761062247341E+00
Ga    8.2201090048539118E+00    2.8757840409098581E+00    3.3297649971899310E+00
N    8.1169443511193524E+00    2.9173304047387671E+00    5.3002931605252472E+00
Ga    8.1452471055046143E+00    4.7897287074370096E+00    5.8517420193494463E+00
N    8.1263588304981376E+00    4.7763959298482170E+00    7.8450978065277610E+00
Ga    8.1100077799146071E+00    2.9238149835522904E+00    8.4965807711133916E+00
N    8.1056834794975305E+00    2.9195299169565967E+00    1.0481504302482170E+01
Ga    8.1321470121442463E+00    4.7809251497433998E+00    1.1119924543990438E+01
N    8.1491143528239256E+00    4.7886253532547052E+00    1.3108677764489686E+01
Ga    8.1050072339991885E+00    2.9193438552879747E+00    1.3671031917258830E+01
N    8.1311625053429299E+00    2.9033469945219101E+00    1.5628289012858026E+01
Ga    7.9546871279110709E+00    4.6759183331558001E+00    1.6532773661750234E+01
N    6.5129223980116544E+00    7.5551968935915754E+00    2.6375314934938623E+00
Ga    6.5276942135071643E+00    5.8130614964633978E+00    3.3162116810776663E+00
N    6.5093974488468653E+00    5.6979815821658217E+00    5.2877848429671745E+00
Ga    6.5295194818007083E+00    7.5611864674002893E+00    5.9022040244367284E+00
N    6.5114994511077633E+00    7.5561036838906253E+00    7.8797927269801313E+00
Ga    6.5112018885862355E+00    5.6909833815512387E+00    8.4825027782865572E+00
N    6.5075933691825218E+00    5.6854541337776343E+00    1.0471262744164376E+01
Ga    6.5117223997531477E+00    7.5555361031387980E+00    1.1071921400791645E+01
N    6.5100357367537027E+00    7.5539664481797786E+00    1.3037351355128417E+01
Ga    6.5094038581160509E+00    5.6857740314023903E+00    1.3670849848588778E+01
N    6.5084568663286255E+00    5.7152268936240453E+00    1.5628823016426876E+01
Ga    6.5091864549808927E+00    7.5532401317518021E+00    1.5911668293566176E+01
N    4.7938675918215905E+00    1.0288574397942064E+01    2.6001631842616129E+00
Ga    5.0250146464854808E+00    8.4280344960288414E+00    3.3445394358370333E+00
N    4.9004756474032520E+00    8.4838729092235692E+00    5.3010527921557866E+00
Ga    4.9254372526843726E+00    1.0355203970388674E+01    5.8665642958407860E+00
N    4.9098190608299808E+00    1.0344506970062517E+01    7.8540455632181798E+00
Ga    4.8972588782745348E+00    8.4867101973674401E+00    8.4882708189954101E+00
N    4.8904602889112594E+00    8.4878896678805003E+00    1.0475206128146143E+01
Ga    4.9188940357604025E+00    1.0347422654490421E+01    1.1121756159573989E+01
N    4.9344191856686885E+00    1.0357739988513769E+01    1.3109944398401339E+01
Ga    4.8917844500012864E+00    8.4880950192014577E+00    1.3670603590590638E+01
N    4.9188434758306778E+00    8.4705537624294802E+00    1.5626188436416159E+01
Ga    4.7349810639454475E+00    1.0243594994365690E+01    1.6533775357020836E+01
O    1.4663685655176262E-01    3.7863891980440991E+00   -4.3846875732248197E-01
C   -9.7381581305074205E-01    3.1678817694667685E+00   -1.0975810145127758E+00
H   -1.1693205800798634E+00    2.1482513585892273E+00   -7.2609350504424264E-01
H   -1.8980180983470645E+00    3.7570533261363463E+00   -9.8181224373213083E-01
H   -7.3269674462485934E-01    3.1072020271462790E+00   -2.1685529271791530E+00
Ga    3.2825513118003031E+00    5.6886791627148110E+00    2.9225593874978224E+00
H    1.2956419365386571E-01    7.5244522709826702E+00    1.6916436594928399E+00
C    3.2727738302096303E+00    1.9029115370315670E+00    1.2532489137108256E+00
H    4.2082408752542459E+00    1.7364081795519706E+00    7.0031396173803173E-01
H    2.3281514294215540E+00    1.7797462673738516E+00    7.0452719076282022E-01
     &END COORD
     &KIND C
       BASIS_SET DZVP-MOLOPT-SR-GTH-q4
       POTENTIAL GTH-PBE-q4
       &POTENTIAL
 2 2
  0.3384712400000000E+00 2 -0.8803673979999999E+01  0.1339210850000000E+01
 2
  0.3025757500000000E+00 1  0.9622486650000001E+01
  0.2915069400000000E+00 0
         # Potential name:  GTH-PBE-Q4  for symbol:  C
         # Potential read from the potential filename: GTH_POTENTIALS
       &END POTENTIAL
     &END KIND
     &KIND O
       BASIS_SET DZVP-MOLOPT-SR-GTH-q6
       POTENTIAL GTH-PBE-q6
       &POTENTIAL
 2 4
  0.2445543000000000E+00 2 -0.1666721480000000E+02  0.2487311320000000E+01
 2
  0.2209559200000000E+00 1  0.1833745811000000E+02
  0.2113324700000000E+00 0
         # Potential name:  GTH-PBE-Q6  for symbol:  O
         # Potential read from the potential filename: GTH_POTENTIALS
       &END POTENTIAL
     &END KIND
     &KIND H
       BASIS_SET DZVP-MOLOPT-SR-GTH-q1
       POTENTIAL GTH-PBE-q1
       &POTENTIAL
 1
  0.2000000000000000E+00 2 -0.4178900440000000E+01  0.7244633100000000E+00
 0
         # Potential name:  GTH-PBE-Q1  for symbol:  H
         # Potential read from the potential filename: GTH_POTENTIALS
       &END POTENTIAL
     &END KIND
     &KIND N
       BASIS_SET DZVP-MOLOPT-SR-GTH
       POTENTIAL GTH-PBE-q5
       &POTENTIAL
 2 3
  0.2837905100000000E+00 2 -0.1241522559000000E+02  0.1868095920000000E+01
 2
  0.2554050000000000E+00 1  0.1363026257000000E+02
  0.2454945300000000E+00 0
         # Potential name:  GTH-PBE-Q5  for symbol:  N
         # Potential read from the potential filename: GTH_POTENTIALS
       &END POTENTIAL
     &END KIND
     &KIND Ga
       BASIS_SET DZVP-MOLOPT-SR-GTH
       POTENTIAL GTH-PBE-q13
       &POTENTIAL
 2 1 10
  0.4900000000000000E+00 0
 3
  0.4167772300000000E+00 3  0.1047568975000000E+02 -0.4921768140000000E+01  0.8707055900000000E+00
  0.7770178090000000E+01 -0.2248152160000000E+01
  0.1784415450000000E+01
  0.5696265200000000E+00 2  0.1777985340000000E+01  0.1958597600000000E+00
 -0.2317443900000000E+00
  0.2381265000000000E+00 1 -0.1624868022000000E+02
         # Potential name:  GTH-PBE-Q13  for symbol:  GA
         # Potential read from the potential filename: GTH_POTENTIALS
       &END POTENTIAL
     &END KIND
     &TOPOLOGY
       NUMBER_OF_ATOMS  209
       MULTIPLE_UNIT_CELL  1 1 1
     &END TOPOLOGY
   &END SUBSYS
 &END FORCE_EVAL
