 # Version information for this restart file 
 # current date 2019-07-21 04:05:13.533
 # current working dir /lustre04/scratch/rzk/rzk/GaN-carbene/443-adatoms-both-2x2/12-CH3O-H2C-H/01-Start-1101
 # Program compiled at                              Sun Apr  7 00:48:11 EDT 2019
 # Program compiled on                          beluga2.int.ets1.calculquebec.ca
 # Program compiled for                        Beluga-Linux-x86-64-intel-openmpi
 # Source code revision number                                         svn:18619
 &GLOBAL
   PRINT_LEVEL  MEDIUM
   PROJECT_NAME TEST
   RUN_TYPE  GEO_OPT
 &END GLOBAL
 &MOTION
   &GEO_OPT
     MAX_ITER  500
     STEP_START_VAL  48
   &END GEO_OPT
 &END MOTION
 &FORCE_EVAL
   METHOD  QS
   STRESS_TENSOR  ANALYTICAL
   &DFT
     BASIS_SET_FILE_NAME BASIS_MOLOPT
     POTENTIAL_FILE_NAME GTH_POTENTIALS
     UKS  T
     SURFACE_DIPOLE_CORRECTION  T
     SURF_DIP_DIR  Z
     &SCF
       MAX_SCF  80
       EPS_SCF     5.0000000000000004E-06
       &OT  T
         PRECONDITIONER  FULL_ALL
       &END OT
       &OUTER_SCF  T
         OPTIMIZER  NONE
         EPS_SCF     5.0000000000000004E-06
         MAX_SCF  4
       &END OUTER_SCF
       &PRINT
         &RESTART  OFF
           BACKUP_COPIES  1
           &EACH
             JUST_ENERGY  0
             QS_SCF  0
             MD  20
           &END EACH
         &END RESTART
       &END PRINT
     &END SCF
     &QS
       EPS_DEFAULT     1.0000000000000000E-14
       METHOD  GPW
     &END QS
     &MGRID
       NGRIDS  5
       CUTOFF     1.2000000000000000E+03
     &END MGRID
     &XC
       DENSITY_CUTOFF     1.0000000000000000E-10
       GRADIENT_CUTOFF     1.0000000000000000E-10
       TAU_CUTOFF     1.0000000000000000E-10
       &XC_FUNCTIONAL  NO_SHORTCUT
         &PBE  T
         &END PBE
       &END XC_FUNCTIONAL
       &VDW_POTENTIAL
         POTENTIAL_TYPE  PAIR_POTENTIAL
         &PAIR_POTENTIAL
           R_CUTOFF     1.0000000000000004E+01
           TYPE  DFTD3
           PARAMETER_FILE_NAME dftd3.dat
           REFERENCE_FUNCTIONAL PBE
           EPS_CN     9.9999999999999995E-07
           CALCULATE_C9_TERM  T
           REFERENCE_C9_TERM  T
           LONG_RANGE_CORRECTION  F
           VERBOSE_OUTPUT  F
         &END PAIR_POTENTIAL
       &END VDW_POTENTIAL
     &END XC
   &END DFT
   &SUBSYS
     &CELL
       A     1.2864472766435110E+01    0.0000000000000000E+00    0.0000000000000000E+00
       B    -6.4322363581020028E+00    1.1140960178524473E+01    0.0000000000000000E+00
       C     0.0000000000000000E+00    0.0000000000000000E+00    3.2000000000000000E+01
       MULTIPLE_UNIT_CELL  1 1 1
       &CELL_REF
         A     1.2982353780853531E+01    0.0000000000000000E+00    0.0000000000000000E+00
         B    -6.4911768904267628E+00    1.1243048175136114E+01    0.0000000000000000E+00
         C     0.0000000000000000E+00    0.0000000000000000E+00    3.2000000000000000E+01
         MULTIPLE_UNIT_CELL  1 1 1
       &END CELL_REF
     &END CELL
     &COORD
N    6.9882980706005057E-02    2.1191029392718326E+00    2.5557968781808786E+00
Ga    8.6863324135379838E-02    1.5030663116257087E-01    2.9512644217182173E+00
N    5.8493985397307408E-02    1.4016503596005853E-01    5.1086764052166327E+00
Ga    6.5241936619461122E-02    1.9542415307193710E+00    5.8699997422201200E+00
N    8.1506217091786057E-02    1.9787246815725963E+00    7.8592496531724994E+00
Ga    8.4366210968177716E-02    1.2630281511213376E-01    8.4911222416598378E+00
N    8.1715335840025799E-02    1.2846300558666307E-01    1.0467077467669403E+01
Ga    8.0691987563665843E-02    1.9675625681123434E+00    1.1118482786878046E+01
N    8.0843658690501960E-02    1.9493807829216303E+00    1.3114175228832051E+01
Ga    8.1017325030093443E-02    1.2706881518961033E-01    1.3914167038315234E+01
N    7.9404952815316635E-02    1.2693749582831179E-01    1.6118208757440637E+01
Ga    8.0315693154907317E-02    2.1593169153518197E+00    1.6523171429460799E+01
Ga    3.3383001567700119E-02    3.8565851510252647E+00    1.3827034930988944E+00
N   -1.4124740706457606E+00    4.7059100204800544E+00    2.5631557631115975E+00
Ga   -1.6107567882157987E+00    2.8776435032026848E+00    3.3299226302173657E+00
N   -1.5270177668653362E+00    2.9177063424007548E+00    5.3120010020079054E+00
Ga   -1.5657232612061596E+00    4.7823263853463862E+00    5.8667675040959493E+00
N   -1.5361090551662386E+00    4.7769215196407320E+00    7.8604518196545623E+00
Ga   -1.5214148421284523E+00    2.9206240747078724E+00    8.4946912957336789E+00
N   -1.5174569922740506E+00    2.9206296177008291E+00    1.0487998054997488E+01
Ga   -1.5456671660752570E+00    4.7814092065758063E+00    1.1118820850880528E+01
N   -1.5601969907935029E+00    4.7905943382445653E+00    1.3114795064163834E+01
Ga   -1.5162646374315549E+00    2.9215305969987786E+00    1.3669359496597341E+01
N   -1.5425762885300305E+00    2.9065758264922512E+00    1.5635518576187557E+01
Ga   -1.3782347554006709E+00    4.6857368694987631E+00    1.6523340772282506E+01
N    7.1334275312345208E-02    3.8382487666892460E+00    1.7653863863248052E+01
N   -3.1477876067907808E+00    7.6153146760991532E+00    2.5182370832243488E+00
Ga   -3.1379425012509299E+00    5.6860629221408168E+00    2.9273809908999486E+00
N   -3.1336097555325289E+00    5.6883261320076235E+00    5.0963635277274086E+00
Ga   -3.1388884785564808E+00    7.5278200976618983E+00    5.8182913692725586E+00
N   -3.1340628038623639E+00    7.5485807095039616E+00    7.8303532787859158E+00
Ga   -3.1398108284827786E+00    5.7055138336180145E+00    8.4878893643579971E+00
N   -3.1372634155456369E+00    5.7020303066656153E+00    1.0466440584953482E+01
Ga   -3.1388900241498994E+00    7.5413009221706551E+00    1.1115146558437409E+01
N   -3.1366098064637931E+00    7.5215989447641549E+00    1.3110641970342479E+01
Ga   -3.1383263243331534E+00    5.7019935133125701E+00    1.3913300543040668E+01
N   -3.1391569439469267E+00    5.7011919891050677E+00    1.6118489786485142E+01
Ga   -3.1364906994768771E+00    7.7449186954990079E+00    1.6534062737681637E+01
Ga   -3.3876445129101183E+00    8.8374536370537484E+00    7.3953424010674007E-01
N   -4.7313059353869127E+00    1.0300517536927092E+01    2.5433935103693601E+00
Ga   -4.8087797813982398E+00    8.4540626291932330E+00    3.2484299888691139E+00
N   -4.7430528189135321E+00    8.4853564729177737E+00    5.2639338510663309E+00
Ga   -4.7829316113101363E+00    1.0349943926153946E+01    5.8229776754829352E+00
N   -4.7505587812057763E+00    1.0349262025858408E+01    7.8280861512527995E+00
Ga   -4.7334427188481580E+00    8.4897825463752419E+00    8.4691159604336104E+00
N   -4.7339344757653388E+00    8.4919599332853313E+00    1.0470359713241194E+01
Ga   -4.7580175605778221E+00    1.0348097603561440E+01    1.1114814837662964E+01
N   -4.7746011237354935E+00    1.0359985355853448E+01    1.3110092719126605E+01
Ga   -4.7333399254732171E+00    8.4917340108334045E+00    1.3669277377688264E+01
N   -4.7608679939124254E+00    8.4755860951516588E+00    1.5631590919630646E+01
Ga   -4.5821312902235025E+00    1.0248245272399370E+01    1.6533884499309025E+01
N   -3.1436011494429290E+00    9.4100843392811768E+00    1.7670992783017361E+01
N    3.2915736587809188E+00    2.1839976503469893E+00    2.5159122738729911E+00
Ga    3.2964893227083452E+00   -1.7033314784441789E-01    3.2856306099752812E+00
N    3.2951485133906444E+00    1.3854533634767216E-01    5.2245642892167856E+00
Ga    3.3002861280441680E+00    1.9672921708051330E+00    5.9118743192388212E+00
N    3.2965757551912209E+00    1.9799020521614026E+00    7.8814431055145056E+00
Ga    3.2952179208991508E+00    1.1230058359317233E-01    8.4790245938136692E+00
N    3.2961113515489502E+00    1.1660232810007347E-01    1.0473739259364082E+01
Ga    3.2961192157527188E+00    1.9836021587713280E+00    1.1076606667893808E+01
N    3.2958259043782645E+00    1.9856895946554263E+00    1.3048113235746950E+01
Ga    3.2963728141770616E+00    1.1588270575838619E-01    1.3670916609164617E+01
N    3.2972161423160928E+00    1.4904868212298308E-01    1.5631525632062953E+01
Ga    3.2967513905887653E+00    1.9859690573187407E+00    1.5912607153836364E+01
N    1.5553345562980105E+00    4.7132312210374145E+00    2.5557915006949257E+00
Ga    1.6218159829583643E+00    2.9270767005325311E+00    3.3771960579342157E+00
N    1.7027986593892117E+00    2.9050524364109869E+00    5.2976239288372096E+00
Ga    1.7173303851426684E+00    4.7927951520279928E+00    5.8641551232222549E+00
N    1.6952597935219771E+00    4.7737954954339763E+00    7.8507317990400249E+00
Ga    1.6813308730936261E+00    2.9160049560856400E+00    8.4901413554098522E+00
N    1.6794667040476747E+00    2.9200202714568460E+00    1.0481246752601201E+01
Ga    1.7035820580559446E+00    4.7791585208713778E+00    1.1120086305612926E+01
N    1.7201737141118791E+00    4.7894815592690954E+00    1.3114208814264396E+01
Ga    1.6776711698659674E+00    2.9208416268875008E+00    1.3669752654724769E+01
N    1.7040296205589600E+00    2.9082338185841916E+00    1.5633991684590788E+01
Ga    1.5303873039429121E+00    4.6807325875546768E+00    1.6524769899267589E+01
N    7.4462670819261445E-02    7.5444525941717355E+00    2.7206492334173813E+00
Ga    5.5608643786016251E-02    5.7047795009658797E+00    3.3784035825052450E+00
N    7.8059593856284054E-02    5.7119794895576668E+00    5.3142495776186642E+00
Ga    5.1851831621545399E-02    7.5618926007229739E+00    5.9408171219566475E+00
N    7.5041221909209352E-02    7.5582900042873362E+00    7.9056998582539366E+00
Ga    7.6792846869382703E-02    5.6879553493248372E+00    8.4950087459891055E+00
N    8.0711033320206849E-02    5.6872986050068244E+00    1.0485627031001824E+01
Ga    7.6570073731144425E-02    7.5570341274805068E+00    1.1078276641965939E+01
N    7.8791875960095681E-02    7.5566866595588156E+00    1.3049885379053132E+01
Ga    8.0212095111587778E-02    5.6873378773033698E+00    1.3669432979843823E+01
N    8.2255767693980478E-02    5.7171307316937572E+00    1.5634006965319612E+01
Ga    7.9714673429602603E-02    7.5579263873179920E+00    1.5911794405498494E+01
N   -1.5251883580350183E+00    1.0319585211010047E+01    2.5561447504111618E+00
Ga   -1.5623017445699525E+00    8.5038104707725530E+00    3.2380984480787354E+00
N   -1.5209017924745418E+00    8.4766378906257014E+00    5.2364995227946629E+00
Ga   -1.4918501877668016E+00    1.0349269734665292E+01    5.8205057510501943E+00
N   -1.5237807112089661E+00    1.0344595950584173E+01    7.8248691661426930E+00
Ga   -1.5471384743477594E+00    8.4927134092585757E+00    8.4849954593458250E+00
N   -1.5404318028364572E+00    8.4928901905083514E+00    1.0478784311133442E+01
Ga   -1.5150727016532615E+00    1.0350525902379767E+01    1.1118338342526167E+01
N   -1.4969141800203147E+00    1.0360833372007123E+01    1.3111714677591701E+01
Ga   -1.5404515657525166E+00    8.4927989757707998E+00    1.3670484697980195E+01
N   -1.5111891817489160E+00    8.4767065112980227E+00    1.5631206440097207E+01
Ga   -1.6958009801685052E+00    1.0245333461944290E+01    1.6535023894820707E+01
N    6.5299332056313899E+00    2.0955850817573896E+00    2.5578377723488037E+00
Ga    6.5129048691964186E+00    1.5084582721453149E-01    2.9784704959002894E+00
N    6.5363382871975721E+00    1.3676450517034999E-01    5.1241837090735141E+00
Ga    6.5243421382303524E+00    1.9606409904401745E+00    5.8641923968657279E+00
N    6.5085650518240890E+00    1.9796202647459062E+00    7.8555873823360489E+00
Ga    6.5047162946548411E+00    1.2831825357745083E-01    8.4897574513202514E+00
N    6.5088408804149473E+00    1.2861108120019388E-01    1.0465622802453453E+01
Ga    6.5108355021008544E+00    1.9686417549922044E+00    1.1117341712830019E+01
N    6.5115882545766368E+00    1.9495397171201132E+00    1.3112709872070850E+01
Ga    6.5109084957352836E+00    1.2933696567001152E-01    1.3917359819810448E+01
N    6.5098680078229822E+00    1.2886911448830571E-01    1.6118522726838478E+01
Ga    6.5125139571024411E+00    2.1675309076222611E+00    1.6529068333082986E+01
Ga    6.6039485796164614E+00    3.8780381014232583E+00    1.2947695565821260E+00
N    4.9974589879122515E+00    4.7216889802839912E+00    2.5680022031780920E+00
Ga    4.9831627768521258E+00    2.9384480723078803E+00    3.3472127994686343E+00
N    4.8892389645567693E+00    2.9010998731613205E+00    5.2776362709441971E+00
Ga    4.8805148307527091E+00    4.7922237932808924E+00    5.8396279622397227E+00
N    4.8914437707142238E+00    4.7723829705744798E+00    7.8380964287401449E+00
Ga    4.9103362693331318E+00    2.9196186142249441E+00    8.4874360148948735E+00
N    4.9117529636736181E+00    2.9205343548136882E+00    1.0479793077566947E+01
Ga    4.8902141444270066E+00    4.7800344829530736E+00    1.1117965446163295E+01
N    4.8729926078752630E+00    4.7894521506719361E+00    1.3112666956601512E+01
Ga    4.9155450337326920E+00    2.9209421357197742E+00    1.3669971368456901E+01
N    4.8871056844556620E+00    2.9065697211165160E+00    1.5633452280994998E+01
Ga    5.0632171229377292E+00    4.6808845107569956E+00    1.6529689857146206E+01
N    6.5049925883493334E+00    3.8379520687449826E+00    1.7663244938246294E+01
N    3.2801847731363272E+00    7.6802239079631169E+00    2.5826012451246032E+00
N    3.2863886800288116E+00    5.7016699797902612E+00    5.0799686681631613E+00
Ga    3.2988201440547114E+00    7.5225362670074745E+00    5.8616867797439669E+00
N    3.2925393758636061E+00    7.5448284023905794E+00    7.8526041088255054E+00
Ga    3.2976262519804629E+00    5.6970248852770782E+00    8.4949153659898915E+00
N    3.2958651329424664E+00    5.6987359476848782E+00    1.0468059823033396E+01
Ga    3.2975503782102535E+00    7.5384046721378759E+00    1.1120674549477522E+01
N    3.2965475903105124E+00    7.5200892285920347E+00    1.3114286716861878E+01
Ga    3.2974781474297323E+00    5.7002237383432588E+00    1.3915001753827189E+01
N    3.2958132508191587E+00    5.6999626260322778E+00    1.6118749370095305E+01
Ga    3.2969197093494507E+00    7.7413721556792447E+00    1.6529785163345618E+01
Ga    3.3225343029598617E+00    9.4397777575745820E+00    1.5979503222973164E+00
N    1.8017519507355002E+00    1.0275113793111748E+01    2.5989798717706609E+00
Ga    1.6421585346267138E+00    8.4679892406840391E+00    3.3958851491585924E+00
N    1.6701873007308305E+00    8.4774403850086770E+00    5.3186970235230229E+00
Ga    1.6676048729096258E+00    1.0361770848936468E+01    5.8852424938186916E+00
N    1.6806328221333984E+00    1.0342310110147199E+01    7.8695329703769827E+00
Ga    1.6956334289858490E+00    8.4870355677908549E+00    8.5003295763005386E+00
N    1.6978157820769386E+00    8.4891706164545848E+00    1.0488974774247978E+01
Ga    1.6707793426137021E+00    1.0351311272518533E+01    1.1119770258263673E+01
N    1.6554464091183152E+00    1.0360932269455022E+01    1.3114211113448482E+01
Ga    1.6991989181386433E+00    8.4920576784943833E+00    1.3669954491507054E+01
N    1.6723107159407784E+00    8.4749037651142540E+00    1.5633411504182687E+01
Ga    1.8450190523747014E+00    1.0252372708777679E+01    1.6529117960209398E+01
N    3.2876868205191645E+00    9.4110969076479556E+00    1.7663682978561035E+01
N    9.7324136563452086E+00    1.9933137114722557E+00    2.6840751770909517E+00
Ga    9.7311711203085469E+00    2.6242968685127949E-01    3.3686333250097027E+00
N    9.7261135204479032E+00    1.2805283528114639E-01    5.3254384791834815E+00
Ga    9.7255253479485813E+00    1.9966422512964368E+00    5.9260189594217563E+00
N    9.7267124796495104E+00    1.9861569105377455E+00    7.9064436879570197E+00
Ga    9.7300669437179117E+00    1.2085204859646030E-01    8.4988224615706844E+00
N    9.7279322087933231E+00    1.1731621743810344E-01    1.0489850278288252E+01
Ga    9.7270278770783420E+00    1.9871263736092017E+00    1.1079924714323608E+01
N    9.7283250158796726E+00    1.9870739390656609E+00    1.3051974951349131E+01
Ga    9.7291402209185200E+00    1.1623976530216321E-01    1.3669423894708478E+01
N    9.7310801759627665E+00    1.4863464145802471E-01    1.5631733961459384E+01
Ga    9.7281118742335284E+00    1.9867003157412937E+00    1.5910404680848030E+01
N    8.0249225835181335E+00    4.7076007055447038E+00    2.5759838101652570E+00
Ga    8.2013299322947493E+00    2.8787932830044025E+00    3.3109934190229593E+00
N    8.1186105972835669E+00    2.9152226737241271E+00    5.2999278314512344E+00
Ga    8.1420521571319853E+00    4.7854763705093690E+00    5.8457231694055221E+00
N    8.1273774102869112E+00    4.7764262453824369E+00    7.8499992517105994E+00
Ga    8.1106283124717748E+00    2.9237793896410511E+00    8.4911325211136202E+00
N    8.1083428135058622E+00    2.9207407463705937E+00    1.0485242268758977E+01
Ga    8.1334174602001212E+00    4.7817772788824584E+00    1.1115164771393344E+01
N    8.1513406843824292E+00    4.7905220682524412E+00    1.3111138847962419E+01
Ga    8.1083443414819030E+00    2.9225277010027271E+00    1.3669127379025802E+01
N    8.1374910491223424E+00    2.9082225054318096E+00    1.5631691242861457E+01
Ga    7.9556042343478133E+00    4.6774142524211033E+00    1.6529923984590990E+01
N    6.5171889919301069E+00    7.5476245409146925E+00    2.6494142201073121E+00
Ga    6.5230000792667280E+00    5.7868485052230634E+00    3.2952550214040000E+00
N    6.5092846571754164E+00    5.6968084571325361E+00    5.2863173650501913E+00
Ga    6.5273027208293239E+00    7.5528350361097001E+00    5.9001245388365842E+00
N    6.5120222185026169E+00    7.5559291315904469E+00    7.8862063798728013E+00
Ga    6.5118283980535132E+00    5.6896637211183174E+00    8.4779232950864891E+00
N    6.5096178921600822E+00    5.6869910182300227E+00    1.0475896925944321E+01
Ga    6.5137373575974058E+00    7.5560878136759149E+00    1.1070738113190805E+01
N    6.5128791643883934E+00    7.5567532518510383E+00    1.3044366228078333E+01
Ga    6.5129972863176864E+00    5.6883835785224255E+00    1.3668410276740580E+01
N    6.5135070462208544E+00    5.7187346021379799E+00    1.5630931491454028E+01
Ga    6.5127580822096336E+00    7.5573366924553325E+00    1.5911505191768924E+01
N    4.7940841237971181E+00    1.0285025874251716E+01    2.6072856427650342E+00
Ga    5.0266667772269962E+00    8.4182913739872465E+00    3.3453435577758062E+00
N    4.9000511346920304E+00    8.4823165050102656E+00    5.3058085438830149E+00
Ga    4.9250559400218403E+00    1.0353340089870494E+01    5.8681576747507327E+00
N    4.9112487938278111E+00    1.0344668855305397E+01    7.8616058269315765E+00
Ga    4.8987047284403520E+00    8.4866352088558568E+00    8.4871521587041254E+00
N    4.8928819314657224E+00    8.4893486731765773E+00    1.0481245926049500E+01
Ga    4.9203782225779555E+00    1.0348883290411603E+01    1.1117701058469921E+01
N    4.9365379151868218E+00    1.0360047812552272E+01    1.3112277225930589E+01
Ga    4.8949657373922673E+00    8.4916140980301265E+00    1.3668689731108596E+01
N    4.9210445267057645E+00    8.4770299795470692E+00    1.5630755710170261E+01
Ga    4.7397393798726064E+00    1.0246734865923090E+01    1.6529716719926068E+01
O    1.5094362364904867E-01    3.7936611984002884E+00   -4.2846217789609170E-01
C   -9.5615671047470863E-01    3.1654610013495930E+00   -1.1007155846950623E+00
H   -1.1315386015076012E+00    2.1360402306820738E+00   -7.4723753606345933E-01
H   -1.8920455301554289E+00    3.7341578590394260E+00   -9.7732345240471785E-01
H   -7.1056751429048992E-01    3.1283943663706189E+00   -2.1717425078329797E+00
Ga    3.2924863019294706E+00    5.6759350953595700E+00    2.9155418441206926E+00
H    1.2972782473597366E-01    7.5152723699705861E+00    1.6959103165019616E+00
C    3.2751048776449592E+00    1.8523229998142279E+00    1.2689512899757445E+00
H    4.2105959948104594E+00    1.6724657688728077E+00    7.2081617506543605E-01
H    2.3298910425627684E+00    1.7128145447453813E+00    7.2532789484320592E-01
     &END COORD
     &KIND C
       BASIS_SET DZVP-MOLOPT-SR-GTH-q4
       POTENTIAL GTH-PBE-q4
       &POTENTIAL
 2 2
  0.3384712400000000E+00 2 -0.8803673979999999E+01  0.1339210850000000E+01
 2
  0.3025757500000000E+00 1  0.9622486650000001E+01
  0.2915069400000000E+00 0
         # Potential name:  GTH-PBE-Q4  for symbol:  C
         # Potential read from the potential filename: GTH_POTENTIALS
       &END POTENTIAL
     &END KIND
     &KIND O
       BASIS_SET DZVP-MOLOPT-SR-GTH-q6
       POTENTIAL GTH-PBE-q6
       &POTENTIAL
 2 4
  0.2445543000000000E+00 2 -0.1666721480000000E+02  0.2487311320000000E+01
 2
  0.2209559200000000E+00 1  0.1833745811000000E+02
  0.2113324700000000E+00 0
         # Potential name:  GTH-PBE-Q6  for symbol:  O
         # Potential read from the potential filename: GTH_POTENTIALS
       &END POTENTIAL
     &END KIND
     &KIND H
       BASIS_SET DZVP-MOLOPT-SR-GTH-q1
       POTENTIAL GTH-PBE-q1
       &POTENTIAL
 1
  0.2000000000000000E+00 2 -0.4178900440000000E+01  0.7244633100000000E+00
 0
         # Potential name:  GTH-PBE-Q1  for symbol:  H
         # Potential read from the potential filename: GTH_POTENTIALS
       &END POTENTIAL
     &END KIND
     &KIND N
       BASIS_SET DZVP-MOLOPT-SR-GTH
       POTENTIAL GTH-PBE-q5
       &POTENTIAL
 2 3
  0.2837905100000000E+00 2 -0.1241522559000000E+02  0.1868095920000000E+01
 2
  0.2554050000000000E+00 1  0.1363026257000000E+02
  0.2454945300000000E+00 0
         # Potential name:  GTH-PBE-Q5  for symbol:  N
         # Potential read from the potential filename: GTH_POTENTIALS
       &END POTENTIAL
     &END KIND
     &KIND Ga
       BASIS_SET DZVP-MOLOPT-SR-GTH
       POTENTIAL GTH-PBE-q13
       &POTENTIAL
 2 1 10
  0.4900000000000000E+00 0
 3
  0.4167772300000000E+00 3  0.1047568975000000E+02 -0.4921768140000000E+01  0.8707055900000000E+00
  0.7770178090000000E+01 -0.2248152160000000E+01
  0.1784415450000000E+01
  0.5696265200000000E+00 2  0.1777985340000000E+01  0.1958597600000000E+00
 -0.2317443900000000E+00
  0.2381265000000000E+00 1 -0.1624868022000000E+02
         # Potential name:  GTH-PBE-Q13  for symbol:  GA
         # Potential read from the potential filename: GTH_POTENTIALS
       &END POTENTIAL
     &END KIND
     &TOPOLOGY
       NUMBER_OF_ATOMS  209
       MULTIPLE_UNIT_CELL  1 1 1
     &END TOPOLOGY
   &END SUBSYS
 &END FORCE_EVAL
