 # Version information for this restart file 
 # current date 2019-07-21 04:01:20.699
 # current working dir /lustre04/scratch/rzk/rzk/GaN-carbene/443-adatoms-both-2x2/12-CH3O-H2C-H/01-Start-1101
 # Program compiled at                              Sun Apr  7 00:48:11 EDT 2019
 # Program compiled on                          beluga2.int.ets1.calculquebec.ca
 # Program compiled for                        Beluga-Linux-x86-64-intel-openmpi
 # Source code revision number                                         svn:18619
 &GLOBAL
   PRINT_LEVEL  MEDIUM
   PROJECT_NAME TEST
   RUN_TYPE  GEO_OPT
 &END GLOBAL
 &MOTION
   &GEO_OPT
     MAX_ITER  500
     STEP_START_VAL  47
   &END GEO_OPT
 &END MOTION
 &FORCE_EVAL
   METHOD  QS
   STRESS_TENSOR  ANALYTICAL
   &DFT
     BASIS_SET_FILE_NAME BASIS_MOLOPT
     POTENTIAL_FILE_NAME GTH_POTENTIALS
     UKS  T
     SURFACE_DIPOLE_CORRECTION  T
     SURF_DIP_DIR  Z
     &SCF
       MAX_SCF  80
       EPS_SCF     5.0000000000000004E-06
       &OT  T
         PRECONDITIONER  FULL_ALL
       &END OT
       &OUTER_SCF  T
         OPTIMIZER  NONE
         EPS_SCF     5.0000000000000004E-06
         MAX_SCF  4
       &END OUTER_SCF
       &PRINT
         &RESTART  OFF
           BACKUP_COPIES  1
           &EACH
             JUST_ENERGY  0
             QS_SCF  0
             MD  20
           &END EACH
         &END RESTART
       &END PRINT
     &END SCF
     &QS
       EPS_DEFAULT     1.0000000000000000E-14
       METHOD  GPW
     &END QS
     &MGRID
       NGRIDS  5
       CUTOFF     1.2000000000000000E+03
     &END MGRID
     &XC
       DENSITY_CUTOFF     1.0000000000000000E-10
       GRADIENT_CUTOFF     1.0000000000000000E-10
       TAU_CUTOFF     1.0000000000000000E-10
       &XC_FUNCTIONAL  NO_SHORTCUT
         &PBE  T
         &END PBE
       &END XC_FUNCTIONAL
       &VDW_POTENTIAL
         POTENTIAL_TYPE  PAIR_POTENTIAL
         &PAIR_POTENTIAL
           R_CUTOFF     1.0000000000000004E+01
           TYPE  DFTD3
           PARAMETER_FILE_NAME dftd3.dat
           REFERENCE_FUNCTIONAL PBE
           EPS_CN     9.9999999999999995E-07
           CALCULATE_C9_TERM  T
           REFERENCE_C9_TERM  T
           LONG_RANGE_CORRECTION  F
           VERBOSE_OUTPUT  F
         &END PAIR_POTENTIAL
       &END VDW_POTENTIAL
     &END XC
   &END DFT
   &SUBSYS
     &CELL
       A     1.2864472766435110E+01    0.0000000000000000E+00    0.0000000000000000E+00
       B    -6.4322363581020028E+00    1.1140960178524473E+01    0.0000000000000000E+00
       C     0.0000000000000000E+00    0.0000000000000000E+00    3.2000000000000000E+01
       MULTIPLE_UNIT_CELL  1 1 1
       &CELL_REF
         A     1.2982353780853531E+01    0.0000000000000000E+00    0.0000000000000000E+00
         B    -6.4911768904267628E+00    1.1243048175136114E+01    0.0000000000000000E+00
         C     0.0000000000000000E+00    0.0000000000000000E+00    3.2000000000000000E+01
         MULTIPLE_UNIT_CELL  1 1 1
       &END CELL_REF
     &END CELL
     &COORD
N    6.9859407756526257E-02    2.1190893841409659E+00    2.5557198485645953E+00
Ga    8.6736489883549941E-02    1.5023819435320918E-01    2.9512476280719553E+00
N    5.8615066817210383E-02    1.4021706798232456E-01    5.1086823068882081E+00
Ga    6.5214450397222040E-02    1.9543495721587663E+00    5.8699854228397310E+00
N    8.1503744490679528E-02    1.9786107654784000E+00    7.8592571515196115E+00
Ga    8.4408323775622227E-02    1.2613213036916199E-01    8.4911103933164096E+00
N    8.1780759009219689E-02    1.2848439143300530E-01    1.0466993287662866E+01
Ga    8.0709530738511087E-02    1.9675466230117868E+00    1.1118549326236081E+01
N    8.0813518623773561E-02    1.9493567788732775E+00    1.3114073290992351E+01
Ga    8.0995871966831195E-02    1.2706503781251133E-01    1.3914278574163795E+01
N    7.8986435234474406E-02    1.2706182598356858E-01    1.6117874641965848E+01
Ga    8.0692852262251702E-02    2.1591873693769386E+00    1.6523241799163010E+01
Ga    3.3467657875891448E-02    3.8565585031346616E+00    1.3823681068122780E+00
N   -1.4123292753533387E+00    4.7059198651297534E+00    2.5629479284073260E+00
Ga   -1.6107946537009299E+00    2.8776857718372986E+00    3.3298662803865371E+00
N   -1.5270379673049053E+00    2.9178184154264750E+00    5.3119462063523502E+00
Ga   -1.5657209115513284E+00    4.7823721447532304E+00    5.8668135227016291E+00
N   -1.5361827004533259E+00    4.7769480960225845E+00    7.8604421412168870E+00
Ga   -1.5214198751402188E+00    2.9206497387404444E+00    8.4947332598268535E+00
N   -1.5174592328033030E+00    2.9205928934321341E+00    1.0487975156538408E+01
Ga   -1.5457677670565719E+00    4.7814403357407143E+00    1.1118819951423941E+01
N   -1.5601553547296763E+00    4.7903076722845146E+00    1.3114721425836988E+01
Ga   -1.5162526014699995E+00    2.9213392745814355E+00    1.3669400607834072E+01
N   -1.5423176521372006E+00    2.9067423248807667E+00    1.5635740379216273E+01
Ga   -1.3782606539997082E+00    4.6859871690036847E+00    1.6523622474379177E+01
N    7.0906941926100003E-02    3.8380518822445091E+00    1.7653743574467931E+01
N   -3.1478752999139124E+00    7.6153542248064454E+00    2.5185709949338588E+00
Ga   -3.1381445823269178E+00    5.6858784307078762E+00    2.9274436511616360E+00
N   -3.1336429703363038E+00    5.6884080674823601E+00    5.0964479244468404E+00
Ga   -3.1389143110397653E+00    7.5278770567996016E+00    5.8183121985026087E+00
N   -3.1340867763787275E+00    7.5486014238606209E+00    7.8301937802887398E+00
Ga   -3.1398460795578766E+00    5.7056193065384662E+00    8.4878716200263220E+00
N   -3.1373235502802701E+00    5.7019915005425483E+00    1.0466275316455365E+01
Ga   -3.1388605420781945E+00    7.5412426280114913E+00    1.1115097034321348E+01
N   -3.1365940810273787E+00    7.5215653934789870E+00    1.3110558525845324E+01
Ga   -3.1382567983292886E+00    5.7019169611162095E+00    1.3912958734090999E+01
N   -3.1391924206204331E+00    5.7011723259276863E+00    1.6117869315154554E+01
Ga   -3.1361088528806476E+00    7.7448924629690721E+00    1.6534430241362678E+01
Ga   -3.3884773081061321E+00    8.8367611583967367E+00    7.3837195204788120E-01
N   -4.7313240620812582E+00    1.0300508636600396E+01    2.5434486027259546E+00
Ga   -4.8090587112382535E+00    8.4541229413775287E+00    3.2484760584617880E+00
N   -4.7430040172189010E+00    8.4853383764543384E+00    5.2637584455868565E+00
Ga   -4.7827999761516917E+00    1.0349901013294177E+01    5.8228235152958634E+00
N   -4.7505370622132652E+00    1.0349161225882810E+01    7.8279144660430768E+00
Ga   -4.7333744184058260E+00    8.4897191300435608E+00    8.4691223837328131E+00
N   -4.7339005286634368E+00    8.4919424976189113E+00    1.0470224888897050E+01
Ga   -4.7579638077912039E+00    1.0348058997226344E+01    1.1114777158849508E+01
N   -4.7746138498291462E+00    1.0360317140665069E+01    1.3109869601968871E+01
Ga   -4.7332322555976249E+00    8.4920487316687296E+00    1.3669089112475314E+01
N   -4.7605687615681180E+00    8.4753810802875051E+00    1.5631628838688428E+01
Ga   -4.5824346372039866E+00    1.0248603406352530E+01    1.6533854673467218E+01
N   -3.1441184120690555E+00    9.4102927140199686E+00    1.7671227084690962E+01
N    3.2917845520063849E+00    2.1837483826808652E+00    2.5159560892222617E+00
Ga    3.2965607779914907E+00   -1.6993711308466908E-01    3.2851607397494660E+00
N    3.2951490349465318E+00    1.3857838740909598E-01    5.2243019856385340E+00
Ga    3.3003911641050334E+00    1.9672668109008189E+00    5.9117844180389207E+00
N    3.2966015863703002E+00    1.9798107972025172E+00    7.8813607162852843E+00
Ga    3.2952140673346908E+00    1.1215433374875067E-01    8.4789726264505259E+00
N    3.2961418880492204E+00    1.1662583570147882E-01    1.0473629661249632E+01
Ga    3.2961375283595311E+00    1.9835647050359824E+00    1.1076629594915737E+01
N    3.2958260666584338E+00    1.9856668023687056E+00    1.3048059136540010E+01
Ga    3.2964680789396783E+00    1.1581050132670097E-01    1.3670856890346563E+01
N    3.2975172887884323E+00    1.4902037832024492E-01    1.5631453903497061E+01
Ga    3.2965253010691153E+00    1.9859739524371824E+00    1.5912800630233633E+01
N    1.5553730792156870E+00    4.7129880743413093E+00    2.5556928551167712E+00
Ga    1.6218589394369061E+00    2.9268065269549868E+00    3.3771718783488835E+00
N    1.7028566009986545E+00    2.9050709624847761E+00    5.2975748544198815E+00
Ga    1.7172492478451851E+00    4.7928327458636879E+00    5.8641782280512791E+00
N    1.6953019700551382E+00    4.7738386211957655E+00    7.8507371408189455E+00
Ga    1.6813376111141818E+00    2.9160215963770426E+00    8.4901193009352092E+00
N    1.6794895586335408E+00    2.9199828277482447E+00    1.0481172045996653E+01
Ga    1.7035786290273693E+00    4.7791345921445494E+00    1.1120099943986130E+01
N    1.7201983338346274E+00    4.7892818396056471E+00    1.3114147599643367E+01
Ga    1.6776313603522850E+00    2.9206741972768722E+00    1.3669594065499098E+01
N    1.7040024666484141E+00    2.9086312467659781E+00    1.5633653987426081E+01
Ga    1.5303707301535625E+00    4.6805317807738263E+00    1.6525164688620361E+01
N    7.4420804072316105E-02    7.5443952176814770E+00    2.7205599621868131E+00
Ga    5.5633981565558384E-02    5.7047539098524069E+00    3.3784887702532433E+00
N    7.8005780739439173E-02    5.7120588738762388E+00    5.3142820263790478E+00
Ga    5.1794560453493406E-02    7.5619862877659241E+00    5.9408306676848603E+00
N    7.4920890688342345E-02    7.5583369393750415E+00    7.9056010534658370E+00
Ga    7.6748474599536626E-02    5.6880109726547294E+00    8.4949661971639170E+00
N    8.0692774020778818E-02    5.6871855390163955E+00    1.0485508938829906E+01
Ga    7.6416433091321637E-02    7.5570271969145528E+00    1.1078136628479694E+01
N    7.8695000858815631E-02    7.5566361103623620E+00    1.3049827166535993E+01
Ga    8.0208925475501749E-02    5.6871588114636165E+00    1.3669235534123242E+01
N    8.2552675828016009E-02    5.7168815398609194E+00    1.5633835974756950E+01
Ga    7.9660685273619719E-02    7.5578400467156088E+00    1.5912348699478578E+01
N   -1.5250229275942240E+00    1.0319787578061243E+01    2.5560517808686627E+00
Ga   -1.5622121597613807E+00    8.5040090396231918E+00    3.2380078108251547E+00
N   -1.5210162752055385E+00    8.4766408877780126E+00    5.2364465075914728E+00
Ga   -1.4918941910435970E+00    1.0349285163498280E+01    5.8203879530538307E+00
N   -1.5237567544885431E+00    1.0344540872917362E+01    7.8247734271616176E+00
Ga   -1.5472367070932813E+00    8.4926526268620552E+00    8.4849778448590492E+00
N   -1.5405251862240932E+00    8.4929554544794073E+00    1.0478607041119616E+01
Ga   -1.5150900326245933E+00    1.0350488287570451E+01    1.1118340216219094E+01
N   -1.4968212173513007E+00    1.0361171834730413E+01    1.3111437472791337E+01
Ga   -1.5405899836239163E+00    8.4932220947871642E+00    1.3670167851931787E+01
N   -1.5111857773284643E+00    8.4766869730513932E+00    1.5630784145935538E+01
Ga   -1.6957512704939677E+00    1.0245119005379385E+01    1.6535103974631880E+01
N    6.5300735614829177E+00    2.0955928380506608E+00    2.5580870222547594E+00
Ga    6.5131607469556085E+00    1.5119802268415725E-01    2.9783769889834764E+00
N    6.5364018182938768E+00    1.3700941255982715E-01    5.1242648939822475E+00
Ga    6.5244212525572394E+00    1.9608316745144621E+00    5.8643216399629274E+00
N    6.5086201578012899E+00    1.9795668224439626E+00    7.8556252126786248E+00
Ga    6.5046832965007795E+00    1.2822374792450164E-01    8.4898082614958810E+00
N    6.5086948627106143E+00    1.2868384329206592E-01    1.0465553647128280E+01
Ga    6.5108407868150406E+00    1.9686196925880837E+00    1.1117389872464587E+01
N    6.5115169118544936E+00    1.9493582385294019E+00    1.3112510128742915E+01
Ga    6.5109302486470311E+00    1.2930853408613627E-01    1.3917356588358556E+01
N    6.5096420820949472E+00    1.2869268161103636E-01    1.6118060321666160E+01
Ga    6.5129135931584363E+00    2.1670985981139843E+00    1.6528718268532394E+01
Ga    6.6038887583960051E+00    3.8778128829693963E+00    1.2947974419429253E+00
N    4.9974765249821331E+00    4.7214914683540492E+00    2.5681121314233346E+00
Ga    4.9834058080668617E+00    2.9383198300455975E+00    3.3473420037305646E+00
N    4.8893104638686218E+00    2.9011356969326152E+00    5.2776163998259049E+00
Ga    4.8807009559539924E+00    4.7921564091421214E+00    5.8397226723492590E+00
N    4.8915094862287543E+00    4.7724345640499628E+00    7.8380780131700050E+00
Ga    4.9103628334636751E+00    2.9196474442943670E+00    8.4874231341628548E+00
N    4.9117520789382274E+00    2.9204790659907824E+00    1.0479725741845423E+01
Ga    4.8902467293144198E+00    4.7800021560058594E+00    1.1117941687721638E+01
N    4.8728643367320466E+00    4.7891770525560275E+00    1.3112569183167087E+01
Ga    4.9156677890537628E+00    2.9207104850643351E+00    1.3669870008781148E+01
N    4.8870946016236676E+00    2.9066008843564308E+00    1.5633654386994364E+01
Ga    5.0628009538289200E+00    4.6814631514897078E+00    1.6529548232964842E+01
N    6.5045110359916984E+00    3.8377923910776115E+00    1.7663175898861272E+01
N    3.2801827243528057E+00    7.6804628781415909E+00    2.5828916005872968E+00
N    3.2865795396362802E+00    5.7016404074988047E+00    5.0801583318829433E+00
Ga    3.2987726620589810E+00    7.5226386220260109E+00    5.8618150280290564E+00
N    3.2926034999323641E+00    7.5448929767436415E+00    7.8525838330847693E+00
Ga    3.2976734692880321E+00    5.6971227069162058E+00    8.4948973928722520E+00
N    3.2958770749133839E+00    5.6986062439149485E+00    1.0467929299179360E+01
Ga    3.2975583222334959E+00    7.5383210958418960E+00    1.1120561709574869E+01
N    3.2964396019473168E+00    7.5201255222636121E+00    1.3114153871461673E+01
Ga    3.2974830293828061E+00    5.7001956947934493E+00    1.3914895368658712E+01
N    3.2952794602900561E+00    5.7000405346852352E+00    1.6118196773903144E+01
Ga    3.2975298958748156E+00    7.7417204171361442E+00    1.6530733340467879E+01
Ga    3.3224589138301783E+00    9.4402747085918293E+00    1.5983137402785836E+00
N    1.8019915746151285E+00    1.0275124182705129E+01    2.5990623627141560E+00
Ga    1.6419367389635271E+00    8.4680578292132758E+00    3.3962121828883234E+00
N    1.6701547385677586E+00    8.4775217628108557E+00    5.3189346775453075E+00
Ga    1.6676891564382512E+00    1.0361854767614352E+01    5.8853360515102917E+00
N    1.6806257143151369E+00    1.0342300854512892E+01    7.8695394387447513E+00
Ga    1.6955823148544722E+00    8.4869499754417497E+00    8.5002605890259293E+00
N    1.6977695826281634E+00    8.4891512464292127E+00    1.0488857694342098E+01
Ga    1.6706314036802126E+00    1.0351354555214044E+01    1.1119667611779489E+01
N    1.6553941180937830E+00    1.0361142620965147E+01    1.3113874481682364E+01
Ga    1.6991518238018628E+00    8.4923707741603831E+00    1.3670014574660703E+01
N    1.6725171266960819E+00    8.4746410309631646E+00    1.5633703961414971E+01
Ga    1.8453171950106091E+00    1.0252577600957210E+01    1.6529671249106414E+01
N    3.2871159852348497E+00    9.4111972030631357E+00    1.7664322993879928E+01
N    9.7322428511991372E+00    1.9935595726837720E+00    2.6841730763474416E+00
Ga    9.7313051134395092E+00    2.6277372956437456E-01    3.3688508073303463E+00
N    9.7261712633445061E+00    1.2819022834353358E-01    5.3255467620616832E+00
Ga    9.7255323999648287E+00    1.9967350467052596E+00    5.9261275643516758E+00
N    9.7266726848637539E+00    1.9861093437424855E+00    7.9064608311901727E+00
Ga    9.7301077756043295E+00    1.2075493418747137E-01    8.4988866447615372E+00
N    9.7279085978783773E+00    1.1732682322120148E-01    1.0489812269912598E+01
Ga    9.7269015426772629E+00    1.9871577104779905E+00    1.1079931926665761E+01
N    9.7283153052748172E+00    1.9871336668242436E+00    1.3051817832728036E+01
Ga    9.7290096969101292E+00    1.1631464139660341E-01    1.3669496853446367E+01
N    9.7314532260585871E+00    1.4870521792944605E-01    1.5631666279787678E+01
Ga    9.7281967848370421E+00    1.9866841919454670E+00    1.5910518983763389E+01
N    8.0248836461420883E+00    4.7077092393345747E+00    2.5762236449543354E+00
Ga    8.2012624397145046E+00    2.8790647530497306E+00    3.3111793400537790E+00
N    8.1186647920177446E+00    2.9154152246594740E+00    5.2999879863185448E+00
Ga    8.1420767511560133E+00    4.7855982084853093E+00    5.8458170186612701E+00
N    8.1273999276841060E+00    4.7764784025963607E+00    7.8499322425938303E+00
Ga    8.1106321356496771E+00    2.9238804325624193E+00    8.4911939893475097E+00
N    8.1082519316666311E+00    2.9207244722222896E+00    1.0485151449261103E+01
Ga    8.1334535007922142E+00    4.7817233005744839E+00    1.1115168178772727E+01
N    8.1513917118908434E+00    4.7902702529029426E+00    1.3111100821947712E+01
Ga    8.1081807121488048E+00    2.9222666003127782E+00    1.3668862312716712E+01
N    8.1377096455223263E+00    2.9085429352705923E+00    1.5631402044771329E+01
Ga    7.9558156996229625E+00    4.6774057865187890E+00    1.6529924981370343E+01
N    6.5170595766129340E+00    7.5473758999891079E+00    2.6493915577502398E+00
Ga    6.5230634189986842E+00    5.7867096652544943E+00    3.2954369667597367E+00
N    6.5093257989837570E+00    5.6968628340276419E+00    5.2863386681274003E+00
Ga    6.5273680627917834E+00    7.5528580941519090E+00    5.9001989867973048E+00
N    6.5120659765183477E+00    7.5559454847542442E+00    7.8860294951355989E+00
Ga    6.5119096489833987E+00    5.6896991505717489E+00    8.4779980261235295E+00
N    6.5096557546016740E+00    5.6868868658016609E+00    1.0475797854430407E+01
Ga    6.5137829423567544E+00    7.5560187139929464E+00    1.1070689265662894E+01
N    6.5129765176723433E+00    7.5567029077035235E+00    1.3044320754926302E+01
Ga    6.5129633928610824E+00    5.6882037261219764E+00    1.3668047418260592E+01
N    6.5138708334312865E+00    5.7187238949229950E+00    1.5630686116536589E+01
Ga    6.5126926385534585E+00    7.5574414147039501E+00    1.5912351533220219E+01
N    4.7939027497956612E+00    1.0284930987431508E+01    2.6074558421869414E+00
Ga    5.0269121880072420E+00    8.4184167386136455E+00    3.3458183788299793E+00
N    4.9000729117855499E+00    8.4823634168375239E+00    5.3060126760882040E+00
Ga    4.9250800726712232E+00    1.0353431801439308E+01    5.8681985051670162E+00
N    4.9112798818219536E+00    1.0344588644412205E+01    7.8615461094518277E+00
Ga    4.8987504646562057E+00    8.4865914483220699E+00    8.4872223904610458E+00
N    4.8929188983309650E+00    8.4893323652724444E+00    1.0481149759816402E+01
Ga    4.9204103936955601E+00    1.0348876760783048E+01    1.1117652212068124E+01
N    4.9364501165023693E+00    1.0360333829589665E+01    1.3112057079019305E+01
Ga    4.8949907207492771E+00    8.4918191018195675E+00    1.3668463345483397E+01
N    4.9211635158514406E+00    8.4770251704826549E+00    1.5630224933759362E+01
Ga    4.7393617131483081E+00    1.0246211753949419E+01    1.6530346013556823E+01
O    1.5072775577810940E-01    3.7938426417034532E+00   -4.2880755065835674E-01
C   -9.5635143636092268E-01    3.1652135868561233E+00   -1.1007573721924999E+00
H   -1.1314862869214855E+00    2.1359958201250824E+00   -7.4718076956747892E-01
H   -1.8918090914489567E+00    3.7342938670785957E+00   -9.7738512779648612E-01
H   -7.1043290301881634E-01    3.1285168288074265E+00   -2.1715910507946963E+00
Ga    3.2927057165968692E+00    5.6758347585127300E+00    2.9155909172851868E+00
H    1.2984384415091177E-01    7.5153449789338946E+00    1.6958707875463366E+00
C    3.2748731861045393E+00    1.8516330113529686E+00    1.2690836465743514E+00
H    4.2101350259442976E+00    1.6722055548170589E+00    7.2087423867423650E-01
H    2.3298582285242460E+00    1.7124473378339200E+00    7.2538684437752765E-01
     &END COORD
     &KIND C
       BASIS_SET DZVP-MOLOPT-SR-GTH-q4
       POTENTIAL GTH-PBE-q4
       &POTENTIAL
 2 2
  0.3384712400000000E+00 2 -0.8803673979999999E+01  0.1339210850000000E+01
 2
  0.3025757500000000E+00 1  0.9622486650000001E+01
  0.2915069400000000E+00 0
         # Potential name:  GTH-PBE-Q4  for symbol:  C
         # Potential read from the potential filename: GTH_POTENTIALS
       &END POTENTIAL
     &END KIND
     &KIND O
       BASIS_SET DZVP-MOLOPT-SR-GTH-q6
       POTENTIAL GTH-PBE-q6
       &POTENTIAL
 2 4
  0.2445543000000000E+00 2 -0.1666721480000000E+02  0.2487311320000000E+01
 2
  0.2209559200000000E+00 1  0.1833745811000000E+02
  0.2113324700000000E+00 0
         # Potential name:  GTH-PBE-Q6  for symbol:  O
         # Potential read from the potential filename: GTH_POTENTIALS
       &END POTENTIAL
     &END KIND
     &KIND H
       BASIS_SET DZVP-MOLOPT-SR-GTH-q1
       POTENTIAL GTH-PBE-q1
       &POTENTIAL
 1
  0.2000000000000000E+00 2 -0.4178900440000000E+01  0.7244633100000000E+00
 0
         # Potential name:  GTH-PBE-Q1  for symbol:  H
         # Potential read from the potential filename: GTH_POTENTIALS
       &END POTENTIAL
     &END KIND
     &KIND N
       BASIS_SET DZVP-MOLOPT-SR-GTH
       POTENTIAL GTH-PBE-q5
       &POTENTIAL
 2 3
  0.2837905100000000E+00 2 -0.1241522559000000E+02  0.1868095920000000E+01
 2
  0.2554050000000000E+00 1  0.1363026257000000E+02
  0.2454945300000000E+00 0
         # Potential name:  GTH-PBE-Q5  for symbol:  N
         # Potential read from the potential filename: GTH_POTENTIALS
       &END POTENTIAL
     &END KIND
     &KIND Ga
       BASIS_SET DZVP-MOLOPT-SR-GTH
       POTENTIAL GTH-PBE-q13
       &POTENTIAL
 2 1 10
  0.4900000000000000E+00 0
 3
  0.4167772300000000E+00 3  0.1047568975000000E+02 -0.4921768140000000E+01  0.8707055900000000E+00
  0.7770178090000000E+01 -0.2248152160000000E+01
  0.1784415450000000E+01
  0.5696265200000000E+00 2  0.1777985340000000E+01  0.1958597600000000E+00
 -0.2317443900000000E+00
  0.2381265000000000E+00 1 -0.1624868022000000E+02
         # Potential name:  GTH-PBE-Q13  for symbol:  GA
         # Potential read from the potential filename: GTH_POTENTIALS
       &END POTENTIAL
     &END KIND
     &TOPOLOGY
       NUMBER_OF_ATOMS  209
       MULTIPLE_UNIT_CELL  1 1 1
     &END TOPOLOGY
   &END SUBSYS
 &END FORCE_EVAL
