 # Version information for this restart file 
 # current date 2019-07-20 23:31:27.824
 # current working dir /lustre04/scratch/rzk/rzk/GaN-carbene/443-adatoms-both-2x2/12-CH3O-H2C-H/01-Start-1101
 # Program compiled at                              Sun Apr  7 00:48:11 EDT 2019
 # Program compiled on                          beluga2.int.ets1.calculquebec.ca
 # Program compiled for                        Beluga-Linux-x86-64-intel-openmpi
 # Source code revision number                                         svn:18619
 &GLOBAL
   PRINT_LEVEL  MEDIUM
   PROJECT_NAME TEST
   RUN_TYPE  GEO_OPT
 &END GLOBAL
 &MOTION
   &GEO_OPT
     MAX_ITER  500
     STEP_START_VAL  13
   &END GEO_OPT
 &END MOTION
 &FORCE_EVAL
   METHOD  QS
   STRESS_TENSOR  ANALYTICAL
   &DFT
     BASIS_SET_FILE_NAME BASIS_MOLOPT
     POTENTIAL_FILE_NAME GTH_POTENTIALS
     UKS  T
     SURFACE_DIPOLE_CORRECTION  T
     SURF_DIP_DIR  Z
     &SCF
       MAX_SCF  80
       EPS_SCF     5.0000000000000004E-06
       &OT  T
         PRECONDITIONER  FULL_ALL
       &END OT
       &OUTER_SCF  T
         OPTIMIZER  NONE
         EPS_SCF     5.0000000000000004E-06
         MAX_SCF  4
       &END OUTER_SCF
       &PRINT
         &RESTART  OFF
           BACKUP_COPIES  1
           &EACH
             JUST_ENERGY  0
             QS_SCF  0
             MD  20
           &END EACH
         &END RESTART
       &END PRINT
     &END SCF
     &QS
       EPS_DEFAULT     1.0000000000000000E-14
       METHOD  GPW
     &END QS
     &MGRID
       NGRIDS  5
       CUTOFF     1.2000000000000000E+03
     &END MGRID
     &XC
       DENSITY_CUTOFF     1.0000000000000000E-10
       GRADIENT_CUTOFF     1.0000000000000000E-10
       TAU_CUTOFF     1.0000000000000000E-10
       &XC_FUNCTIONAL  NO_SHORTCUT
         &PBE  T
         &END PBE
       &END XC_FUNCTIONAL
       &VDW_POTENTIAL
         POTENTIAL_TYPE  PAIR_POTENTIAL
         &PAIR_POTENTIAL
           R_CUTOFF     1.0000000000000004E+01
           TYPE  DFTD3
           PARAMETER_FILE_NAME dftd3.dat
           REFERENCE_FUNCTIONAL PBE
           EPS_CN     9.9999999999999995E-07
           CALCULATE_C9_TERM  T
           REFERENCE_C9_TERM  T
           LONG_RANGE_CORRECTION  F
           VERBOSE_OUTPUT  F
         &END PAIR_POTENTIAL
       &END VDW_POTENTIAL
     &END XC
   &END DFT
   &SUBSYS
     &CELL
       A     1.2864472766435110E+01    0.0000000000000000E+00    0.0000000000000000E+00
       B    -6.4322363581020028E+00    1.1140960178524473E+01    0.0000000000000000E+00
       C     0.0000000000000000E+00    0.0000000000000000E+00    3.2000000000000000E+01
       MULTIPLE_UNIT_CELL  1 1 1
       &CELL_REF
         A     1.2982353780853531E+01    0.0000000000000000E+00    0.0000000000000000E+00
         B    -6.4911768904267628E+00    1.1243048175136114E+01    0.0000000000000000E+00
         C     0.0000000000000000E+00    0.0000000000000000E+00    3.2000000000000000E+01
         MULTIPLE_UNIT_CELL  1 1 1
       &END CELL_REF
     &END CELL
     &COORD
N    6.8328276311046779E-02    2.1239305751260367E+00    2.5445404373194678E+00
Ga    8.6753764076171969E-02    1.5305146686706883E-01    2.9458549439849349E+00
N    5.8283000636717430E-02    1.4156667164103404E-01    5.0965933684073477E+00
Ga    6.2944329758573739E-02    1.9542388368835257E+00    5.8677790451193896E+00
N    7.9418981223120216E-02    1.9780540428146245E+00    7.8508764076216080E+00
Ga    8.2988183286376513E-02    1.2572218768240276E-01    8.4911901411056867E+00
N    7.9539924341868212E-02    1.2659496416383645E-01    1.0460982141955867E+01
Ga    7.8099506240323566E-02    1.9648453605979670E+00    1.1121816513859006E+01
N    7.7441428168006671E-02    1.9461446828072093E+00    1.3109199640867216E+01
Ga    7.7749239561602415E-02    1.2651985450409978E-01    1.3927052841859840E+01
N    7.6969114209147094E-02    1.2699236112405085E-01    1.6112015837892709E+01
Ga    7.6168791673072916E-02    2.1742379997920294E+00    1.6533175776511360E+01
Ga    3.3498495744031999E-02    3.8605320539244481E+00    1.3733654725122466E+00
N   -1.4116755794957940E+00    4.7094753859728220E+00    2.5527809991731494E+00
Ga   -1.6097377007775695E+00    2.8800084903253436E+00    3.3225671590749659E+00
N   -1.5286153189949081E+00    2.9191881529787800E+00    5.3015643712747256E+00
Ga   -1.5654803785543081E+00    4.7835314618811262E+00    5.8632741838032620E+00
N   -1.5380193052372053E+00    4.7767611646896384E+00    7.8509534223205879E+00
Ga   -1.5220578615791525E+00    2.9209795101656075E+00    8.4961365409099869E+00
N   -1.5190749940966684E+00    2.9195268516735950E+00    1.0481348306429624E+01
Ga   -1.5480326079431610E+00    4.7799839848107837E+00    1.1122460456479818E+01
N   -1.5638277645605683E+00    4.7883874454712920E+00    1.3110297678450237E+01
Ga   -1.5193520286994699E+00    2.9187415330814637E+00    1.3671813130892307E+01
N   -1.5461056002526872E+00    2.9030711296019218E+00    1.5628739767061781E+01
Ga   -1.3704497676854266E+00    4.6759600103145882E+00    1.6533159949466878E+01
N    7.6190218934969453E-02    3.8463594041049887E+00    1.7674613610866327E+01
N   -3.1426263206420035E+00    7.6258747497691743E+00    2.5038946799014088E+00
Ga   -3.1235626058021859E+00    5.7036981063245999E+00    2.9210190058574348E+00
N   -3.1347281527819795E+00    5.6899112525575637E+00    5.0820762556306693E+00
Ga   -3.1408902586244896E+00    7.5317614999478613E+00    5.8143021469844198E+00
N   -3.1360496829822999E+00    7.5478703625849359E+00    7.8206232761018724E+00
Ga   -3.1397516800809160E+00    5.7061284448848255E+00    8.4890020766220129E+00
N   -3.1392645655279603E+00    5.7004136437871766E+00    1.0460677095443684E+01
Ga   -3.1410566022360249E+00    7.5390008655309586E+00    1.1118507682583457E+01
N   -3.1396976549819340E+00    7.5177939257524713E+00    1.3106794455100127E+01
Ga   -3.1398850179765931E+00    5.6989575969325550E+00    1.3925053572332349E+01
N   -3.1398859929352030E+00    5.6992262499148039E+00    1.6113011026920891E+01
Ga   -3.1398402287628255E+00    7.7520180623627208E+00    1.6536160804553749E+01
Ga   -3.3266103427956386E+00    8.9456394102568328E+00    7.3649537617180494E-01
N   -4.7266648651250165E+00    1.0309549218593077E+01    2.5258220308594712E+00
Ga   -4.8039000957848623E+00    8.4584402678965773E+00    3.2277042189196741E+00
N   -4.7436715103575136E+00    8.4871447056985119E+00    5.2474674207743721E+00
Ga   -4.7855184327104903E+00    1.0349143321693338E+01    5.8200105182439374E+00
N   -4.7523412161576841E+00    1.0348785134279689E+01    7.8192561506331737E+00
Ga   -4.7337556649817172E+00    8.4900598326127579E+00    8.4708041426161351E+00
N   -4.7351664747321802E+00    8.4910008774214347E+00    1.0464163891745550E+01
Ga   -4.7613834750437602E+00    1.0346806197054612E+01    1.1118931881878943E+01
N   -4.7789327231918497E+00    1.0357645628789463E+01    1.3107254498901929E+01
Ga   -4.7369506375890635E+00    8.4883574855214956E+00    1.3670539114487571E+01
N   -4.7652565512445273E+00    8.4707010435135164E+00    1.5625490445031634E+01
Ga   -4.5811292195341826E+00    1.0242979541877499E+01    1.6535262768811673E+01
N   -3.1400105874194524E+00    9.4163352892964536E+00    1.7667526471626008E+01
N    3.2859086173802794E+00    2.1921187569686604E+00    2.5095991335390826E+00
Ga    3.2934096899573064E+00   -1.6501013098847400E-01    3.2891231291757830E+00
N    3.2949721124451936E+00    1.4142962959608485E-01    5.2200268479140783E+00
Ga    3.2927962359376557E+00    1.9663078319021181E+00    5.9184247975768223E+00
N    3.2939834703941568E+00    1.9797632613944152E+00    7.8789697195311899E+00
Ga    3.2924061910915352E+00    1.1059995038913560E-01    8.4816121544965348E+00
N    3.2936197236165987E+00    1.1456742856688189E-01    1.0468966569725998E+01
Ga    3.2933103498894489E+00    1.9823797962982894E+00    1.1078081770086317E+01
N    3.2928015658282899E+00    1.9835259059487280E+00    1.3041792407341468E+01
Ga    3.2925537861020824E+00    1.1368277290400658E-01    1.3672519846969857E+01
N    3.2925073424586806E+00    1.4962717358276686E-01    1.5627834456360878E+01
Ga    3.2927540005790377E+00    1.9851693821288932E+00    1.5909770971434492E+01
N    1.5558090804127751E+00    4.7162712197140113E+00    2.5477242305887144E+00
Ga    1.6133264279632331E+00    2.9313964536408252E+00    3.3756373521930843E+00
N    1.7015492221626938E+00    2.9065903846763046E+00    5.2914508538168921E+00
Ga    1.7152044333722387E+00    4.7940205048562818E+00    5.8636354470504211E+00
N    1.6941722888690507E+00    4.7737009127727035E+00    7.8432452014700633E+00
Ga    1.6775030515449429E+00    2.9160832524261537E+00    8.4923985723281898E+00
N    1.6762806970148278E+00    2.9188303714400514E+00    1.0475542441311974E+01
Ga    1.7009479429620502E+00    4.7776929688833407E+00    1.1124519784140881E+01
N    1.7174888139469766E+00    4.7875051737257577E+00    1.3111040656853470E+01
Ga    1.6736816142311224E+00    2.9179214207906279E+00    1.3672370719112804E+01
N    1.6994252176004963E+00    2.9028752690107984E+00    1.5629039849468919E+01
Ga    1.5225777305099788E+00    4.6757915705638151E+00    1.6533771618378104E+01
N    7.6821030434960552E-02    7.5501888354237447E+00    2.7156001918435462E+00
Ga    5.5978352571237976E-02    5.7097352200790477E+00    3.3719079921540200E+00
N    7.7812736370439201E-02    5.7139949800956424E+00    5.3050152297980322E+00
Ga    5.1929140425021017E-02    7.5633003145585818E+00    5.9400695734772730E+00
N    7.3347642686930392E-02    7.5577867823507798E+00    7.8992577487804700E+00
Ga    7.4687946404408637E-02    5.6874059477937058E+00    8.4955401001048614E+00
N    7.8342075241568818E-02    5.6850970686522828E+00    1.0478893302850377E+01
Ga    7.4686661100880888E-02    7.5555751348863849E+00    1.1078242739058856E+01
N    7.5735357929688565E-02    7.5538459623919989E+00    1.3041513979169887E+01
Ga    7.6594398021503945E-02    5.6849990078852866E+00    1.3672272968005641E+01
N    7.6600524693485841E-02    5.7150801748039637E+00    1.5629894155532623E+01
Ga    7.6668155312247882E-02    7.5533498363293674E+00    1.5911878785203367E+01
N   -1.5323327427862410E+00    1.0323357321236818E+01    2.5420370512177426E+00
Ga   -1.5612397548010104E+00    8.5047815224557901E+00    3.2394892565292546E+00
N   -1.5202729085055171E+00    8.4798597664166149E+00    5.2308428888597920E+00
Ga   -1.4926250463347406E+00    1.0350710074234396E+01    5.8228518722823575E+00
N   -1.5251484579234149E+00    1.0345379320472736E+01    7.8188459323689639E+00
Ga   -1.5493891864039662E+00    8.4918014923582312E+00    8.4853486817425434E+00
N   -1.5434353726377683E+00    8.4916085899651996E+00    1.0472242440679731E+01
Ga   -1.5174259212821457E+00    1.0348550195867498E+01    1.1123025529531416E+01
N   -1.4992641454567011E+00    1.0358249133076944E+01    1.3109862829886772E+01
Ga   -1.5427743054849015E+00    8.4884855755548614E+00    1.3671989692623670E+01
N   -1.5137437269113283E+00    8.4705320141030516E+00    1.5626756521940640E+01
Ga   -1.6982895522684796E+00    1.0243239062192018E+01    1.6535480632981237E+01
N    6.5256044743660713E+00    2.1077418176297726E+00    2.5583001156580774E+00
Ga    6.5149091633110610E+00    1.3825250931054084E-01    2.9790043381841134E+00
N    6.5353888027532046E+00    1.4044699954451814E-01    5.1122728484100799E+00
Ga    6.5246624290678401E+00    1.9583486085532202E+00    5.8729249456093777E+00
N    6.5074049991608529E+00    1.9790904880717002E+00    7.8526619074665227E+00
Ga    6.5033699392538171E+00    1.2619832786159177E-01    8.4939156653531764E+00
N    6.5064803036552865E+00    1.2642090736665629E-01    1.0462074234464653E+01
Ga    6.5084828486328057E+00    1.9659416238682943E+00    1.1121991645799522E+01
N    6.5084453355927607E+00    1.9461190147185907E+00    1.3109122453292763E+01
Ga    6.5086436899749316E+00    1.2727007257024445E-01    1.3929030886231047E+01
N    6.5084942468280502E+00    1.2727049352401607E-01    1.6112883081498271E+01
Ga    6.5085760326499820E+00    2.1750836847504607E+00    1.6533329307412302E+01
Ga    6.5828300033437612E+00    3.8792348635491791E+00    1.4084136339010969E+00
N    5.0063442955887787E+00    4.7171989444280875E+00    2.5700120748918045E+00
Ga    4.9623915337243352E+00    2.9263261775346336E+00    3.3686304344502309E+00
N    4.8874994446676814E+00    2.9014838113933488E+00    5.2838117136369283E+00
Ga    4.8787562132705782E+00    4.7956749810260479E+00    5.8490566758300488E+00
N    4.8901342064653353E+00    4.7723121229235197E+00    7.8354200105735643E+00
Ga    4.9080152514993109E+00    2.9188412040752061E+00    8.4926297045355383E+00
N    4.9101740636100946E+00    2.9194117508415993E+00    1.0475476283250261E+01
Ga    4.8872402114897469E+00    4.7791172993373960E+00    1.1122583756738020E+01
N    4.8691767878823820E+00    4.7876604788648933E+00    1.3109556094979009E+01
Ga    4.9120355627356789E+00    2.9181719785696987E+00    1.3671673927989234E+01
N    4.8855847928427290E+00    2.9030604860622855E+00    1.5628210974394056E+01
Ga    5.0626915770367917E+00    4.6757748725181862E+00    1.6533450927641145E+01
N    6.5084701525804336E+00    3.8468083218324227E+00    1.7674593427484599E+01
N    3.2824938736536997E+00    7.6816776920854029E+00    2.5791117256680125E+00
N    3.2887986118405124E+00    5.7009520393073050E+00    5.0694418735658680E+00
Ga    3.2993704526888576E+00    7.5251542692736475E+00    5.8621428092011154E+00
N    3.2916064297500967E+00    7.5431866829764411E+00    7.8461292636510196E+00
Ga    3.2946240986745599E+00    5.6968541196746294E+00    8.4983526582078373E+00
N    3.2932618506261471E+00    5.6967428937889411E+00    1.0463977531807014E+01
Ga    3.2953004887250894E+00    7.5362620540072474E+00    1.1124165319537607E+01
N    3.2935194627287263E+00    7.5164759585243797E+00    1.3110530584223550E+01
Ga    3.2936501888839858E+00    5.6977863729806897E+00    1.3927325985494763E+01
N    3.2927083404823909E+00    5.6986297264070229E+00    1.6113420750417006E+01
Ga    3.2930078498607434E+00    7.7515848544400985E+00    1.6535558597728691E+01
Ga    3.3240521544508019E+00    9.4407188658354002E+00    1.5811381499942427E+00
N    1.8019815109984343E+00    1.0278577636274962E+01    2.5943688019447153E+00
Ga    1.6460686151166231E+00    8.4714910132231864E+00    3.3930459302573799E+00
N    1.6707984671963765E+00    8.4786926368315623E+00    5.3134561482459377E+00
Ga    1.6686149906217980E+00    1.0362833991046925E+01    5.8837772987006307E+00
N    1.6788238576782557E+00    1.0342731759650524E+01    7.8620749097123834E+00
Ga    1.6942382052447473E+00    8.4865245388011559E+00    8.5009728671612539E+00
N    1.6965133214106873E+00    8.4879526201092936E+00    1.0482439001235466E+01
Ga    1.6684676929387798E+00    1.0349257850420109E+01    1.1124293885745253E+01
N    1.6516354080770932E+00    1.0358225708911723E+01    1.3111388721465465E+01
Ga    1.6951551816467116E+00    8.4880460872386898E+00    1.3671603292125338E+01
N    1.6671024798305041E+00    8.4703812336368465E+00    1.5626745271909440E+01
Ga    1.8509398233992493E+00    1.0243603634609130E+01    1.6534457293545934E+01
N    3.2932286091052787E+00    9.4165261102855826E+00    1.7666618439666191E+01
N    9.7334151024867452E+00    1.9940123534326257E+00    2.6705350484393611E+00
Ga    9.7341965885475386E+00    2.6178435226333613E-01    3.3624957906146298E+00
N    9.7258288146625027E+00    1.3079964470927952E-01    5.3171135639964815E+00
Ga    9.7294805756506459E+00    1.9956352920224862E+00    5.9296072761442025E+00
N    9.7252094808613041E+00    1.9863798573135920E+00    7.9014495979651738E+00
Ga    9.7289426716315699E+00    1.1971832645935684E-01    8.5011992648809542E+00
N    9.7257420008334545E+00    1.1553993303307995E-01    1.0484973042792813E+01
Ga    9.7257049538461384E+00    1.9858340291370307E+00    1.1081870421484298E+01
N    9.7250998629404126E+00    1.9848338304108901E+00    1.3045751375788194E+01
Ga    9.7257907820110692E+00    1.1373351466839281E-01    1.3671571073857161E+01
N    9.7251770876670545E+00    1.4935241774110097E-01    1.5627586830427703E+01
Ga    9.7246994238248892E+00    1.9853523525500223E+00    1.5907719315457344E+01
N    8.0239736372478809E+00    4.7125085472488299E+00    2.5780594472995886E+00
Ga    8.2198251203572035E+00    2.8750129623350396E+00    3.3288466191429853E+00
N    8.1169637633750913E+00    2.9173904631908791E+00    5.2993794542292765E+00
Ga    8.1453934729094897E+00    4.7894562830608072E+00    5.8515607768175411E+00
N    8.1264933122397789E+00    4.7764102534872492E+00    7.8448564287365645E+00
Ga    8.1100628952296745E+00    2.9237864822028747E+00    8.4964573738935734E+00
N    8.1057053279172102E+00    2.9196811769153488E+00    1.0481172011869452E+01
Ga    8.1321525854380958E+00    4.7810151975564574E+00    1.1120051326294853E+01
N    8.1491585277501652E+00    4.7887097394518117E+00    1.3108483749614965E+01
Ga    8.1050473832373360E+00    2.9194710376260375E+00    1.3671287314299351E+01
N    8.1312963210041538E+00    2.9032820626265785E+00    1.5628146859566424E+01
Ga    7.9545689032676847E+00    4.6759333176854954E+00    1.6532942886923859E+01
N    6.5134608234565645E+00    7.5552376744305620E+00    2.6360582442682197E+00
Ga    6.5270157872329646E+00    5.8134483968195232E+00    3.3154783775126209E+00
N    6.5091404937114925E+00    5.6980230780639554E+00    5.2878343862745050E+00
Ga    6.5293119258959802E+00    7.5612201714223470E+00    5.9024395661453868E+00
N    6.5115012811590089E+00    7.5560815704645661E+00    7.8806098332015537E+00
Ga    6.5112229764695693E+00    5.6906657803194278E+00    8.4825443689258737E+00
N    6.5076820626570147E+00    5.6853131261878573E+00    1.0471338550855958E+01
Ga    6.5119678614681415E+00    7.5555292829923806E+00    1.1071911156116965E+01
N    6.5101165716452432E+00    7.5540217810876582E+00    1.3037182163379441E+01
Ga    6.5095165254576246E+00    5.6859562398091006E+00    1.3670829008892648E+01
N    6.5085848336828107E+00    5.7153126321437453E+00    1.5628424607876472E+01
Ga    6.5092401145765120E+00    7.5532426128341772E+00    1.5911664953911384E+01
N    4.7939060896537935E+00    1.0288190548589373E+01    2.5994499728118035E+00
Ga    5.0257317545659852E+00    8.4272666852285578E+00    3.3438127401873001E+00
N    4.9003826136775226E+00    8.4837690124204439E+00    5.3012205229826437E+00
Ga    4.9250900528631059E+00    1.0355474925293665E+01    5.8668961535705231E+00
N    4.9099887450380999E+00    1.0344784931174942E+01    7.8541967527010685E+00
Ga    4.8972221009255410E+00    8.4868966415863376E+00    8.4888017262495676E+00
N    4.8904456171601183E+00    8.4880518491643429E+00    1.0475596189762328E+01
Ga    4.9189731762743509E+00    1.0347526015840712E+01    1.1121915343600797E+01
N    4.9345585621892010E+00    1.0357783737975879E+01    1.3109773763799730E+01
Ga    4.8919668819921993E+00    8.4880921547540140E+00    1.3670716810529534E+01
N    4.9188849061146502E+00    8.4704501487405661E+00    1.5625965965987627E+01
Ga    4.7349060716264662E+00    1.0243606226271053E+01    1.6534091394828561E+01
O    1.4671626703295518E-01    3.7871018462296799E+00   -4.3868796207705307E-01
C   -9.7317436878779673E-01    3.1679440688892297E+00   -1.0978651841202016E+00
H   -1.1679766850890192E+00    2.1480616023487960E+00   -7.2658762897916684E-01
H   -1.8978032548088735E+00    3.7565746619007965E+00   -9.8232589872136344E-01
H   -7.3153622815266039E-01    3.1077388856836090E+00   -2.1687917318085304E+00
Ga    3.2823308736824823E+00    5.6875843894185865E+00    2.9209385241608214E+00
H    1.3035187048440031E-01    7.5243984750122852E+00    1.6908409971347005E+00
C    3.2722538219510708E+00    1.9006485803215518E+00    1.2533594088283075E+00
H    4.2077891358655251E+00    1.7329519342833850E+00    7.0106823043219957E-01
H    2.3275313838573757E+00    1.7771225695674182E+00    7.0467298137618073E-01
     &END COORD
     &KIND C
       BASIS_SET DZVP-MOLOPT-SR-GTH-q4
       POTENTIAL GTH-PBE-q4
       &POTENTIAL
 2 2
  0.3384712400000000E+00 2 -0.8803673979999999E+01  0.1339210850000000E+01
 2
  0.3025757500000000E+00 1  0.9622486650000001E+01
  0.2915069400000000E+00 0
         # Potential name:  GTH-PBE-Q4  for symbol:  C
         # Potential read from the potential filename: GTH_POTENTIALS
       &END POTENTIAL
     &END KIND
     &KIND O
       BASIS_SET DZVP-MOLOPT-SR-GTH-q6
       POTENTIAL GTH-PBE-q6
       &POTENTIAL
 2 4
  0.2445543000000000E+00 2 -0.1666721480000000E+02  0.2487311320000000E+01
 2
  0.2209559200000000E+00 1  0.1833745811000000E+02
  0.2113324700000000E+00 0
         # Potential name:  GTH-PBE-Q6  for symbol:  O
         # Potential read from the potential filename: GTH_POTENTIALS
       &END POTENTIAL
     &END KIND
     &KIND H
       BASIS_SET DZVP-MOLOPT-SR-GTH-q1
       POTENTIAL GTH-PBE-q1
       &POTENTIAL
 1
  0.2000000000000000E+00 2 -0.4178900440000000E+01  0.7244633100000000E+00
 0
         # Potential name:  GTH-PBE-Q1  for symbol:  H
         # Potential read from the potential filename: GTH_POTENTIALS
       &END POTENTIAL
     &END KIND
     &KIND N
       BASIS_SET DZVP-MOLOPT-SR-GTH
       POTENTIAL GTH-PBE-q5
       &POTENTIAL
 2 3
  0.2837905100000000E+00 2 -0.1241522559000000E+02  0.1868095920000000E+01
 2
  0.2554050000000000E+00 1  0.1363026257000000E+02
  0.2454945300000000E+00 0
         # Potential name:  GTH-PBE-Q5  for symbol:  N
         # Potential read from the potential filename: GTH_POTENTIALS
       &END POTENTIAL
     &END KIND
     &KIND Ga
       BASIS_SET DZVP-MOLOPT-SR-GTH
       POTENTIAL GTH-PBE-q13
       &POTENTIAL
 2 1 10
  0.4900000000000000E+00 0
 3
  0.4167772300000000E+00 3  0.1047568975000000E+02 -0.4921768140000000E+01  0.8707055900000000E+00
  0.7770178090000000E+01 -0.2248152160000000E+01
  0.1784415450000000E+01
  0.5696265200000000E+00 2  0.1777985340000000E+01  0.1958597600000000E+00
 -0.2317443900000000E+00
  0.2381265000000000E+00 1 -0.1624868022000000E+02
         # Potential name:  GTH-PBE-Q13  for symbol:  GA
         # Potential read from the potential filename: GTH_POTENTIALS
       &END POTENTIAL
     &END KIND
     &TOPOLOGY
       NUMBER_OF_ATOMS  209
       MULTIPLE_UNIT_CELL  1 1 1
     &END TOPOLOGY
   &END SUBSYS
 &END FORCE_EVAL
