 # Version information for this restart file 
 # current date 2019-05-23 14:38:25.282
 # current working dir /lustre03/project/6004141/rzk/GaN-carbene/02-Water/01-O-ads
 # Program compiled at                              Sun Apr  7 00:48:11 EDT 2019
 # Program compiled on                          beluga2.int.ets1.calculquebec.ca
 # Program compiled for                        Beluga-Linux-x86-64-intel-openmpi
 # Source code revision number                                         svn:18619
 &GLOBAL
   PRINT_LEVEL  MEDIUM
   PROJECT_NAME TEST
   RUN_TYPE  GEO_OPT
 &END GLOBAL
 &MOTION
   &GEO_OPT
     MAX_ITER  500
     STEP_START_VAL  58
   &END GEO_OPT
 &END MOTION
 &FORCE_EVAL
   METHOD  QS
   STRESS_TENSOR  ANALYTICAL
   &DFT
     BASIS_SET_FILE_NAME BASIS_MOLOPT
     POTENTIAL_FILE_NAME GTH_POTENTIALS
     &SCF
       MAX_SCF  100
       EPS_SCF     5.0000000000000004E-06
       &OT  T
         PRECONDITIONER  FULL_ALL
       &END OT
       &OUTER_SCF  T
         OPTIMIZER  NONE
         EPS_SCF     5.0000000000000004E-06
         MAX_SCF  10
       &END OUTER_SCF
       &PRINT
         &RESTART  OFF
           BACKUP_COPIES  1
           &EACH
             JUST_ENERGY  0
             QS_SCF  0
             MD  20
           &END EACH
         &END RESTART
       &END PRINT
     &END SCF
     &QS
       EPS_DEFAULT     1.0000000000000000E-14
       ALMO_SCF  F
       METHOD  GPW
     &END QS
     &MGRID
       NGRIDS  5
       CUTOFF     1.2000000000000000E+03
     &END MGRID
     &XC
       DENSITY_CUTOFF     1.0000000000000000E-10
       GRADIENT_CUTOFF     1.0000000000000000E-10
       TAU_CUTOFF     1.0000000000000000E-10
       &XC_FUNCTIONAL  NO_SHORTCUT
         &PBE  T
         &END PBE
       &END XC_FUNCTIONAL
       &VDW_POTENTIAL
         POTENTIAL_TYPE  PAIR_POTENTIAL
         &PAIR_POTENTIAL
           R_CUTOFF     1.0000000000000005E+01
           TYPE  DFTD3
           PARAMETER_FILE_NAME dftd3.dat
           REFERENCE_FUNCTIONAL PBE
           EPS_CN     9.9999999999999995E-07
           CALCULATE_C9_TERM  T
           REFERENCE_C9_TERM  T
           LONG_RANGE_CORRECTION  F
           VERBOSE_OUTPUT  F
         &END PAIR_POTENTIAL
       &END VDW_POTENTIAL
     &END XC
   &END DFT
   &SUBSYS
     &CELL
       A     9.7367653356401487E+00    0.0000000000000000E+00    0.0000000000000000E+00
       B    -4.8591341382960209E+00    8.4162672083210595E+00    0.0000000000000000E+00
       C     0.0000000000000000E+00    0.0000000000000000E+00    3.0744000000000000E+01
       MULTIPLE_UNIT_CELL  1 1 1
       &CELL_REF
         A     9.5580000000000052E+00    0.0000000000000000E+00    0.0000000000000000E+00
         B    -4.7790000000000026E+00    8.2774708093716640E+00    0.0000000000000000E+00
         C     0.0000000000000000E+00    0.0000000000000000E+00    3.0744000000000000E+01
         MULTIPLE_UNIT_CELL  1 1 1
       &END CELL_REF
     &END CELL
     &COORD
Ga    1.8793677360144624E-02    8.4177190792245997E-03   -5.5388605915921696E-01
N    2.1019641254912933E-02    1.8811893887566025E+00    5.6152390299621580E-01
Ga    1.9668087072423728E-02    1.8502745867052146E+00    2.5953985532877173E+00
N    1.6511475169841357E-02    6.0741308788066582E-03    3.2249050290310777E+00
Ga    1.6328180601150630E-02    6.4624004054037723E-03    5.2169995411583638E+00
N    1.8960535531720835E-02    1.8811464300951650E+00    5.8030235280543208E+00
Ga    1.7021471461587410E-02    1.8782626932232498E+00    7.8026884311932792E+00
N    1.3236378831745117E-02    4.7767003124823638E-03    8.4032947167855596E+00
Ga    1.3054941134214135E-02    5.0607448078624755E-03    1.0401159738148515E+01
N    1.8946289770168413E-02    1.8755111104326723E+00    1.1009646364599554E+01
Ga    2.2470600754123264E-02    1.8754548683648535E+00    1.3006382492456659E+01
N    1.8584123615044433E-02   -1.6419279961640480E-03    1.3601379854336630E+01
Ga    1.0291416911608476E-02    9.3768632289092664E-04    1.5602766364651202E+01
N    1.8118295865328214E-04    1.8761774016514290E+00    1.6157751889917730E+01
Ga   -7.0195458775600423E-03    1.8738532306027578E+00    1.8198235497526490E+01
N   -1.4268051759807072E-02    1.2248674738883372E-02    1.8649855242060653E+01
Ga   -1.6029217221234449E+00    2.8129740368964904E+00    2.7695699074367147E-01
N   -1.6031131254503446E+00    4.6823948771957120E+00    5.6165738521140640E-01
Ga   -1.5758851084251912E+00    4.6973486137882885E+00    2.5923482495444583E+00
N   -1.6032064456914548E+00    2.8116550171747337E+00    3.1840556684154642E+00
Ga   -1.6040608185139063E+00    2.8117121905212970E+00    5.1956881041122864E+00
N   -1.6036323138651416E+00    4.6818723149670332E+00    5.8024083884503250E+00
Ga   -1.6042454633771701E+00    4.6807574638002265E+00    7.8015192674493488E+00
N   -1.6041971368830501E+00    2.8111059573004016E+00    8.4083253853545088E+00
Ga   -1.6032608134901656E+00    2.8129019347350290E+00    1.0405721989201554E+01
N   -1.6023390607388313E+00    4.6858458524240971E+00    1.1010257223237078E+01
Ga   -1.6035644898974948E+00    4.6901374294035909E+00    1.3008099176403855E+01
N   -1.6085006163432889E+00    2.8106831061081601E+00    1.3579024832197168E+01
Ga   -1.6150003085449904E+00    2.8096272561624240E+00    1.5568595692887987E+01
N   -1.6160285308916225E+00    4.6729850328247400E+00    1.6175212495544510E+01
Ga   -1.6236037639357241E+00    4.6905231518396873E+00    1.8220941401319791E+01
N   -1.6058253508934477E+00    2.8243964968416617E+00    1.8675405621713910E+01
Ga   -3.2223496542284993E+00    5.6170503548092086E+00    2.7690882455544213E-01
N   -3.2159709140645445E+00    7.4890830960429069E+00    5.6121567308934051E-01
Ga   -3.2435293295174725E+00    7.5027781435031908E+00    2.5951738798620716E+00
N   -3.2228278303576965E+00    5.6171563988405397E+00    3.1837169341231308E+00
Ga   -3.2234357944096530E+00    5.6173318375422197E+00    5.1952194778658178E+00
N   -3.2179256000201621E+00    7.4872406187405840E+00    5.8034342260142902E+00
Ga   -3.2210913504397167E+00    7.4860039237360514E+00    7.8033730053758728E+00
N   -3.2256124567516369E+00    5.6146101655091964E+00    8.4065148526813971E+00
Ga   -3.2266239030408208E+00    5.6149712722185185E+00    1.0403127448374445E+01
N   -3.2229293144594231E+00    7.4874647958874290E+00    1.0999681528543313E+01
Ga   -3.2232818219648283E+00    7.4849442764306886E+00    1.2990932362845546E+01
N   -3.2296370384604134E+00    5.6203803163339758E+00    1.3607437068630677E+01
Ga   -3.2347596109451713E+00    5.6213373705194627E+00    1.5611512906982057E+01
N   -3.2227969028083212E+00    7.4883043337557025E+00    1.6255175064395527E+01
Ga   -3.2386118896586220E+00    7.4980195336857891E+00    1.8363410971231144E+01
N   -3.2440518222883519E+00    5.6158534492910048E+00    1.8646959752630984E+01
Ga    3.2651795045572043E+00    8.2150819639530033E-03    2.7661457301842213E-01
N    3.2616404443630462E+00    1.8765878280231933E+00    5.6266493209498858E-01
Ga    3.2894792216398137E+00    1.8918189616470880E+00    2.5924829636625888E+00
N    3.2622700710098136E+00    6.2009435010827842E-03    3.1841396144338869E+00
Ga    3.2617084257212174E+00    6.7759085507915007E-03    5.1955918851542213E+00
N    3.2615685806984391E+00    1.8766242915445654E+00    5.8028175554426760E+00
Ga    3.2609521768349410E+00    1.8760153442612890E+00    7.8020668417744172E+00
N    3.2601590031555139E+00    5.4361802445986422E-03    8.4060782385421273E+00
Ga    3.2594610689876120E+00    6.9383041635332704E-03    1.0402567416516096E+01
N    3.2598504552979359E+00    1.8774070187407825E+00    1.1011422107215608E+01
Ga    3.2550885723257190E+00    1.8774623616185768E+00    1.3010249458657237E+01
N    3.2511249429723059E+00    2.7852599679082149E-03    1.3605944832662813E+01
Ga    3.2450630366950692E+00    6.5128227979326268E-03    1.5608850958045201E+01
N    3.2536788220111665E+00    1.8869720111771546E+00    1.6164227931504190E+01
Ga    3.2590077974863161E+00    1.8707961955159436E+00    1.8207195272132306E+01
N    3.2432239113826662E+00    1.5502568885870345E-02    1.8679717796111323E+01
Ga    1.6449085777655486E+00    2.8134170683674173E+00    2.7653070748269054E-01
N    1.6498515892604955E+00    4.6829389218638831E+00    5.6118014550804640E-01
Ga    1.6207516243313282E+00    4.6974452066714081E+00    2.5917307081384906E+00
N    1.6424705555820183E+00    2.8119778423214066E+00    3.1837002047130452E+00
Ga    1.6422659645301527E+00    2.8119613622987707E+00    5.1949539903754500E+00
N    1.6472503086533827E+00    4.6817938074046284E+00    5.8026066561707541E+00
Ga    1.6445985039244047E+00    4.6810992516007897E+00    7.8017162769442203E+00
N    1.6400839603498578E+00    2.8107555766925509E+00    8.4076248631570571E+00
Ga    1.6395782028006927E+00    2.8116683229801476E+00    1.0404306836977527E+01
N    1.6387129394467355E+00    4.6837626514182684E+00    1.1010225161583902E+01
Ga    1.6332219453878183E+00    4.6855628924382522E+00    1.3007576662009395E+01
N    1.6371306638625609E+00    2.8210389504133890E+00    1.3626729380725871E+01
Ga    1.6316647899135150E+00    2.8345319465113432E+00    1.5638595817075934E+01
N    1.6318194063938292E+00    4.6846834045726329E+00    1.6301505235560793E+01
Ga    1.6261782702549192E+00    4.6895432252103939E+00    1.8586632449392500E+01
N    1.6226321728518125E+00    2.7793294703098446E+00    1.8626750296028561E+01
Ga    2.4187776150390746E-02    5.6191447094467994E+00   -5.9095511759783337E-01
N    2.7026567950503351E-02    7.4929105969539416E+00    5.6206340616980266E-01
Ga    2.5603994065863767E-02    7.4605626690535001E+00    2.5924964141272904E+00
N    2.2712496577171955E-02    5.6169746246930377E+00    3.2244774071642390E+00
Ga    2.2176014687060208E-02    5.6173804303305896E+00    5.2151351267813206E+00
N    2.4821167694302829E-02    7.4918350942092600E+00    5.8024857419782796E+00
Ga    2.3509504890165595E-02    7.4891590089854905E+00    7.8016411909720196E+00
N    2.0268418711154486E-02    5.6156378612464284E+00    8.4018020133039553E+00
Ga    1.8535530201126655E-02    5.6167285785914993E+00    1.0398505602934804E+01
N    1.9539059394831765E-02    7.4851208195011338E+00    1.1008485687094973E+01
Ga    1.4347415465584419E-02    7.4816609636059752E+00    1.3005655057820830E+01
N    1.8183168045503538E-02    5.6167300827186875E+00    1.3641479664086967E+01
Ga    2.6397173353452569E-02    5.6147962262009674E+00    1.5660397214178129E+01
N    1.8309591863184666E-02    7.5059378029725936E+00    1.6188486150669945E+01
Ga   -9.6471597121340754E-05    7.5007454438751866E+00    1.8242938541750618E+01
N   -2.9218259606537882E-02    5.6374698199590911E+00    1.8697634449146335E+01
Ga    6.5072511961267194E+00    8.5692416090836707E-03    2.7654600593284406E-01
N    6.5158609231971756E+00    1.8771619555866170E+00    5.6229904101308426E-01
Ga    6.4859491382296470E+00    1.8920149419877859E+00    2.5920426220430084E+00
N    6.5076842836745037E+00    6.3854740896605025E-03    3.1841235263252705E+00
Ga    6.5069295567156580E+00    7.1162621293820944E-03    5.1957541929737108E+00
N    6.5124878244035012E+00    1.8765109067995154E+00    5.8053051949748404E+00
Ga    6.5100036212100827E+00    1.8753019263810049E+00    7.8060914516536020E+00
N    6.5053939953075286E+00    3.1687136974274670E-03    8.4078609964296103E+00
Ga    6.5041971390021889E+00    1.4928327128860123E-03    1.0405206455999332E+01
N    6.5067231961593883E+00    1.8769644662291614E+00    1.0993497861644729E+01
Ga    6.5039438817273973E+00    1.8754938102572116E+00    1.2982932077196297E+01
N    6.4998217484848411E+00    3.4438243364764624E-03    1.3581042883307738E+01
Ga    6.4949304938706192E+00    1.0425665130965446E-02    1.5572604620844476E+01
N    6.5196070206303514E+00    1.8704032816339917E+00    1.6164159479883768E+01
Ga    6.5286037064993296E+00    1.8743192879495612E+00    1.8223007020322399E+01
N    6.4880841184169613E+00    2.3506675621358004E-03    1.8657647654585475E+01
Ga    4.8889773041576996E+00    2.8127129811434251E+00   -5.9315821119753809E-01
N    4.8923236948726903E+00    4.6880455869166440E+00    5.6231864638408313E-01
Ga    4.8909246535561870E+00    4.6546108904882777E+00    2.5921041757333159E+00
N    4.8880665327480983E+00    2.8114213607250464E+00    3.2252433961267104E+00
Ga    4.8877147129163943E+00    2.8115160046099779E+00    5.2161992430525652E+00
N    4.8899648200222892E+00    4.6863453403623625E+00    5.8026513752613385E+00
Ga    4.8878649575850108E+00    4.6836462898538631E+00    7.8020205719742046E+00
N    4.8844159671281933E+00    2.8109689066835970E+00    8.4042143640364468E+00
Ga    4.8815937048573641E+00    2.8125337882353572E+00    1.0402618761937058E+01
N    4.8863163866702113E+00    4.6834916110865619E+00    1.1011551488760320E+01
Ga    4.8818537143027143E+00    4.6847403917415429E+00    1.3010695652988163E+01
N    4.8856280801817258E+00    2.8077559439154776E+00    1.3594734338559068E+01
Ga    4.8885044696174083E+00    2.8041519251467775E+00    1.5591465782247226E+01
N    4.8760745759086355E+00    4.6786720851550321E+00    1.6165096257860448E+01
Ga    4.8918188360701045E+00    4.6783379595562522E+00    1.8209776249864415E+01
N    4.8862756496215471E+00    2.8015905857450880E+00    1.8589737342688206E+01
Ga    3.2702086513954769E+00    5.6163914806736281E+00    2.7650194512353565E-01
N    3.2693671499656247E+00    7.4884535705396917E+00    5.6079604618564505E-01
Ga    3.2948227052525541E+00    7.5025135990871155E+00    2.5950480149103634E+00
N    3.2681219418139209E+00    5.6170168915306018E+00    3.1832890474205744E+00
Ga    3.2677444848443433E+00    5.6169599480568690E+00    5.1946117461865065E+00
N    3.2677757324553993E+00    7.4870249443008046E+00    5.8026837607551194E+00
Ga    3.2666963977388255E+00    7.4855680633469195E+00    7.8022650281963299E+00
N    3.2654559010238069E+00    5.6151873121562899E+00    8.4079424087380215E+00
Ga    3.2642514775913294E+00    5.6152942190650066E+00    1.0404823623164660E+01
N    3.2696583927821123E+00    7.4856552566963845E+00    1.1010590716135903E+01
Ga    3.2681136166375961E+00    7.4780267900906479E+00    1.3008409889439614E+01
N    3.2533993338805942E+00    5.6071935553850407E+00    1.3627337502850621E+01
Ga    3.2389464051151933E+00    5.6058158227618362E+00    1.5640239632660665E+01
N    3.2569589626068716E+00    7.4982090228138238E+00    1.6152928045865789E+01
Ga    3.2508528026844510E+00    7.5104826690705311E+00    1.8195462767288102E+01
N    3.2726728037926964E+00    5.6316873281766258E+00    1.8582159003827226E+01
O    1.3506989811647032E+00    4.5905071110105569E+00    2.1011187747852397E+01
H    4.9581922365649961E-01    5.0369008483405633E+00    2.0835960146065165E+01
H    1.1353308011931733E+00    3.6395591992083762E+00    2.1023850684199004E+01
     &END COORD
     &KIND O
       BASIS_SET DZVP-MOLOPT-SR-GTH-q6
       POTENTIAL GTH-PBE-q6
       &POTENTIAL
 2 4
  0.2445543000000000E+00 2 -0.1666721480000000E+02  0.2487311320000000E+01
 2
  0.2209559200000000E+00 1  0.1833745811000000E+02
  0.2113324700000000E+00 0
         # Potential name:  GTH-PBE-Q6  for symbol:  O
         # Potential read from the potential filename: GTH_POTENTIALS
       &END POTENTIAL
     &END KIND
     &KIND H
       BASIS_SET DZVP-MOLOPT-SR-GTH-q1
       POTENTIAL GTH-PBE-q1
       &POTENTIAL
 1
  0.2000000000000000E+00 2 -0.4178900440000000E+01  0.7244633100000000E+00
 0
         # Potential name:  GTH-PBE-Q1  for symbol:  H
         # Potential read from the potential filename: GTH_POTENTIALS
       &END POTENTIAL
     &END KIND
     &KIND N
       BASIS_SET DZVP-MOLOPT-SR-GTH-q5
       POTENTIAL GTH-PBE-q5
       &POTENTIAL
 2 3
  0.2837905100000000E+00 2 -0.1241522559000000E+02  0.1868095920000000E+01
 2
  0.2554050000000000E+00 1  0.1363026257000000E+02
  0.2454945300000000E+00 0
         # Potential name:  GTH-PBE-Q5  for symbol:  N
         # Potential read from the potential filename: GTH_POTENTIALS
       &END POTENTIAL
     &END KIND
     &KIND Ga
       BASIS_SET DZVP-MOLOPT-SR-GTH-q13
       POTENTIAL GTH-PBE-q13
       &POTENTIAL
 2 1 10
  0.4900000000000000E+00 0
 3
  0.4167772300000000E+00 3  0.1047568975000000E+02 -0.4921768140000000E+01  0.8707055900000000E+00
  0.7770178090000000E+01 -0.2248152160000000E+01
  0.1784415450000000E+01
  0.5696265200000000E+00 2  0.1777985340000000E+01  0.1958597600000000E+00
 -0.2317443900000000E+00
  0.2381265000000000E+00 1 -0.1624868022000000E+02
         # Potential name:  GTH-PBE-Q13  for symbol:  GA
         # Potential read from the potential filename: GTH_POTENTIALS
       &END POTENTIAL
     &END KIND
     &TOPOLOGY
       NUMBER_OF_ATOMS  147
       MULTIPLE_UNIT_CELL  1 1 1
     &END TOPOLOGY
   &END SUBSYS
 &END FORCE_EVAL
