 # Version information for this restart file 
 # current date 2019-05-23 14:39:19.828
 # current working dir /lustre03/project/6004141/rzk/GaN-carbene/02-Water/01-O-ads
 # Program compiled at                              Sun Apr  7 00:48:11 EDT 2019
 # Program compiled on                          beluga2.int.ets1.calculquebec.ca
 # Program compiled for                        Beluga-Linux-x86-64-intel-openmpi
 # Source code revision number                                         svn:18619
 &GLOBAL
   PRINT_LEVEL  MEDIUM
   PROJECT_NAME TEST
   RUN_TYPE  GEO_OPT
 &END GLOBAL
 &MOTION
   &GEO_OPT
     MAX_ITER  500
     STEP_START_VAL  59
   &END GEO_OPT
 &END MOTION
 &FORCE_EVAL
   METHOD  QS
   STRESS_TENSOR  ANALYTICAL
   &DFT
     BASIS_SET_FILE_NAME BASIS_MOLOPT
     POTENTIAL_FILE_NAME GTH_POTENTIALS
     &SCF
       MAX_SCF  100
       EPS_SCF     5.0000000000000004E-06
       &OT  T
         PRECONDITIONER  FULL_ALL
       &END OT
       &OUTER_SCF  T
         OPTIMIZER  NONE
         EPS_SCF     5.0000000000000004E-06
         MAX_SCF  10
       &END OUTER_SCF
       &PRINT
         &RESTART  OFF
           BACKUP_COPIES  1
           &EACH
             JUST_ENERGY  0
             QS_SCF  0
             MD  20
           &END EACH
         &END RESTART
       &END PRINT
     &END SCF
     &QS
       EPS_DEFAULT     1.0000000000000000E-14
       ALMO_SCF  F
       METHOD  GPW
     &END QS
     &MGRID
       NGRIDS  5
       CUTOFF     1.2000000000000000E+03
     &END MGRID
     &XC
       DENSITY_CUTOFF     1.0000000000000000E-10
       GRADIENT_CUTOFF     1.0000000000000000E-10
       TAU_CUTOFF     1.0000000000000000E-10
       &XC_FUNCTIONAL  NO_SHORTCUT
         &PBE  T
         &END PBE
       &END XC_FUNCTIONAL
       &VDW_POTENTIAL
         POTENTIAL_TYPE  PAIR_POTENTIAL
         &PAIR_POTENTIAL
           R_CUTOFF     1.0000000000000005E+01
           TYPE  DFTD3
           PARAMETER_FILE_NAME dftd3.dat
           REFERENCE_FUNCTIONAL PBE
           EPS_CN     9.9999999999999995E-07
           CALCULATE_C9_TERM  T
           REFERENCE_C9_TERM  T
           LONG_RANGE_CORRECTION  F
           VERBOSE_OUTPUT  F
         &END PAIR_POTENTIAL
       &END VDW_POTENTIAL
     &END XC
   &END DFT
   &SUBSYS
     &CELL
       A     9.7367653356401487E+00    0.0000000000000000E+00    0.0000000000000000E+00
       B    -4.8591341382960209E+00    8.4162672083210595E+00    0.0000000000000000E+00
       C     0.0000000000000000E+00    0.0000000000000000E+00    3.0744000000000000E+01
       MULTIPLE_UNIT_CELL  1 1 1
       &CELL_REF
         A     9.5580000000000052E+00    0.0000000000000000E+00    0.0000000000000000E+00
         B    -4.7790000000000026E+00    8.2774708093716640E+00    0.0000000000000000E+00
         C     0.0000000000000000E+00    0.0000000000000000E+00    3.0744000000000000E+01
         MULTIPLE_UNIT_CELL  1 1 1
       &END CELL_REF
     &END CELL
     &COORD
Ga    1.8707565693083725E-02    8.4569571654331266E-03   -5.5457205550952271E-01
N    2.0927260832294025E-02    1.8812038251488810E+00    5.6163414748690188E-01
Ga    1.9583370154260218E-02    1.8502836833543217E+00    2.5954320616817439E+00
N    1.6417743416193436E-02    6.0829829824219613E-03    3.2248877219535146E+00
Ga    1.6256191134495081E-02    6.4795898356398846E-03    5.2169296383376942E+00
N    1.8899041899668987E-02    1.8811658234555608E+00    5.8030453292497093E+00
Ga    1.6998493647270050E-02    1.8782585207445126E+00    7.8026249302251687E+00
N    1.3215341160400592E-02    4.7615226010469030E-03    8.4033667247975874E+00
Ga    1.3024835205816940E-02    5.0135494241168605E-03    1.0401135888976327E+01
N    1.8955270696904357E-02    1.8754866016521483E+00    1.1009702545819412E+01
Ga    2.2477304868796306E-02    1.8754067418264213E+00    1.3006314903259376E+01
N    1.8598503041543313E-02   -1.7108844141521672E-03    1.3601469535864304E+01
Ga    1.0137839975243963E-02    8.2006869902897725E-04    1.5602823752130565E+01
N    1.0334456472344389E-04    1.8759943165172732E+00    1.6158095315126502E+01
Ga   -6.6139557100104926E-03    1.8740493661714046E+00    1.8198562614354483E+01
N   -1.4057106154210056E-02    1.2316753487448982E-02    1.8649401072441435E+01
Ga   -1.6030076031314051E+00    2.8129164163908356E+00    2.7696774713388445E-01
N   -1.6032082454355869E+00    4.6824153939373847E+00    5.6163894559753036E-01
Ga   -1.5759856580342924E+00    4.6973533683414592E+00    2.5924236451542191E+00
N   -1.6033070118293740E+00    2.8116832007183814E+00    3.1840595110547740E+00
Ga   -1.6041322660988482E+00    2.8117249156174875E+00    5.1956192803413295E+00
N   -1.6036937317774604E+00    4.6818912846377483E+00    5.8024041495107639E+00
Ga   -1.6042555235606866E+00    4.6807731608434890E+00    7.8014258924870763E+00
N   -1.6042094387950847E+00    2.8111248480925308E+00    8.4083826161757305E+00
Ga   -1.6032419079944604E+00    2.8129340443885757E+00    1.0405687241304499E+01
N   -1.6022817013814041E+00    4.6858702205319807E+00    1.1010399066338778E+01
Ga   -1.6034823106880367E+00    4.6901487753824744E+00    1.3008207420849434E+01
N   -1.6084498086948107E+00    2.8106157691967835E+00    1.3579057433113910E+01
Ga   -1.6149038228187234E+00    2.8095689931297638E+00    1.5568572913427049E+01
N   -1.6157062754020279E+00    4.6728918678843945E+00    1.6174873944407448E+01
Ga   -1.6230144415978918E+00    4.6907109152070490E+00    1.8220459084613324E+01
N   -1.6054937895467412E+00    2.8245950765279257E+00    1.8675029248070469E+01
Ga   -3.2225117803616796E+00    5.6171116381485309E+00    2.7690290731365852E-01
N   -3.2160663067551813E+00    7.4891027629134825E+00    5.6131786244779580E-01
Ga   -3.2436204910384197E+00    7.5027882514606974E+00    2.5952046125088533E+00
N   -3.2229132547197779E+00    5.6171395938710562E+00    3.1837184100222400E+00
Ga   -3.2235191457353087E+00    5.6173365615608715E+00    5.1951496772797823E+00
N   -3.2179806075285984E+00    7.4872535057633156E+00    5.8034400837701456E+00
Ga   -3.2210988810116934E+00    7.4860072437387819E+00    7.8033010773643641E+00
N   -3.2256205310229613E+00    5.6146043568454385E+00    8.4065532079528023E+00
Ga   -3.2265789530609079E+00    5.6149587518263759E+00    1.0403085996957074E+01
N   -3.2229023931225633E+00    7.4874542629499956E+00    1.0999732643007501E+01
Ga   -3.2232626377771738E+00    7.4848963270504276E+00    1.2990885108149138E+01
N   -3.2296109283479115E+00    5.6203431979678156E+00    1.3607527061350156E+01
Ga   -3.2346632634504995E+00    5.6210705985318334E+00    1.5611638153155926E+01
N   -3.2226827683890100E+00    7.4882144131959949E+00    1.6255182766416929E+01
Ga   -3.2382786525564158E+00    7.4981771793185139E+00    1.8363454587571255E+01
N   -3.2434782532365944E+00    5.6159940521285101E+00    1.8646738789896034E+01
Ga    3.2650201261963399E+00    8.2700053071962498E-03    2.7662173667013729E-01
N    3.2615221498773783E+00    1.8765894582553386E+00    5.6279005892336209E-01
Ga    3.2893870288935094E+00    1.8918372822200920E+00    2.5925147686447145E+00
N    3.2621983253169233E+00    6.2284715102623308E-03    3.1841452624527267E+00
Ga    3.2616440938036253E+00    6.8146147658719354E-03    5.1955227144233502E+00
N    3.2615066974468565E+00    1.8766490991491318E+00    5.8028306582354139E+00
Ga    3.2609276741906821E+00    1.8760307933881291E+00    7.8019858547580672E+00
N    3.2601570919901111E+00    5.4525621578912073E-03    8.4061218297332996E+00
Ga    3.2594643755657700E+00    6.9754601182368424E-03    1.0402508707704818E+01
N    3.2598427170077318E+00    1.8774436732234048E+00    1.1011523021420198E+01
Ga    3.2549918534211466E+00    1.8775723860000046E+00    1.3010272082202624E+01
N    3.2510847856403515E+00    2.8452828491902817E-03    1.3605913961211430E+01
Ga    3.2452500932155233E+00    6.4455379545278078E-03    1.5608778574265308E+01
N    3.2535322730525578E+00    1.8868876598405677E+00    1.6163942498517045E+01
Ga    3.2591715439573634E+00    1.8713409804420835E+00    1.8206922215053130E+01
N    3.2433774247921745E+00    1.5970952942441972E-02    1.8679594406954024E+01
Ga    1.6448141152515499E+00    2.8133548295119120E+00    2.7652259341336416E-01
N    1.6497398599800948E+00    4.6829550549671346E+00    5.6114600220008015E-01
Ga    1.6206703281174566E+00    4.6974514464618435E+00    2.5918029735898735E+00
N    1.6424009089117482E+00    2.8120044715340713E+00    3.1837084898549670E+00
Ga    1.6422067314766846E+00    2.8119736444823493E+00    5.1948885480220923E+00
N    1.6471807012721353E+00    4.6818122357681959E+00    5.8026060359436613E+00
Ga    1.6445753967850816E+00    4.6810953457600997E+00    7.8016290284105789E+00
N    1.6400545125468353E+00    2.8107603326450827E+00    8.4076819526534283E+00
Ga    1.6395784493677663E+00    2.8116851671765275E+00    1.0404256309996720E+01
N    1.6387343194221333E+00    4.6837448340914438E+00    1.1010333974584833E+01
Ga    1.6332781873234212E+00    4.6855442830170864E+00    1.3007581873728986E+01
N    1.6369960657072595E+00    2.8210364390526546E+00    1.3627055299733655E+01
Ga    1.6314296874037748E+00    2.8345298310300024E+00    1.5638851273692110E+01
N    1.6317773490614589E+00    4.6845900477232156E+00    1.6301606952013334E+01
Ga    1.6262456214544769E+00    4.6898439914021539E+00    1.8586252727769416E+01
N    1.6228770465837807E+00    2.7797239065954820E+00    1.8626758485567180E+01
Ga    2.4076447372210347E-02    5.6191641962101890E+00   -5.9044906149068710E-01
N    2.6926978530615972E-02    7.4929148048180174E+00    5.6204864757175577E-01
Ga    2.5504076642454413E-02    7.4605886314037209E+00    2.5925727309155167E+00
N    2.2619638997849408E-02    5.6169911755139896E+00    3.2244690597419012E+00
Ga    2.2108135204121363E-02    5.6173982184935589E+00    5.2150944152002516E+00
N    2.4757953517057469E-02    7.4918593528798674E+00    5.8024855205585153E+00
Ga    2.3502997575193613E-02    7.4891770803361686E+00    7.8015613358286462E+00
N    2.0267257796998905E-02    5.6156469496050541E+00    8.4018732339471871E+00
Ga    1.8589358179391141E-02    5.6167426961024409E+00    1.0398517964844153E+01
N    1.9523502909356619E-02    7.4851462203494163E+00    1.1008546230720759E+01
Ga    1.4400746708643138E-02    7.4817478310024370E+00    1.3005674191169270E+01
N    1.8331496602769094E-02    5.6167818026231666E+00    1.3641511689357015E+01
Ga    2.6535323501481849E-02    5.6148548152564546E+00    1.5660358865727028E+01
N    1.8406566298335866E-02    7.5058174334102841E+00    1.6188578687819316E+01
Ga    1.8063251300642425E-05    7.5010607336826709E+00    1.8243130261832672E+01
N   -2.9010096684025159E-02    5.6377086764247215E+00    1.8697995596086361E+01
Ga    6.5072150903946353E+00    8.6212337616416342E-03    2.7655342356247437E-01
N    6.5157858003722060E+00    1.8771702390343949E+00    5.6241347595203361E-01
Ga    6.4858611047843180E+00    1.8920348591346126E+00    2.5920697352351949E+00
N    6.5075685483702062E+00    6.4049959287126278E-03    3.1841259054824302E+00
Ga    6.5068634392731450E+00    7.1549915521112424E-03    5.1956849977849604E+00
N    6.5124133220883147E+00    1.8765434115416488E+00    5.8053212177341811E+00
Ga    6.5099649764694885E+00    1.8753243849606804E+00    7.8060236772948937E+00
N    6.5053815294827455E+00    3.1921787760776604E-03    8.4079472959298389E+00
Ga    6.5042198763303478E+00    1.5079092554989403E-03    1.0405227466287258E+01
N    6.5067059470095998E+00    1.8770323187718587E+00    1.0993487417011705E+01
Ga    6.5039374206718694E+00    1.8755527989194956E+00    1.2982830833077154E+01
N    6.4998470127353336E+00    3.5261994891919988E-03    1.3580920269190607E+01
Ga    6.4949334319981054E+00    1.0279382357514145E-02    1.5572429382407423E+01
N    6.5195863086237109E+00    1.8704364158469577E+00    1.6164003163074725E+01
Ga    6.5288497196421806E+00    1.8746077658800036E+00    1.8222954297464685E+01
N    6.4884139925728439E+00    2.4439700988679231E-03    1.8657711113800310E+01
Ga    4.8888600886921978E+00    2.8127414053918796E+00   -5.9378064837707645E-01
N    4.8922188937073461E+00    4.6881041900028571E+00    5.6243374935734558E-01
Ga    4.8908245354711184E+00    4.6546307057052010E+00    2.5921253767228887E+00
N    4.8879745634621301E+00    2.8114423165922102E+00    3.2252280661783126E+00
Ga    4.8876379681925375E+00    2.8115478394794025E+00    5.2161151040993934E+00
N    4.8898959546616547E+00    4.6863604385735735E+00    5.8026717496998392E+00
Ga    4.8878320959770285E+00    4.6836565659562694E+00    7.8019473353284186E+00
N    4.8843800117468463E+00    2.8109925922466217E+00    8.4042606814902427E+00
Ga    4.8815661161050405E+00    2.8125860430939906E+00    1.0402560376173184E+01
N    4.8863309117210010E+00    4.6835336798218163E+00    1.1011582886706593E+01
Ga    4.8818500169823125E+00    4.6847937694440605E+00    1.3010621991451373E+01
N    4.8855693596761300E+00    2.8077973810940224E+00    1.3594763469607603E+01
Ga    4.8884950565411227E+00    2.8041603350555340E+00    1.5591483591263042E+01
N    4.8760705812715868E+00    4.6786370483382864E+00    1.6165679995421250E+01
Ga    4.8920934773066147E+00    4.6786765793116238E+00    1.8210623362370551E+01
N    4.8865256339721350E+00    2.8016518174227540E+00    1.8589812706395165E+01
Ga    3.2701645304946965E+00    5.6164487517746329E+00    2.7648404438005680E-01
N    3.2692702248153687E+00    7.4884688217804154E+00    5.6088819481047392E-01
Ga    3.2947326973669844E+00    7.5025251201849796E+00    2.5950694492490980E+00
N    3.2680266511123466E+00    5.6170123323968593E+00    3.1832937523424891E+00
Ga    3.2676830339351790E+00    5.6169734276460241E+00    5.1945458339946819E+00
N    3.2677012578633544E+00    7.4870420938565472E+00    5.8027028506033087E+00
Ga    3.2666567298556153E+00    7.4855648988813108E+00    7.8022036271017496E+00
N    3.2654156595228292E+00    5.6151789097753548E+00    8.4079958896886513E+00
Ga    3.2642406032555535E+00    5.6152768318759883E+00    1.0404776906897254E+01
N    3.2696472502011917E+00    7.4855906734359552E+00    1.1010682555144403E+01
Ga    3.2680606167708786E+00    7.4779746796912985E+00    1.3008421289445874E+01
N    3.2534279795736607E+00    5.6070860111667562E+00    1.3627550970928665E+01
Ga    3.2389372147453521E+00    5.6056179692568939E+00    1.5640497510345389E+01
N    3.2569475022814793E+00    7.4980896077002308E+00    1.6152684065273242E+01
Ga    3.2510921699527131E+00    7.5104778076640466E+00    1.8195044613001439E+01
N    3.2727572873687953E+00    5.6317789610661873E+00    1.8582149937853170E+01
O    1.3509671337605003E+00    4.5911198234424972E+00    2.1011198435522861E+01
H    4.9587869593969436E-01    5.0370595023733316E+00    2.0835658670382841E+01
H    1.1359873187935592E+00    3.6399746819860104E+00    2.1024521787958161E+01
     &END COORD
     &KIND O
       BASIS_SET DZVP-MOLOPT-SR-GTH-q6
       POTENTIAL GTH-PBE-q6
       &POTENTIAL
 2 4
  0.2445543000000000E+00 2 -0.1666721480000000E+02  0.2487311320000000E+01
 2
  0.2209559200000000E+00 1  0.1833745811000000E+02
  0.2113324700000000E+00 0
         # Potential name:  GTH-PBE-Q6  for symbol:  O
         # Potential read from the potential filename: GTH_POTENTIALS
       &END POTENTIAL
     &END KIND
     &KIND H
       BASIS_SET DZVP-MOLOPT-SR-GTH-q1
       POTENTIAL GTH-PBE-q1
       &POTENTIAL
 1
  0.2000000000000000E+00 2 -0.4178900440000000E+01  0.7244633100000000E+00
 0
         # Potential name:  GTH-PBE-Q1  for symbol:  H
         # Potential read from the potential filename: GTH_POTENTIALS
       &END POTENTIAL
     &END KIND
     &KIND N
       BASIS_SET DZVP-MOLOPT-SR-GTH-q5
       POTENTIAL GTH-PBE-q5
       &POTENTIAL
 2 3
  0.2837905100000000E+00 2 -0.1241522559000000E+02  0.1868095920000000E+01
 2
  0.2554050000000000E+00 1  0.1363026257000000E+02
  0.2454945300000000E+00 0
         # Potential name:  GTH-PBE-Q5  for symbol:  N
         # Potential read from the potential filename: GTH_POTENTIALS
       &END POTENTIAL
     &END KIND
     &KIND Ga
       BASIS_SET DZVP-MOLOPT-SR-GTH-q13
       POTENTIAL GTH-PBE-q13
       &POTENTIAL
 2 1 10
  0.4900000000000000E+00 0
 3
  0.4167772300000000E+00 3  0.1047568975000000E+02 -0.4921768140000000E+01  0.8707055900000000E+00
  0.7770178090000000E+01 -0.2248152160000000E+01
  0.1784415450000000E+01
  0.5696265200000000E+00 2  0.1777985340000000E+01  0.1958597600000000E+00
 -0.2317443900000000E+00
  0.2381265000000000E+00 1 -0.1624868022000000E+02
         # Potential name:  GTH-PBE-Q13  for symbol:  GA
         # Potential read from the potential filename: GTH_POTENTIALS
       &END POTENTIAL
     &END KIND
     &TOPOLOGY
       NUMBER_OF_ATOMS  147
       MULTIPLE_UNIT_CELL  1 1 1
     &END TOPOLOGY
   &END SUBSYS
 &END FORCE_EVAL
