 # Version information for this restart file 
 # current date 2019-05-23 14:37:28.071
 # current working dir /lustre03/project/6004141/rzk/GaN-carbene/02-Water/01-O-ads
 # Program compiled at                              Sun Apr  7 00:48:11 EDT 2019
 # Program compiled on                          beluga2.int.ets1.calculquebec.ca
 # Program compiled for                        Beluga-Linux-x86-64-intel-openmpi
 # Source code revision number                                         svn:18619
 &GLOBAL
   PRINT_LEVEL  MEDIUM
   PROJECT_NAME TEST
   RUN_TYPE  GEO_OPT
 &END GLOBAL
 &MOTION
   &GEO_OPT
     MAX_ITER  500
     STEP_START_VAL  57
   &END GEO_OPT
 &END MOTION
 &FORCE_EVAL
   METHOD  QS
   STRESS_TENSOR  ANALYTICAL
   &DFT
     BASIS_SET_FILE_NAME BASIS_MOLOPT
     POTENTIAL_FILE_NAME GTH_POTENTIALS
     &SCF
       MAX_SCF  100
       EPS_SCF     5.0000000000000004E-06
       &OT  T
         PRECONDITIONER  FULL_ALL
       &END OT
       &OUTER_SCF  T
         OPTIMIZER  NONE
         EPS_SCF     5.0000000000000004E-06
         MAX_SCF  10
       &END OUTER_SCF
       &PRINT
         &RESTART  OFF
           BACKUP_COPIES  1
           &EACH
             JUST_ENERGY  0
             QS_SCF  0
             MD  20
           &END EACH
         &END RESTART
       &END PRINT
     &END SCF
     &QS
       EPS_DEFAULT     1.0000000000000000E-14
       ALMO_SCF  F
       METHOD  GPW
     &END QS
     &MGRID
       NGRIDS  5
       CUTOFF     1.2000000000000000E+03
     &END MGRID
     &XC
       DENSITY_CUTOFF     1.0000000000000000E-10
       GRADIENT_CUTOFF     1.0000000000000000E-10
       TAU_CUTOFF     1.0000000000000000E-10
       &XC_FUNCTIONAL  NO_SHORTCUT
         &PBE  T
         &END PBE
       &END XC_FUNCTIONAL
       &VDW_POTENTIAL
         POTENTIAL_TYPE  PAIR_POTENTIAL
         &PAIR_POTENTIAL
           R_CUTOFF     1.0000000000000005E+01
           TYPE  DFTD3
           PARAMETER_FILE_NAME dftd3.dat
           REFERENCE_FUNCTIONAL PBE
           EPS_CN     9.9999999999999995E-07
           CALCULATE_C9_TERM  T
           REFERENCE_C9_TERM  T
           LONG_RANGE_CORRECTION  F
           VERBOSE_OUTPUT  F
         &END PAIR_POTENTIAL
       &END VDW_POTENTIAL
     &END XC
   &END DFT
   &SUBSYS
     &CELL
       A     9.7367653356401487E+00    0.0000000000000000E+00    0.0000000000000000E+00
       B    -4.8591341382960209E+00    8.4162672083210595E+00    0.0000000000000000E+00
       C     0.0000000000000000E+00    0.0000000000000000E+00    3.0744000000000000E+01
       MULTIPLE_UNIT_CELL  1 1 1
       &CELL_REF
         A     9.5580000000000052E+00    0.0000000000000000E+00    0.0000000000000000E+00
         B    -4.7790000000000026E+00    8.2774708093716640E+00    0.0000000000000000E+00
         C     0.0000000000000000E+00    0.0000000000000000E+00    3.0744000000000000E+01
         MULTIPLE_UNIT_CELL  1 1 1
       &END CELL_REF
     &END CELL
     &COORD
Ga    1.8346423972074713E-02    8.0745424630953178E-03   -5.5442399170854462E-01
N    2.0543551571866398E-02    1.8811429638206070E+00    5.6118028900098227E-01
Ga    1.9233884875086336E-02    1.8500422958886831E+00    2.5949192805918280E+00
N    1.6082536206527696E-02    5.8392578986532486E-03    3.2247166125415103E+00
Ga    1.6057404911070102E-02    6.3470172843771476E-03    5.2168341125990461E+00
N    1.8719118086523389E-02    1.8810056524249330E+00    5.8029630118358133E+00
Ga    1.6927819439506990E-02    1.8782215075437736E+00    7.8026959076218523E+00
N    1.3203793325113549E-02    4.7051562522828589E-03    8.4031612108769007E+00
Ga    1.3185511247713451E-02    4.9593354451925257E-03    1.0401052435062265E+01
N    1.8880263995548416E-02    1.8754495176924806E+00    1.1009344433785667E+01
Ga    2.2487397290792639E-02    1.8755297697181534E+00    1.3005965171880391E+01
N    1.8751030280142703E-02   -1.5599781236683835E-03    1.3601484400900100E+01
Ga    1.0143376624327800E-02    4.0576217663751822E-05    1.5602840613920637E+01
N    1.2099779493404985E-04    1.8756914958236446E+00    1.6158895866599064E+01
Ga   -6.6853604417719918E-03    1.8742364690081026E+00    1.8200310091786033E+01
N   -1.4001543081870750E-02    1.1933216400305471E-02    1.8649948387115142E+01
Ga   -1.6034379497427076E+00    2.8126685526704973E+00    2.7666133019715539E-01
N   -1.6034982483628601E+00    4.6821529377859941E+00    5.6111556800178231E-01
Ga   -1.5762645261874095E+00    4.6971465092298086E+00    2.5918889426909417E+00
N   -1.6036017103737104E+00    2.8114842045543886E+00    3.1839342763542566E+00
Ga   -1.6042785087412170E+00    2.8116133812796389E+00    5.1955782201589207E+00
N   -1.6038678014871817E+00    4.6818006940018337E+00    5.8023102375419366E+00
Ga   -1.6042984910501061E+00    4.6807734762396036E+00    7.8015377581145868E+00
N   -1.6043147338071497E+00    2.8110724246853303E+00    8.4081161950774472E+00
Ga   -1.6032996746064814E+00    2.8129978476671602E+00    1.0405601632764052E+01
N   -1.6022939403263803E+00    4.6859364942617887E+00    1.1010254361316941E+01
Ga   -1.6032920620620705E+00    4.6905137043048626E+00    1.3008209363990542E+01
N   -1.6083095252666715E+00    2.8108789712098976E+00    1.3578924762607372E+01
Ga   -1.6148722249418916E+00    2.8094827842348979E+00    1.5568387902629302E+01
N   -1.6151609733517780E+00    4.6730221971639834E+00    1.6174102351661926E+01
Ga   -1.6235660278552080E+00    4.6904221993906621E+00    1.8219130660934859E+01
N   -1.6053632800456650E+00    2.8247149258652642E+00    1.8676730314749960E+01
Ga   -3.2228585578887956E+00    5.6167169311147287E+00    2.7659566304997496E-01
N   -3.2161862131817291E+00    7.4886536082700754E+00    5.6086202662956985E-01
Ga   -3.2439479245483174E+00    7.5025528633330287E+00    2.5946665039792749E+00
N   -3.2231862046707662E+00    5.6169320642546685E+00    3.1835664978338518E+00
Ga   -3.2236739888649590E+00    5.6172439142169264E+00    5.1950675406365150E+00
N   -3.2182271816116863E+00    7.4871320556850369E+00    5.8033294934845232E+00
Ga   -3.2211819426093515E+00    7.4859536055136031E+00    7.8032861636758630E+00
N   -3.2256683516069926E+00    5.6146550478504134E+00    8.4064275259371257E+00
Ga   -3.2264922222356640E+00    5.6151809854768437E+00    1.0403131633779726E+01
N   -3.2228458708924497E+00    7.4875903996140840E+00    1.0999805965631719E+01
Ga   -3.2230464680106410E+00    7.4851921483566297E+00    1.2991129700616803E+01
N   -3.2293046618463515E+00    5.6205745922846289E+00    1.3607344636805596E+01
Ga   -3.2338315946748639E+00    5.6211587583764500E+00    1.5611413843031949E+01
N   -3.2224130473855128E+00    7.4882749450590280E+00    1.6254429522095283E+01
Ga   -3.2383656774619900E+00    7.4986843497190367E+00    1.8362479926544648E+01
N   -3.2434463164446350E+00    5.6158809773538385E+00    1.8646520552922723E+01
Ga    3.2647302020709006E+00    7.9746713825881322E-03    2.7629315544609673E-01
N    3.2611455880420332E+00    1.8762727768533194E+00    5.6233864630518671E-01
Ga    3.2889499204654098E+00    1.8915408845876134E+00    2.5919818857682175E+00
N    3.2618759604012428E+00    5.9201887758879952E-03    3.1840236770729815E+00
Ga    3.2613799189236108E+00    6.6172826986370930E-03    5.1954694533897738E+00
N    3.2612987697096836E+00    1.8765229113789921E+00    5.8026645139245199E+00
Ga    3.2608696547261156E+00    1.8759788488697122E+00    7.8020233864569777E+00
N    3.2600272626494009E+00    5.3947504303165925E-03    8.4059955425357042E+00
Ga    3.2595054999343867E+00    6.9922574400324176E-03    1.0402628764651590E+01
N    3.2598170565332407E+00    1.8774873879197043E+00    1.1011590457467232E+01
Ga    3.2552168485670454E+00    1.8777458322637297E+00    1.3010568337302548E+01
N    3.2512755807610287E+00    3.0918586699008668E-03    1.3606172656612971E+01
Ga    3.2452387348605960E+00    7.2104333568746952E-03    1.5609281128041445E+01
N    3.2539010368989150E+00    1.8877957276989470E+00    1.6164090906186694E+01
Ga    3.2598193296064308E+00    1.8716138541821150E+00    1.8206616747115774E+01
N    3.2436311795705399E+00    1.5645247207782112E-02    1.8678883694808537E+01
Ga    1.6444858896484145E+00    2.8130679755658736E+00    2.7621929946982277E-01
N    1.6492708177116939E+00    4.6826727346689099E+00    5.6062357072591451E-01
Ga    1.6202381064367166E+00    4.6972331776727447E+00    2.5912533402205171E+00
N    1.6420006102900215E+00    2.8118278714690268E+00    3.1835731019969566E+00
Ga    1.6419333538435310E+00    2.8118566184532359E+00    5.1948156758410811E+00
N    1.6469832335350287E+00    4.6816979813879440E+00    5.8024918903596081E+00
Ga    1.6444654582928349E+00    4.6811190882889520E+00    7.8017156704689299E+00
N    1.6400278478704879E+00    2.8107513539101601E+00    8.4075147481078076E+00
Ga    1.6395860443622898E+00    2.8116560436030222E+00    1.0404302009950726E+01
N    1.6387204685443146E+00    4.6837532282759229E+00    1.1010311830339619E+01
Ga    1.6332850065061260E+00    4.6857953651031314E+00    1.3007830075849292E+01
N    1.6367700200713502E+00    2.8210475374083224E+00    1.3626501739926244E+01
Ga    1.6319459069760276E+00    2.8340504257873440E+00    1.5638396583542894E+01
N    1.6324073233823313E+00    4.6848119022854808E+00    1.6300684846506890E+01
Ga    1.6266781104485455E+00    4.6908115117254248E+00    1.8589019840749650E+01
N    1.6230313940617147E+00    2.7802328581895486E+00    1.8625321941096328E+01
Ga    2.3699221300769981E-02    5.6188542062942473E+00   -5.9041348297786178E-01
N    2.6555555460113157E-02    7.4924940116295753E+00    5.6153516554681304E-01
Ga    2.5167239920126257E-02    7.4602684740434881E+00    2.5920657972838250E+00
N    2.2282239499770092E-02    5.6167295457152742E+00    3.2242537071240713E+00
Ga    2.1904617305012107E-02    5.6172662090887746E+00    5.2148692515579249E+00
N    2.4563031062212054E-02    7.4917329023071781E+00    5.8023797127734280E+00
Ga    2.3431313166619040E-02    7.4891071910809828E+00    7.8016657433806822E+00
N    2.0214914426983675E-02    5.6156363226418060E+00    8.4017387963827392E+00
Ga    1.8555303637829926E-02    5.6168629518184465E+00    1.0398572280428837E+01
N    1.9601363872807878E-02    7.4852152653594759E+00    1.1008476742205175E+01
Ga    1.4462009739057230E-02    7.4821968061956099E+00    1.3005678501252651E+01
N    1.8413403788782444E-02    5.6173194812702656E+00    1.3641522791091038E+01
Ga    2.6668495286744687E-02    5.6152153632879216E+00    1.5660440172913592E+01
N    1.8762739464599068E-02    7.5070074494075856E+00    1.6189108733112182E+01
Ga    8.0267583239515105E-04    7.5010800179898158E+00    1.8243695762944718E+01
N   -2.9211007520932569E-02    5.6375927454556756E+00    1.8697006898843526E+01
Ga    6.5067513287446506E+00    8.3312116962854510E-03    2.7622648615788431E-01
N    6.5154132863810812E+00    1.8768707210639000E+00    5.6196390985572009E-01
Ga    6.4855667479926238E+00    1.8917521304911209E+00    2.5915253862268526E+00
N    6.5072455258261561E+00    6.1187099147494376E-03    3.1839589434748605E+00
Ga    6.5066863225100073E+00    6.9567016492640445E-03    5.1955811785653205E+00
N    6.5122440482835282E+00    1.8763809181281934E+00    5.8050887257968462E+00
Ga    6.5099131628259697E+00    1.8752508128295529E+00    7.8059940725240295E+00
N    6.5053346884247096E+00    3.1642079822574404E-03    8.4077829333552518E+00
Ga    6.5042009702992862E+00    1.5826847350734615E-03    1.0405283422465970E+01
N    6.5067453252396703E+00    1.8770850889324533E+00    1.0993563040371519E+01
Ga    6.5039734638569575E+00    1.8758467570468844E+00    1.2982961695060490E+01
N    6.4997939189081269E+00    3.9604010562061323E-03    1.3581254518077582E+01
Ga    6.4952739512020479E+00    1.0846877431849861E-02    1.5572677837424267E+01
N    6.5199087822202149E+00    1.8710102945688454E+00    1.6164416271024262E+01
Ga    6.5291296924686577E+00    1.8751645527211835E+00    1.8223673313540342E+01
N    6.4888468733013278E+00    2.5113805516677984E-03    1.8657279277215501E+01
Ga    4.8885048291723541E+00    2.8124128398063584E+00   -5.9459216504967494E-01
N    4.8918498788551217E+00    4.6877751858176886E+00    5.6196250816493165E-01
Ga    4.8904963556930134E+00    4.6544600109346446E+00    2.5915847413724209E+00
N    4.8876231060113122E+00    2.8112051217822782E+00    3.2249664823827087E+00
Ga    4.8874487914699731E+00    2.8113940428656092E+00    5.2159473822637086E+00
N    4.8897194871746938E+00    4.6862428976325043E+00    5.8025377267683744E+00
Ga    4.8878072276452240E+00    4.6836075866115756E+00    7.8020663327457092E+00
N    4.8843471643225262E+00    2.8108718947180731E+00    8.4041215158619291E+00
Ga    4.8815907446495661E+00    2.8125143722473180E+00    1.0402663866207002E+01
N    4.8864243300787216E+00    4.6836203047189677E+00    1.1011391933327781E+01
Ga    4.8821954517190180E+00    4.6850222722574202E+00    1.3010504570453010E+01
N    4.8858111512432894E+00    2.8082731871798838E+00    1.3594794340433397E+01
Ga    4.8888649037310179E+00    2.8042819213614587E+00    1.5591489833147619E+01
N    4.8769101219584172E+00    4.6787458528263173E+00    1.6166297836844571E+01
Ga    4.8920597823232645E+00    4.6781367499121433E+00    1.8211526796855029E+01
N    4.8867610846473433E+00    2.8011960644705423E+00    1.8591126185238259E+01
Ga    3.2697590582862244E+00    5.6160459199204658E+00    2.7621017902736894E-01
N    3.2686418899814931E+00    7.4880120090903670E+00    5.6042582938967767E-01
Ga    3.2943889693125805E+00    7.5022847173790996E+00    2.5945136465963974E+00
N    3.2676188715465511E+00    5.6167968413929117E+00    3.1831349814860745E+00
Ga    3.2674492890294866E+00    5.6168826243599099E+00    5.1944729688980171E+00
N    3.2675458018016372E+00    7.4869352343379614E+00    5.8026251036587979E+00
Ga    3.2666172044020847E+00    7.4855557351621824E+00    7.8022433366235360E+00
N    3.2653566745099263E+00    5.6151767359334048E+00    8.4078917182760105E+00
Ga    3.2642240240470066E+00    5.6153772604786809E+00    1.0404894826104627E+01
N    3.2697325914816004E+00    7.4857739919158988E+00    1.1010837372209316E+01
Ga    3.2681825150652486E+00    7.4782100655349071E+00    1.3008908596042799E+01
N    3.2537619061396543E+00    5.6070371526138549E+00    1.3627275341684152E+01
Ga    3.2398213123345574E+00    5.6059662067006437E+00    1.5640124934678703E+01
N    3.2566725306547917E+00    7.4981279886950327E+00    1.6152138662669103E+01
Ga    3.2511938435853631E+00    7.5108353711923952E+00    1.8194067698541382E+01
N    3.2732550818465080E+00    5.6318923949130788E+00    1.8583016690894222E+01
O    1.3514037021399545E+00    4.5920242840123819E+00    2.1009337669296954E+01
H    4.9756665959182400E-01    5.0406370936556231E+00    2.0835606994867842E+01
H    1.1335995386059607E+00    3.6419970777710176E+00    2.1023496367695330E+01
     &END COORD
     &KIND O
       BASIS_SET DZVP-MOLOPT-SR-GTH-q6
       POTENTIAL GTH-PBE-q6
       &POTENTIAL
 2 4
  0.2445543000000000E+00 2 -0.1666721480000000E+02  0.2487311320000000E+01
 2
  0.2209559200000000E+00 1  0.1833745811000000E+02
  0.2113324700000000E+00 0
         # Potential name:  GTH-PBE-Q6  for symbol:  O
         # Potential read from the potential filename: GTH_POTENTIALS
       &END POTENTIAL
     &END KIND
     &KIND H
       BASIS_SET DZVP-MOLOPT-SR-GTH-q1
       POTENTIAL GTH-PBE-q1
       &POTENTIAL
 1
  0.2000000000000000E+00 2 -0.4178900440000000E+01  0.7244633100000000E+00
 0
         # Potential name:  GTH-PBE-Q1  for symbol:  H
         # Potential read from the potential filename: GTH_POTENTIALS
       &END POTENTIAL
     &END KIND
     &KIND N
       BASIS_SET DZVP-MOLOPT-SR-GTH-q5
       POTENTIAL GTH-PBE-q5
       &POTENTIAL
 2 3
  0.2837905100000000E+00 2 -0.1241522559000000E+02  0.1868095920000000E+01
 2
  0.2554050000000000E+00 1  0.1363026257000000E+02
  0.2454945300000000E+00 0
         # Potential name:  GTH-PBE-Q5  for symbol:  N
         # Potential read from the potential filename: GTH_POTENTIALS
       &END POTENTIAL
     &END KIND
     &KIND Ga
       BASIS_SET DZVP-MOLOPT-SR-GTH-q13
       POTENTIAL GTH-PBE-q13
       &POTENTIAL
 2 1 10
  0.4900000000000000E+00 0
 3
  0.4167772300000000E+00 3  0.1047568975000000E+02 -0.4921768140000000E+01  0.8707055900000000E+00
  0.7770178090000000E+01 -0.2248152160000000E+01
  0.1784415450000000E+01
  0.5696265200000000E+00 2  0.1777985340000000E+01  0.1958597600000000E+00
 -0.2317443900000000E+00
  0.2381265000000000E+00 1 -0.1624868022000000E+02
         # Potential name:  GTH-PBE-Q13  for symbol:  GA
         # Potential read from the potential filename: GTH_POTENTIALS
       &END POTENTIAL
     &END KIND
     &TOPOLOGY
       NUMBER_OF_ATOMS  147
       MULTIPLE_UNIT_CELL  1 1 1
     &END TOPOLOGY
   &END SUBSYS
 &END FORCE_EVAL
