 # Version information for this restart file 
 # current date 2019-06-28 13:31:40.669
 # current working dir /scratch/rzk/rzk/GaN-carbene/443-adatoms-both-2x2/04-2Methanol/01-CombineAsIs
 # Program compiled at                              Sun Apr  7 00:48:11 EDT 2019
 # Program compiled on                          beluga2.int.ets1.calculquebec.ca
 # Program compiled for                        Beluga-Linux-x86-64-intel-openmpi
 # Source code revision number                                         svn:18619
 &GLOBAL
   PRINT_LEVEL  MEDIUM
   PROJECT_NAME TEST
   RUN_TYPE  GEO_OPT
 &END GLOBAL
 &MOTION
   &GEO_OPT
     MAX_ITER  500
     STEP_START_VAL  167
   &END GEO_OPT
 &END MOTION
 &FORCE_EVAL
   METHOD  QS
   STRESS_TENSOR  ANALYTICAL
   &DFT
     BASIS_SET_FILE_NAME BASIS_MOLOPT
     POTENTIAL_FILE_NAME GTH_POTENTIALS
     UKS  T
     SURFACE_DIPOLE_CORRECTION  T
     SURF_DIP_DIR  Z
     &SCF
       MAX_SCF  80
       EPS_SCF     5.0000000000000004E-06
       &OT  T
         PRECONDITIONER  FULL_ALL
       &END OT
       &OUTER_SCF  T
         OPTIMIZER  NONE
         EPS_SCF     5.0000000000000004E-06
         MAX_SCF  4
       &END OUTER_SCF
       &PRINT
         &RESTART  OFF
           BACKUP_COPIES  1
           &EACH
             JUST_ENERGY  0
             QS_SCF  0
             MD  20
           &END EACH
         &END RESTART
       &END PRINT
     &END SCF
     &QS
       EPS_DEFAULT     1.0000000000000000E-14
       METHOD  GPW
     &END QS
     &MGRID
       NGRIDS  5
       CUTOFF     1.2000000000000000E+03
     &END MGRID
     &XC
       DENSITY_CUTOFF     1.0000000000000000E-10
       GRADIENT_CUTOFF     1.0000000000000000E-10
       TAU_CUTOFF     1.0000000000000000E-10
       &XC_FUNCTIONAL  NO_SHORTCUT
         &PBE  T
         &END PBE
       &END XC_FUNCTIONAL
       &VDW_POTENTIAL
         POTENTIAL_TYPE  PAIR_POTENTIAL
         &PAIR_POTENTIAL
           R_CUTOFF     1.0000000000000004E+01
           TYPE  DFTD3
           PARAMETER_FILE_NAME dftd3.dat
           REFERENCE_FUNCTIONAL PBE
           EPS_CN     9.9999999999999995E-07
           CALCULATE_C9_TERM  T
           REFERENCE_C9_TERM  T
           LONG_RANGE_CORRECTION  F
           VERBOSE_OUTPUT  F
         &END PAIR_POTENTIAL
       &END VDW_POTENTIAL
     &END XC
   &END DFT
   &SUBSYS
     &CELL
       A     1.2864472766435110E+01    0.0000000000000000E+00    0.0000000000000000E+00
       B    -6.4322363581020028E+00    1.1140960178524473E+01    0.0000000000000000E+00
       C     0.0000000000000000E+00    0.0000000000000000E+00    3.2000000000000000E+01
       MULTIPLE_UNIT_CELL  1 1 1
       &CELL_REF
         A     1.2982353780853531E+01    0.0000000000000000E+00    0.0000000000000000E+00
         B    -6.4911768904267628E+00    1.1243048175136114E+01    0.0000000000000000E+00
         C     0.0000000000000000E+00    0.0000000000000000E+00    3.2000000000000000E+01
         MULTIPLE_UNIT_CELL  1 1 1
       &END CELL_REF
     &END CELL
     &COORD
N    7.5873346554081469E-02    1.9770156609709024E+00    2.4861735274616934E+00
Ga    5.7590470103298395E-02    6.2831184598818989E-03    2.8191478475239520E+00
N    8.0898590365533915E-02   -2.5702246085740101E-02    5.0129827495144896E+00
Ga    7.9018106975677072E-02    1.7991410393388383E+00    5.7960284165457097E+00
N    7.9075524063327532E-02    1.8143676736267493E+00    7.7988963263580153E+00
Ga    7.6272408744500614E-02   -3.0661887563105318E-02    8.4418796342898013E+00
N    7.8705874074605581E-02   -3.1101812023062652E-02    1.0418240269564423E+01
Ga    7.9206872795520550E-02    1.8080082477421624E+00    1.1071005381481420E+01
N    8.0466142325328616E-02    1.7896951378627028E+00    1.3065220999307442E+01
Ga    7.9479306697259444E-02   -2.9039739751735766E-02    1.3877520222991988E+01
N    7.9428202381652935E-02   -2.8848130282818043E-02    1.6068046303988211E+01
Ga    8.0213756610195822E-02    2.0219756575231580E+00    1.6496436660325152E+01
Ga    4.2973127406459234E-02    3.6867716785975313E+00    1.3645104659298206E+00
N   -1.4105961659599924E+00    4.5484726265199091E+00    2.5274341526226332E+00
Ga   -1.6032527574478295E+00    2.7033840081007581E+00    3.2781026056684253E+00
N   -1.5318616622537748E+00    2.7529929755499607E+00    5.2565347008547780E+00
Ga   -1.5599559146983513E+00    4.6181223083154253E+00    5.8057400771397072E+00
N   -1.5400068259090547E+00    4.6178600348751688E+00    7.8018495238710992E+00
Ga   -1.5202542071867149E+00    2.7564395135325612E+00    8.4335700160403526E+00
N   -1.5176454250219071E+00    2.7603382355210555E+00    1.0430489656666596E+01
Ga   -1.5426122328766139E+00    4.6182809707083177E+00    1.1068932602345429E+01
N   -1.5575020793457159E+00    4.6291543446316359E+00    1.3061268048479663E+01
Ga   -1.5159901233187680E+00    2.7610650514856392E+00    1.3623116177577240E+01
N   -1.5506196759475199E+00    2.7488451547997657E+00    1.5581194592547162E+01
Ga   -1.3447328261481726E+00    4.5079771461701199E+00    1.6498826516299602E+01
N    8.0482209514281422E-02    3.6740992241689767E+00    1.7643589469384921E+01
N   -3.1333906922004302E+00    7.5190154725338134E+00    2.5296550002745937E+00
Ga   -3.1121687403029732E+00    5.5145445186173916E+00    2.8509152705749137E+00
N   -3.1383737350735901E+00    5.5410902133172559E+00    5.0219827387699292E+00
Ga   -3.1457331993704174E+00    7.3613700816604810E+00    5.8067329142741064E+00
N   -3.1370559991632749E+00    7.3861609326411610E+00    7.7986131083763661E+00
Ga   -3.1377477474473805E+00    5.5390850844015853E+00    8.4482241203094901E+00
N   -3.1371917178827089E+00    5.5400120664867210E+00    1.0421747754798073E+01
Ga   -3.1381361020092804E+00    7.3805121880516120E+00    1.1069367966297248E+01
N   -3.1353492349977690E+00    7.3614848123797856E+00    1.3061828347932936E+01
Ga   -3.1260988562710605E+00    5.5436872961999395E+00    1.3860395780890203E+01
N   -3.1245917988672649E+00    5.5454516312834077E+00    1.6067770589508640E+01
Ga   -3.1335584131268179E+00    7.5983715759650261E+00    1.6491102126534699E+01
Ga   -3.1522284583707347E+00    9.2537562655911874E+00    1.5022817726466460E+00
N   -4.6413340238128571E+00    1.0122710211753354E+01    2.5137757192691428E+00
Ga   -4.8599012386333023E+00    8.2722600605939931E+00    3.2891531677081161E+00
N   -4.7455013941822761E+00    8.3267874971650695E+00    5.2503052060614479E+00
Ga   -4.7780429362617030E+00    1.0201615964303596E+01    5.7972429845599720E+00
N   -4.7554934769798285E+00    1.0187624514096553E+01    7.7956802158632232E+00
Ga   -4.7386935684064238E+00    8.3325332360860092E+00    8.4353245814276132E+00
N   -4.7343965767524381E+00    8.3317887322711499E+00    1.0430086308915486E+01
Ga   -4.7615246140761460E+00    1.0191036683452973E+01    1.1070973214851215E+01
N   -4.7761597507951636E+00    1.0200735386430299E+01    1.3065582998097177E+01
Ga   -4.7325387536649721E+00    8.3318845635817489E+00    1.3621261835320254E+01
N   -4.7591640669485029E+00    8.3085450843111754E+00    1.5581307863595040E+01
Ga   -4.5847325060565094E+00    1.0090165529458357E+01    1.6488989101675148E+01
N   -3.1454178730259184E+00    9.2603298584547868E+00    1.7631372111679049E+01
N    3.2822966332118733E+00    1.8322984868949734E+00    2.6157376652049305E+00
Ga    3.2845367061952655E+00    9.3017585793793517E-02    3.2870270038388103E+00
N    3.2948481975869695E+00   -3.3475311915167186E-02    5.2496565994542550E+00
Ga    3.2857609411236499E+00    1.8285320507920690E+00    5.8723094746430409E+00
N    3.2948774472703657E+00    1.8246630740899850E+00    7.8500499955069554E+00
Ga    3.2921639053185245E+00   -4.1442861750277421E-02    8.4376477945280612E+00
N    3.2946240860547840E+00   -4.3078610560660480E-02    1.0431945237750428E+01
Ga    3.2948660469639939E+00    1.8263385762033089E+00    1.1027115076800294E+01
N    3.2988363859596959E+00    1.8277627913432826E+00    1.3000781951527438E+01
Ga    3.2965215823496905E+00   -4.3563141826164165E-02    1.3621674991575642E+01
N    3.3032726960734999E+00   -7.9469076896893087E-03    1.5582021425949572E+01
Ga    3.2956753359775020E+00    1.8267933754558434E+00    1.5861138302029252E+01
N    1.5659964079780333E+00    4.5497740368502111E+00    2.5155042668854595E+00
Ga    1.7523601498932133E+00    2.7176191744891551E+00    3.2641667273519199E+00
N    1.6869176476468291E+00    2.7530756632927367E+00    5.2494516276529586E+00
Ga    1.7175140190653251E+00    4.6176218689598496E+00    5.8062325362631588E+00
N    1.6962795347375945E+00    4.6164963295902588E+00    7.8034300360507229E+00
Ga    1.6758272069543767E+00    2.7573813649768439E+00    8.4376712377944720E+00
N    1.6767843398577968E+00    2.7602376776607311E+00    1.0433030351164504E+01
Ga    1.7018343504585967E+00    4.6189097421083032E+00    1.1069585329479697E+01
N    1.7185749942342974E+00    4.6293058717172002E+00    1.3061828215244860E+01
Ga    1.6764557713487247E+00    2.7616886490555359E+00    1.3623801909160905E+01
N    1.7119661926395051E+00    2.7484706457720667E+00    1.5582067432961509E+01
Ga    1.5066449598444496E+00    4.5085248603221153E+00    1.6499336788878075E+01
N    7.9508082404778815E-02    7.3799524731824073E+00    2.6950335630588476E+00
Ga    8.6396049232811301E-02    5.5386117716821666E+00    3.3366960759048321E+00
N    7.7833663026059902E-02    5.5529622978892448E+00    5.2737769685612390E+00
Ga    8.6365079574548698E-02    7.3946621179882364E+00    5.9034324598963384E+00
N    7.9395638835145013E-02    7.3981714603961706E+00    7.8631875625582710E+00
Ga    7.8744984255136027E-02    5.5247798516326245E+00    8.4431498331205184E+00
N    7.9349250417207584E-02    5.5270865595413827E+00    1.0433772595352789E+01
Ga    8.0244050417351012E-02    7.3964014765316115E+00    1.1027231276591296E+01
N    8.0434572064284698E-02    7.3969488662724494E+00    1.2995832748979966E+01
Ga    8.0695140947010344E-02    5.5281518551906368E+00    1.3622164827619178E+01
N    8.0533173375079176E-02    5.5604774561517676E+00    1.5579556467871203E+01
Ga    8.1133686021685969E-02    7.3967294036775160E+00    1.5859257687424991E+01
N   -1.6343106122541415E+00    1.0110164923339312E+01    2.5215172523904661E+00
Ga   -1.4886600873793052E+00    8.2973220769270615E+00    3.3351708468269670E+00
N   -1.5186932832370110E+00    8.3184540906675810E+00    5.2620228419211106E+00
Ga   -1.5049350950738667E+00    1.0204493042281634E+01    5.8087647327970151E+00
N   -1.5207326220634110E+00    1.0185644041988100E+01    7.8000677876579072E+00
Ga   -1.5413058031342035E+00    8.3317130185010893E+00    8.4450051169712683E+00
N   -1.5401077606237847E+00    8.3310605906838404E+00    1.0433669796636190E+01
Ga   -1.5151302886419782E+00    1.0190525063807764E+01    1.1068852465891963E+01
N   -1.4967149852989337E+00    1.0199467523247554E+01    1.3061487349944635E+01
Ga   -1.5370326177092963E+00    8.3308654471175689E+00    1.3621044559846565E+01
N   -1.5109225872760277E+00    8.3161311996273355E+00    1.5579903115130850E+01
Ga   -1.7004208957680504E+00    1.0080324372696383E+01    1.6490956593527066E+01
N    6.5075841623320665E+00    1.9502626884126268E+00    2.5366563231035815E+00
Ga    6.5275424773094217E+00   -3.1583338946397192E-02    2.8605990771351015E+00
N    6.5053792119256970E+00   -3.0262000544427691E-02    5.0236948136417219E+00
Ga    6.5083222310402471E+00    1.7993360246000554E+00    5.8034839131196509E+00
N    6.5098844184181859E+00    1.8140152460888461E+00    7.8007921321205478E+00
Ga    6.5127799159307385E+00   -3.1847651727115921E-02    8.4443203791364390E+00
N    6.5117747063036093E+00   -3.1291508553725110E-02    1.0419399969277755E+01
Ga    6.5122824328628006E+00    1.8086737556274468E+00    1.1067660050371396E+01
N    6.5125779456312971E+00    1.7882577203489072E+00    1.3067862134034657E+01
Ga    6.5135063051824371E+00   -4.0332924743838913E-02    1.3860184197228559E+01
N    6.5136372798275977E+00   -4.1234734982418891E-02    1.6067042868555223E+01
Ga    6.5133166387045200E+00    1.9597804894113644E+00    1.6431514304075332E+01
Ga    6.5130418530865537E+00    3.6827823576417171E+00    1.5331659730560034E+00
N    5.0065685638319382E+00    4.5491107888180951E+00    2.5294771157803768E+00
Ga    4.7898312907391540E+00    2.6981938204275142E+00    3.2966405774441241E+00
N    4.8989314604647163E+00    2.7536963893192539E+00    5.2579451274871456E+00
Ga    4.8752881357094537E+00    4.6267771245010367E+00    5.8033897469925888E+00
N    4.8931971630377484E+00    4.6168131571995401E+00    7.8018331894558335E+00
Ga    4.9113314797393368E+00    2.7591265648447760E+00    8.4377249850641061E+00
N    4.9145188223627176E+00    2.7612681316393739E+00    1.0434517560421005E+01
Ga    4.8881439177208410E+00    4.6211541578833497E+00    1.1068667728183490E+01
N    4.8712981007918179E+00    4.6305004753787067E+00    1.3068642838254883E+01
Ga    4.9152792495630928E+00    2.7608415017115933E+00    1.3613498624623604E+01
N    4.8999252434630627E+00    2.7514348581412396E+00    1.5591459219635700E+01
Ga    5.0173972338075385E+00    4.5467163257290730E+00    1.6432196476580501E+01
N    6.5118862596563218E+00    3.6851484475035550E+00    1.7553732570947098E+01
N    3.2900840324146450E+00    7.5105924290297805E+00    2.4983888870979269E+00
N    3.2934859593502388E+00    5.5375819110584787E+00    5.0292655876908947E+00
Ga    3.2981949043471723E+00    7.3659867831203734E+00    5.7925704843109598E+00
N    3.2926182130530450E+00    7.3873267821030630E+00    7.7925280748105203E+00
Ga    3.2946136484557007E+00    5.5417704138732455E+00    8.4455011427398716E+00
N    3.2953747399249127E+00    5.5406822313349808E+00    1.0420901711333588E+01
Ga    3.2973635774079653E+00    7.3810454102054051E+00    1.1068956449338524E+01
N    3.2961194560112590E+00    7.3616001833681732E+00    1.3061302470202204E+01
Ga    3.2866780211771274E+00    5.5448233934625391E+00    1.3861325654989781E+01
N    3.2855469831044344E+00    5.5463115464825448E+00    1.6068047737217842E+01
Ga    3.2947324656751786E+00    7.6026898502095275E+00    1.6494094809277943E+01
Ga    3.3295928728552613E+00    9.2759560549419593E+00    1.3110639627265781E+00
N    1.7823584328374831E+00    1.0117958823112101E+01    2.5026234616276288E+00
Ga    1.6794992739540111E+00    8.3136011814716770E+00    3.2858702385234992E+00
N    1.6724274830073076E+00    8.3173118236046033E+00    5.2354172458779145E+00
Ga    1.6629853522143108E+00    1.0198315625763085E+01    5.7927587535622909E+00
N    1.6760072263540802E+00    1.0184373664191934E+01    7.7916684793716460E+00
Ga    1.7004883511027844E+00    8.3331574597977269E+00    8.4427677102489245E+00
N    1.6991913798880471E+00    8.3315872142069072E+00    1.0432852843565449E+01
Ga    1.6751039026596335E+00    1.0190830198568809E+01    1.1068039797548488E+01
N    1.6577976782307331E+00    1.0199252917678592E+01    1.3060558374233485E+01
Ga    1.6984133188612658E+00    8.3308772407707909E+00    1.3621066781753587E+01
N    1.6713165459516897E+00    8.3157323397262441E+00    1.5578923724167012E+01
Ga    1.8663942592637719E+00    1.0077706095231862E+01    1.6493479099032403E+01
N    3.3055259830897699E+00    9.2595843822618420E+00    1.7634933915172518E+01
N    9.7347454490528893E+00    1.8256190304560800E+00    2.6279086714802351E+00
Ga    9.7288221304752138E+00    6.0898532562355619E-02    3.2543277925362899E+00
N    9.7225627963276153E+00   -3.3889778699122859E-02    5.2378601951617263E+00
Ga    9.7315751000124155E+00    1.8194707173378668E+00    5.8656588827349454E+00
N    9.7257809655830609E+00    1.8239773118117208E+00    7.8466138225294113E+00
Ga    9.7289029738422599E+00   -4.3322999617863518E-02    8.4292769965249317E+00
N    9.7281403115109129E+00   -4.3677703558933710E-02    1.0427301577549466E+01
Ga    9.7289151638708731E+00    1.8252628328919398E+00    1.1023835613730164E+01
N    9.7263807416713757E+00    1.8273236469997165E+00    1.2998417588843660E+01
Ga    9.7288988141557287E+00   -4.3757452946706153E-02    1.3621783063709609E+01
N    9.7225367730113454E+00   -6.6397229693484511E-03    1.5580941884025659E+01
Ga    9.7308597327961959E+00    1.8265908419056576E+00    1.5860959862418310E+01
N    8.0115763190528817E+00    4.5503573246184450E+00    2.5388981898214458E+00
Ga    8.2284277217939632E+00    2.6901998365205242E+00    3.2999411577384818E+00
N    8.1179109348340734E+00    2.7535788638238294E+00    5.2603299226507794E+00
Ga    8.1412377104745683E+00    4.6258667639980979E+00    5.8009993387128675E+00
N    8.1286662604733380E+00    4.6179350584334129E+00    7.7991824045768769E+00
Ga    8.1109428376771380E+00    2.7585564477815745E+00    8.4340737646862873E+00
N    8.1086598351981127E+00    2.7610870715151949E+00    1.0432065616813654E+01
Ga    8.1342751205142871E+00    4.6198905575343474E+00    1.1068163816217476E+01
N    8.1533034104790278E+00    4.6301735175657743E+00    1.3068162383320423E+01
Ga    8.1104943950268478E+00    2.7603372941491142E+00    1.3613127026457736E+01
N    8.1264633445621097E+00    2.7515075896057559E+00    1.5590983986468610E+01
Ga    8.0072053997891199E+00    4.5456902100319230E+00    1.6431986291200857E+01
N    6.5040357041396142E+00    7.3994596811710505E+00    2.6088101495334421E+00
Ga    6.5025240515396865E+00    5.6631821333242005E+00    3.2951757642510957E+00
N    6.5089373303410474E+00    5.5430868745063515E+00    5.2560057919553484E+00
Ga    6.5018319384755197E+00    7.4027603082913833E+00    5.8677885285885161E+00
N    6.5098801061037195E+00    7.3977047734323840E+00    7.8452056324741344E+00
Ga    6.5106802011670268E+00    5.5303429752937232E+00    8.4358776543330585E+00
N    6.5114631043607476E+00    5.5276809757449596E+00    1.0433092729560167E+01
Ga    6.5109844542595221E+00    7.3981376606661966E+00    1.1024591002276317E+01
N    6.5122714856493644E+00    7.3943355529044528E+00    1.2999132298858346E+01
Ga    6.5124525860813929E+00    5.5273648688084505E+00    1.3612381758573568E+01
N    6.5132367074848743E+00    5.5466482861461008E+00    1.5590581581434913E+01
Ga    6.5132101362778529E+00    7.3981678911525011E+00    1.5861970932683549E+01
N    4.8017366966078558E+00    1.0125702141681739E+01    2.5081159208195829E+00
Ga    4.9765455523753621E+00    8.2820521362252641E+00    3.2511585322256171E+00
N    4.8994934125903749E+00    8.3255002342873503E+00    5.2346003113258419E+00
Ga    4.9275648341775788E+00    1.0197980112924359E+01    5.7809610651408070E+00
N    4.9128949378238600E+00    1.0187561333704263E+01    7.7875810888552506E+00
Ga    4.8925138376117490E+00    8.3342341249315144E+00    8.4306856952504088E+00
N    4.8928491479861993E+00    8.3317030280814919E+00    1.0427895784520576E+01
Ga    4.9185041503936064E+00    1.0190402932581531E+01    1.1069551339553415E+01
N    4.9363808306862849E+00    1.0200350916993667E+01    1.3064356272097086E+01
Ga    4.8926497873964676E+00    8.3321194030418013E+00    1.3622053630051738E+01
N    4.9220563901444878E+00    8.3081153295517485E+00    1.5581186248153656E+01
Ga    4.7403328047691327E+00    1.0087501695099441E+01    1.6492093738446155E+01
O    6.3258349698358885E-03    4.0883521355693695E+00   -4.3228219431445852E-01
H   -2.0683322029645620E-01    5.8705577101204485E+00   -3.5061652546670929E-01
C    1.1011723741102930E+00    3.6011167100741535E+00   -1.2309912267008454E+00
H    2.0818519881626232E+00    3.8865819981466734E+00   -8.1466058263982188E-01
H    1.0675592215807803E+00    2.5052987426766147E+00   -1.3275240804409596E+00
H    1.0044257897313214E+00    4.0401337278825826E+00   -2.2350097457161562E+00
Ga    3.2628412218617449E+00    5.5353747658478172E+00    2.8481121450111497E+00
O   -2.0764061838280379E-01    6.8543329359442291E+00   -2.0335298933028512E-01
H    2.5429410130866158E-02    7.3100778826523554E+00    1.6575117662192629E+00
C    9.2311232658260178E-01    7.3853548289382660E+00   -9.0937853116392942E-01
H    9.4643168666710065E-01    8.4697057456366061E+00   -7.2569513840653543E-01
H    1.8737008038979555E+00    6.9537268814265536E+00   -5.5168120108906404E-01
H    8.4552361919298336E-01    7.2185341858614596E+00   -1.9940924824823498E+00
     &END COORD
     &KIND C
       BASIS_SET DZVP-MOLOPT-SR-GTH-q4
       POTENTIAL GTH-PBE-q4
       &POTENTIAL
 2 2
  0.3384712400000000E+00 2 -0.8803673979999999E+01  0.1339210850000000E+01
 2
  0.3025757500000000E+00 1  0.9622486650000001E+01
  0.2915069400000000E+00 0
         # Potential name:  GTH-PBE-Q4  for symbol:  C
         # Potential read from the potential filename: GTH_POTENTIALS
       &END POTENTIAL
     &END KIND
     &KIND O
       BASIS_SET DZVP-MOLOPT-SR-GTH-q6
       POTENTIAL GTH-PBE-q6
       &POTENTIAL
 2 4
  0.2445543000000000E+00 2 -0.1666721480000000E+02  0.2487311320000000E+01
 2
  0.2209559200000000E+00 1  0.1833745811000000E+02
  0.2113324700000000E+00 0
         # Potential name:  GTH-PBE-Q6  for symbol:  O
         # Potential read from the potential filename: GTH_POTENTIALS
       &END POTENTIAL
     &END KIND
     &KIND H
       BASIS_SET DZVP-MOLOPT-SR-GTH-q1
       POTENTIAL GTH-PBE-q1
       &POTENTIAL
 1
  0.2000000000000000E+00 2 -0.4178900440000000E+01  0.7244633100000000E+00
 0
         # Potential name:  GTH-PBE-Q1  for symbol:  H
         # Potential read from the potential filename: GTH_POTENTIALS
       &END POTENTIAL
     &END KIND
     &KIND N
       BASIS_SET DZVP-MOLOPT-SR-GTH
       POTENTIAL GTH-PBE-q5
       &POTENTIAL
 2 3
  0.2837905100000000E+00 2 -0.1241522559000000E+02  0.1868095920000000E+01
 2
  0.2554050000000000E+00 1  0.1363026257000000E+02
  0.2454945300000000E+00 0
         # Potential name:  GTH-PBE-Q5  for symbol:  N
         # Potential read from the potential filename: GTH_POTENTIALS
       &END POTENTIAL
     &END KIND
     &KIND Ga
       BASIS_SET DZVP-MOLOPT-SR-GTH
       POTENTIAL GTH-PBE-q13
       &POTENTIAL
 2 1 10
  0.4900000000000000E+00 0
 3
  0.4167772300000000E+00 3  0.1047568975000000E+02 -0.4921768140000000E+01  0.8707055900000000E+00
  0.7770178090000000E+01 -0.2248152160000000E+01
  0.1784415450000000E+01
  0.5696265200000000E+00 2  0.1777985340000000E+01  0.1958597600000000E+00
 -0.2317443900000000E+00
  0.2381265000000000E+00 1 -0.1624868022000000E+02
         # Potential name:  GTH-PBE-Q13  for symbol:  GA
         # Potential read from the potential filename: GTH_POTENTIALS
       &END POTENTIAL
     &END KIND
     &TOPOLOGY
       NUMBER_OF_ATOMS  212
       MULTIPLE_UNIT_CELL  1 1 1
     &END TOPOLOGY
   &END SUBSYS
 &END FORCE_EVAL
