 # Version information for this restart file 
 # current date 2019-06-30 08:32:28.402
 # current working dir /scratch/rzk/rzk/GaN-carbene/443-adatoms-both-2x2/04-2Methanol/01-CombineAsIs
 # Program compiled at                              Sun Apr  7 00:48:11 EDT 2019
 # Program compiled on                          beluga2.int.ets1.calculquebec.ca
 # Program compiled for                        Beluga-Linux-x86-64-intel-openmpi
 # Source code revision number                                         svn:18619
 &GLOBAL
   PRINT_LEVEL  MEDIUM
   PROJECT_NAME TEST
   RUN_TYPE  GEO_OPT
 &END GLOBAL
 &MOTION
   &GEO_OPT
     MAX_ITER  500
     STEP_START_VAL  244
   &END GEO_OPT
 &END MOTION
 &FORCE_EVAL
   METHOD  QS
   STRESS_TENSOR  ANALYTICAL
   &DFT
     BASIS_SET_FILE_NAME BASIS_MOLOPT
     POTENTIAL_FILE_NAME GTH_POTENTIALS
     UKS  T
     SURFACE_DIPOLE_CORRECTION  T
     SURF_DIP_DIR  Z
     &SCF
       MAX_SCF  80
       EPS_SCF     5.0000000000000004E-06
       &OT  T
         PRECONDITIONER  FULL_ALL
       &END OT
       &OUTER_SCF  T
         OPTIMIZER  NONE
         EPS_SCF     5.0000000000000004E-06
         MAX_SCF  4
       &END OUTER_SCF
       &PRINT
         &RESTART  OFF
           BACKUP_COPIES  1
           &EACH
             JUST_ENERGY  0
             QS_SCF  0
             MD  20
           &END EACH
         &END RESTART
       &END PRINT
     &END SCF
     &QS
       EPS_DEFAULT     1.0000000000000000E-14
       METHOD  GPW
     &END QS
     &MGRID
       NGRIDS  5
       CUTOFF     1.2000000000000000E+03
     &END MGRID
     &XC
       DENSITY_CUTOFF     1.0000000000000000E-10
       GRADIENT_CUTOFF     1.0000000000000000E-10
       TAU_CUTOFF     1.0000000000000000E-10
       &XC_FUNCTIONAL  NO_SHORTCUT
         &PBE  T
         &END PBE
       &END XC_FUNCTIONAL
       &VDW_POTENTIAL
         POTENTIAL_TYPE  PAIR_POTENTIAL
         &PAIR_POTENTIAL
           R_CUTOFF     1.0000000000000005E+01
           TYPE  DFTD3
           PARAMETER_FILE_NAME dftd3.dat
           REFERENCE_FUNCTIONAL PBE
           EPS_CN     9.9999999999999995E-07
           CALCULATE_C9_TERM  T
           REFERENCE_C9_TERM  T
           LONG_RANGE_CORRECTION  F
           VERBOSE_OUTPUT  F
         &END PAIR_POTENTIAL
       &END VDW_POTENTIAL
     &END XC
   &END DFT
   &SUBSYS
     &CELL
       A     1.2864472766435110E+01    0.0000000000000000E+00    0.0000000000000000E+00
       B    -6.4322363581020028E+00    1.1140960178524475E+01    0.0000000000000000E+00
       C     0.0000000000000000E+00    0.0000000000000000E+00    3.2000000000000000E+01
       MULTIPLE_UNIT_CELL  1 1 1
       &CELL_REF
         A     1.2982353780853531E+01    0.0000000000000000E+00    0.0000000000000000E+00
         B    -6.4911768904267628E+00    1.1243048175136114E+01    0.0000000000000000E+00
         C     0.0000000000000000E+00    0.0000000000000000E+00    3.2000000000000000E+01
         MULTIPLE_UNIT_CELL  1 1 1
       &END CELL_REF
     &END CELL
     &COORD
N    7.7760686725747513E-02    1.9767530761457652E+00    2.4892426831029044E+00
Ga    6.1043345328060029E-02    5.4860895193326077E-03    2.8217718862469816E+00
N    8.2416886526133548E-02   -2.5735620669178689E-02    5.0146963224129433E+00
Ga    8.0953152014034691E-02    1.7989066849128670E+00    5.7981009627851439E+00
N    8.0026507995946558E-02    1.8147104396590739E+00    7.8008749746327339E+00
Ga    7.7392057104992418E-02   -3.0283402379736212E-02    8.4435326414229781E+00
N    7.9142711008983346E-02   -3.1015299579065861E-02    1.0419737147463131E+01
Ga    7.9184186353640690E-02    1.8082174374154332E+00    1.1070927833508655E+01
N    7.9620743326990942E-02    1.7897745952433091E+00    1.3065976316076419E+01
Ga    7.9540726559946609E-02   -3.0129776724176788E-02    1.3878168046803902E+01
N    7.9365554164500154E-02   -3.0209766928770521E-02    1.6069566183038194E+01
Ga    7.9572380799829548E-02    2.0157028388852014E+00    1.6493407242714706E+01
Ga    4.4585003814073522E-02    3.6848219432937226E+00    1.3669160894560863E+00
N   -1.4087868562308008E+00    4.5478193038111439E+00    2.5293881593460061E+00
Ga   -1.6017169518191225E+00    2.7030823402771054E+00    3.2805336188487124E+00
N   -1.5298155069560040E+00    2.7532217171354207E+00    5.2585883378686766E+00
Ga   -1.5584524493638077E+00    4.6185099561364638E+00    5.8076792826815744E+00
N   -1.5391298572980756E+00    4.6180187261042329E+00    7.8035668234628366E+00
Ga   -1.5195013887922055E+00    2.7569215546265822E+00    8.4350661712441664E+00
N   -1.5176923596076610E+00    2.7606519889312362E+00    1.0431860875473269E+01
Ga   -1.5427155208142216E+00    4.6188133102590676E+00    1.1069258916215023E+01
N   -1.5585187829254317E+00    4.6299515403225229E+00    1.3062178937487811E+01
Ga   -1.5170341175014002E+00    2.7618281967685516E+00    1.3622272927394702E+01
N   -1.5508460592367055E+00    2.7501821570031875E+00    1.5582074841450357E+01
Ga   -1.3497762378674658E+00    4.5116226563967938E+00    1.6495090443775688E+01
N    7.9471605606333484E-02    3.6729388456453793E+00    1.7637806983290840E+01
N   -3.1315023022404906E+00    7.5182406410477993E+00    2.5316285924360415E+00
Ga   -3.1106562943173386E+00    5.5144420214149781E+00    2.8532722566576485E+00
N   -3.1367628567438053E+00    5.5406335019132333E+00    5.0233451266212441E+00
Ga   -3.1438512688265376E+00    7.3611040593496613E+00    5.8080738576397941E+00
N   -3.1361072401604964E+00    7.3863611956497328E+00    7.8000105905589230E+00
Ga   -3.1368984061815821E+00    5.5392668879291023E+00    8.4490468622015875E+00
N   -3.1368786264758119E+00    5.5409782214871131E+00    1.0422537805967645E+01
Ga   -3.1378711242832988E+00    7.3812803227944688E+00    1.1070647126208035E+01
N   -3.1361730196024453E+00    7.3625927075439801E+00    1.3062558398957773E+01
Ga   -3.1269115658530193E+00    5.5460914146704310E+00    1.3861172622919916E+01
N   -3.1249068068645780E+00    5.5473791630179843E+00    1.6068837696841427E+01
Ga   -3.1340769617655333E+00    7.6031151627757856E+00    1.6496452062555655E+01
Ga   -3.1497279974145318E+00    9.2534293963087126E+00    1.5004665612395895E+00
N   -4.6392756292901653E+00    1.0121787083093130E+01    2.5168107858094242E+00
Ga   -4.8569900439934468E+00    8.2713930181388342E+00    3.2904556274491989E+00
N   -4.7438869185884753E+00    8.3263488091334370E+00    5.2520952408173116E+00
Ga   -4.7763622964589354E+00    1.0201383924314872E+01    5.7989208421927652E+00
N   -4.7544384729786886E+00    1.0187749706666104E+01    7.7973997015457863E+00
Ga   -4.7378628335007180E+00    8.3324936158456069E+00    8.4367889523472126E+00
N   -4.7341067745035135E+00    8.3324443668461790E+00    1.0431242640481580E+01
Ga   -4.7608932758521254E+00    1.0191586012693627E+01    1.1072047360152506E+01
N   -4.7763552270495975E+00    1.0200959369460858E+01    1.3066257829412388E+01
Ga   -4.7329390786950940E+00    8.3324643746779632E+00    1.3623807191588602E+01
N   -4.7603003718530514E+00    8.3087998894759565E+00    1.5582946021632587E+01
Ga   -4.5800333748915421E+00    1.0087588832506935E+01    1.6494818563983468E+01
N   -3.1455303818707887E+00    9.2594131370465842E+00    1.7639189442385323E+01
N    3.2845720552788995E+00    1.8313454688065149E+00    2.6174657333762288E+00
Ga    3.2865572011898809E+00    9.1822617979440954E-02    3.2888249176578936E+00
N    3.2965358586668776E+00   -3.3428935513155594E-02    5.2516374408799784E+00
Ga    3.2872609808376727E+00    1.8287257611396619E+00    5.8736763411596051E+00
N    3.2957744172303549E+00    1.8251670805637201E+00    7.8512037406056034E+00
Ga    3.2929983728534400E+00   -4.0739991913953937E-02    8.4393669515443577E+00
N    3.2949977434264670E+00   -4.2783841091358125E-02    1.0433165001475077E+01
Ga    3.2952330200710351E+00    1.8265266453376734E+00    1.1027511640160412E+01
N    3.2982115758284314E+00    1.8279280276897900E+00    1.3001468702282324E+01
Ga    3.2960627685828783E+00   -4.3772368771395398E-02    1.3624141328625679E+01
N    3.3025977844154610E+00   -7.4377802193830037E-03    1.5583382379364929E+01
Ga    3.2942807542619672E+00    1.8260095614951455E+00    1.5863577532200646E+01
N    1.5685559931639086E+00    4.5493037626220527E+00    2.5170105368165054E+00
Ga    1.7551584190557168E+00    2.7169890669397683E+00    3.2661565521539857E+00
N    1.6884130440612168E+00    2.7537980420396235E+00    5.2511048708281898E+00
Ga    1.7196798051901272E+00    4.6181248334590572E+00    5.8083822070746152E+00
N    1.6971474610673170E+00    4.6167894476148250E+00    7.8050363295727143E+00
Ga    1.6769038669214404E+00    2.7580125988035449E+00    8.4389560952061569E+00
N    1.6769959359201243E+00    2.7603298511289185E+00    1.0434213837790610E+01
Ga    1.7020869274380934E+00    4.6194508467817590E+00    1.1069129643800766E+01
N    1.7180460985881176E+00    4.6301885273764896E+00    1.3062224995341271E+01
Ga    1.6759133749386657E+00    2.7622944684941548E+00    1.3622853785022688E+01
N    1.7103747777155753E+00    2.7501075355080125E+00    1.5582624828226544E+01
Ga    1.5094933844232288E+00    4.5115790988769566E+00    1.6495624763173776E+01
N    8.1461555246857872E-02    7.3795003538764368E+00    2.6965414406149066E+00
Ga    8.8285511069232450E-02    5.5383787718424067E+00    3.3379619214132048E+00
N    7.9739251905862368E-02    5.5525337982565102E+00    5.2752069826598529E+00
Ga    8.7431919332331381E-02    7.3941200775768676E+00    5.9059337086323964E+00
N    8.0049102939480657E-02    7.3982551464641695E+00    7.8650381534644094E+00
Ga    7.9652059829495789E-02    5.5249252753119071E+00    8.4441160993805564E+00
N    7.9320789736069944E-02    5.5278321581894483E+00    1.0434736787567209E+01
Ga    8.0184256296877685E-02    7.3971918828524865E+00    1.1028228516424461E+01
N    7.9683469582911726E-02    7.3976520933078227E+00    1.2997731784970249E+01
Ga    7.9795269261710558E-02    5.5287880049476348E+00    1.3622376642737843E+01
N    7.9912259686063178E-02    5.5604312317336495E+00    1.5580741112256417E+01
Ga    8.0224678596786392E-02    7.3978720701203144E+00    1.5860279312587195E+01
N   -1.6319745273888604E+00    1.0110104772073294E+01    2.5243706773126657E+00
Ga   -1.4874661935136002E+00    8.2969527785472277E+00    3.3362918012215270E+00
N   -1.5167862023882186E+00    8.3179985849905869E+00    5.2634466035006220E+00
Ga   -1.5033827035625458E+00    1.0203963478673447E+01    5.8104804226923568E+00
N   -1.5198828185228679E+00    1.0185922423152823E+01    7.8017499916533417E+00
Ga   -1.5404814765163202E+00    8.3318571578827285E+00    8.4465028172570680E+00
N   -1.5399965581387689E+00    8.3319052845335015E+00    1.0434920201868646E+01
Ga   -1.5149147297724213E+00    1.0191250875855344E+01    1.1070386795646133E+01
N   -1.4976252168214896E+00    1.0199841196454466E+01    1.3062495890777322E+01
Ga   -1.5386518066696200E+00    8.3318726128966407E+00    1.3623379821828454E+01
N   -1.5110205917351531E+00    8.3159283212660053E+00    1.5581114895369957E+01
Ga   -1.7052562545487837E+00    1.0078021119956478E+01    1.6496791446515125E+01
N    6.5096507764476037E+00    1.9494724004988082E+00    2.5384264772217349E+00
Ga    6.5284606510371619E+00   -3.1814722963787401E-02    2.8631942011516611E+00
N    6.5071628471529506E+00   -3.0409017433634482E-02    5.0258633721525054E+00
Ga    6.5099202864705807E+00    1.7990349546769562E+00    5.8052181722282477E+00
N    6.5108191252179131E+00    1.8144996146068955E+00    7.8023481843004756E+00
Ga    6.5134904641981342E+00   -3.1267915659449134E-02    8.4461438916555061E+00
N    6.5119411658711224E+00   -3.1078005445145218E-02    1.0420574647103031E+01
Ga    6.5123093916408692E+00    1.8087578228320604E+00    1.1067996838744007E+01
N    6.5121046284437414E+00    1.7880941013351863E+00    1.3068801216506879E+01
Ga    6.5123301585802968E+00   -4.1100253357803290E-02    1.3861969851977593E+01
N    6.5121130001347307E+00   -4.3348058231609483E-02    1.6069223739454152E+01
Ga    6.5121765859079144E+00    1.9575429579140342E+00    1.6433386814385138E+01
Ga    6.5150034442904428E+00    3.6815712187002982E+00    1.5353615235161366E+00
N    5.0086563591586923E+00    4.5484443840229956E+00    2.5310690290312605E+00
Ga    4.7916490908196030E+00    2.6974118089827415E+00    3.2982875937226797E+00
N    4.9008109172123495E+00    2.7538002371073600E+00    5.2593626257510264E+00
Ga    4.8761736749973021E+00    4.6267367832483286E+00    5.8048547379773749E+00
N    4.8942764132735199E+00    4.6169849714345901E+00    7.8027460259261465E+00
Ga    4.9119851985659571E+00    2.7596280322586351E+00    8.4389590540886505E+00
N    4.9148815934466663E+00    2.7615087080995142E+00    1.0435200160890158E+01
Ga    4.8883863288253169E+00    4.6215097064897197E+00    1.1068213825172746E+01
N    4.8706966448122726E+00    4.6316079437803612E+00    1.3069052941587895E+01
Ga    4.9148114754433978E+00    2.7614994367153942E+00    1.3614015827878262E+01
N    4.8979345816816231E+00    2.7519645003112641E+00    1.5592700085371886E+01
Ga    5.0173112702964291E+00    4.5470292200459186E+00    1.6433492672371472E+01
N    6.5120429885213369E+00    3.6836315220120364E+00    1.7554055890075290E+01
N    3.2922769244978380E+00    7.5105972777119598E+00    2.5021730523606527E+00
N    3.2951700921615243E+00    5.5375222523001542E+00    5.0299789120070555E+00
Ga    3.2995161972675318E+00    7.3650769942146086E+00    5.7955225260471073E+00
N    3.2935469228526437E+00    7.3874540693301167E+00    7.7946207521938957E+00
Ga    3.2955327581201090E+00    5.5416593557594913E+00    8.4461040710999953E+00
N    3.2957202305799402E+00    5.5414041313931115E+00    1.0421298427241478E+01
Ga    3.2974047046991788E+00    7.3816884777384910E+00    1.1069274578894342E+01
N    3.2957171117387123E+00    7.3627276255092839E+00    1.3061866692422452E+01
Ga    3.2863896115194295E+00    5.5465655114165147E+00    1.3861109589073676E+01
N    3.2844302239992280E+00    5.5475483522384845E+00    1.6069161543790152E+01
Ga    3.2938864455222348E+00    7.6038343874930296E+00    1.6497712563283592E+01
Ga    3.3313051022137650E+00    9.2752534940085134E+00    1.3232663681758008E+00
N    1.7843907464967979E+00    1.0117485628812005E+01    2.5061974538472587E+00
Ga    1.6805390332845778E+00    8.3128123559666012E+00    3.2892721765354334E+00
N    1.6738873108423957E+00    8.3168511623898986E+00    5.2381565136137027E+00
Ga    1.6644524921211541E+00    1.0197977229663772E+01    5.7959738943669770E+00
N    1.6770841113109174E+00    1.0184640763108199E+01    7.7942313493870499E+00
Ga    1.7010262715894229E+00    8.3329194540982403E+00    8.4444497695743763E+00
N    1.6992417158347422E+00    8.3323656628035874E+00    1.0434170950934288E+01
Ga    1.6750457237356740E+00    1.0191555498755728E+01    1.1069335748828124E+01
N    1.6574015459825944E+00    1.0199919546441542E+01    1.3061887160218861E+01
Ga    1.6982581215965513E+00    8.3318699252637369E+00    1.3622839439904961E+01
N    1.6711993846998396E+00    8.3161053651041108E+00    1.5580639417663331E+01
Ga    1.8655399191255948E+00    1.0077684251041578E+01    1.6497497806181887E+01
N    3.3048787843596559E+00    9.2596662967717212E+00    1.7641090821934981E+01
N    9.7370414133372751E+00    1.8245935644958111E+00    2.6296077527739703E+00
Ga    9.7311732186737760E+00    6.1011130993108592E-02    3.2582005168492487E+00
N    9.7242883023366264E+00   -3.4390979890476119E-02    5.2405180439306651E+00
Ga    9.7331670160668118E+00    1.8195326036089381E+00    5.8674930008590058E+00
N    9.7266392186453263E+00    1.8245179934378044E+00    7.8480603591445384E+00
Ga    9.7298795596474168E+00   -4.2547527502607020E-02    8.4314403185065654E+00
N    9.7282886590741224E+00   -4.3240257330053780E-02    1.0428931044672595E+01
Ga    9.7287288330456594E+00    1.8257242372485369E+00    1.1024384906971953E+01
N    9.7255641090513478E+00    1.8277558073024600E+00    1.2999298435068573E+01
Ga    9.7281283989833121E+00   -4.3527943938571262E-02    1.3623470262860051E+01
N    9.7214241851663292E+00   -7.5208361734461025E-03    1.5582680304957584E+01
Ga    9.7300460803862201E+00    1.8258067266173847E+00    1.5863346337564540E+01
N    8.0135006396983233E+00    4.5494567131807226E+00    2.5397733422903372E+00
Ga    8.2308266515346524E+00    2.6897755086375854E+00    3.3010099714399517E+00
N    8.1193084314095376E+00    2.7534303222289322E+00    5.2614283952855789E+00
Ga    8.1432900759710716E+00    4.6257088778184441E+00    5.8024268403657064E+00
N    8.1296617876179642E+00    4.6180722426991023E+00    7.8003860121549566E+00
Ga    8.1117796124741428E+00    2.7591377795671566E+00    8.4356493033214477E+00
N    8.1086691454353499E+00    2.7616515246066924E+00    1.0433150343433038E+01
Ga    8.1347197881126050E+00    4.6205778868379168E+00    1.1068534365476811E+01
N    8.1531605116692365E+00    4.6313672993009121E+00    1.3069062531275396E+01
Ga    8.1095071672087951E+00    2.7613048723458697E+00    1.3613632043791700E+01
N    8.1263546393754638E+00    2.7518262394479800E+00    1.5592338425969700E+01
Ga    8.0066329960731206E+00    4.5468018224833644E+00    1.6433285672466823E+01
N    6.5059924477833926E+00    7.3987679415222471E+00    2.6110077181850642E+00
Ga    6.5051868960091834E+00    5.6623230483557325E+00    3.2964521361410060E+00
N    6.5103519992748708E+00    5.5419088702429242E+00    5.2573869144176149E+00
Ga    6.5037530549311340E+00    7.4018403761360929E+00    5.8694599775564811E+00
N    6.5109539645974266E+00    7.3975050832313967E+00    7.8466184907749428E+00
Ga    6.5116335007858064E+00    5.5303419480233389E+00    8.4369429757433956E+00
N    6.5119536466077133E+00    5.5282009438908517E+00    1.0433557863574874E+01
Ga    6.5113099334151290E+00    7.3986219782708131E+00    1.1025431565821478E+01
N    6.5117491567307946E+00    7.3951601234460673E+00    1.2999781603694354E+01
Ga    6.5120233097600302E+00    5.5287106016121035E+00    1.3614029230202302E+01
N    6.5120306980793279E+00    5.5482152687766755E+00    1.5592691546876930E+01
Ga    6.5120067229716803E+00    7.4000384933938923E+00    1.5864243071897150E+01
N    4.8038420982343659E+00    1.0125006315687413E+01    2.5113120412822152E+00
Ga    4.9795421403565934E+00    8.2811633164021003E+00    3.2547738947837734E+00
N    4.9009312116422379E+00    8.3247944056446794E+00    5.2372903018210453E+00
Ga    4.9295192022694145E+00    1.0197721926666592E+01    5.7836980056316909E+00
N    4.9138965419008587E+00    1.0187716719272098E+01    7.7899332569779771E+00
Ga    4.8936821039749017E+00    8.3339646347762493E+00    8.4322863991776327E+00
N    4.8932420693728984E+00    8.3324726521036094E+00    1.0429082336039556E+01
Ga    4.9185895635842787E+00    1.0191166429552386E+01    1.1070435105662353E+01
N    4.9356185052726227E+00    1.0200963467135701E+01    1.3065321893563285E+01
Ga    4.8920671209848114E+00    8.3328334390196872E+00    1.3623705880825737E+01
N    4.9198788945449659E+00    8.3088954319609751E+00    1.5582783318554965E+01
Ga    4.7386259490539819E+00    1.0087264769803214E+01    1.6495763279645487E+01
O    1.0471268162371773E-02    4.0886237098903724E+00   -4.2953806968009522E-01
H   -1.8848541265408778E-01    5.8754243277875364E+00   -3.4189229877918781E-01
C    1.1253620861884428E+00    3.6355212383196585E+00   -1.2207038721791388E+00
H    2.0932721581252305E+00    3.9397778618103017E+00   -7.9010326155653288E-01
H    1.1197876928601636E+00    2.5399178634274167E+00   -1.3267556328931742E+00
H    1.0300593535280165E+00    4.0809778294230119E+00   -2.2210960634171522E+00
Ga    3.2656727185698453E+00    5.5343117828966317E+00    2.8518405047695170E+00
O   -1.9070826587727469E-01    6.8607781217973551E+00   -1.9950377296606886E-01
H    3.1111298337190424E-02    7.3090797689993208E+00    1.6592382332354425E+00
C    9.3941825619212327E-01    7.3929118552634030E+00   -9.0364992834967162E-01
H    9.5461725209810222E-01    8.4778223659604688E+00   -7.3009321120410098E-01
H    1.8898575196124796E+00    6.9695653787026126E+00   -5.3837663628801358E-01
H    8.6529132691846078E-01    7.2175676535202085E+00   -1.9878505811375646E+00
     &END COORD
     &KIND C
       BASIS_SET DZVP-MOLOPT-SR-GTH-q4
       POTENTIAL GTH-PBE-q4
       &POTENTIAL
2 2
0.3384712400000000E+00 2 -0.8803673979999999E+01  0.1339210850000000E+01
2
0.3025757500000000E+00 1  0.9622486650000001E+01
0.2915069400000000E+00 0
       &END POTENTIAL
     &END KIND
     &KIND O
       BASIS_SET DZVP-MOLOPT-SR-GTH-q6
       POTENTIAL GTH-PBE-q6
       &POTENTIAL
2 4
0.2445543000000000E+00 2 -0.1666721480000000E+02  0.2487311320000000E+01
2
0.2209559200000000E+00 1  0.1833745811000000E+02
0.2113324700000000E+00 0
       &END POTENTIAL
     &END KIND
     &KIND H
       BASIS_SET DZVP-MOLOPT-SR-GTH-q1
       POTENTIAL GTH-PBE-q1
       &POTENTIAL
1
0.2000000000000000E+00 2 -0.4178900440000000E+01  0.7244633100000000E+00
0
       &END POTENTIAL
     &END KIND
     &KIND N
       BASIS_SET DZVP-MOLOPT-SR-GTH
       POTENTIAL GTH-PBE-q5
       &POTENTIAL
2 3
0.2837905100000000E+00 2 -0.1241522559000000E+02  0.1868095920000000E+01
2
0.2554050000000000E+00 1  0.1363026257000000E+02
0.2454945300000000E+00 0
       &END POTENTIAL
     &END KIND
     &KIND Ga
       BASIS_SET DZVP-MOLOPT-SR-GTH
       POTENTIAL GTH-PBE-q13
       &POTENTIAL
2 1 10
0.4900000000000000E+00 0
3
0.4167772300000000E+00 3  0.1047568975000000E+02 -0.4921768140000000E+01  0.8707055900000000E+00
0.7770178090000000E+01 -0.2248152160000000E+01
0.1784415450000000E+01
0.5696265200000000E+00 2  0.1777985340000000E+01  0.1958597600000000E+00
-0.2317443900000000E+00
0.2381265000000000E+00 1 -0.1624868022000000E+02
       &END POTENTIAL
     &END KIND
     &TOPOLOGY
       NUMBER_OF_ATOMS  212
       MULTIPLE_UNIT_CELL  1 1 1
     &END TOPOLOGY
   &END SUBSYS
 &END FORCE_EVAL
