 # Version information for this restart file 
 # current date 2019-06-30 08:34:54.685
 # current working dir /scratch/rzk/rzk/GaN-carbene/443-adatoms-both-2x2/04-2Methanol/01-CombineAsIs
 # Program compiled at                              Sun Apr  7 00:48:11 EDT 2019
 # Program compiled on                          beluga2.int.ets1.calculquebec.ca
 # Program compiled for                        Beluga-Linux-x86-64-intel-openmpi
 # Source code revision number                                         svn:18619
 &GLOBAL
   PRINT_LEVEL  MEDIUM
   PROJECT_NAME TEST
   RUN_TYPE  GEO_OPT
 &END GLOBAL
 &MOTION
   &GEO_OPT
     MAX_ITER  500
     STEP_START_VAL  245
   &END GEO_OPT
 &END MOTION
 &FORCE_EVAL
   METHOD  QS
   STRESS_TENSOR  ANALYTICAL
   &DFT
     BASIS_SET_FILE_NAME BASIS_MOLOPT
     POTENTIAL_FILE_NAME GTH_POTENTIALS
     UKS  T
     SURFACE_DIPOLE_CORRECTION  T
     SURF_DIP_DIR  Z
     &SCF
       MAX_SCF  80
       EPS_SCF     5.0000000000000004E-06
       &OT  T
         PRECONDITIONER  FULL_ALL
       &END OT
       &OUTER_SCF  T
         OPTIMIZER  NONE
         EPS_SCF     5.0000000000000004E-06
         MAX_SCF  4
       &END OUTER_SCF
       &PRINT
         &RESTART  OFF
           BACKUP_COPIES  1
           &EACH
             JUST_ENERGY  0
             QS_SCF  0
             MD  20
           &END EACH
         &END RESTART
       &END PRINT
     &END SCF
     &QS
       EPS_DEFAULT     1.0000000000000000E-14
       METHOD  GPW
     &END QS
     &MGRID
       NGRIDS  5
       CUTOFF     1.2000000000000000E+03
     &END MGRID
     &XC
       DENSITY_CUTOFF     1.0000000000000000E-10
       GRADIENT_CUTOFF     1.0000000000000000E-10
       TAU_CUTOFF     1.0000000000000000E-10
       &XC_FUNCTIONAL  NO_SHORTCUT
         &PBE  T
         &END PBE
       &END XC_FUNCTIONAL
       &VDW_POTENTIAL
         POTENTIAL_TYPE  PAIR_POTENTIAL
         &PAIR_POTENTIAL
           R_CUTOFF     1.0000000000000005E+01
           TYPE  DFTD3
           PARAMETER_FILE_NAME dftd3.dat
           REFERENCE_FUNCTIONAL PBE
           EPS_CN     9.9999999999999995E-07
           CALCULATE_C9_TERM  T
           REFERENCE_C9_TERM  T
           LONG_RANGE_CORRECTION  F
           VERBOSE_OUTPUT  F
         &END PAIR_POTENTIAL
       &END VDW_POTENTIAL
     &END XC
   &END DFT
   &SUBSYS
     &CELL
       A     1.2864472766435110E+01    0.0000000000000000E+00    0.0000000000000000E+00
       B    -6.4322363581020028E+00    1.1140960178524475E+01    0.0000000000000000E+00
       C     0.0000000000000000E+00    0.0000000000000000E+00    3.2000000000000000E+01
       MULTIPLE_UNIT_CELL  1 1 1
       &CELL_REF
         A     1.2982353780853531E+01    0.0000000000000000E+00    0.0000000000000000E+00
         B    -6.4911768904267628E+00    1.1243048175136114E+01    0.0000000000000000E+00
         C     0.0000000000000000E+00    0.0000000000000000E+00    3.2000000000000000E+01
         MULTIPLE_UNIT_CELL  1 1 1
       &END CELL_REF
     &END CELL
     &COORD
N    7.7718878320904738E-02    1.9766607114641874E+00    2.4891638736834398E+00
Ga    6.0439594785784763E-02    5.4739651693924548E-03    2.8218984125402553E+00
N    8.2436115656585027E-02   -2.5810000939600314E-02    5.0147219629619020E+00
Ga    8.0973374430455838E-02    1.7989927181705283E+00    5.7980458009990565E+00
N    8.0037223898060089E-02    1.8147351647731291E+00    7.8008303902526643E+00
Ga    7.7344266942600493E-02   -3.0282396769520731E-02    8.4435917738414226E+00
N    7.9160450339167049E-02   -3.0963538456958834E-02    1.0419671857297184E+01
Ga    7.9169023686041062E-02    1.8083267606166755E+00    1.1071008515443539E+01
N    7.9661476283576726E-02    1.7896941116761893E+00    1.3065939007798711E+01
Ga    7.9474541737320756E-02   -2.9995904931389185E-02    1.3878274634919080E+01
N    7.9450756466714970E-02   -2.9990985813765775E-02    1.6069729697835719E+01
Ga    7.9510422677174092E-02    2.0164363809638228E+00    1.6494049016686393E+01
Ga    4.4634721246488727E-02    3.6847653570371897E+00    1.3667888406515192E+00
N   -1.4086891191798205E+00    4.5478282127772713E+00    2.5293575521227023E+00
Ga   -1.6018239136642645E+00    2.7029924925591784E+00    3.2803645692028294E+00
N   -1.5298698379876381E+00    2.7531499448568200E+00    5.2585480681458394E+00
Ga   -1.5583770400182804E+00    4.6184596621415688E+00    5.8076521203086546E+00
N   -1.5391319257147691E+00    4.6179313779613942E+00    7.8036133332077879E+00
Ga   -1.5195515047872763E+00    2.7568083077164416E+00    8.4350251741670501E+00
N   -1.5177033160434721E+00    2.7606716022107429E+00    1.0431652528857406E+01
Ga   -1.5427298307947752E+00    4.6188116655892371E+00    1.1069252884289526E+01
N   -1.5585056518613125E+00    4.6300016995255069E+00    1.3062039291233656E+01
Ga   -1.5169634850941216E+00    2.7618737271584859E+00    1.3622501556156401E+01
N   -1.5508680999581512E+00    2.7500448002293414E+00    1.5582088201678150E+01
Ga   -1.3493548825055350E+00    4.5110948184976438E+00    1.6495575589512434E+01
N    7.9324497624012863E-02    3.6729434666632916E+00    1.7638209218328676E+01
N   -3.1315425809910566E+00    7.5180141058529975E+00    2.5315799663026253E+00
Ga   -3.1108744077787840E+00    5.5140345127407633E+00    2.8531014861854600E+00
N   -3.1367037382557639E+00    5.5407459386504065E+00    5.0234583889210063E+00
Ga   -3.1439543104041410E+00    7.3612694830749899E+00    5.8081523855479471E+00
N   -3.1361400877833510E+00    7.3863512803524731E+00    7.8000679821960421E+00
Ga   -3.1369848225169199E+00    5.5391880329912020E+00    8.4491283322781570E+00
N   -3.1369760938271662E+00    5.5409200112198791E+00    1.0422516483448716E+01
Ga   -3.1378662779636830E+00    7.3812305981859900E+00    1.1070712089963456E+01
N   -3.1361505908084450E+00    7.3625988369102311E+00    1.3062726252212700E+01
Ga   -3.1268664762424918E+00    5.5458791732836854E+00    1.3861194378341864E+01
N   -3.1250945694158760E+00    5.5471468108559723E+00    1.6068951408458961E+01
Ga   -3.1341207059976592E+00    7.6029605543319203E+00    1.6496405458733360E+01
Ga   -3.1496430318689543E+00    9.2534187271945516E+00    1.5011359032903826E+00
N   -4.6395660277495301E+00    1.0121906333638796E+01    2.5166434218969318E+00
Ga   -4.8570965718358075E+00    8.2713512601629020E+00    3.2901996306666135E+00
N   -4.7439049795183061E+00    8.3263971569841129E+00    5.2519230940256572E+00
Ga   -4.7762464897663399E+00    1.0201267898485924E+01    5.7989771658492559E+00
N   -4.7544463529288263E+00    1.0187811693676005E+01    7.7973822179172165E+00
Ga   -4.7379697435272066E+00    8.3325204706643294E+00    8.4366899438716860E+00
N   -4.7340784214938765E+00    8.3323983076871322E+00    1.0431122854826189E+01
Ga   -4.7608788182003066E+00    1.0191524515660619E+01    1.1072062748530223E+01
N   -4.7763691283028642E+00    1.0200994473735744E+01    1.3066393944151732E+01
Ga   -4.7328974932530299E+00    8.3325070649271638E+00    1.3623758517690678E+01
N   -4.7602351422047331E+00    8.3088778042225453E+00    1.5583022007931707E+01
Ga   -4.5801320935886469E+00    1.0087652616136104E+01    1.6494807816574710E+01
N   -3.1457560415007197E+00    9.2593134178002998E+00    1.7639504812922180E+01
N    3.2845830115121197E+00    1.8313902923052421E+00    2.6175916627722526E+00
Ga    3.2865653914229558E+00    9.1746085988573131E-02    3.2884927893733766E+00
N    3.2964954375475690E+00   -3.3490435318202220E-02    5.2514448487652343E+00
Ga    3.2872615126655487E+00    1.8287089566470713E+00    5.8736110083288002E+00
N    3.2957926037448497E+00    1.8251630217683126E+00    7.8511520228333653E+00
Ga    3.2929666197778582E+00   -4.0674151958245822E-02    8.4393337420748633E+00
N    3.2950095084921101E+00   -4.2789552367055089E-02    1.0433082200078056E+01
Ga    3.2952234494485282E+00    1.8265204479398534E+00    1.1027360372683574E+01
N    3.2982058649539474E+00    1.8278831190759492E+00    1.3001281352387855E+01
Ga    3.2960648385471516E+00   -4.3711577451642891E-02    1.3624124890164190E+01
N    3.3026467934263755E+00   -7.5324108638833561E-03    1.5583502252673306E+01
Ga    3.2942436835026205E+00    1.8262638716439805E+00    1.5863709678503287E+01
N    1.5686121221887104E+00    4.5494091717824805E+00    2.5169867210379486E+00
Ga    1.7550714136698049E+00    2.7170259100970884E+00    3.2659929698819226E+00
N    1.6884009027940678E+00    2.7538370355550477E+00    5.2510973861501427E+00
Ga    1.7196605148900634E+00    4.6180931680415966E+00    5.8084316815030927E+00
N    1.6971663972965523E+00    4.6166875923234034E+00    7.8050874126794740E+00
Ga    1.6769616757944183E+00    2.7579025971216056E+00    8.4388742768159233E+00
N    1.6770076759102357E+00    2.7603118961116730E+00    1.0433963571798078E+01
Ga    1.7020727321440701E+00    4.6194460864372102E+00    1.1069030054056963E+01
N    1.7180481985010170E+00    4.6302112918654412E+00    1.3062028197901448E+01
Ga    1.6759001268386571E+00    2.7623565350775361E+00    1.3623129574282403E+01
N    1.7103631679391595E+00    2.7499261534488788E+00    1.5582638225990102E+01
Ga    1.5089264015105066E+00    4.5110345718744744E+00    1.6496099059616796E+01
N    8.1460982453894409E-02    7.3795287483725867E+00    2.6965732252503312E+00
Ga    8.8357363502981401E-02    5.5384661386808096E+00    3.3379183383494717E+00
N    7.9793173460397160E-02    5.5525235671999873E+00    5.2752477036132408E+00
Ga    8.7440143910637938E-02    7.3941026072643812E+00    5.9058020736976458E+00
N    8.0052845931839825E-02    7.3982819253435972E+00    7.8648432422285781E+00
Ga    7.9667163367396224E-02    5.5249881158546987E+00    8.4439773115918957E+00
N    7.9289220292418194E-02    5.5278117026962263E+00    1.0434487301760218E+01
Ga    8.0159867360537887E-02    7.3971923838471056E+00    1.1028185514980597E+01
N    7.9560928260482291E-02    7.3975741273343525E+00    1.2997748334793952E+01
Ga    7.9825656536777506E-02    5.5287099159708184E+00    1.3622672301228489E+01
N    7.9850327135545823E-02    5.5604248819132955E+00    1.5580819056796772E+01
Ga    8.0262781356401788E-02    7.3976841106789308E+00    1.5859864039274163E+01
N   -1.6316829109613755E+00    1.0110236451894284E+01    2.5243467509375068E+00
Ga   -1.4874733132129436E+00    8.2969473706748627E+00    3.3360884029807156E+00
N   -1.5168059183729332E+00    8.3180048361408048E+00    5.2633146003916966E+00
Ga   -1.5035213483868122E+00    1.0203936230777797E+01    5.8105837958307927E+00
N   -1.5198975479356374E+00    1.0186008265235953E+01    7.8017845067950926E+00
Ga   -1.5404349257613115E+00    8.3318793016682626E+00    8.4464286876755530E+00
N   -1.5400436347327695E+00    8.3319020719174226E+00    1.0434821851798873E+01
Ga   -1.5148845492725669E+00    1.0191231754680130E+01    1.1070344935568512E+01
N   -1.4976554985562147E+00    1.0199837780360911E+01    1.3062520901640154E+01
Ga   -1.5385810442905499E+00    8.3318677193352979E+00    1.3623235946043172E+01
N   -1.5111328542013784E+00    8.3160649951371557E+00    1.5581101084161773E+01
Ga   -1.7052649582371531E+00    1.0078051573748780E+01    1.6496898200790344E+01
N    6.5096904888699409E+00    1.9494940201518096E+00    2.5384038620798890E+00
Ga    6.5290966716844414E+00   -3.1682770838339043E-02    2.8631810376661604E+00
N    6.5071243340207259E+00   -3.0589199916588691E-02    5.0259295234485784E+00
Ga    6.5099063403756672E+00    1.7991965396159226E+00    5.8051236922044041E+00
N    6.5108041413215583E+00    1.8146114412523837E+00    7.8023764388392838E+00
Ga    6.5135428381277860E+00   -3.1175076801095037E-02    8.4462337255392956E+00
N    6.5119267112100463E+00   -3.0914727940011249E-02    1.0420620057774288E+01
Ga    6.5123141948306094E+00    1.8088691722469976E+00    1.1068123291247959E+01
N    6.5120658037041768E+00    1.7880934037478009E+00    1.3068791048644787E+01
Ga    6.5124041864429474E+00   -4.1031720243043142E-02    1.3861783920124829E+01
N    6.5120634361292646E+00   -4.2882036526659541E-02    1.6069038849866427E+01
Ga    6.5124312774140325E+00    1.9577526582266445E+00    1.6433740659666036E+01
Ga    6.5148493485542831E+00    3.6816053544994167E+00    1.5344587988609342E+00
N    5.0086179185062374E+00    4.5485466860005976E+00    2.5310761534572737E+00
Ga    4.7918819066024714E+00    2.6975878341811961E+00    3.2980269534924944E+00
N    4.9006902959881398E+00    2.7537920546898533E+00    5.2593099935614305E+00
Ga    4.8763135986460906E+00    4.6267033100653894E+00    5.8048280633758287E+00
N    4.8943605778169470E+00    4.6168749572398262E+00    7.8028390933546188E+00
Ga    4.9119433512694632E+00    2.7595549475239327E+00    8.4389971001435562E+00
N    4.9149136563919482E+00    2.7614886792073290E+00    1.0435218105386545E+01
Ga    4.8884463542638601E+00    4.6214548996894056E+00    1.1068195731781371E+01
N    4.8707025771721444E+00    4.6315701213530822E+00    1.3068979957787111E+01
Ga    4.9147874237552189E+00    2.7615078811594986E+00    1.3614031980377717E+01
N    4.8979558801859362E+00    2.7517785826891812E+00    1.5592482145947359E+01
Ga    5.0174193533571234E+00    4.5470376911195709E+00    1.6433528485335014E+01
N    6.5118862455577622E+00    3.6836606522738151E+00    1.7554754316161294E+01
N    3.2922753696443046E+00    7.5105952232686475E+00    2.5020607029216153E+00
N    3.2950788503963087E+00    5.5375876873921008E+00    5.0301334021140622E+00
Ga    3.2995217270752994E+00    7.3651201660529626E+00    5.7954838807627782E+00
N    3.2935901897450708E+00    7.3874471980769458E+00    7.7945961784929638E+00
Ga    3.2956078597839360E+00    5.5416445427464671E+00    8.4460638143268838E+00
N    3.2958213087440340E+00    5.5413235118728688E+00    1.0421116788508483E+01
Ga    3.2973846331090240E+00    7.3816666207839674E+00    1.1069219484125551E+01
N    3.2956824030082350E+00    7.3627232272916130E+00    1.3061963741656632E+01
Ga    3.2863485673155610E+00    5.5464280260468666E+00    1.3861272151183906E+01
N    3.2845540745798378E+00    5.5472987997033867E+00    1.6069402923511067E+01
Ga    3.2940580345143324E+00    7.6039702898592578E+00    1.6497619714132711E+01
Ga    3.3313437496211282E+00    9.2751960372164355E+00    1.3231781909710421E+00
N    1.7844411675945135E+00    1.0117441581398090E+01    2.5060405478849970E+00
Ga    1.6805878050235004E+00    8.3128209838185345E+00    3.2893862984013169E+00
N    1.6739312895089256E+00    8.3168294927958186E+00    5.2382811098883506E+00
Ga    1.6645054836623179E+00    1.0197914555855647E+01    5.7959061841864017E+00
N    1.6770947857518057E+00    1.0184717010049813E+01    7.7941866797366854E+00
Ga    1.7010604323600922E+00    8.3329788075398508E+00    8.4442833733186973E+00
N    1.6992154423729668E+00    8.3323577427429676E+00    1.0433930276798739E+01
Ga    1.6750218006756570E+00    1.0191531281554346E+01    1.1069266626200017E+01
N    1.6574037713622647E+00    1.0199889598712174E+01    1.3061892976021154E+01
Ga    1.6981150222225156E+00    8.3317937028395672E+00    1.3622757308076988E+01
N    1.6712072879320821E+00    8.3162569540653308E+00    1.5580597130827766E+01
Ga    1.8657903249373202E+00    1.0077794313508289E+01    1.6497580965905570E+01
N    3.3048516850590199E+00    9.2595824289030109E+00    1.7641584404129055E+01
N    9.7369936169492028E+00    1.8244480627107218E+00    2.6296446261261592E+00
Ga    9.7311063327708229E+00    6.0993761766136551E-02    3.2584492890767289E+00
N    9.7242928303651102E+00   -3.4337166267456642E-02    5.2407089369595479E+00
Ga    9.7331478241781095E+00    1.8195700522928959E+00    5.8676736904728068E+00
N    9.7266245719726907E+00    1.8244961670962638E+00    7.8481898990663730E+00
Ga    9.7299040993399206E+00   -4.2578938331394395E-02    8.4313867732110364E+00
N    9.7282648215203782E+00   -4.3218110566843673E-02    1.0428764281560522E+01
Ga    9.7287310834484497E+00    1.8257400184159462E+00    1.1024255488926544E+01
N    9.7255754324141321E+00    1.8278326021288269E+00    1.2999030158645299E+01
Ga    9.7281326329353028E+00   -4.3400558722291045E-02    1.3623399308128890E+01
N    9.7215774707691942E+00   -7.4940513689964799E-03    1.5582628233832017E+01
Ga    9.7300734851750104E+00    1.8260106862590255E+00    1.5863667690368109E+01
N    8.0133263783950586E+00    4.5493993515818962E+00    2.5397720815044202E+00
Ga    8.2307349498147815E+00    2.6898275126372986E+00    3.3007782393283809E+00
N    8.1194833010838856E+00    2.7533329921451726E+00    5.2613802171869972E+00
Ga    8.1430692326361012E+00    4.6256552892804867E+00    5.8023178972691376E+00
N    8.1295592654321087E+00    4.6179767360789628E+00    7.8004578571578742E+00
Ga    8.1118094397957847E+00    2.7590710048171960E+00    8.4357113831640103E+00
N    8.1086217086942778E+00    2.7616649184032429E+00    1.0433193951694289E+01
Ga    8.1346836314922299E+00    4.6205271571330258E+00    1.1068583241620617E+01
N    8.1531308185471794E+00    4.6313708645301759E+00    1.3068987067369179E+01
Ga    8.1095164611435990E+00    2.7612944067308249E+00    1.3613536429879964E+01
N    8.1265255283564155E+00    2.7517476261636369E+00    1.5591899294522326E+01
Ga    8.0065373754044753E+00    4.5465112946748034E+00    1.6433374200933596E+01
N    6.5058346342172664E+00    7.3988096738188283E+00    2.6109986837137837E+00
Ga    6.5051344030445941E+00    5.6622428087491663E+00    3.2962753815989365E+00
N    6.5102901512751199E+00    5.5420716153867486E+00    5.2573461214855319E+00
Ga    6.5038334725501272E+00    7.4018234459370253E+00    5.8694583413975714E+00
N    6.5109367289005551E+00    7.3975113294629917E+00    7.8466134376240886E+00
Ga    6.5116276927338834E+00    5.5304180373190439E+00    8.4369502907115042E+00
N    6.5119784447580962E+00    5.5281725788645559E+00    1.0433593879898709E+01
Ga    6.5113256374570332E+00    7.3986424287229831E+00    1.1025397093748861E+01
N    6.5118618198315703E+00    7.3951281194795166E+00    1.2999834372279695E+01
Ga    6.5119891570130450E+00    5.5286076317700461E+00    1.3614035115993532E+01
N    6.5122234048328904E+00    5.5483850507339136E+00    1.5592368310027666E+01
Ga    6.5119602222633226E+00    7.3998947997514684E+00    1.5864394818352213E+01
N    4.8037616522842566E+00    1.0124996504530472E+01    2.5112000342726462E+00
Ga    4.9794990193355373E+00    8.2811403666930570E+00    3.2550433945690269E+00
N    4.9009217215517493E+00    8.3247499810205685E+00    5.2374783988788858E+00
Ga    4.9294345984733372E+00    1.0197626024719733E+01    5.7836014663077906E+00
N    4.9139000158752868E+00    1.0187758382201666E+01    7.7898332344163395E+00
Ga    4.8937026401935375E+00    8.3340293316006040E+00    8.4321584243720196E+00
N    4.8932658125074182E+00    8.3324255377619068E+00    1.0428858372114361E+01
Ga    4.9185602566273108E+00    1.0191121944007312E+01    1.1070401562785499E+01
N    4.9356629267436789E+00    1.0200970716132415E+01    1.3065389083654731E+01
Ga    4.8921014020058236E+00    8.3327877744338625E+00    1.3623655523283229E+01
N    4.9200438148056875E+00    8.3091318026824172E+00    1.5582693249310138E+01
Ga    4.7384208427371197E+00    1.0087218062085160E+01    1.6495834805325803E+01
O    1.0555613158445753E-02    4.0890269536588599E+00   -4.2950962792273906E-01
H   -1.8863459449564829E-01    5.8754159973007489E+00   -3.4220198930999185E-01
C    1.1251311639384678E+00    3.6352391404933515E+00   -1.2206707014033669E+00
H    2.0931213812530682E+00    3.9397274584115025E+00   -7.9023133240071264E-01
H    1.1199160825276802E+00    2.5396529266215340E+00   -1.3269205331313214E+00
H    1.0300710620958884E+00    4.0809035990841300E+00   -2.2210168717806678E+00
Ga    3.2658047013049769E+00    5.5346368241700192E+00    2.8518410085188455E+00
O   -1.9040280059929049E-01    6.8606338692557749E+00   -1.9900121426213735E-01
H    3.1080475400749041E-02    7.3091339897803129E+00    1.6593186187040931E+00
C    9.3922708032529723E-01    7.3929121788917902E+00   -9.0384555901002561E-01
H    9.5461147725065576E-01    8.4777744547535328E+00   -7.3008853549489516E-01
H    1.8896634787193161E+00    6.9696601230625159E+00   -5.3834615961301757E-01
H    8.6542955109692932E-01    7.2175980599858516E+00   -1.9880216923553955E+00
     &END COORD
     &KIND C
       BASIS_SET DZVP-MOLOPT-SR-GTH-q4
       POTENTIAL GTH-PBE-q4
       &POTENTIAL
2 2
0.3384712400000000E+00 2 -0.8803673979999999E+01  0.1339210850000000E+01
2
0.3025757500000000E+00 1  0.9622486650000001E+01
0.2915069400000000E+00 0
       &END POTENTIAL
     &END KIND
     &KIND O
       BASIS_SET DZVP-MOLOPT-SR-GTH-q6
       POTENTIAL GTH-PBE-q6
       &POTENTIAL
2 4
0.2445543000000000E+00 2 -0.1666721480000000E+02  0.2487311320000000E+01
2
0.2209559200000000E+00 1  0.1833745811000000E+02
0.2113324700000000E+00 0
       &END POTENTIAL
     &END KIND
     &KIND H
       BASIS_SET DZVP-MOLOPT-SR-GTH-q1
       POTENTIAL GTH-PBE-q1
       &POTENTIAL
1
0.2000000000000000E+00 2 -0.4178900440000000E+01  0.7244633100000000E+00
0
       &END POTENTIAL
     &END KIND
     &KIND N
       BASIS_SET DZVP-MOLOPT-SR-GTH
       POTENTIAL GTH-PBE-q5
       &POTENTIAL
2 3
0.2837905100000000E+00 2 -0.1241522559000000E+02  0.1868095920000000E+01
2
0.2554050000000000E+00 1  0.1363026257000000E+02
0.2454945300000000E+00 0
       &END POTENTIAL
     &END KIND
     &KIND Ga
       BASIS_SET DZVP-MOLOPT-SR-GTH
       POTENTIAL GTH-PBE-q13
       &POTENTIAL
2 1 10
0.4900000000000000E+00 0
3
0.4167772300000000E+00 3  0.1047568975000000E+02 -0.4921768140000000E+01  0.8707055900000000E+00
0.7770178090000000E+01 -0.2248152160000000E+01
0.1784415450000000E+01
0.5696265200000000E+00 2  0.1777985340000000E+01  0.1958597600000000E+00
-0.2317443900000000E+00
0.2381265000000000E+00 1 -0.1624868022000000E+02
       &END POTENTIAL
     &END KIND
     &TOPOLOGY
       NUMBER_OF_ATOMS  212
       MULTIPLE_UNIT_CELL  1 1 1
     &END TOPOLOGY
   &END SUBSYS
 &END FORCE_EVAL
