 # Version information for this restart file 
 # current date 2019-06-28 13:25:52.668
 # current working dir /scratch/rzk/rzk/GaN-carbene/443-adatoms-both-2x2/04-2Methanol/01-CombineAsIs
 # Program compiled at                              Sun Apr  7 00:48:11 EDT 2019
 # Program compiled on                          beluga2.int.ets1.calculquebec.ca
 # Program compiled for                        Beluga-Linux-x86-64-intel-openmpi
 # Source code revision number                                         svn:18619
 &GLOBAL
   PRINT_LEVEL  MEDIUM
   PROJECT_NAME TEST
   RUN_TYPE  GEO_OPT
 &END GLOBAL
 &MOTION
   &GEO_OPT
     MAX_ITER  500
     STEP_START_VAL  164
   &END GEO_OPT
 &END MOTION
 &FORCE_EVAL
   METHOD  QS
   STRESS_TENSOR  ANALYTICAL
   &DFT
     BASIS_SET_FILE_NAME BASIS_MOLOPT
     POTENTIAL_FILE_NAME GTH_POTENTIALS
     UKS  T
     SURFACE_DIPOLE_CORRECTION  T
     SURF_DIP_DIR  Z
     &SCF
       MAX_SCF  80
       EPS_SCF     5.0000000000000004E-06
       &OT  T
         PRECONDITIONER  FULL_ALL
       &END OT
       &OUTER_SCF  T
         OPTIMIZER  NONE
         EPS_SCF     5.0000000000000004E-06
         MAX_SCF  4
       &END OUTER_SCF
       &PRINT
         &RESTART  OFF
           BACKUP_COPIES  1
           &EACH
             JUST_ENERGY  0
             QS_SCF  0
             MD  20
           &END EACH
         &END RESTART
       &END PRINT
     &END SCF
     &QS
       EPS_DEFAULT     1.0000000000000000E-14
       METHOD  GPW
     &END QS
     &MGRID
       NGRIDS  5
       CUTOFF     1.2000000000000000E+03
     &END MGRID
     &XC
       DENSITY_CUTOFF     1.0000000000000000E-10
       GRADIENT_CUTOFF     1.0000000000000000E-10
       TAU_CUTOFF     1.0000000000000000E-10
       &XC_FUNCTIONAL  NO_SHORTCUT
         &PBE  T
         &END PBE
       &END XC_FUNCTIONAL
       &VDW_POTENTIAL
         POTENTIAL_TYPE  PAIR_POTENTIAL
         &PAIR_POTENTIAL
           R_CUTOFF     1.0000000000000004E+01
           TYPE  DFTD3
           PARAMETER_FILE_NAME dftd3.dat
           REFERENCE_FUNCTIONAL PBE
           EPS_CN     9.9999999999999995E-07
           CALCULATE_C9_TERM  T
           REFERENCE_C9_TERM  T
           LONG_RANGE_CORRECTION  F
           VERBOSE_OUTPUT  F
         &END PAIR_POTENTIAL
       &END VDW_POTENTIAL
     &END XC
   &END DFT
   &SUBSYS
     &CELL
       A     1.2864472766435110E+01    0.0000000000000000E+00    0.0000000000000000E+00
       B    -6.4322363581020028E+00    1.1140960178524473E+01    0.0000000000000000E+00
       C     0.0000000000000000E+00    0.0000000000000000E+00    3.2000000000000000E+01
       MULTIPLE_UNIT_CELL  1 1 1
       &CELL_REF
         A     1.2982353780853531E+01    0.0000000000000000E+00    0.0000000000000000E+00
         B    -6.4911768904267628E+00    1.1243048175136114E+01    0.0000000000000000E+00
         C     0.0000000000000000E+00    0.0000000000000000E+00    3.2000000000000000E+01
         MULTIPLE_UNIT_CELL  1 1 1
       &END CELL_REF
     &END CELL
     &COORD
N    7.4790339763805794E-02    1.9782161924435475E+00    2.4866621796022712E+00
Ga    5.7091060131132326E-02    6.9400523503651513E-03    2.8190126495498795E+00
N    8.0131235669512940E-02   -2.4746672008222330E-02    5.0120867531807116E+00
Ga    7.8675115555606190E-02    1.7998682774965169E+00    5.7951424747468270E+00
N    7.8467337308545035E-02    1.8153887111365108E+00    7.7982302580075924E+00
Ga    7.5729263604476751E-02   -2.9693130376602088E-02    8.4409451546990191E+00
N    7.8370336821305217E-02   -3.0825831575137901E-02    1.0417395481541217E+01
Ga    7.8295322836245115E-02    1.8085860386099306E+00    1.1068470311573186E+01
N    7.9321539066721486E-02    1.7900630078518855E+00    1.3063093724156012E+01
Ga    7.8831218285820348E-02   -2.8643934010114933E-02    1.3875637754363828E+01
N    7.9584508026628073E-02   -2.8563374437678563E-02    1.6067945545319400E+01
Ga    8.0192815532326739E-02    2.0228095037135181E+00    1.6496443266558739E+01
Ga    4.1228199224193733E-02    3.6857280359136686E+00    1.3641025921685019E+00
N   -1.4116878461111482E+00    4.5496670808101900E+00    2.5268090740833711E+00
Ga   -1.6051261517495303E+00    2.7042538030448751E+00    3.2774465220909992E+00
N   -1.5321942868596341E+00    2.7545140791446969E+00    5.2560609204042663E+00
Ga   -1.5609419403899896E+00    4.6196806457468167E+00    5.8052074250591810E+00
N   -1.5408976813369961E+00    4.6186004223070833E+00    7.8013639323468800E+00
Ga   -1.5211649194287076E+00    2.7573850104552919E+00    8.4325599363689072E+00
N   -1.5186267309606161E+00    2.7609531746735088E+00    1.0429427118082991E+01
Ga   -1.5434934786847221E+00    4.6189419480188016E+00    1.1067538612214163E+01
N   -1.5588349842362157E+00    4.6301229698018709E+00    1.3060125988814404E+01
Ga   -1.5171352480933589E+00    2.7620355445615976E+00    1.3620987196246254E+01
N   -1.5502838160373451E+00    2.7498980528168020E+00    1.5579697066282284E+01
Ga   -1.3455972337920812E+00    4.5098579136099790E+00    1.6498182170326135E+01
N    8.0171328329951191E-02    3.6757681368698099E+00    1.7645127543584284E+01
N   -3.1346458018191270E+00    7.5198637267786834E+00    2.5286368587008199E+00
Ga   -3.1140131662738204E+00    5.5157615735627346E+00    2.8492266926219014E+00
N   -3.1392695217290556E+00    5.5420423776465055E+00    5.0206542885631276E+00
Ga   -3.1460961123707984E+00    7.3621602315817452E+00    5.8056450564248143E+00
N   -3.1377308037040295E+00    7.3869832059940856E+00    7.7977541162424941E+00
Ga   -3.1385212671105771E+00    5.5397714129564219E+00    8.4470579246028787E+00
N   -3.1376457681121335E+00    5.5412856041292171E+00    1.0420581311160488E+01
Ga   -3.1386849569785675E+00    7.3812384127237447E+00    1.1068860765619878E+01
N   -3.1365082520842962E+00    7.3625329467475824E+00    1.3061351442294653E+01
Ga   -3.1268651410014190E+00    5.5451809149132636E+00    1.3859917295069978E+01
N   -3.1242220346524472E+00    5.5474432436987291E+00    1.6067574170812705E+01
Ga   -3.1337828084879447E+00    7.6002949025573088E+00    1.6488950634086475E+01
Ga   -3.1527748991918556E+00    9.2555625341796901E+00    1.4997332843611804E+00
N   -4.6425623514769461E+00    1.0123862334401808E+01    2.5142178653986345E+00
Ga   -4.8606390731985742E+00    8.2731387368685194E+00    3.2882441869120425E+00
N   -4.7462399037768002E+00    8.3274552661690002E+00    5.2500209319871791E+00
Ga   -4.7787968237072924E+00    1.0202614349441282E+01    5.7965327562448881E+00
N   -4.7558847334195260E+00    1.0188405591909870E+01    7.7950752040422433E+00
Ga   -4.7394428063843499E+00    8.3330512390232769E+00    8.4344148958291072E+00
N   -4.7348293523055336E+00    8.3326601934905735E+00    1.0429420260740860E+01
Ga   -4.7616421309789496E+00    1.0191892892202953E+01    1.1069547339445004E+01
N   -4.7767643334176766E+00    1.0201323053515619E+01    1.3064477744243238E+01
Ga   -4.7332668460022340E+00    8.3326596494058371E+00    1.3621004806535353E+01
N   -4.7601517653184722E+00    8.3095717784094951E+00    1.5581018501872832E+01
Ga   -4.5833641851941023E+00    1.0090691126147329E+01    1.6487152915017013E+01
N   -3.1460666367717094E+00    9.2607183340067607E+00    1.7627234521733119E+01
N    3.2819012819558386E+00    1.8332006309241653E+00    2.6141609233745644E+00
Ga    3.2835851375979015E+00    9.3998129383677867E-02    3.2865121149475045E+00
N    3.2941794182214639E+00   -3.2115155550675969E-02    5.2493878089097574E+00
Ga    3.2848540125670755E+00    1.8302901932874271E+00    5.8706229594947921E+00
N    3.2942631445615356E+00    1.8260255003306645E+00    7.8484372492577688E+00
Ga    3.2914455752859855E+00   -3.9801886540266507E-02    8.4370533319397953E+00
N    3.2942427009346087E+00   -4.2423065490200862E-02    1.0431292863442740E+01
Ga    3.2944965792081544E+00    1.8270122274776965E+00    1.1025121914468183E+01
N    3.2981524388698484E+00    1.8279272145397893E+00    1.2999176577303803E+01
Ga    3.2958613412508533E+00   -4.3318278540278761E-02    1.3621333026836417E+01
N    3.3033735367113057E+00   -6.8473741468935700E-03    1.5581283803067601E+01
Ga    3.2946272700475108E+00    1.8272854524952000E+00    1.5861056889052042E+01
N    1.5653907538862486E+00    4.5507136665498829E+00    2.5135926591958713E+00
Ga    1.7522771653033788E+00    2.7186997625416862E+00    3.2629039836869311E+00
N    1.6859112438699473E+00    2.7553864210561740E+00    5.2484769997458853E+00
Ga    1.7177113676277669E+00    4.6195241839277736E+00    5.8060118785229626E+00
N    1.6955412990628724E+00    4.6174005335538881E+00    7.8028172004826715E+00
Ga    1.6753769033026786E+00    2.7586269335493232E+00    8.4365742632309271E+00
N    1.6761612964781629E+00    2.7605761692413657E+00    1.0431893139848128E+01
Ga    1.7013638711591552E+00    4.6196533200903387E+00    1.1067181848153130E+01
N    1.7178306032164252E+00    4.6303719350121781E+00    1.3060006333637364E+01
Ga    1.6755759928645106E+00    2.7624796110550225E+00    1.3621464587144192E+01
N    1.7109357489580144E+00    2.7496673066176665E+00    1.5579825924481757E+01
Ga    1.5066455458994279E+00    4.5097565701552762E+00    1.6497977712526293E+01
N    7.8780900014352603E-02    7.3804430442703346E+00    2.6928690878220252E+00
Ga    8.5754612727095475E-02    5.5399791032893297E+00    3.3355356018141444E+00
N    7.7344660384368491E-02    5.5537030211780660E+00    5.2731918870690873E+00
Ga    8.5336487792644425E-02    7.3954512154568164E+00    5.9037039399342124E+00
N    7.8238294608010919E-02    7.3989940581684825E+00    7.8629552441072192E+00
Ga    7.8052084439160146E-02    5.5254421356125309E+00    8.4418327041791770E+00
N    7.8416993230634918E-02    5.5280409975205380E+00    1.0432617129127809E+01
Ga    7.9381620931678928E-02    7.3973119482851297E+00    1.1026115836126138E+01
N    7.9206865645400609E-02    7.3979011846935103E+00    1.2995914833651053E+01
Ga    7.9586600382610659E-02    5.5285788077972251E+00    1.3621510286946641E+01
N    8.0341523946175830E-02    5.5615127790518812E+00    1.5578759082290276E+01
Ga    8.0993104938452007E-02    7.3976386458801073E+00    1.5857420462733074E+01
N   -1.6347084560206577E+00    1.0112092336868363E+01    2.5217966502962805E+00
Ga   -1.4896767880693411E+00    8.2981723730788808E+00    3.3333302730099414E+00
N   -1.5190909095774021E+00    8.3191312199010952E+00    5.2608659690726443E+00
Ga   -1.5055121582039137E+00    1.0205272110035290E+01    5.8081785911801562E+00
N   -1.5215995677575480E+00    1.0186705510543666E+01    7.7995148913185570E+00
Ga   -1.5421746444975324E+00    8.3325548382533121E+00    8.4445023724287118E+00
N   -1.5410127769287678E+00    8.3322170147972923E+00    1.0433302598185186E+01
Ga   -1.5155910902152423E+00    1.0191655130242875E+01    1.1067995865099325E+01
N   -1.4978799842290245E+00    1.0200068293468981E+01    1.3060678049563730E+01
Ga   -1.5388034938544963E+00    8.3319255221345330E+00    1.3620417460013567E+01
N   -1.5104189557853143E+00    8.3169193639379486E+00    1.5578796261503918E+01
Ga   -1.7020322286347589E+00    1.0080504874419164E+01    1.6488913551488157E+01
N    6.5065270822160768E+00    1.9515205393660853E+00    2.5353049381179193E+00
Ga    6.5262530509319756E+00   -2.9854234953222793E-02    2.8599232232389888E+00
N    6.5045022238920112E+00   -2.9112107987033599E-02    5.0237453864003312E+00
Ga    6.5076441138846999E+00    1.8001323563242846E+00    5.8025018421311341E+00
N    6.5092719394924368E+00    1.8154973101412546E+00    7.7998480416627114E+00
Ga    6.5121340141254329E+00   -3.0379403891385021E-02    8.4437638491775218E+00
N    6.5111402008964383E+00   -3.0776861840475032E-02    1.0418328939815593E+01
Ga    6.5115720352721800E+00    1.8092286550636665E+00    1.1065297130925025E+01
N    6.5119266544605825E+00    1.7885269397341230E+00    1.3065814111822919E+01
Ga    6.5125950118040334E+00   -3.9880876389735045E-02    1.3858100044199254E+01
N    6.5127174132745544E+00   -4.1900609061556522E-02    1.6067688793632406E+01
Ga    6.5131428974805665E+00    1.9608802554159945E+00    1.6432323776175558E+01
Ga    6.5120185770507897E+00    3.6834443620966764E+00    1.5322978188048566E+00
N    5.0057190345197826E+00    4.5503309030796695E+00    2.5273690761280205E+00
Ga    4.7887575122703243E+00    2.6995887491671295E+00    3.2954511467312888E+00
N    4.8985114997775936E+00    2.7552407221848725E+00    5.2567218387834114E+00
Ga    4.8734547796281422E+00    4.6280841842846101E+00    5.8020604737803829E+00
N    4.8928960929921779E+00    4.6176809049601495E+00    7.8001351209674556E+00
Ga    4.9105079773854330E+00    2.7604564446213842E+00    8.4365138005431355E+00
N    4.9141361986642780E+00    2.7619036433743998E+00    1.0432923126092380E+01
Ga    4.8876959713213708E+00    4.6217614407863552E+00    1.1066062114204883E+01
N    4.8705353169521572E+00    4.6318472556738097E+00    1.3066944921556754E+01
Ga    4.9148906218288380E+00    2.7617420950467673E+00    1.3611751167739493E+01
N    4.8987082035964047E+00    2.7513129517514670E+00    1.5589870266406022E+01
Ga    5.0175026129234901E+00    4.5475659677892573E+00    1.6432039184214599E+01
N    6.5118672760580205E+00    3.6870587744037935E+00    1.7553740436947436E+01
N    3.2893225225170744E+00    7.5117025620497921E+00    2.4982244054396103E+00
N    3.2925973195981797E+00    5.5386420493218287E+00    5.0270579167576361E+00
Ga    3.2969066385909533E+00    7.3659811964123607E+00    5.7923497964054595E+00
N    3.2919235841731638E+00    7.3879718869198179E+00    7.7919480969781274E+00
Ga    3.2941560322810259E+00    5.5422123137396877E+00    8.4436517754476164E+00
N    3.2950012807483851E+00    5.5415268480168995E+00    1.0418843827865855E+01
Ga    3.2965876728891543E+00    7.3815228789625458E+00    1.1067158088524073E+01
N    3.2954581320989464E+00    7.3625756171143992E+00    1.3059990642472806E+01
Ga    3.2860530525150393E+00    5.5460703449938986E+00    1.3860536241598430E+01
N    3.2847275511231979E+00    5.5476970868959201E+00    1.6067307194261915E+01
Ga    3.2946201933163461E+00    7.6032923360239808E+00    1.6492529307482020E+01
Ga    3.3282916045704063E+00    9.2759884513261817E+00    1.3136457965849457E+00
N    1.7804496016042772E+00    1.0119478094877984E+01    2.5030055398531355E+00
Ga    1.6785572460601548E+00    8.3150399583165804E+00    3.2849112563950094E+00
N    1.6712571332789397E+00    8.3179074112316300E+00    5.2349539282614908E+00
Ga    1.6622681486374060E+00    1.0198909104087020E+01    5.7930579922477321E+00
N    1.6755799511086478E+00    1.0185359635859163E+01    7.7917495553522409E+00
Ga    1.6996005032822064E+00    8.3334729493544550E+00    8.4420698928252449E+00
N    1.6984577555373841E+00    8.3325390467272804E+00    1.0432051865386207E+01
Ga    1.6742522950482956E+00    1.0191794882165754E+01    1.1066833075120172E+01
N    1.6571271777615242E+00    1.0200135998519388E+01    1.3059551055680389E+01
Ga    1.6981003533291192E+00    8.3319842085091427E+00    1.3620074398725853E+01
N    1.6713270110174743E+00    8.3170388514836144E+00    1.5578006441422229E+01
Ga    1.8656416227895056E+00    1.0078888450273929E+01    1.6492581062755196E+01
N    3.3054301037250613E+00    9.2603000644378834E+00    1.7634789434922574E+01
N    9.7339532324903857E+00    1.8257305745078718E+00    2.6263887666942320E+00
Ga    9.7280779261248416E+00    6.1193629214756740E-02    3.2535319892437573E+00
N    9.7218453198687254E+00   -3.3356175870590900E-02    5.2372132060530179E+00
Ga    9.7308733019502345E+00    1.8201673988899612E+00    5.8643049159820171E+00
N    9.7249932837966053E+00    1.8251702607395932E+00    7.8452407410426863E+00
Ga    9.7284864577465893E+00   -4.1844035335145212E-02    8.4289995674620535E+00
N    9.7274110984635147E+00   -4.2919094469730017E-02    1.0426655408121414E+01
Ga    9.7279556037554489E+00    1.8261539868398891E+00    1.1021992264249768E+01
N    9.7252320682312376E+00    1.8279327234783627E+00    1.2996809659825626E+01
Ga    9.7279288977645546E+00   -4.3122642573457999E-02    1.3620587790474616E+01
N    9.7219751585145175E+00   -7.0506235792315670E-03    1.5579844755355147E+01
Ga    9.7309045905961220E+00    1.8266132163592146E+00    1.5860339277765682E+01
N    8.0101791402417586E+00    4.5511289397810071E+00    2.5365051814844515E+00
Ga    8.2280874846193175E+00    2.6909916849614750E+00    3.2979769359740065E+00
N    8.1170373596101442E+00    2.7546125879299779E+00    5.2587956285014545E+00
Ga    8.1410821062609191E+00    4.6267809788202738E+00    5.7995380960928786E+00
N    8.1281071238357683E+00    4.6187712310163382E+00    7.7978269403284388E+00
Ga    8.1104155411820109E+00    2.7598978952193485E+00    8.4331917524147215E+00
N    8.1078785565437546E+00    2.7620952134875507E+00    1.0430833913954286E+01
Ga    8.1340049706084745E+00    4.6208824902932220E+00    1.1066449560688465E+01
N    8.1529715662265296E+00    4.6316376621763453E+00    1.3066730050264368E+01
Ga    8.1093368722693686E+00    2.7615223050104762E+00    1.3611071015123589E+01
N    8.1270059540041100E+00    2.7516974916109165E+00    1.5588885578891775E+01
Ga    8.0070554711942243E+00    4.5466582438631580E+00    1.6432346583213761E+01
N    6.5027718458294697E+00    7.4005208444030357E+00    2.6084319458389111E+00
Ga    6.5018913275160743E+00    5.6641850869075903E+00    3.2938734600357731E+00
N    6.5079191576575663E+00    5.5429402895784214E+00    5.2549564668004720E+00
Ga    6.5009574304284605E+00    7.4029677833463285E+00    5.8665251066343584E+00
N    6.5094091985950753E+00    7.3980666323426734E+00    7.8441149899677738E+00
Ga    6.5102351034067603E+00    5.5309500200377455E+00    8.4345268098970472E+00
N    6.5112309400788257E+00    5.5284724651335591E+00    1.0431399564982748E+01
Ga    6.5105132977813041E+00    7.3988450779556070E+00    1.1022936348926386E+01
N    6.5116730818292448E+00    7.3953833810561838E+00    1.2997516717078064E+01
Ga    6.5119279985858540E+00    5.5286327683250978E+00    1.3612224285282707E+01
N    6.5131100720724477E+00    5.5490661419965281E+00    1.5590496902369889E+01
Ga    6.5120390737164424E+00    7.3999928695697124E+00    1.5861813255556527E+01
N    4.8009831170592276E+00    1.0126657793824492E+01    2.5073886452427012E+00
Ga    4.9754112250980373E+00    8.2835268015582653E+00    3.2505156206021169E+00
N    4.8982963040675367E+00    8.3256098791736655E+00    5.2342176355218175E+00
Ga    4.9269100772311836E+00    1.0198536290663752E+01    5.7802289821833988E+00
N    4.9123064534893830E+00    1.0188286217415094E+01    7.7871297137296835E+00
Ga    4.8920940493644780E+00    8.3344999786146587E+00    8.4297179819034156E+00
N    4.8923104298086777E+00    8.3326375575505285E+00    1.0426830089393469E+01
Ga    4.9177873213363625E+00    1.0191446176081318E+01    1.1067775547733101E+01
N    4.9354295230106571E+00    1.0201291003970427E+01    1.3062729313522253E+01
Ga    4.8918115032911693E+00    8.3330652098887050E+00    1.3620731490870561E+01
N    4.9206951474916201E+00    8.3099757839305255E+00    1.5579715289401371E+01
Ga    4.7397838437120905E+00    1.0088459976092370E+01    1.6490817044928715E+01
O    2.1307283614829596E-03    4.0807283747164469E+00   -4.3322784834448919E-01
H   -2.0142725638667025E-01    5.8676705900251012E+00   -3.5239015639389615E-01
C    1.0904566383811936E+00    3.5850049238593340E+00   -1.2356798308758121E+00
H    2.0734832322011099E+00    3.8590920384283316E+00   -8.1965694095322683E-01
H    1.0459242015034500E+00    2.4888659605554495E+00   -1.3344990255228490E+00
H    9.9951627630670070E-01    4.0278631599652712E+00   -2.2377882485924028E+00
Ga    3.2626842724050218E+00    5.5367507409354264E+00    2.8460470052188529E+00
O   -2.0082672546263292E-01    6.8529562424425592E+00   -2.0872004922955267E-01
H    2.8731099305714821E-02    7.3079986986911072E+00    1.6559481911088754E+00
C    9.2934986431576816E-01    7.3797618165152752E+00   -9.1659015758057127E-01
H    9.6186450786221989E-01    8.4606685333608009E+00   -7.2570064018032299E-01
H    1.8767454268765469E+00    6.9371292345085642E+00   -5.6782021011654460E-01
H    8.4067788223495343E-01    7.2230990586016022E+00   -2.0026642020489334E+00
     &END COORD
     &KIND C
       BASIS_SET DZVP-MOLOPT-SR-GTH-q4
       POTENTIAL GTH-PBE-q4
       &POTENTIAL
 2 2
  0.3384712400000000E+00 2 -0.8803673979999999E+01  0.1339210850000000E+01
 2
  0.3025757500000000E+00 1  0.9622486650000001E+01
  0.2915069400000000E+00 0
         # Potential name:  GTH-PBE-Q4  for symbol:  C
         # Potential read from the potential filename: GTH_POTENTIALS
       &END POTENTIAL
     &END KIND
     &KIND O
       BASIS_SET DZVP-MOLOPT-SR-GTH-q6
       POTENTIAL GTH-PBE-q6
       &POTENTIAL
 2 4
  0.2445543000000000E+00 2 -0.1666721480000000E+02  0.2487311320000000E+01
 2
  0.2209559200000000E+00 1  0.1833745811000000E+02
  0.2113324700000000E+00 0
         # Potential name:  GTH-PBE-Q6  for symbol:  O
         # Potential read from the potential filename: GTH_POTENTIALS
       &END POTENTIAL
     &END KIND
     &KIND H
       BASIS_SET DZVP-MOLOPT-SR-GTH-q1
       POTENTIAL GTH-PBE-q1
       &POTENTIAL
 1
  0.2000000000000000E+00 2 -0.4178900440000000E+01  0.7244633100000000E+00
 0
         # Potential name:  GTH-PBE-Q1  for symbol:  H
         # Potential read from the potential filename: GTH_POTENTIALS
       &END POTENTIAL
     &END KIND
     &KIND N
       BASIS_SET DZVP-MOLOPT-SR-GTH
       POTENTIAL GTH-PBE-q5
       &POTENTIAL
 2 3
  0.2837905100000000E+00 2 -0.1241522559000000E+02  0.1868095920000000E+01
 2
  0.2554050000000000E+00 1  0.1363026257000000E+02
  0.2454945300000000E+00 0
         # Potential name:  GTH-PBE-Q5  for symbol:  N
         # Potential read from the potential filename: GTH_POTENTIALS
       &END POTENTIAL
     &END KIND
     &KIND Ga
       BASIS_SET DZVP-MOLOPT-SR-GTH
       POTENTIAL GTH-PBE-q13
       &POTENTIAL
 2 1 10
  0.4900000000000000E+00 0
 3
  0.4167772300000000E+00 3  0.1047568975000000E+02 -0.4921768140000000E+01  0.8707055900000000E+00
  0.7770178090000000E+01 -0.2248152160000000E+01
  0.1784415450000000E+01
  0.5696265200000000E+00 2  0.1777985340000000E+01  0.1958597600000000E+00
 -0.2317443900000000E+00
  0.2381265000000000E+00 1 -0.1624868022000000E+02
         # Potential name:  GTH-PBE-Q13  for symbol:  GA
         # Potential read from the potential filename: GTH_POTENTIALS
       &END POTENTIAL
     &END KIND
     &TOPOLOGY
       NUMBER_OF_ATOMS  212
       MULTIPLE_UNIT_CELL  1 1 1
     &END TOPOLOGY
   &END SUBSYS
 &END FORCE_EVAL
