 # Version information for this restart file 
 # current date 2019-06-28 11:06:39.766
 # current working dir /scratch/rzk/rzk/GaN-carbene/443-adatoms-both-2x2/04-2Methanol/01-CombineAsIs
 # Program compiled at                              Sun Apr  7 00:48:11 EDT 2019
 # Program compiled on                          beluga2.int.ets1.calculquebec.ca
 # Program compiled for                        Beluga-Linux-x86-64-intel-openmpi
 # Source code revision number                                         svn:18619
 &GLOBAL
   PRINT_LEVEL  MEDIUM
   PROJECT_NAME TEST
   RUN_TYPE  GEO_OPT
 &END GLOBAL
 &MOTION
   &GEO_OPT
     MAX_ITER  500
     STEP_START_VAL  107
   &END GEO_OPT
 &END MOTION
 &FORCE_EVAL
   METHOD  QS
   STRESS_TENSOR  ANALYTICAL
   &DFT
     BASIS_SET_FILE_NAME BASIS_MOLOPT
     POTENTIAL_FILE_NAME GTH_POTENTIALS
     UKS  T
     SURFACE_DIPOLE_CORRECTION  T
     SURF_DIP_DIR  Z
     &SCF
       MAX_SCF  80
       EPS_SCF     5.0000000000000004E-06
       &OT  T
         PRECONDITIONER  FULL_ALL
       &END OT
       &OUTER_SCF  T
         OPTIMIZER  NONE
         EPS_SCF     5.0000000000000004E-06
         MAX_SCF  4
       &END OUTER_SCF
       &PRINT
         &RESTART  OFF
           BACKUP_COPIES  1
           &EACH
             JUST_ENERGY  0
             QS_SCF  0
             MD  20
           &END EACH
         &END RESTART
       &END PRINT
     &END SCF
     &QS
       EPS_DEFAULT     1.0000000000000000E-14
       METHOD  GPW
     &END QS
     &MGRID
       NGRIDS  5
       CUTOFF     1.2000000000000000E+03
     &END MGRID
     &XC
       DENSITY_CUTOFF     1.0000000000000000E-10
       GRADIENT_CUTOFF     1.0000000000000000E-10
       TAU_CUTOFF     1.0000000000000000E-10
       &XC_FUNCTIONAL  NO_SHORTCUT
         &PBE  T
         &END PBE
       &END XC_FUNCTIONAL
       &VDW_POTENTIAL
         POTENTIAL_TYPE  PAIR_POTENTIAL
         &PAIR_POTENTIAL
           R_CUTOFF     1.0000000000000004E+01
           TYPE  DFTD3
           PARAMETER_FILE_NAME dftd3.dat
           REFERENCE_FUNCTIONAL PBE
           EPS_CN     9.9999999999999995E-07
           CALCULATE_C9_TERM  T
           REFERENCE_C9_TERM  T
           LONG_RANGE_CORRECTION  F
           VERBOSE_OUTPUT  F
         &END PAIR_POTENTIAL
       &END VDW_POTENTIAL
     &END XC
   &END DFT
   &SUBSYS
     &CELL
       A     1.2864472766435110E+01    0.0000000000000000E+00    0.0000000000000000E+00
       B    -6.4322363581020028E+00    1.1140960178524473E+01    0.0000000000000000E+00
       C     0.0000000000000000E+00    0.0000000000000000E+00    3.2000000000000000E+01
       MULTIPLE_UNIT_CELL  1 1 1
       &CELL_REF
         A     1.2982353780853531E+01    0.0000000000000000E+00    0.0000000000000000E+00
         B    -6.4911768904267628E+00    1.1243048175136114E+01    0.0000000000000000E+00
         C     0.0000000000000000E+00    0.0000000000000000E+00    3.2000000000000000E+01
         MULTIPLE_UNIT_CELL  1 1 1
       &END CELL_REF
     &END CELL
     &COORD
N    6.5932571513679622E-02    1.9887433772698613E+00    2.4795992022454891E+00
Ga    4.9112491249451266E-02    1.6954131716942957E-02    2.8172841849613728E+00
N    7.2787335634254019E-02   -1.6000018758677955E-02    4.9972770386715890E+00
Ga    7.1640681980397206E-02    1.8090004269720539E+00    5.7831274780610951E+00
N    6.8462725864946172E-02    1.8228222447660736E+00    7.7858796261155954E+00
Ga    6.4813916487237180E-02   -2.2465257108514533E-02    8.4262028419218051E+00
N    6.6670262483764092E-02   -2.4159111055711696E-02    1.0403399653622136E+01
Ga    6.7775411356923235E-02    1.8156447487183418E+00    1.1055602533457419E+01
N    7.2075526064621281E-02    1.7974071860042322E+00    1.3050324098071874E+01
Ga    7.1041127462998788E-02   -2.1789664301369423E-02    1.3859143229775476E+01
N    7.3691603622801749E-02   -2.0961063352226066E-02    1.6059930741866840E+01
Ga    7.4355373331253305E-02    2.0250335964472739E+00    1.6480167236243464E+01
Ga    2.3406153597075735E-02    3.6893863484357206E+00    1.3535010725976682E+00
N   -1.4234345884452211E+00    4.5602785411377162E+00    2.5185955607742181E+00
Ga   -1.6153781737443986E+00    2.7158806223490259E+00    3.2703855928558925E+00
N   -1.5404877925836129E+00    2.7625811874984620E+00    5.2462698863531525E+00
Ga   -1.5678606168280549E+00    4.6291322810917546E+00    5.7909212869239619E+00
N   -1.5503201558096307E+00    4.6263026864009245E+00    7.7870428301390797E+00
Ga   -1.5315741783728463E+00    2.7650258441204416E+00    8.4200072520064655E+00
N   -1.5298946908447613E+00    2.7677134381739013E+00    1.0417352844187137E+01
Ga   -1.5537446355813354E+00    4.6266192404698563E+00    1.1053935278145522E+01
N   -1.5665686190789692E+00    4.6377812838885539E+00    1.3046125659939374E+01
Ga   -1.5252917245022315E+00    2.7695859213724106E+00    1.3607556722394957E+01
N   -1.5562626807419098E+00    2.7593086565387668E+00    1.5565504636899044E+01
Ga   -1.3561614519744807E+00    4.5211255344681565E+00    1.6478117851608388E+01
N    7.2952757416077457E-02    3.6834961515479607E+00    1.7622191629882437E+01
N   -3.1421273643391037E+00    7.5313402115790362E+00    2.5083893211511223E+00
Ga   -3.1233995964939592E+00    5.5266258723225219E+00    2.8391775845401508E+00
N   -3.1472416443283047E+00    5.5515903018116814E+00    5.0078902202260878E+00
Ga   -3.1523589460053540E+00    7.3731449599916159E+00    5.7881726396310871E+00
N   -3.1472638013365755E+00    7.3959488043262649E+00    7.7805018191985305E+00
Ga   -3.1478421366506946E+00    5.5488314580327556E+00    8.4321683748984917E+00
N   -3.1486251763153956E+00    5.5486363456784895E+00    1.0406377482716721E+01
Ga   -3.1490782290363963E+00    7.3886525515653760E+00    1.1054555270419648E+01
N   -3.1439500887787992E+00    7.3698215328623666E+00    1.3046816911106982E+01
Ga   -3.1342219131600686E+00    5.5528291357733641E+00    1.3845549632425268E+01
N   -3.1311079515058582E+00    5.5551136080941372E+00    1.6055266202258863E+01
Ga   -3.1399600765114797E+00    7.6080854861440432E+00    1.6479995133001797E+01
Ga   -3.1629491235128038E+00    9.2705963081639737E+00    1.4831006657152148E+00
N   -4.6489340555276391E+00    1.0135785324325498E+01    2.5005249147209900E+00
Ga   -4.8668442412537853E+00    8.2833554994508063E+00    3.2701582235130391E+00
N   -4.7532715430735122E+00    8.3369059419382712E+00    5.2322634286782703E+00
Ga   -4.7837643405342769E+00    1.0210400577512850E+01    5.7813914585686632E+00
N   -4.7655424033439839E+00    1.0196647032403790E+01    7.7798023683517696E+00
Ga   -4.7499786389641443E+00    8.3413689443068062E+00    8.4202045994814956E+00
N   -4.7465477597285615E+00    8.3394522783786851E+00    1.0415795343414493E+01
Ga   -4.7725892846271565E+00    1.0198671602545723E+01    1.1055869853308138E+01
N   -4.7845439894703121E+00    1.0208958699821599E+01    1.3050359260625646E+01
Ga   -4.7396046216447054E+00    8.3402070927730527E+00    1.3609189363481207E+01
N   -4.7631112154405777E+00    8.3191595405952832E+00    1.5569173782500656E+01
Ga   -4.5910252039955566E+00    1.0101028957548042E+01    1.6479852623284220E+01
N   -3.1526270183346257E+00    9.2691543891027823E+00    1.7623488711819594E+01
N    3.2763531593897457E+00    1.8460604677184695E+00    2.6039319693698744E+00
Ga    3.2793374641726181E+00    1.0508479938007234E-01    3.2710941374657514E+00
N    3.2878584664611217E+00   -2.3097381355456414E-02    5.2336614159703663E+00
Ga    3.2790601210132304E+00    1.8385285492157799E+00    5.8579228258055291E+00
N    3.2855021922782730E+00    1.8339995216829013E+00    7.8357446841120915E+00
Ga    3.2822304394595121E+00   -3.1921408581226947E-02    8.4221020050646853E+00
N    3.2835573286194273E+00   -3.5470346756262122E-02    1.0416883742153992E+01
Ga    3.2837189514138942E+00    1.8340752277131296E+00    1.1014342609945020E+01
N    3.2913174589471912E+00    1.8349227081698176E+00    1.2987761590909370E+01
Ga    3.2896329142307317E+00   -3.7118502748520209E-02    1.3608694136278899E+01
N    3.2991393503282302E+00   -1.5964757740091922E-03    1.5568504452890840E+01
Ga    3.2905277693904593E+00    1.8337490432890853E+00    1.5851406610120293E+01
N    1.5579276869687655E+00    4.5590583195458443E+00    2.4941081609308635E+00
Ga    1.7454123965735582E+00    2.7299316851948308E+00    3.2505938797691463E+00
N    1.6793121476541719E+00    2.7629715844308160E+00    5.2364891572037449E+00
Ga    1.7109622638809634E+00    4.6277662543805000E+00    5.7910947800203436E+00
N    1.6859723930170152E+00    4.6247125218641401E+00    7.7877164138049437E+00
Ga    1.6664427705202010E+00    2.7657723928382181E+00    8.4234460100332313E+00
N    1.6657805563850911E+00    2.7675156885382566E+00    1.0419393246871874E+01
Ga    1.6914301932236526E+00    4.6275989990623758E+00    1.1054515569880881E+01
N    1.7110369107233487E+00    4.6383152400999919E+00    1.3046177794814595E+01
Ga    1.6691456824947275E+00    2.7704224882061830E+00    1.3609013005695664E+01
N    1.7068893315049722E+00    2.7587417192534325E+00    1.5567360891008040E+01
Ga    1.5043010988111749E+00    4.5211866940952419E+00    1.6477888470604615E+01
N    7.2408252575233020E-02    7.3897134309963910E+00    2.6614871797376622E+00
Ga    7.7596554397189377E-02    5.5504591206140024E+00    3.3162036762758040E+00
N    7.0429278520777544E-02    5.5626428688260683E+00    5.2544243589273156E+00
Ga    7.8737243744491661E-02    7.4044064593526056E+00    5.8835075175603606E+00
N    6.8945512936765485E-02    7.4063809334344199E+00    7.8429737075547630E+00
Ga    6.8578631784321234E-02    5.5332586253944003E+00    8.4258343811581078E+00
N    6.8058501681779529E-02    5.5352186682483762E+00    1.0417413687518476E+01
Ga    6.8736333319441359E-02    7.4048354165006405E+00    1.1010465387972104E+01
N    7.1560853033032723E-02    7.4062961320460099E+00    1.2980573994862105E+01
Ga    7.2356305485492281E-02    5.5380482705224559E+00    1.3606138595331617E+01
N    7.4317305592409663E-02    5.5703713805175834E+00    1.5562252838056963E+01
Ga    7.4775903038437064E-02    7.4073711910751010E+00    1.5845976804821996E+01
N   -1.6416704410123046E+00    1.0124849453350315E+01    2.5015858809426654E+00
Ga   -1.4940501808977025E+00    8.3077737539900944E+00    3.3087856936789142E+00
N   -1.5254306925933561E+00    8.3280892308205363E+00    5.2374628020241945E+00
Ga   -1.5116699927947259E+00    1.0213261187838224E+01    5.7892861837826501E+00
N   -1.5305938774429466E+00    1.0194344861843160E+01    7.7811409962946092E+00
Ga   -1.5513994866278298E+00    8.3403688168305230E+00    8.4260056989777663E+00
N   -1.5517693259348000E+00    8.3392336177831066E+00    1.0415389443444434E+01
Ga   -1.5256039847928136E+00    1.0198041839638421E+01    1.1053174430331351E+01
N   -1.5046007999405717E+00    1.0207323943987184E+01    1.3045512788678240E+01
Ga   -1.5458442524779155E+00    8.3394173984939854E+00    1.3607327825197181E+01
N   -1.5182451636637122E+00    8.3262624315786500E+00    1.5567003206906762E+01
Ga   -1.7066641868988519E+00    1.0089054041920759E+01    1.6480615206506112E+01
N    6.5001041885495976E+00    1.9638838335139164E+00    2.5207756408285023E+00
Ga    6.5202821858453897E+00   -1.7725753893818169E-02    2.8376494632177178E+00
N    6.4975677180566613E+00   -1.8800538012406273E-02    5.0046443526679001E+00
Ga    6.5008364994898669E+00    1.8093521523986515E+00    5.7907364602993487E+00
N    6.5002377543994498E+00    1.8233875294908457E+00    7.7866290186847724E+00
Ga    6.5030580644258640E+00   -2.3485931598571520E-02    8.4271850652770279E+00
N    6.5010637579423127E+00   -2.3630731777716366E-02    1.0402309595002666E+01
Ga    6.5009321843136467E+00    1.8159018644820792E+00    1.1052415903234929E+01
N    6.5050235303799573E+00    1.7953679360280468E+00    1.3054232955698135E+01
Ga    6.5065837902162009E+00   -3.3716595108114943E-02    1.3845923608104433E+01
N    6.5074789477119941E+00   -3.6058094849966048E-02    1.6058451078735189E+01
Ga    6.5094804801595565E+00    1.9671462748228903E+00    1.6425452871923206E+01
Ga    6.5057891879940009E+00    3.6969109053853861E+00    1.5201034959228610E+00
N    4.9996536327282364E+00    4.5619269385307062E+00    2.5141164068532964E+00
Ga    4.7841416425130525E+00    2.7113973658748387E+00    3.2844257953989668E+00
N    4.8923332938140689E+00    2.7646684166397866E+00    5.2448837962373727E+00
Ga    4.8668692956931254E+00    4.6379067757435584E+00    5.7906495622885963E+00
N    4.8840856852377099E+00    4.6265073810324200E+00    7.7870576022439240E+00
Ga    4.9010062241903007E+00    2.7686212680306928E+00    8.4241057424239667E+00
N    4.9034456141221670E+00    2.7694255607866354E+00    1.0420808129364097E+01
Ga    4.8765898345332515E+00    4.6298178255332259E+00    1.1054410374635159E+01
N    4.8630487093617312E+00    4.6393840707481360E+00    1.3055652845356091E+01
Ga    4.9084675617991138E+00    2.7690496843673302E+00    1.3600795591940404E+01
N    4.8933330776256136E+00    2.7587376890360904E+00    1.5580383611614323E+01
Ga    5.0140208190055997E+00    4.5562710754073352E+00    1.6424003740431694E+01
N    6.5048387903713172E+00    3.6923389655613099E+00    1.7542178942206593E+01
N    3.2847615166734663E+00    7.5239233649971107E+00    2.4802408108703178E+00
N    3.2858768478592908E+00    5.5455036532118385E+00    5.0107504990150469E+00
Ga    3.2886605885999818E+00    7.3735252182232136E+00    5.7711364944509542E+00
N    3.2822112121682618E+00    7.3956173792694075E+00    7.7727692698443684E+00
Ga    3.2839221293359442E+00    5.5510730929499941E+00    8.4278223249861526E+00
N    3.2845476851129844E+00    5.5493523001717957E+00    1.0404174171202261E+01
Ga    3.2852947126602619E+00    7.3887093455264612E+00    1.1054480692211881E+01
N    3.2883077234134324E+00    7.3708054080974748E+00    1.3046898201333848E+01
Ga    3.2790939922029683E+00    5.5550224925375016E+00    1.3848966466005471E+01
N    3.2790705157432671E+00    5.5569211142430914E+00    1.6053921177043634E+01
Ga    3.2907230108183132E+00    7.6158618499391624E+00    1.6486893965189410E+01
Ga    3.3314812771832640E+00    9.2948424003738719E+00    1.3044150965681287E+00
N    1.7756276276350305E+00    1.0131159214823455E+01    2.4824357147319311E+00
Ga    1.6699140194083379E+00    8.3246761065920971E+00    3.2599743303276343E+00
N    1.6636916539225135E+00    8.3261385924605147E+00    5.2115713595246937E+00
Ga    1.6535924881560569E+00    1.0206129616004979E+01    5.7724162992566503E+00
N    1.6656837323470322E+00    1.0192478837353201E+01    7.7727751045934212E+00
Ga    1.6901905568235207E+00    8.3409658703708196E+00    8.4233469924945688E+00
N    1.6879005757712213E+00    8.3394691387954811E+00    1.0414220366295867E+01
Ga    1.6636585455145401E+00    1.0197591992436388E+01    1.1053001158432734E+01
N    1.6504178761471731E+00    1.0207496869995751E+01    1.3045619072085740E+01
Ga    1.6905377388977660E+00    8.3395683279826986E+00    1.3609097680264192E+01
N    1.6656185059822697E+00    8.3258286835648896E+00    1.5565946527231024E+01
Ga    1.8635441337938963E+00    1.0087009240414741E+01    1.6487494103080191E+01
N    3.2980051845352110E+00    9.2682729584215426E+00    1.7634711906625654E+01
N    9.7255240295067331E+00    1.8376120018298905E+00    2.6154901658770622E+00
Ga    9.7190030913840140E+00    7.3573585053490334E-02    3.2423014863598452E+00
N    9.7135711975308503E+00   -2.4238836484259712E-02    5.2227190920802942E+00
Ga    9.7217023803236895E+00    1.8289858287940428E+00    5.8538311700528567E+00
N    9.7144752088787918E+00    1.8332419725708746E+00    7.8330039174100152E+00
Ga    9.7170903196115752E+00   -3.4510593530059211E-02    8.4146895915886759E+00
N    9.7160423244779874E+00   -3.5763044503758168E-02    1.0412121459584554E+01
Ga    9.7164108297784182E+00    1.8329446754830077E+00    1.1010681360099145E+01
N    9.7171953378779925E+00    1.8352366402515274E+00    1.2984712457305040E+01
Ga    9.7202548751789237E+00   -3.5598940791783856E-02    1.3610519686645524E+01
N    9.7167579694053838E+00    1.4572095916178683E-03    1.5568143154093043E+01
Ga    9.7251117660569584E+00    1.8343185007866254E+00    1.5852408947358246E+01
N    8.0026489975845223E+00    4.5630070343394920E+00    2.5254360326027401E+00
Ga    8.2198480023062501E+00    2.7027702456772627E+00    3.2876461675753710E+00
N    8.1094346450529073E+00    2.7652332621185778E+00    5.2470995428907923E+00
Ga    8.1330226450304437E+00    4.6377566689351593E+00    5.7888345055923534E+00
N    8.1182210982737946E+00    4.6283234261541439E+00    7.7858456883261331E+00
Ga    8.1003599716431900E+00    2.7689923613223706E+00    8.4213200601319009E+00
N    8.0969667404103696E+00    2.7701956336970479E+00    1.0418584624849805E+01
Ga    8.1229537047111826E+00    4.6290376727622586E+00    1.1054366468227169E+01
N    8.1447341231046053E+00    4.6384705266948147E+00    1.3056067316452376E+01
Ga    8.1025972584152886E+00    2.7682866991034212E+00    1.3600092301240160E+01
N    8.1229207033430519E+00    2.7592008052521675E+00    1.5580301089155093E+01
Ga    8.0000344154995116E+00    4.5531945811036199E+00    1.6424302894485511E+01
N    6.4960127883703649E+00    7.4106409313652915E+00    2.5910992247827358E+00
Ga    6.4947580709865536E+00    5.6762255057613249E+00    3.2819184162985233E+00
N    6.5007691934211760E+00    5.5537879097311089E+00    5.2417716009659570E+00
Ga    6.4939236737194443E+00    7.4133081057070491E+00    5.8516739314559310E+00
N    6.4995537407066735E+00    7.4077802798210088E+00    7.8297753239991099E+00
Ga    6.5003305971105299E+00    5.5414653745391238E+00    8.4223953725723284E+00
N    6.5001956339072171E+00    5.5369294527301207E+00    1.0419515752687083E+01
Ga    6.4983396475940580E+00    7.4066528564305179E+00    1.1013520518394698E+01
N    6.5039131039306799E+00    7.4027266721281331E+00    1.2987227443772065E+01
Ga    6.5045312303529688E+00    5.5363760594723317E+00    1.3601625200172659E+01
N    6.5085621933556119E+00    5.5587144906544665E+00    1.5580789558789952E+01
Ga    6.5078735647210468E+00    7.4088578378098831E+00    1.5853471212017364E+01
N    4.7938228871327757E+00    1.0138146142974065E+01    2.4978805583179176E+00
Ga    4.9692642181519870E+00    8.2921790570294824E+00    3.2358108598144870E+00
N    4.8911394643017729E+00    8.3341450372734851E+00    5.2184478680502862E+00
Ga    4.9174105458386030E+00    1.0205768363999903E+01    5.7655200647425904E+00
N    4.9015145267406606E+00    1.0196226939082509E+01    7.7720480862026600E+00
Ga    4.8813290924589356E+00    8.3420708491538189E+00    8.4152856977625277E+00
N    4.8808530379328836E+00    8.3396567426462660E+00    1.0412551072356596E+01
Ga    4.9058776461460400E+00    1.0197717660762457E+01    1.1054380853534633E+01
N    4.9269069631374549E+00    1.0208378325983119E+01    1.3050162539225420E+01
Ga    4.8840265925620825E+00    8.3407825428485705E+00    1.3612184255140077E+01
N    4.9168433068043873E+00    8.3189235550182996E+00    1.5570303083648680E+01
Ga    4.7300406264526451E+00    1.0095039816600107E+01    1.6487803797912651E+01
O   -6.6992287006310977E-02    4.1205047164571429E+00   -4.3250210487943674E-01
H   -2.6059701045174161E-01    5.9431009851659118E+00   -3.9509096375469660E-01
C    9.7975091016322491E-01    3.6554142125768530E+00   -1.3009745500143466E+00
H    1.9727924228244462E+00    3.6965761286100234E+00   -8.2424577442568692E-01
H    7.8936770427041680E-01    2.6222024215471524E+00   -1.6266657474093800E+00
H    9.9300852668707196E-01    4.3033004981826419E+00   -2.1870358385695292E+00
Ga    3.2566431018941251E+00    5.5476108156402901E+00    2.8316746822501808E+00
O   -1.4971860981667234E-01    6.9234622763423923E+00   -2.7716878653908261E-01
H    2.2842484768902951E-02    7.3162937897174229E+00    1.6222783042490612E+00
C    1.1200941595124909E+00    7.2654626166215124E+00   -8.5381294887882253E-01
H    1.4677969130739927E+00    8.1922007064876041E+00   -3.7075047020282892E-01
H    1.8763218901585714E+00    6.4867167044126255E+00   -6.7151137676790207E-01
H    1.0445844454035731E+00    7.4549533963838384E+00   -1.9352936047187315E+00
     &END COORD
     &KIND C
       BASIS_SET DZVP-MOLOPT-SR-GTH-q4
       POTENTIAL GTH-PBE-q4
       &POTENTIAL
 2 2
  0.3384712400000000E+00 2 -0.8803673979999999E+01  0.1339210850000000E+01
 2
  0.3025757500000000E+00 1  0.9622486650000001E+01
  0.2915069400000000E+00 0
         # Potential name:  GTH-PBE-Q4  for symbol:  C
         # Potential read from the potential filename: GTH_POTENTIALS
       &END POTENTIAL
     &END KIND
     &KIND O
       BASIS_SET DZVP-MOLOPT-SR-GTH-q6
       POTENTIAL GTH-PBE-q6
       &POTENTIAL
 2 4
  0.2445543000000000E+00 2 -0.1666721480000000E+02  0.2487311320000000E+01
 2
  0.2209559200000000E+00 1  0.1833745811000000E+02
  0.2113324700000000E+00 0
         # Potential name:  GTH-PBE-Q6  for symbol:  O
         # Potential read from the potential filename: GTH_POTENTIALS
       &END POTENTIAL
     &END KIND
     &KIND H
       BASIS_SET DZVP-MOLOPT-SR-GTH-q1
       POTENTIAL GTH-PBE-q1
       &POTENTIAL
 1
  0.2000000000000000E+00 2 -0.4178900440000000E+01  0.7244633100000000E+00
 0
         # Potential name:  GTH-PBE-Q1  for symbol:  H
         # Potential read from the potential filename: GTH_POTENTIALS
       &END POTENTIAL
     &END KIND
     &KIND N
       BASIS_SET DZVP-MOLOPT-SR-GTH
       POTENTIAL GTH-PBE-q5
       &POTENTIAL
 2 3
  0.2837905100000000E+00 2 -0.1241522559000000E+02  0.1868095920000000E+01
 2
  0.2554050000000000E+00 1  0.1363026257000000E+02
  0.2454945300000000E+00 0
         # Potential name:  GTH-PBE-Q5  for symbol:  N
         # Potential read from the potential filename: GTH_POTENTIALS
       &END POTENTIAL
     &END KIND
     &KIND Ga
       BASIS_SET DZVP-MOLOPT-SR-GTH
       POTENTIAL GTH-PBE-q13
       &POTENTIAL
 2 1 10
  0.4900000000000000E+00 0
 3
  0.4167772300000000E+00 3  0.1047568975000000E+02 -0.4921768140000000E+01  0.8707055900000000E+00
  0.7770178090000000E+01 -0.2248152160000000E+01
  0.1784415450000000E+01
  0.5696265200000000E+00 2  0.1777985340000000E+01  0.1958597600000000E+00
 -0.2317443900000000E+00
  0.2381265000000000E+00 1 -0.1624868022000000E+02
         # Potential name:  GTH-PBE-Q13  for symbol:  GA
         # Potential read from the potential filename: GTH_POTENTIALS
       &END POTENTIAL
     &END KIND
     &TOPOLOGY
       NUMBER_OF_ATOMS  212
       MULTIPLE_UNIT_CELL  1 1 1
     &END TOPOLOGY
   &END SUBSYS
 &END FORCE_EVAL
