 # Version information for this restart file 
 # current date 2019-06-28 11:03:00.187
 # current working dir /scratch/rzk/rzk/GaN-carbene/443-adatoms-both-2x2/04-2Methanol/01-CombineAsIs
 # Program compiled at                              Sun Apr  7 00:48:11 EDT 2019
 # Program compiled on                          beluga2.int.ets1.calculquebec.ca
 # Program compiled for                        Beluga-Linux-x86-64-intel-openmpi
 # Source code revision number                                         svn:18619
 &GLOBAL
   PRINT_LEVEL  MEDIUM
   PROJECT_NAME TEST
   RUN_TYPE  GEO_OPT
 &END GLOBAL
 &MOTION
   &GEO_OPT
     MAX_ITER  500
     STEP_START_VAL  106
   &END GEO_OPT
 &END MOTION
 &FORCE_EVAL
   METHOD  QS
   STRESS_TENSOR  ANALYTICAL
   &DFT
     BASIS_SET_FILE_NAME BASIS_MOLOPT
     POTENTIAL_FILE_NAME GTH_POTENTIALS
     UKS  T
     SURFACE_DIPOLE_CORRECTION  T
     SURF_DIP_DIR  Z
     &SCF
       MAX_SCF  80
       EPS_SCF     5.0000000000000004E-06
       &OT  T
         PRECONDITIONER  FULL_ALL
       &END OT
       &OUTER_SCF  T
         OPTIMIZER  NONE
         EPS_SCF     5.0000000000000004E-06
         MAX_SCF  4
       &END OUTER_SCF
       &PRINT
         &RESTART  OFF
           BACKUP_COPIES  1
           &EACH
             JUST_ENERGY  0
             QS_SCF  0
             MD  20
           &END EACH
         &END RESTART
       &END PRINT
     &END SCF
     &QS
       EPS_DEFAULT     1.0000000000000000E-14
       METHOD  GPW
     &END QS
     &MGRID
       NGRIDS  5
       CUTOFF     1.2000000000000000E+03
     &END MGRID
     &XC
       DENSITY_CUTOFF     1.0000000000000000E-10
       GRADIENT_CUTOFF     1.0000000000000000E-10
       TAU_CUTOFF     1.0000000000000000E-10
       &XC_FUNCTIONAL  NO_SHORTCUT
         &PBE  T
         &END PBE
       &END XC_FUNCTIONAL
       &VDW_POTENTIAL
         POTENTIAL_TYPE  PAIR_POTENTIAL
         &PAIR_POTENTIAL
           R_CUTOFF     1.0000000000000004E+01
           TYPE  DFTD3
           PARAMETER_FILE_NAME dftd3.dat
           REFERENCE_FUNCTIONAL PBE
           EPS_CN     9.9999999999999995E-07
           CALCULATE_C9_TERM  T
           REFERENCE_C9_TERM  T
           LONG_RANGE_CORRECTION  F
           VERBOSE_OUTPUT  F
         &END PAIR_POTENTIAL
       &END VDW_POTENTIAL
     &END XC
   &END DFT
   &SUBSYS
     &CELL
       A     1.2864472766435110E+01    0.0000000000000000E+00    0.0000000000000000E+00
       B    -6.4322363581020028E+00    1.1140960178524473E+01    0.0000000000000000E+00
       C     0.0000000000000000E+00    0.0000000000000000E+00    3.2000000000000000E+01
       MULTIPLE_UNIT_CELL  1 1 1
       &CELL_REF
         A     1.2982353780853531E+01    0.0000000000000000E+00    0.0000000000000000E+00
         B    -6.4911768904267628E+00    1.1243048175136114E+01    0.0000000000000000E+00
         C     0.0000000000000000E+00    0.0000000000000000E+00    3.2000000000000000E+01
         MULTIPLE_UNIT_CELL  1 1 1
       &END CELL_REF
     &END CELL
     &COORD
N    6.6446468009605131E-02    1.9886479155994208E+00    2.4815077497533933E+00
Ga    4.7728455185819085E-02    1.6499132858131080E-02    2.8200787022947109E+00
N    7.3250997572791729E-02   -1.5723933435490188E-02    4.9972499941818436E+00
Ga    7.1860989144873558E-02    1.8087658318440898E+00    5.7842743093901667E+00
N    6.8212506353401411E-02    1.8227483976719969E+00    7.7873269814778192E+00
Ga    6.4500318634546860E-02   -2.2679299848021153E-02    8.4263203024277189E+00
N    6.5816443926021609E-02   -2.4486336446489849E-02    1.0403922025798497E+01
Ga    6.7260837157944481E-02    1.8153574001480055E+00    1.1055859736780048E+01
N    7.2160700159739091E-02    1.7968227855006160E+00    1.3050807034317279E+01
Ga    7.0796990759164416E-02   -2.2280553668028370E-02    1.3858145481732908E+01
N    7.4401485912006807E-02   -2.1778767576133541E-02    1.6061852979529181E+01
Ga    7.4595017346227949E-02    2.0245305799071294E+00    1.6480417782643240E+01
Ga    2.4499005361176697E-02    3.6880245637661537E+00    1.3556108665995763E+00
N   -1.4239450681316310E+00    4.5608320990642932E+00    2.5191358154962038E+00
Ga   -1.6164028917352746E+00    2.7165961431190984E+00    3.2713394407448546E+00
N   -1.5403432034978710E+00    2.7627091361515363E+00    5.2471743204793766E+00
Ga   -1.5680291570815272E+00    4.6294966147255172E+00    5.7916560767584997E+00
N   -1.5505188806925307E+00    4.6261230951907031E+00    7.7882981204482062E+00
Ga   -1.5319235787474035E+00    2.7647436634783440E+00    8.4209893307389336E+00
N   -1.5306318444263030E+00    2.7673064192427628E+00    1.0418790425488698E+01
Ga   -1.5540824110693821E+00    4.6263493971897462E+00    1.1054535835033306E+01
N   -1.5662837206595850E+00    4.6372734920849394E+00    1.3046775017696611E+01
Ga   -1.5253515631713817E+00    2.7690853732846841E+00    1.3608117292793553E+01
N   -1.5565413018513625E+00    2.7586679149651192E+00    1.5565451557145009E+01
Ga   -1.3557671823643294E+00    4.5204347337720785E+00    1.6477523244010374E+01
N    7.2708792342508072E-02    3.6829052273441834E+00    1.7622016704952550E+01
N   -3.1435961955591729E+00    7.5325639146995211E+00    2.5077553440172369E+00
Ga   -3.1240651768312548E+00    5.5278247780966057E+00    2.8395983743078310E+00
N   -3.1474307781756594E+00    5.5520765742289067E+00    5.0085999507133350E+00
Ga   -3.1525029631244239E+00    7.3740101540762790E+00    5.7878637220778462E+00
N   -3.1474530295196126E+00    7.3959559650658990E+00    7.7806095299531686E+00
Ga   -3.1477307568625474E+00    5.5490843680944888E+00    8.4332380791603896E+00
N   -3.1491277474048114E+00    5.5479724871110792E+00    1.0407437855062398E+01
Ga   -3.1496068731410150E+00    7.3880229373884800E+00    1.1054551185568455E+01
N   -3.1436387099732190E+00    7.3689025358250575E+00    1.3046921122375123E+01
Ga   -3.1333787724739377E+00    5.5522812553680341E+00    1.3845557510455565E+01
N   -3.1308761133297485E+00    5.5542106109120244E+00    1.6056340204715724E+01
Ga   -3.1392241137823409E+00    7.6060930314481423E+00    1.6480504276686457E+01
Ga   -3.1652010395294563E+00    9.2730535998140002E+00    1.4835899089722655E+00
N   -4.6497441615654465E+00    1.0137472396334704E+01    2.5009553597165861E+00
Ga   -4.8679071071777944E+00    8.2842750574194675E+00    3.2699281093923118E+00
N   -4.7533435351249249E+00    8.3378376783336083E+00    5.2320633702146990E+00
Ga   -4.7831996856150010E+00    1.0210872543575595E+01    5.7818582409998225E+00
N   -4.7655053578241828E+00    1.0196644291649273E+01    7.7803786854530790E+00
Ga   -4.7507234038244617E+00    8.3411863648147424E+00    8.4202315683217925E+00
N   -4.7474353159703027E+00    8.3386309197368202E+00    1.0416529125811733E+01
Ga   -4.7733675187770075E+00    1.0197955424578735E+01    1.1055504734595832E+01
N   -4.7849511104735587E+00    1.0208313827999953E+01    1.3050394691336123E+01
Ga   -4.7384632961428252E+00    8.3396844188969066E+00    1.3609551437180642E+01
N   -4.7611339727385076E+00    8.3185492412650976E+00    1.5569715824353695E+01
Ga   -4.5920763259934141E+00    1.0101380687855524E+01    1.6480211716054704E+01
N   -3.1529610039871629E+00    9.2686827748167655E+00    1.7622997341394445E+01
N    3.2772501557518114E+00    1.8477381318385593E+00    2.6058609301490314E+00
Ga    3.2798101236946819E+00    1.0597627190993476E-01    3.2713915061500072E+00
N    3.2881869028507205E+00   -2.2482673156428816E-02    5.2339094413207770E+00
Ga    3.2798635361363280E+00    1.8390193826941414E+00    5.8590749307916665E+00
N    3.2855579321322237E+00    1.8342001005639934E+00    7.8372175694640216E+00
Ga    3.2821939691777930E+00   -3.1827543417099466E-02    8.4222291613572615E+00
N    3.2826523489629946E+00   -3.6116212906182610E-02    1.0417185166521326E+01
Ga    3.2827381302143701E+00    1.8335345115823547E+00    1.1014762540947997E+01
N    3.2914966199041977E+00    1.8337399758528206E+00    1.2988742075663001E+01
Ga    3.2900335020137819E+00   -3.8774874776897325E-02    1.3608766944413315E+01
N    3.3011569030915120E+00   -3.6007619082390821E-03    1.5568650805186406E+01
Ga    3.2924327105653424E+00    1.8319590760542490E+00    1.5852465936600579E+01
N    1.5580135649460514E+00    4.5587188611080327E+00    2.4949307978741788E+00
Ga    1.7461796026631597E+00    2.7304168198955505E+00    3.2528636837326550E+00
N    1.6795227610692678E+00    2.7631005966104145E+00    5.2386533501776178E+00
Ga    1.7115782401841946E+00    4.6283023435511161E+00    5.7919382784546292E+00
N    1.6857080108562332E+00    4.6244795079738461E+00    7.7884382178351270E+00
Ga    1.6664828644340166E+00    2.7655673682060686E+00    8.4240769164049354E+00
N    1.6650361445806086E+00    2.7670356642595566E+00    1.0420145795522549E+01
Ga    1.6906784543099374E+00    4.6272359168906450E+00    1.1055051747155678E+01
N    1.7112020981230589E+00    4.6379071985457117E+00    1.3046309069210837E+01
Ga    1.6693972201746989E+00    2.7698829928576729E+00    1.3609642387224783E+01
N    1.7092464916517709E+00    2.7581764947298173E+00    1.5568067857364763E+01
Ga    1.5041867950238226E+00    4.5202816702942874E+00    1.6477440735141666E+01
N    7.2686749736663572E-02    7.3923471438974442E+00    2.6584258672683210E+00
Ga    7.6831966224472595E-02    5.5528971496994952E+00    3.3151580855130316E+00
N    7.0403763522536092E-02    5.5632825834647566E+00    5.2544599354857517E+00
Ga    7.9603317823817202E-02    7.4054672861949822E+00    5.8829500071075334E+00
N    6.8678252470081247E-02    7.4059030842801308E+00    7.8430857992247107E+00
Ga    6.8487620103922620E-02    5.5329733701209927E+00    8.4260880924911383E+00
N    6.7355665861523584E-02    5.5344114878927515E+00    1.0417731114591644E+01
Ga    6.7923516724829436E-02    7.4042465539051641E+00    1.1009761540127496E+01
N    7.1126731557569503E-02    7.4059938705812627E+00    1.2979787062683572E+01
Ga    7.2513167345123489E-02    5.5386367789313899E+00    1.3606862095027022E+01
N    7.5515718714727592E-02    5.5708930037411557E+00    1.5562263696715918E+01
Ga    7.5608103058644988E-02    7.4078389573634658E+00    1.5847084142001584E+01
N   -1.6421701335130268E+00    1.0126768369180644E+01    2.5001887536773979E+00
Ga   -1.4938261873041450E+00    8.3086470827944741E+00    3.3075288735009130E+00
N   -1.5255878305855100E+00    8.3289976110108750E+00    5.2368788894261398E+00
Ga   -1.5112760237324270E+00    1.0214022047697929E+01    5.7889926722040306E+00
N   -1.5306131960826186E+00    1.0194326466504441E+01    7.7811801739279174E+00
Ga   -1.5515936950182869E+00    8.3403488310029168E+00    8.4255324803651650E+00
N   -1.5527624340401875E+00    8.3385678273854129E+00    1.0414894691789918E+01
Ga   -1.5266084384050256E+00    1.0197020078644330E+01    1.1052955725669108E+01
N   -1.5041339181296627E+00    1.0206337468346073E+01    1.3045359805394554E+01
Ga   -1.5454315980096824E+00    8.3385067686069672E+00    1.3608177825152223E+01
N   -1.5178221713139828E+00    8.3264038846751038E+00    1.5568128394040915E+01
Ga   -1.7056205543660614E+00    1.0088344333202564E+01    1.6480950764831139E+01
N    6.4998361969029972E+00    1.9647635170700068E+00    2.5207450122999187E+00
Ga    6.5201523772183583E+00   -1.6861198549063809E-02    2.8375132291259408E+00
N    6.4974792938994472E+00   -1.7722779598804410E-02    5.0043289342696902E+00
Ga    6.5011748707448476E+00    1.8096963749432182E+00    5.7929850845260580E+00
N    6.5003282651825565E+00    1.8231823919830967E+00    7.7882552004318706E+00
Ga    6.5029923534507867E+00   -2.3921914772473633E-02    8.4278410581731951E+00
N    6.5002317774741352E+00   -2.4303120856420304E-02    1.0402737939794385E+01
Ga    6.5001214117077044E+00    1.8152045294132244E+00    1.1052626555121106E+01
N    6.5053979209942128E+00    1.7943932272578422E+00    1.3054822013489373E+01
Ga    6.5071438991897610E+00   -3.4905043698028382E-02    1.3845918500672754E+01
N    6.5078404107358878E+00   -3.7364261010264140E-02    1.6059799334147208E+01
Ga    6.5108310022425808E+00    1.9651708145414291E+00    1.6427070809397264E+01
Ga    6.5055439336577798E+00    3.6980895492427237E+00    1.5203852347857851E+00
N    4.9990667932371213E+00    4.5632834557202786E+00    2.5140064385011196E+00
Ga    4.7853836423340983E+00    2.7129860340121459E+00    3.2858900771962687E+00
N    4.8931693969994523E+00    2.7654093116158873E+00    5.2466201761500617E+00
Ga    4.8670918187015628E+00    4.6386592334358534E+00    5.7932197280429154E+00
N    4.8842726736803410E+00    4.6266067034574681E+00    7.7886262868360339E+00
Ga    4.9008598762818831E+00    2.7684628352334943E+00    8.4254116136508497E+00
N    4.9026607742139285E+00    2.7688245021664657E+00    1.0421738525044422E+01
Ga    4.8755592851458340E+00    4.6295260007494301E+00    1.1054656254061115E+01
N    4.8628517188389280E+00    4.6389630490172653E+00    1.3056096695266133E+01
Ga    4.9090436184394646E+00    2.7683029154720877E+00    1.3601581613018471E+01
N    4.8947909924420170E+00    2.7577774996042761E+00    1.5582487810413754E+01
Ga    5.0135013478177450E+00    4.5565590566058258E+00    1.6425743958037692E+01
N    6.5043772654813496E+00    3.6915907329959028E+00    1.7542696970863769E+01
N    3.2839060385314882E+00    7.5248837591855278E+00    2.4785485661121536E+00
N    3.2864280954298355E+00    5.5451739556510367E+00    5.0110271692465158E+00
Ga    3.2886709030711803E+00    7.3739641194321601E+00    5.7699869455437574E+00
N    3.2821405375551236E+00    7.3955227002044728E+00    7.7720902064444104E+00
Ga    3.2834949760875420E+00    5.5513289901341292E+00    8.4278550555533549E+00
N    3.2834884511140845E+00    5.5487858006528663E+00    1.0404423296669366E+01
Ga    3.2844124028269635E+00    7.3879493428202361E+00    1.1054752636518771E+01
N    3.2884905700734075E+00    7.3703926273102711E+00    1.3047039240348708E+01
Ga    3.2789199125615327E+00    5.5548511429325620E+00    1.3848686252418883E+01
N    3.2796281786761097E+00    5.5562195974344615E+00    1.6055563528105754E+01
Ga    3.2918262915007501E+00    7.6146073451421481E+00    1.6488921623756834E+01
Ga    3.3313417135007950E+00    9.2954746072118386E+00    1.3007477863415740E+00
N    1.7747046403424067E+00    1.0131726450475137E+01    2.4800142471628259E+00
Ga    1.6694644822164821E+00    8.3259797798139239E+00    3.2587976330331538E+00
N    1.6640300203455161E+00    8.3268712404075877E+00    5.2114061268615854E+00
Ga    1.6536310785329364E+00    1.0206566521718200E+01    5.7713901108703656E+00
N    1.6653470148249301E+00    1.0192553911388824E+01    7.7725935565094773E+00
Ga    1.6901518260309738E+00    8.3409770466719273E+00    8.4226596969540122E+00
N    1.6873007015018762E+00    8.3389875720667952E+00    1.0413491943486695E+01
Ga    1.6629850031049500E+00    1.0196643896718985E+01    1.1053186039006478E+01
N    1.6507503695935641E+00    1.0206662791771773E+01    1.3045913143327281E+01
Ga    1.6899087455841246E+00    8.3384826302931536E+00    1.3610608182188606E+01
N    1.6664862388703625E+00    8.3254065923384921E+00    1.5566978630707949E+01
Ga    1.8642963792915848E+00    1.0086827406530082E+01    1.6488868181227495E+01
N    3.2976228326162484E+00    9.2673430409020554E+00    1.7636986290579152E+01
N    9.7246378318497442E+00    1.8381159004729877E+00    2.6168768594350982E+00
Ga    9.7178928867914909E+00    7.3172114429051707E-02    3.2412467100125646E+00
N    9.7132677345764940E+00   -2.3870058317315465E-02    5.2220055590909231E+00
Ga    9.7215018367700665E+00    1.8289598791344055E+00    5.8541832758766992E+00
N    9.7142438405881393E+00    1.8335334786250745E+00    7.8335467414372060E+00
Ga    9.7167581564042180E+00   -3.4525535480718100E-02    8.4146075662231290E+00
N    9.7152965647912097E+00   -3.6125886258764839E-02    1.0412222049025301E+01
Ga    9.7156842491836546E+00    1.8323673839377743E+00    1.1011600356052552E+01
N    9.7168663605898704E+00    1.8343998031466506E+00    1.2986007078250690E+01
Ga    9.7202970600536691E+00   -3.6622886695409071E-02    1.3611958411257461E+01
N    9.7169961611492948E+00    4.9134174764905200E-04    1.5569333046781306E+01
Ga    9.7251154234652653E+00    1.8331099451276620E+00    1.5853080919440448E+01
N    8.0021380352024494E+00    4.5645246297583144E+00    2.5256884130145729E+00
Ga    8.2191143986338435E+00    2.7039987535997567E+00    3.2884199377802674E+00
N    8.1091197477213637E+00    2.7663372939212354E+00    5.2482363112156403E+00
Ga    8.1331682625494697E+00    4.6388999431783038E+00    5.7909548320881514E+00
N    8.1182661533897242E+00    4.6288175871718398E+00    7.7877795336786697E+00
Ga    8.1003732300765297E+00    2.7690803211110548E+00    8.4225716494300702E+00
N    8.0964692971446119E+00    2.7698555981296722E+00    1.0419476315398292E+01
Ga    8.1223024286537555E+00    4.6287954495163826E+00    1.1055085132311307E+01
N    8.1448915033599718E+00    4.6376695693199741E+00    1.3057241479840732E+01
Ga    8.1026284578135819E+00    2.7676437829641718E+00    1.3601019291017668E+01
N    8.1229907518917486E+00    2.7582055436748134E+00    1.5582760250312278E+01
Ga    8.0016681549304618E+00    4.5523608584603075E+00    1.6425830538860396E+01
N    6.4945906664103124E+00    7.4112713325606112E+00    2.5909028345154264E+00
Ga    6.4940411832139056E+00    5.6771800328168007E+00    3.2827247600947427E+00
N    6.5008833578696263E+00    5.5544056482064805E+00    5.2429899882841813E+00
Ga    6.4931054401210186E+00    7.4144760824201130E+00    5.8507606093258095E+00
N    6.4992248174994511E+00    7.4080000452008443E+00    7.8299182195479169E+00
Ga    6.5001267122619568E+00    5.5421370504908563E+00    8.4235392667904438E+00
N    6.4996035165326536E+00    5.5366904970753632E+00    1.0420574169204896E+01
Ga    6.4972888220848226E+00    7.4061638299903745E+00    1.1015183573020357E+01
N    6.5040294292155476E+00    7.4019750162122762E+00    1.2989420247771058E+01
Ga    6.5048836366134868E+00    5.5352033839782457E+00    1.3602768694176891E+01
N    6.5094981340114568E+00    5.5577210984658185E+00    1.5583505607542349E+01
Ga    6.5092601983228180E+00    7.4083098865232886E+00    1.5854014676852580E+01
N    4.7929654974177538E+00    1.0138473161560166E+01    2.4967127394883635E+00
Ga    4.9674768242449856E+00    8.2929755281896185E+00    3.2345716863058862E+00
N    4.8906110562744916E+00    8.3349040037890649E+00    5.2179424816432762E+00
Ga    4.9169772426414022E+00    1.0205980581016536E+01    5.7647726137992423E+00
N    4.9013318204598946E+00    1.0196440046294764E+01    7.7719893825549597E+00
Ga    4.8810450114708601E+00    8.3421509558958515E+00    8.4150913989092686E+00
N    4.8801319279552429E+00    8.3390674557816808E+00    1.0412675839304054E+01
Ga    4.9050196517735385E+00    1.0196938748707854E+01    1.1054433158218410E+01
N    4.9265967748135413E+00    1.0207423719300539E+01    1.3050625889545557E+01
Ga    4.8836969247199375E+00    8.3403345656622854E+00    1.3613985763449689E+01
N    4.9178648103855185E+00    8.3181041321427642E+00    1.5572681805469388E+01
Ga    4.7302462065736863E+00    1.0094503154465373E+01    1.6489830016666467E+01
O   -6.6456746885433099E-02    4.1204988223256818E+00   -4.3077811336225907E-01
H   -2.5548340440562262E-01    5.9442184791963442E+00   -4.0009721543556631E-01
C    9.7764644391971622E-01    3.6525309787116043E+00   -1.2990315528101424E+00
H    1.9715530604573088E+00    3.6935794727564857E+00   -8.2364900113850936E-01
H    7.8474895852007243E-01    2.6203240310575682E+00   -1.6252243950050089E+00
H    9.8827490563950648E-01    4.3038310557644719E+00   -2.1858601017246739E+00
Ga    3.2568169643212688E+00    5.5491955484594602E+00    2.8338374297951261E+00
O   -1.4474321711756027E-01    6.9261693827679460E+00   -2.8839869465342122E-01
H    2.3968261596353558E-02    7.3182340706223785E+00    1.6169883831458509E+00
C    1.1243500441603713E+00    7.2687250094740099E+00   -8.7025017426610707E-01
H    1.4714968367755750E+00    8.1989281831931180E+00   -3.9025484427259655E-01
H    1.8857649665320488E+00    6.4902060358154134E+00   -6.8504175605606499E-01
H    1.0466093475895419E+00    7.4517423084000614E+00   -1.9517796266158265E+00
     &END COORD
     &KIND C
       BASIS_SET DZVP-MOLOPT-SR-GTH-q4
       POTENTIAL GTH-PBE-q4
       &POTENTIAL
 2 2
  0.3384712400000000E+00 2 -0.8803673979999999E+01  0.1339210850000000E+01
 2
  0.3025757500000000E+00 1  0.9622486650000001E+01
  0.2915069400000000E+00 0
         # Potential name:  GTH-PBE-Q4  for symbol:  C
         # Potential read from the potential filename: GTH_POTENTIALS
       &END POTENTIAL
     &END KIND
     &KIND O
       BASIS_SET DZVP-MOLOPT-SR-GTH-q6
       POTENTIAL GTH-PBE-q6
       &POTENTIAL
 2 4
  0.2445543000000000E+00 2 -0.1666721480000000E+02  0.2487311320000000E+01
 2
  0.2209559200000000E+00 1  0.1833745811000000E+02
  0.2113324700000000E+00 0
         # Potential name:  GTH-PBE-Q6  for symbol:  O
         # Potential read from the potential filename: GTH_POTENTIALS
       &END POTENTIAL
     &END KIND
     &KIND H
       BASIS_SET DZVP-MOLOPT-SR-GTH-q1
       POTENTIAL GTH-PBE-q1
       &POTENTIAL
 1
  0.2000000000000000E+00 2 -0.4178900440000000E+01  0.7244633100000000E+00
 0
         # Potential name:  GTH-PBE-Q1  for symbol:  H
         # Potential read from the potential filename: GTH_POTENTIALS
       &END POTENTIAL
     &END KIND
     &KIND N
       BASIS_SET DZVP-MOLOPT-SR-GTH
       POTENTIAL GTH-PBE-q5
       &POTENTIAL
 2 3
  0.2837905100000000E+00 2 -0.1241522559000000E+02  0.1868095920000000E+01
 2
  0.2554050000000000E+00 1  0.1363026257000000E+02
  0.2454945300000000E+00 0
         # Potential name:  GTH-PBE-Q5  for symbol:  N
         # Potential read from the potential filename: GTH_POTENTIALS
       &END POTENTIAL
     &END KIND
     &KIND Ga
       BASIS_SET DZVP-MOLOPT-SR-GTH
       POTENTIAL GTH-PBE-q13
       &POTENTIAL
 2 1 10
  0.4900000000000000E+00 0
 3
  0.4167772300000000E+00 3  0.1047568975000000E+02 -0.4921768140000000E+01  0.8707055900000000E+00
  0.7770178090000000E+01 -0.2248152160000000E+01
  0.1784415450000000E+01
  0.5696265200000000E+00 2  0.1777985340000000E+01  0.1958597600000000E+00
 -0.2317443900000000E+00
  0.2381265000000000E+00 1 -0.1624868022000000E+02
         # Potential name:  GTH-PBE-Q13  for symbol:  GA
         # Potential read from the potential filename: GTH_POTENTIALS
       &END POTENTIAL
     &END KIND
     &TOPOLOGY
       NUMBER_OF_ATOMS  212
       MULTIPLE_UNIT_CELL  1 1 1
     &END TOPOLOGY
   &END SUBSYS
 &END FORCE_EVAL
