 # Version information for this restart file 
 # current date 2019-06-28 13:27:51.701
 # current working dir /scratch/rzk/rzk/GaN-carbene/443-adatoms-both-2x2/04-2Methanol/01-CombineAsIs
 # Program compiled at                              Sun Apr  7 00:48:11 EDT 2019
 # Program compiled on                          beluga2.int.ets1.calculquebec.ca
 # Program compiled for                        Beluga-Linux-x86-64-intel-openmpi
 # Source code revision number                                         svn:18619
 &GLOBAL
   PRINT_LEVEL  MEDIUM
   PROJECT_NAME TEST
   RUN_TYPE  GEO_OPT
 &END GLOBAL
 &MOTION
   &GEO_OPT
     MAX_ITER  500
     STEP_START_VAL  165
   &END GEO_OPT
 &END MOTION
 &FORCE_EVAL
   METHOD  QS
   STRESS_TENSOR  ANALYTICAL
   &DFT
     BASIS_SET_FILE_NAME BASIS_MOLOPT
     POTENTIAL_FILE_NAME GTH_POTENTIALS
     UKS  T
     SURFACE_DIPOLE_CORRECTION  T
     SURF_DIP_DIR  Z
     &SCF
       MAX_SCF  80
       EPS_SCF     5.0000000000000004E-06
       &OT  T
         PRECONDITIONER  FULL_ALL
       &END OT
       &OUTER_SCF  T
         OPTIMIZER  NONE
         EPS_SCF     5.0000000000000004E-06
         MAX_SCF  4
       &END OUTER_SCF
       &PRINT
         &RESTART  OFF
           BACKUP_COPIES  1
           &EACH
             JUST_ENERGY  0
             QS_SCF  0
             MD  20
           &END EACH
         &END RESTART
       &END PRINT
     &END SCF
     &QS
       EPS_DEFAULT     1.0000000000000000E-14
       METHOD  GPW
     &END QS
     &MGRID
       NGRIDS  5
       CUTOFF     1.2000000000000000E+03
     &END MGRID
     &XC
       DENSITY_CUTOFF     1.0000000000000000E-10
       GRADIENT_CUTOFF     1.0000000000000000E-10
       TAU_CUTOFF     1.0000000000000000E-10
       &XC_FUNCTIONAL  NO_SHORTCUT
         &PBE  T
         &END PBE
       &END XC_FUNCTIONAL
       &VDW_POTENTIAL
         POTENTIAL_TYPE  PAIR_POTENTIAL
         &PAIR_POTENTIAL
           R_CUTOFF     1.0000000000000004E+01
           TYPE  DFTD3
           PARAMETER_FILE_NAME dftd3.dat
           REFERENCE_FUNCTIONAL PBE
           EPS_CN     9.9999999999999995E-07
           CALCULATE_C9_TERM  T
           REFERENCE_C9_TERM  T
           LONG_RANGE_CORRECTION  F
           VERBOSE_OUTPUT  F
         &END PAIR_POTENTIAL
       &END VDW_POTENTIAL
     &END XC
   &END DFT
   &SUBSYS
     &CELL
       A     1.2864472766435110E+01    0.0000000000000000E+00    0.0000000000000000E+00
       B    -6.4322363581020028E+00    1.1140960178524473E+01    0.0000000000000000E+00
       C     0.0000000000000000E+00    0.0000000000000000E+00    3.2000000000000000E+01
       MULTIPLE_UNIT_CELL  1 1 1
       &CELL_REF
         A     1.2982353780853531E+01    0.0000000000000000E+00    0.0000000000000000E+00
         B    -6.4911768904267628E+00    1.1243048175136114E+01    0.0000000000000000E+00
         C     0.0000000000000000E+00    0.0000000000000000E+00    3.2000000000000000E+01
         MULTIPLE_UNIT_CELL  1 1 1
       &END CELL_REF
     &END CELL
     &COORD
N    7.5185891930337173E-02    1.9779892962235577E+00    2.4867900897080495E+00
Ga    5.7067231959888005E-02    6.5701015800947501E-03    2.8190902946619008E+00
N    8.0340335491359119E-02   -2.5081938809094772E-02    5.0124285138951876E+00
Ga    7.8643535076596272E-02    1.7995317829932835E+00    5.7957060528480602E+00
N    7.8479394675006101E-02    1.8149017883604479E+00    7.7989230813602388E+00
Ga    7.5776834232583565E-02   -3.0154286216252595E-02    8.4418644985427029E+00
N    7.8362291873037851E-02   -3.1340017697488946E-02    1.0418161150451711E+01
Ga    7.8290739774548243E-02    1.8080263335242781E+00    1.1068946933153882E+01
N    7.9428897862997908E-02    1.7895323107858112E+00    1.3063624990046508E+01
Ga    7.9059600183668963E-02   -2.9288292617614228E-02    1.3876608997242091E+01
N    7.9901498031527671E-02   -2.9215510367238167E-02    1.6068800262088530E+01
Ga    8.0662292246976214E-02    2.0215217604503626E+00    1.6496227599686929E+01
Ga    4.3407951777306872E-02    3.6856548526065631E+00    1.3643189178567590E+00
N   -1.4112068958623381E+00    4.5493196744050826E+00    2.5263533127717190E+00
Ga   -1.6050148489062734E+00    2.7041511895571917E+00    3.2772561328856433E+00
N   -1.5321129266937392E+00    2.7541919700747619E+00    5.2561564636602771E+00
Ga   -1.5609091228178775E+00    4.6194133222567615E+00    5.8054331772594701E+00
N   -1.5409012004915115E+00    4.6182623834209826E+00    7.8017766274416864E+00
Ga   -1.5211481025411102E+00    2.7570382961309878E+00    8.4330307597279841E+00
N   -1.5186855589817587E+00    2.7604739924467609E+00    1.0430008428167291E+01
Ga   -1.5436376344894922E+00    4.6185975082771948E+00    1.1067805236284803E+01
N   -1.5588501295562971E+00    4.6297646703911859E+00    1.3060404421013857E+01
Ga   -1.5170219919550252E+00    2.7616094575964416E+00    1.3621266413569044E+01
N   -1.5499350600344499E+00    2.7496450009933255E+00    1.5580090846532867E+01
Ga   -1.3454555813230942E+00    4.5098081649962731E+00    1.6497923969831575E+01
N    8.0329213165324348E-02    3.6748746658631779E+00    1.7644418887893618E+01
N   -3.1345073683548308E+00    7.5196653968440392E+00    2.5284761306010433E+00
Ga   -3.1137626362879200E+00    5.5153199692912773E+00    2.8485073236121794E+00
N   -3.1392398580493497E+00    5.5417126058429931E+00    5.0206873303149528E+00
Ga   -3.1459641050744751E+00    7.3616889355679778E+00    5.8061401230323915E+00
N   -3.1376417922982913E+00    7.3866501823615245E+00    7.7984238228006602E+00
Ga   -3.1384745559049092E+00    5.5394480417526264E+00    8.4476146662965661E+00
N   -3.1378006888430932E+00    5.5410090283290119E+00    1.0421175982412439E+01
Ga   -3.1387220037733377E+00    7.3809294318193590E+00    1.1069552468633864E+01
N   -3.1363074779518310E+00    7.3622387469049029E+00    1.3061977375692599E+01
Ga   -3.1267007900328636E+00    5.5450979151374229E+00    1.3860020598751188E+01
N   -3.1239748105865885E+00    5.5469026252004543E+00    1.6068455889677505E+01
Ga   -3.1333089115935806E+00    7.6002908313284721E+00    1.6489819368166106E+01
Ga   -3.1527154398796267E+00    9.2557784481429124E+00    1.5010980095590107E+00
N   -4.6424362726040282E+00    1.0123581137364679E+01    2.5146438096318176E+00
Ga   -4.8607134717586691E+00    8.2725591208233684E+00    3.2886494077755590E+00
N   -4.7461267337216144E+00    8.3270828821077352E+00    5.2504557195535666E+00
Ga   -4.7787930142915460E+00    1.0202149519344056E+01    5.7974387453899627E+00
N   -4.7558442512013803E+00    1.0187983625106156E+01    7.7959568383019269E+00
Ga   -4.7393728491757514E+00    8.3325933899012554E+00    8.4352117018022881E+00
N   -4.7348403560317465E+00    8.3323171301150314E+00    1.0430220363173831E+01
Ga   -4.7616461721316679E+00    1.0191540817473888E+01    1.1070346983689523E+01
N   -4.7765678858569212E+00    1.0200986351231245E+01    1.3065309321351501E+01
Ga   -4.7329535508180216E+00    8.3324273755113776E+00    1.3621620902873202E+01
N   -4.7598784125669722E+00    8.3088678800089717E+00    1.5581371577134158E+01
Ga   -4.5828486876354058E+00    1.0090220188758718E+01    1.6488042527531626E+01
N   -3.1460435786713496E+00    9.2602268344221237E+00    1.7628209182234542E+01
N    3.2819767837913481E+00    1.8326357632754753E+00    2.6148406312533399E+00
Ga    3.2837222654411899E+00    9.3704832721228384E-02    3.2875923816620505E+00
N    3.2941790704750091E+00   -3.2551444154619191E-02    5.2503184868299391E+00
Ga    3.2849350567002955E+00    1.8299072651680337E+00    5.8717918789292192E+00
N    3.2943792538828176E+00    1.8255181134246548E+00    7.8494971012245847E+00
Ga    3.2915145185636181E+00   -4.0307780813700358E-02    8.4380265208125653E+00
N    3.2942591119803097E+00   -4.2874906643945443E-02    1.0432188110469191E+01
Ga    3.2945717622421489E+00    1.8265512159329584E+00    1.1025580574840726E+01
N    3.2985477357964577E+00    1.8274580815928305E+00    1.2999783413041527E+01
Ga    3.2960925384420325E+00   -4.3902682828296499E-02    1.3621989031410990E+01
N    3.3039014727432012E+00   -6.9923698157170998E-03    1.5581750682011357E+01
Ga    3.2953096219501137E+00    1.8269418069665111E+00    1.5861118428042865E+01
N    1.5658666705696183E+00    4.5502801572906870E+00    2.5149072445159613E+00
Ga    1.7525802541739370E+00    2.7183339491846046E+00    3.2639779073949167E+00
N    1.6860292399589776E+00    2.7548737642766068E+00    5.2493761848009148E+00
Ga    1.7176539108478153E+00    4.6192513597064506E+00    5.8064353581001438E+00
N    1.6955219463470375E+00    4.6170561311936460E+00    7.8032558553819058E+00
Ga    1.6754274024714713E+00    2.7582389764469983E+00    8.4370564970136126E+00
N    1.6761715191176980E+00    2.7600899494566868E+00    1.0432402870703319E+01
Ga    1.7014682939491819E+00    4.6193076050105901E+00    1.1067298209499059E+01
N    1.7180652963609389E+00    4.6300022835422192E+00    1.3060282425604527E+01
Ga    1.6758465892815158E+00    2.7619537630739948E+00    1.3621712557644134E+01
N    1.7114540601358794E+00    2.7494424924808105E+00    1.5580285019053877E+01
Ga    1.5071797437950154E+00    4.5095545430736079E+00    1.6497888563007088E+01
N    7.8820402199664172E-02    7.3802817384970929E+00    2.6925068415089894E+00
Ga    8.5794524698715027E-02    5.5399819573602374E+00    3.3356017620036216E+00
N    7.7352237106853711E-02    5.5534220375242951E+00    5.2733831249573093E+00
Ga    8.5386862727300269E-02    7.3950445982317916E+00    5.9042295158750697E+00
N    7.8246588225459116E-02    7.3987138546902669E+00    7.8635961713212774E+00
Ga    7.8021940848035057E-02    5.5251633307251895E+00    8.4422759963420724E+00
N    7.8349938803392999E-02    5.5277145845271152E+00    1.0433092402387423E+01
Ga    7.9324591766512770E-02    7.3970296602514596E+00    1.1026696459430253E+01
N    7.9385156484002087E-02    7.3977117264854559E+00    1.2996557964627506E+01
Ga    7.9694086083045124E-02    5.5282568669792731E+00    1.3621576636563558E+01
N    8.0808865158968610E-02    5.5609730759805789E+00    1.5578903240811565E+01
Ga    8.1656262761672899E-02    7.3971979173431937E+00    1.5857690102894333E+01
N   -1.6345993694885950E+00    1.0111739448026510E+01    2.5223239779427509E+00
Ga   -1.4893278314934977E+00    8.2976134311046401E+00    3.3336374276477527E+00
N   -1.5190291348240161E+00    8.3186741812850968E+00    5.2612954879643494E+00
Ga   -1.5054603330372678E+00    1.0204698925213030E+01    5.8090510900767258E+00
N   -1.5215642702744130E+00    1.0186214188446986E+01    7.8004894356039340E+00
Ga   -1.5421849626969202E+00    8.3321303079042028E+00    8.4455102387695700E+00
N   -1.5411024498589505E+00    8.3319299349984739E+00    1.0434195910634257E+01
Ga   -1.5156050589675514E+00    1.0191313353917677E+01    1.1068984631161632E+01
N   -1.4976532951315582E+00    1.0199716810833690E+01    1.3061579767637738E+01
Ga   -1.5387205594403000E+00    8.3316899370104611E+00    1.3621082110274479E+01
N   -1.5097848517094905E+00    8.3163050084793984E+00    1.5579304395811205E+01
Ga   -1.7020649528617886E+00    1.0079791661275216E+01    1.6489969924455398E+01
N    6.5065441141576601E+00    1.9507774069921426E+00    2.5358965629719896E+00
Ga    6.5265240516640368E+00   -3.0325947132964149E-02    2.8602253828908690E+00
N    6.5042983932738512E+00   -2.9486033604880495E-02    5.0244177405036261E+00
Ga    6.5076067682543819E+00    1.7996845379570106E+00    5.8033501085661472E+00
N    6.5092729393767721E+00    1.8149662220565599E+00    7.8007482142163340E+00
Ga    6.5121258440471506E+00   -3.0888345488900078E-02    8.4448784413575222E+00
N    6.5110957230357149E+00   -3.1191295334505136E-02    1.0419342338955538E+01
Ga    6.5116833443872855E+00    1.8087191850484825E+00    1.1065977562279214E+01
N    6.5123129595554987E+00    1.7881946640435507E+00    1.3066666355753929E+01
Ga    6.5128412969354743E+00   -4.0563716964276054E-02    1.3858722742356587E+01
N    6.5131777288717494E+00   -4.2432645537689689E-02    1.6068517902297963E+01
Ga    6.5134798452260947E+00    1.9594485079427999E+00    1.6431673156542413E+01
Ga    6.5119979838705140E+00    3.6827132814289505E+00    1.5319974655611843E+00
N    5.0055187471138032E+00    4.5499685976724535E+00    2.5278068135374436E+00
Ga    4.7889789138905909E+00    2.6992125377561096E+00    3.2959846403119930E+00
N    4.8984472182784469E+00    2.7548810659448311E+00    5.2574187181716994E+00
Ga    4.8733976498092773E+00    4.6277857195737830E+00    5.8027400315830908E+00
N    4.8929451004375526E+00    4.6172599846730566E+00    7.8007378082617294E+00
Ga    4.9105670856555310E+00    2.7600880242736672E+00    8.4372422781135263E+00
N    4.9142979399992290E+00    2.7614948657299281E+00    1.0433641086210866E+01
Ga    4.8877508432681678E+00    4.6214484720048050E+00    1.1066328720174212E+01
N    4.8709670824663638E+00    4.6314388763679073E+00    1.3067622241168037E+01
Ga    4.9152607458181619E+00    2.7612870047191218E+00    1.3611836626957265E+01
N    4.8993833600921226E+00    2.7512891280524583E+00    1.5590353979614529E+01
Ga    5.0171437137606736E+00    4.5476857960809820E+00    1.6431476117562877E+01
N    6.5119708649364574E+00    3.6863246082245613E+00    1.7553041735113251E+01
N    3.2893943393778837E+00    7.5113039391745620E+00    2.4985969009147802E+00
N    3.2926344840194970E+00    5.5382055854071464E+00    5.0273281841206341E+00
Ga    3.2969074494421053E+00    7.3655777235453268E+00    5.7927826686245076E+00
N    3.2919361404597947E+00    7.3877163063762978E+00    7.7924676344236561E+00
Ga    3.2941996215038016E+00    5.5419092005645902E+00    8.4439930142504949E+00
N    3.2951439340243334E+00    5.5412185110023824E+00    1.0419239700322466E+01
Ga    3.2967016435690071E+00    7.3811475609576114E+00    1.1067650433690890E+01
N    3.2957479695092360E+00    7.3624497389425905E+00    1.3060546398704743E+01
Ga    3.2862686136924553E+00    5.5460334496453871E+00    1.3860692805283829E+01
N    3.2850999086855515E+00    5.5473423874454983E+00    1.6067985761343429E+01
Ga    3.2950089310120583E+00    7.6038837196846343E+00    1.6493823201185371E+01
Ga    3.3283763204425432E+00    9.2760334567583360E+00    1.3132898268762971E+00
N    1.7804341090057396E+00    1.0119175191279755E+01    2.5035921654888988E+00
Ga    1.6786467683507831E+00    8.3147187902410469E+00    3.2848488319042439E+00
N    1.6712091518356145E+00    8.3174319406696213E+00    5.2352530578384391E+00
Ga    1.6622095326471387E+00    1.0198429203247210E+01    5.7936991201846482E+00
N    1.6755437067123844E+00    1.0184921364671833E+01    7.7925332793579836E+00
Ga    1.6996007672473763E+00    8.3330467581373018E+00    8.4430480559088625E+00
N    1.6984892615749232E+00    8.3322831601903129E+00    1.0432923464741421E+01
Ga    1.6742376938871555E+00    1.0191562167321504E+01    1.1067780787270097E+01
N    1.6574141559988840E+00    1.0199916078815084E+01    1.3060384626640454E+01
Ga    1.6984066425815536E+00    8.3318356530878113E+00    1.3620745219438609E+01
N    1.6718452071899352E+00    8.3165949938410364E+00    1.5578495220585745E+01
Ga    1.8667010691463584E+00    1.0078077951974860E+01    1.6493825695994591E+01
N    3.3058382415502199E+00    9.2600234704596076E+00    1.7636067108275356E+01
N    9.7340703648905293E+00    1.8253418493237463E+00    2.6265954578038126E+00
Ga    9.7280149167726329E+00    6.0839370686458519E-02    3.2538596499599191E+00
N    9.7219184329670174E+00   -3.3714899174272304E-02    5.2377776629696191E+00
Ga    9.7309907150810435E+00    1.8198144232031432E+00    5.8648074647068835E+00
N    9.7250428520626251E+00    1.8246954305571801E+00    7.8459358802902264E+00
Ga    9.7285250500918039E+00   -4.2336912893911838E-02    8.4297770152854881E+00
N    9.7274578954316144E+00   -4.3345454080133891E-02    1.0427453237471681E+01
Ga    9.7278782000521478E+00    1.8257021944591072E+00    1.1022591227166078E+01
N    9.7253087259042488E+00    1.8275257720842129E+00    1.2997477855069032E+01
Ga    9.7281617452846305E+00   -4.3495407758657553E-02    1.3621496195972185E+01
N    9.7223124433579233E+00   -7.2826910135836819E-03    1.5580539254123453E+01
Ga    9.7311851703166941E+00    1.8262152179613458E+00    1.5859927477647640E+01
N    8.0103961543792384E+00    4.5508101952492748E+00    2.5364870011216039E+00
Ga    8.2281176952659507E+00    2.6906225818446807E+00    3.2982034345942961E+00
N    8.1170220638894186E+00    2.7542243401920548E+00    5.2592412874395738E+00
Ga    8.1411944642666896E+00    4.6265050938666628E+00    5.7999644058842819E+00
N    8.1281954215363896E+00    4.6183821789749286E+00    7.7983830759704169E+00
Ga    8.1104633431468507E+00    2.7595021436974210E+00    8.4337705021162552E+00
N    8.1078679335374435E+00    2.7616917362599858E+00    1.0431461141117277E+01
Ga    8.1340552820250895E+00    4.6204795011364697E+00    1.1066904903691514E+01
N    8.1531156252585504E+00    4.6311187370844999E+00    1.3067407111405927E+01
Ga    8.1096330907813456E+00    2.7611086618924410E+00    1.3611395688032591E+01
N    8.1272181023310672E+00    2.7515294454596604E+00    1.5589605072080207E+01
Ga    8.0077234147653833E+00    4.5465872843072592E+00    1.6431795606346242E+01
N    6.5028736845278834E+00    7.4002769356237730E+00    2.6083899994004351E+00
Ga    6.5019423895495505E+00    5.6638151750508321E+00    3.2938658943578809E+00
N    6.5078972742150700E+00    5.5425128058654067E+00    5.2552276704886713E+00
Ga    6.5009910810433063E+00    7.4025503342345509E+00    5.8670267144916277E+00
N    6.5095111992554644E+00    7.3976779923023175E+00    7.8447485572764721E+00
Ga    6.5103201243899891E+00    5.5305575109441811E+00    8.4349936667795280E+00
N    6.5113452079888807E+00    5.5280733571131222E+00    1.0431913083259072E+01
Ga    6.5105713591598784E+00    7.3984478713454411E+00    1.1023538205834223E+01
N    6.5119518983430718E+00    7.3949841609660929E+00    1.2998225904487514E+01
Ga    6.5122896816951910E+00    5.5283173482564862E+00    1.3612456951820192E+01
N    6.5134121437841275E+00    5.5483519112495427E+00    1.5591013524834002E+01
Ga    6.5124321343148992E+00    7.3994085365881048E+00    1.5861895052481662E+01
N    4.8010018253506326E+00    1.0126400216838148E+01    2.5077114171498573E+00
Ga    4.9753860617546817E+00    8.2831620874938903E+00    3.2504623750616037E+00
N    4.8984287565198077E+00    8.3252699209775436E+00    5.2345432196793382E+00
Ga    4.9270538160277324E+00    1.0198163717980794E+01    5.7807031238196087E+00
N    4.9124096637418164E+00    1.0187859682349208E+01    7.7877759852652950E+00
Ga    4.8922049848968587E+00    8.3340520057533265E+00    8.4304368100184419E+00
N    4.8924312977880531E+00    8.3323218796692888E+00    1.0427548459860844E+01
Ga    4.9178586354367964E+00    1.0191094188139013E+01    1.1068647423007702E+01
N    4.9355425626962814E+00    1.0200985875015219E+01    1.3063606886148863E+01
Ga    4.8921627387590085E+00    8.3328253747475376E+00    1.3621588055745535E+01
N    4.9211486154880602E+00    8.3093603610530220E+00    1.5580419811974773E+01
Ga    4.7393865365915877E+00    1.0087569201279591E+01    1.6492096591316834E+01
O    8.1936172711101016E-03    4.0853628563762765E+00   -4.3258839949395889E-01
H   -2.0077531082436673E-01    5.8706384932323648E+00   -3.5153999102622280E-01
C    1.0973050275352849E+00    3.5917704889709290E+00   -1.2351309231195218E+00
H    2.0799926300533462E+00    3.8689100979652276E+00   -8.2053617047950167E-01
H    1.0556973917257164E+00    2.4955992998686867E+00   -1.3336545245289193E+00
H    1.0038870049699335E+00    4.0337827712567753E+00   -2.2373446584116321E+00
Ga    3.2627876388944057E+00    5.5367697521985892E+00    2.8470463063393971E+00
O   -2.0028254737992576E-01    6.8558685395432217E+00   -2.0762468100045897E-01
H    2.8457961142705861E-02    7.3086644076649154E+00    1.6555482368680416E+00
C    9.3076927377826402E-01    7.3824315371819242E+00   -9.1358653806433576E-01
H    9.6039285451920076E-01    8.4645811377137576E+00   -7.2638375640389841E-01
H    1.8780749430988084E+00    6.9428983509287034E+00   -5.6038894007423923E-01
H    8.4530528933476334E-01    7.2225188386567121E+00   -1.9997569065578114E+00
     &END COORD
     &KIND C
       BASIS_SET DZVP-MOLOPT-SR-GTH-q4
       POTENTIAL GTH-PBE-q4
       &POTENTIAL
 2 2
  0.3384712400000000E+00 2 -0.8803673979999999E+01  0.1339210850000000E+01
 2
  0.3025757500000000E+00 1  0.9622486650000001E+01
  0.2915069400000000E+00 0
         # Potential name:  GTH-PBE-Q4  for symbol:  C
         # Potential read from the potential filename: GTH_POTENTIALS
       &END POTENTIAL
     &END KIND
     &KIND O
       BASIS_SET DZVP-MOLOPT-SR-GTH-q6
       POTENTIAL GTH-PBE-q6
       &POTENTIAL
 2 4
  0.2445543000000000E+00 2 -0.1666721480000000E+02  0.2487311320000000E+01
 2
  0.2209559200000000E+00 1  0.1833745811000000E+02
  0.2113324700000000E+00 0
         # Potential name:  GTH-PBE-Q6  for symbol:  O
         # Potential read from the potential filename: GTH_POTENTIALS
       &END POTENTIAL
     &END KIND
     &KIND H
       BASIS_SET DZVP-MOLOPT-SR-GTH-q1
       POTENTIAL GTH-PBE-q1
       &POTENTIAL
 1
  0.2000000000000000E+00 2 -0.4178900440000000E+01  0.7244633100000000E+00
 0
         # Potential name:  GTH-PBE-Q1  for symbol:  H
         # Potential read from the potential filename: GTH_POTENTIALS
       &END POTENTIAL
     &END KIND
     &KIND N
       BASIS_SET DZVP-MOLOPT-SR-GTH
       POTENTIAL GTH-PBE-q5
       &POTENTIAL
 2 3
  0.2837905100000000E+00 2 -0.1241522559000000E+02  0.1868095920000000E+01
 2
  0.2554050000000000E+00 1  0.1363026257000000E+02
  0.2454945300000000E+00 0
         # Potential name:  GTH-PBE-Q5  for symbol:  N
         # Potential read from the potential filename: GTH_POTENTIALS
       &END POTENTIAL
     &END KIND
     &KIND Ga
       BASIS_SET DZVP-MOLOPT-SR-GTH
       POTENTIAL GTH-PBE-q13
       &POTENTIAL
 2 1 10
  0.4900000000000000E+00 0
 3
  0.4167772300000000E+00 3  0.1047568975000000E+02 -0.4921768140000000E+01  0.8707055900000000E+00
  0.7770178090000000E+01 -0.2248152160000000E+01
  0.1784415450000000E+01
  0.5696265200000000E+00 2  0.1777985340000000E+01  0.1958597600000000E+00
 -0.2317443900000000E+00
  0.2381265000000000E+00 1 -0.1624868022000000E+02
         # Potential name:  GTH-PBE-Q13  for symbol:  GA
         # Potential read from the potential filename: GTH_POTENTIALS
       &END POTENTIAL
     &END KIND
     &TOPOLOGY
       NUMBER_OF_ATOMS  212
       MULTIPLE_UNIT_CELL  1 1 1
     &END TOPOLOGY
   &END SUBSYS
 &END FORCE_EVAL
