 # Version information for this restart file 
 # current date 2019-06-28 10:55:19.942
 # current working dir /scratch/rzk/rzk/GaN-carbene/443-adatoms-both-2x2/04-2Methanol/01-CombineAsIs
 # Program compiled at                              Sun Apr  7 00:48:11 EDT 2019
 # Program compiled on                          beluga2.int.ets1.calculquebec.ca
 # Program compiled for                        Beluga-Linux-x86-64-intel-openmpi
 # Source code revision number                                         svn:18619
 &GLOBAL
   PRINT_LEVEL  MEDIUM
   PROJECT_NAME TEST
   RUN_TYPE  GEO_OPT
 &END GLOBAL
 &MOTION
   &GEO_OPT
     MAX_ITER  500
     STEP_START_VAL  104
   &END GEO_OPT
 &END MOTION
 &FORCE_EVAL
   METHOD  QS
   STRESS_TENSOR  ANALYTICAL
   &DFT
     BASIS_SET_FILE_NAME BASIS_MOLOPT
     POTENTIAL_FILE_NAME GTH_POTENTIALS
     UKS  T
     SURFACE_DIPOLE_CORRECTION  T
     SURF_DIP_DIR  Z
     &SCF
       MAX_SCF  80
       EPS_SCF     5.0000000000000004E-06
       &OT  T
         PRECONDITIONER  FULL_ALL
       &END OT
       &OUTER_SCF  T
         OPTIMIZER  NONE
         EPS_SCF     5.0000000000000004E-06
         MAX_SCF  4
       &END OUTER_SCF
       &PRINT
         &RESTART  OFF
           BACKUP_COPIES  1
           &EACH
             JUST_ENERGY  0
             QS_SCF  0
             MD  20
           &END EACH
         &END RESTART
       &END PRINT
     &END SCF
     &QS
       EPS_DEFAULT     1.0000000000000000E-14
       METHOD  GPW
     &END QS
     &MGRID
       NGRIDS  5
       CUTOFF     1.2000000000000000E+03
     &END MGRID
     &XC
       DENSITY_CUTOFF     1.0000000000000000E-10
       GRADIENT_CUTOFF     1.0000000000000000E-10
       TAU_CUTOFF     1.0000000000000000E-10
       &XC_FUNCTIONAL  NO_SHORTCUT
         &PBE  T
         &END PBE
       &END XC_FUNCTIONAL
       &VDW_POTENTIAL
         POTENTIAL_TYPE  PAIR_POTENTIAL
         &PAIR_POTENTIAL
           R_CUTOFF     1.0000000000000004E+01
           TYPE  DFTD3
           PARAMETER_FILE_NAME dftd3.dat
           REFERENCE_FUNCTIONAL PBE
           EPS_CN     9.9999999999999995E-07
           CALCULATE_C9_TERM  T
           REFERENCE_C9_TERM  T
           LONG_RANGE_CORRECTION  F
           VERBOSE_OUTPUT  F
         &END PAIR_POTENTIAL
       &END VDW_POTENTIAL
     &END XC
   &END DFT
   &SUBSYS
     &CELL
       A     1.2864472766435110E+01    0.0000000000000000E+00    0.0000000000000000E+00
       B    -6.4322363581020028E+00    1.1140960178524473E+01    0.0000000000000000E+00
       C     0.0000000000000000E+00    0.0000000000000000E+00    3.2000000000000000E+01
       MULTIPLE_UNIT_CELL  1 1 1
       &CELL_REF
         A     1.2982353780853531E+01    0.0000000000000000E+00    0.0000000000000000E+00
         B    -6.4911768904267628E+00    1.1243048175136114E+01    0.0000000000000000E+00
         C     0.0000000000000000E+00    0.0000000000000000E+00    3.2000000000000000E+01
         MULTIPLE_UNIT_CELL  1 1 1
       &END CELL_REF
     &END CELL
     &COORD
N    6.7403845153436698E-02    1.9824221661013570E+00    2.4770459033590320E+00
Ga    5.0668078761416872E-02    1.3422783275234950E-02    2.8123952926168134E+00
N    7.1254963628758897E-02   -1.9201847181950216E-02    4.9986150165698540E+00
Ga    6.8651693274010883E-02    1.8065455450991432E+00    5.7791393602580605E+00
N    6.8333746467684253E-02    1.8225273655211109E+00    7.7815829069267117E+00
Ga    6.4837470069744177E-02   -2.2180561887799596E-02    8.4245032457966715E+00
N    6.6469291450864346E-02   -2.0825131311317531E-02    1.0401028325789927E+01
Ga    6.7038154491653401E-02    1.8175909258965672E+00    1.1055810262045707E+01
N    7.1430273529816110E-02    1.8019644625908704E+00    1.3051574793484564E+01
Ga    6.9768707784943845E-02   -1.7931754189639534E-02    1.3865930231660341E+01
N    7.6274739449069637E-02   -1.3108899455192726E-02    1.6053391034374652E+01
Ga    7.7769086968431808E-02    2.0333414202007054E+00    1.6476865938450146E+01
Ga    3.8653874516627031E-02    3.6840803702434197E+00    1.3509868539539880E+00
N   -1.4220086779662249E+00    4.5540725692731234E+00    2.5150933360235652E+00
Ga   -1.6170078750813202E+00    2.7099996249636509E+00    3.2608911338213624E+00
N   -1.5420574197452981E+00    2.7598512455867508E+00    5.2398688144005234E+00
Ga   -1.5698583449952392E+00    4.6253221245445255E+00    5.7859881302167677E+00
N   -1.5507703844523795E+00    4.6254080075176587E+00    7.7824223070405436E+00
Ga   -1.5305035614064739E+00    2.7648772090630311E+00    8.4174276919360569E+00
N   -1.5295677694886765E+00    2.7701329531274332E+00    1.0414758403728159E+01
Ga   -1.5540599404258277E+00    4.6287588757305143E+00    1.1051072447093340E+01
N   -1.5666285168822356E+00    4.6438658498429861E+00    1.3045489798691250E+01
Ga   -1.5245866311354204E+00    2.7754416913758964E+00    1.3607049762014515E+01
N   -1.5560910979550227E+00    2.7647088327952676E+00    1.5568146605589638E+01
Ga   -1.3509661710285688E+00    4.5267962176082506E+00    1.6478482263556256E+01
N    7.7920638558968636E-02    3.6906107847920508E+00    1.7615588621705260E+01
N   -3.1449259687720277E+00    7.5228966398865573E+00    2.5089159754321968E+00
Ga   -3.1226181176719194E+00    5.5201117666495163E+00    2.8321363260215944E+00
N   -3.1489853120054487E+00    5.5476732296138724E+00    5.0048761942620912E+00
Ga   -3.1539696697778146E+00    7.3672776803933289E+00    5.7860641787764795E+00
N   -3.1480794808050216E+00    7.3935155968212385E+00    7.7777344356267069E+00
Ga   -3.1483265694682738E+00    5.5468649164671238E+00    8.4279473842168393E+00
N   -3.1484804913489484E+00    5.5497799653865902E+00    1.0402210329922060E+01
Ga   -3.1496010863403270E+00    7.3913636389290591E+00    1.1049097057428522E+01
N   -3.1440597531114030E+00    7.3754274910649862E+00    1.3042396452052378E+01
Ga   -3.1361441238207073E+00    5.5590696764238308E+00    1.3841450423907620E+01
N   -3.1285945609628878E+00    5.5628294204155733E+00    1.6052235182768772E+01
Ga   -3.1367948556527296E+00    7.6178882425569521E+00    1.6473289885544407E+01
Ga   -3.1657415187124225E+00    9.2653825679950881E+00    1.4818579074063472E+00
N   -4.6527415584791800E+00    1.0130056340740703E+01    2.5049257433557015E+00
Ga   -4.8689849445891529E+00    8.2776492224771161E+00    3.2730204136752064E+00
N   -4.7547768267216721E+00    8.3329060543019544E+00    5.2336980293504363E+00
Ga   -4.7881817781434535E+00    1.0207803573943277E+01    5.7802949101369290E+00
N   -4.7672260666320456E+00    1.0195187975089192E+01    7.7780379181243182E+00
Ga   -4.7498296728315763E+00    8.3396908730402810E+00    8.4167359813330034E+00
N   -4.7469447209301974E+00    8.3411853465965304E+00    1.0411518725604020E+01
Ga   -4.7737112593809998E+00    1.0200775475194600E+01    1.1052399882206231E+01
N   -4.7862115716638955E+00    1.0213898139965419E+01    1.3047685470612118E+01
Ga   -4.7408221308215293E+00    8.3457346346294408E+00    1.3602697583325938E+01
N   -4.7640662772967923E+00    8.3238891847777037E+00    1.5562386416255858E+01
Ga   -4.5842601740042292E+00    1.0104492126740775E+01    1.6470751619301481E+01
N   -3.1475078394424489E+00    9.2768755071349727E+00    1.7609014146999851E+01
N    3.2747393331935388E+00    1.8379062561314836E+00    2.6072618019756884E+00
Ga    3.2771203352316971E+00    9.7509797163574496E-02    3.2752096215728064E+00
N    3.2864894112653493E+00   -2.7550553457304706E-02    5.2369561839569787E+00
Ga    3.2772630435370838E+00    1.8356677821682745E+00    5.8580556139212030E+00
N    3.2843344337778508E+00    1.8323262809927490E+00    7.8345321790020046E+00
Ga    3.2812598088986320E+00   -3.4846954472280318E-02    8.4191005327487645E+00
N    3.2823179943381362E+00   -3.4256221844237100E-02    1.0412910906179611E+01
Ga    3.2827590581236974E+00    1.8356824020339146E+00    1.1008142297027007E+01
N    3.2897257745050048E+00    1.8412864676650624E+00    1.2981704944449481E+01
Ga    3.2870490101316912E+00   -2.9428180910721961E-02    1.3602374480080167E+01
N    3.2998328480681081E+00    1.0043542325531375E-02    1.5560912873618701E+01
Ga    3.2948150532228269E+00    1.8420528838869785E+00    1.5848151314722374E+01
N    1.5574833146015989E+00    4.5512698962988205E+00    2.4977983249557525E+00
Ga    1.7452761486951243E+00    2.7218836458433211E+00    3.2543977599631351E+00
N    1.6778323299641946E+00    2.7607755377656700E+00    5.2366870281364299E+00
Ga    1.7090168626973790E+00    4.6251628828449816E+00    5.7916750447816936E+00
N    1.6860262631864456E+00    4.6240230996851848E+00    7.7867818075876061E+00
Ga    1.6643868893555265E+00    2.7654092529196310E+00    8.4212099450118600E+00
N    1.6638753624381810E+00    2.7700747560529075E+00    1.0416128207213424E+01
Ga    1.6891209910475489E+00    4.6294679918328203E+00    1.1051189155151556E+01
N    1.7093080347589140E+00    4.6431654797179887E+00    1.3045083829169581E+01
Ga    1.6690695553623127E+00    2.7741984909161275E+00    1.3606717461546614E+01
N    1.7105412232238142E+00    2.7655999242909197E+00    1.5566914126286608E+01
Ga    1.5083473902155717E+00    4.5271203700954867E+00    1.6478888494576793E+01
N    7.3785088139675326E-02    7.3798395173227975E+00    2.6694904609128622E+00
Ga    7.7539735051624550E-02    5.5410057553070189E+00    3.3188167944397118E+00
N    7.0035494720551400E-02    5.5582928229721871E+00    5.2553388563829389E+00
Ga    7.7758574236938077E-02    7.4007809643253575E+00    5.8809084069185138E+00
N    6.9155691703109673E-02    7.4054381331023205E+00    7.8409502469885846E+00
Ga    6.7668745108968170E-02    5.5332869917683682E+00    8.4219004653654395E+00
N    6.7080811361831527E-02    5.5369035047571531E+00    1.0413481961376299E+01
Ga    6.8531578210445476E-02    7.4074914682988862E+00    1.1007063483238083E+01
N    7.2042503179948050E-02    7.4107802743183600E+00    1.2974529714670467E+01
Ga    7.1808751653135106E-02    5.5454200405798826E+00    1.3606120949301447E+01
N    7.8605294097981615E-02    5.5785858801061554E+00    1.5565032866854644E+01
Ga    7.9429053184505632E-02    7.4158416487831582E+00    1.5851829348448643E+01
N   -1.6440233791725423E+00    1.0117289052859727E+01    2.5063599809453572E+00
Ga   -1.4973222935637849E+00    8.3006618773436767E+00    3.3063666340299709E+00
N   -1.5268039362830030E+00    8.3233882057364870E+00    5.2359757432341700E+00
Ga   -1.5127285384611653E+00    1.0208353453730910E+01    5.7887882863640403E+00
N   -1.5311612302653763E+00    1.0192429705441306E+01    7.7798061661374902E+00
Ga   -1.5513231329272847E+00    8.3380628346931296E+00    8.4223889001979355E+00
N   -1.5523353638390327E+00    8.3407598908077798E+00    1.0411416881414393E+01
Ga   -1.5272708665104906E+00    1.0199679069498870E+01    1.1048830576630419E+01
N   -1.5066391521640454E+00    1.0211960629448688E+01    1.3041755225433260E+01
Ga   -1.5438309328849540E+00    8.3435776599101636E+00    1.3602625033706795E+01
N   -1.5116074702697373E+00    8.3311839425742473E+00    1.5559942283945126E+01
Ga   -1.7069914709557019E+00    1.0095189980790476E+01    1.6470945004963554E+01
N    6.4969830669356341E+00    1.9568313395675268E+00    2.5221275923436997E+00
Ga    6.5168017954408262E+00   -2.7159644652150702E-02    2.8423888694015171E+00
N    6.4960463302043285E+00   -2.3784281331473405E-02    5.0046215095190121E+00
Ga    6.5001341926252270E+00    1.8049464494117351E+00    5.7891239483296459E+00
N    6.4999493873131318E+00    1.8211554944462069E+00    7.7845172312677358E+00
Ga    6.5024910431928848E+00   -2.5658832205880777E-02    8.4252822444255600E+00
N    6.4998461628642561E+00   -2.2524190783188586E-02    1.0399973862186529E+01
Ga    6.5001999922649540E+00    1.8167339228796533E+00    1.1051405375443064E+01
N    6.5032228072655398E+00    1.8007422533151325E+00    1.3050278046889220E+01
Ga    6.5037995350650837E+00   -2.7413708680766147E-02    1.3845004943827783E+01
N    6.5084078516969326E+00   -2.5654036617369709E-02    1.6049331788937966E+01
Ga    6.5070514710745098E+00    1.9728478010229227E+00    1.6420366106332249E+01
Ga    6.5022732323850594E+00    3.6855197557784303E+00    1.5236247799460643E+00
N    4.9974481548547658E+00    4.5533607148272566E+00    2.5152195663711718E+00
Ga    4.7814862858767748E+00    2.7036717599852809E+00    3.2873997499787753E+00
N    4.8917408705126073E+00    2.7610258656537185E+00    5.2475029386892462E+00
Ga    4.8661167004660877E+00    4.6340376465320867E+00    5.7907142572358854E+00
N    4.8824709794613730E+00    4.6246263187053644E+00    7.7871647690347370E+00
Ga    4.9009322369663542E+00    2.7666028555383804E+00    8.4225358813735287E+00
N    4.9030030980911627E+00    2.7700893311026338E+00    1.0417028069212156E+01
Ga    4.8759805864276640E+00    4.6304172313180425E+00    1.1051478570364491E+01
N    4.8619329998365819E+00    4.6442969903319087E+00    1.3050011034837290E+01
Ga    4.9067171860973611E+00    2.7741837182645934E+00    1.3597303206779216E+01
N    4.8971337153843599E+00    2.7697518466911220E+00    1.5576714059228214E+01
Ga    5.0111174806302499E+00    4.5633364078917928E+00    1.6423306337677676E+01
N    6.5031815174447125E+00    3.6972199006314135E+00    1.7553048619097186E+01
N    3.2842214443714552E+00    7.5145226327254218E+00    2.4805793168630017E+00
N    3.2848791792555758E+00    5.5432205128788938E+00    5.0120878742824058E+00
Ga    3.2877350894453206E+00    7.3728699231800991E+00    5.7730766235578672E+00
N    3.2822479064000070E+00    7.3950688105897591E+00    7.7730263074292454E+00
Ga    3.2830000197678251E+00    5.5507890423176427E+00    8.4283284007639576E+00
N    3.2829554180849159E+00    5.5513681026079800E+00    1.0403306414713144E+01
Ga    3.2847878037202141E+00    7.3931572838838191E+00    1.1052028647726321E+01
N    3.2874298899886312E+00    7.3755722027336308E+00    1.3044544353772896E+01
Ga    3.2794006590526434E+00    5.5596510123208711E+00    1.3841034301881464E+01
N    3.2819569247644149E+00    5.5627959159142435E+00    1.6059217815615359E+01
Ga    3.2911086468436617E+00    7.6205060380809657E+00    1.6491022809096599E+01
Ga    3.3358662315231857E+00    9.2880316912890777E+00    1.2974406109973255E+00
N    1.7723746598479986E+00    1.0124790587014175E+01    2.4849478936446587E+00
Ga    1.6719974742729757E+00    8.3183647833404457E+00    3.2602920194844960E+00
N    1.6627685236429246E+00    8.3231103761237613E+00    5.2124189704445394E+00
Ga    1.6537714554838769E+00    1.0204124453976586E+01    5.7703670453670481E+00
N    1.6657994545800565E+00    1.0192238648474166E+01    7.7705661877170868E+00
Ga    1.6896431330743991E+00    8.3412214849662458E+00    8.4216627703123912E+00
N    1.6875341749624402E+00    8.3425734182789917E+00    1.0411847268376041E+01
Ga    1.6630259955101165E+00    1.0200604393616105E+01    1.1051766101935661E+01
N    1.6481590656596563E+00    1.0212608427272453E+01    1.3044530347274266E+01
Ga    1.6886498209947398E+00    8.3445045201372263E+00    1.3608104889990102E+01
N    1.6687335955877722E+00    8.3305498531743858E+00    1.5564443821062287E+01
Ga    1.8658202564431501E+00    1.0089072761800550E+01    1.6487980214173078E+01
N    3.2968774918215518E+00    9.2716788845348113E+00    1.7640552841237074E+01
N    9.7225327237830470E+00    1.8314132244226085E+00    2.6108072379050116E+00
Ga    9.7161354841925469E+00    6.7814546555821961E-02    3.2386220799763592E+00
N    9.7129144076898317E+00   -2.5644251056838246E-02    5.2215974390851789E+00
Ga    9.7225422688103240E+00    1.8272848967763116E+00    5.8506882704068008E+00
N    9.7158153854650209E+00    1.8320193686123156E+00    7.8305274109518503E+00
Ga    9.7175394417657284E+00   -3.5449347939256040E-02    8.4131485102963843E+00
N    9.7161822136923686E+00   -3.3856640356872816E-02    1.0410348896884049E+01
Ga    9.7169305396632240E+00    1.8344364913528468E+00    1.1008812485735223E+01
N    9.7172097806932562E+00    1.8400973629145425E+00    1.2984817371586761E+01
Ga    9.7197045708243284E+00   -3.1817541415983260E-02    1.3610694361428603E+01
N    9.7194900135555873E+00    6.8340110768328275E-03    1.5569683024993868E+01
Ga    9.7240934507444283E+00    1.8402460723994685E+00    1.5848600477329189E+01
N    7.9999131029318571E+00    4.5556426896706839E+00    2.5206301286874564E+00
Ga    8.2179733650586062E+00    2.6959109188759651E+00    3.2861423306251556E+00
N    8.1083907158704349E+00    2.7609308689812604E+00    5.2459589660685362E+00
Ga    8.1318349852363223E+00    4.6331707955900958E+00    5.7855163377635854E+00
N    8.1172610840171000E+00    4.6249207097396283E+00    7.7828716538732037E+00
Ga    8.1009828497925529E+00    2.7652695876793025E+00    8.4190323135239087E+00
N    8.0970386587113481E+00    2.7695728744076802E+00    1.0415202528322784E+01
Ga    8.1229413574247431E+00    4.6291799473200141E+00    1.1050108521806601E+01
N    8.1438908791754177E+00    4.6434389081629037E+00    1.3048696472854797E+01
Ga    8.1005223425980581E+00    2.7740963854943654E+00    1.3598443956496245E+01
N    8.1195024682550638E+00    2.7694107191011703E+00    1.5578432184822374E+01
Ga    8.0010532412779511E+00    4.5618758772137751E+00    1.6421275407260488E+01
N    6.4932393993038167E+00    7.4049967226734195E+00    2.5953864469824071E+00
Ga    6.4925978574607424E+00    5.6684479062810196E+00    3.2803120742580654E+00
N    6.4992405505649113E+00    5.5492880227350589E+00    5.2416219876838346E+00
Ga    6.4920538402664327E+00    7.4091406031949170E+00    5.8520550365755453E+00
N    6.4987910861550899E+00    7.4049002609337027E+00    7.8281440928315149E+00
Ga    6.4992735888296096E+00    5.5382418807379263E+00    8.4207093088338851E+00
N    6.4997449674155705E+00    5.5372133261936822E+00    1.0415954107518289E+01
Ga    6.4984043241050742E+00    7.4080559843293941E+00    1.1008342484002149E+01
N    6.5027749952648248E+00    7.4075340044148792E+00    1.2983259788660545E+01
Ga    6.5040289782641025E+00    5.5408683659306481E+00    1.3598160018852541E+01
N    6.5087094544648210E+00    5.5600025634626986E+00    1.5578030911951458E+01
Ga    6.5093683696997271E+00    7.4142128448708071E+00    1.5846381731477347E+01
N    4.7948155704377511E+00    1.0133062158518019E+01    2.4967057006863618E+00
Ga    4.9661784751277658E+00    8.2863045111678719E+00    3.2388449549022913E+00
N    4.8896927420605119E+00    8.3325538718074874E+00    5.2202865613164384E+00
Ga    4.9169604571606982E+00    1.0205185869268394E+01    5.7649629892911118E+00
N    4.9019548006222662E+00    1.0195667653181758E+01    7.7707473284370625E+00
Ga    4.8811796214124152E+00    8.3419453745784011E+00    8.4135840471262089E+00
N    4.8810509180816553E+00    8.3423379632223114E+00    1.0409939769524382E+01
Ga    4.9063408818515173E+00    1.0200813996738701E+01    1.1053929864033286E+01
N    4.9268941779160897E+00    1.0212882274520732E+01    1.3048380628734526E+01
Ga    4.8840060089026425E+00    8.3458986785417597E+00    1.3610826934702523E+01
N    4.9175591176655500E+00    8.3247781568968335E+00    1.5569914295064132E+01
Ga    4.7306624681819169E+00    1.0098276679971342E+01    1.6488563584378610E+01
O   -6.4422793522487601E-02    4.1112481512420924E+00   -4.3217060727033729E-01
H   -2.9626461700246531E-01    5.9699549770871023E+00   -3.7914474694922212E-01
C    9.9162539724293686E-01    3.6612283886988526E+00   -1.3008977807097426E+00
H    1.9818649464596145E+00    3.6972283230892269E+00   -8.1408353972339387E-01
H    8.1019083400144376E-01    2.6319355392206147E+00   -1.6445317411157707E+00
H    1.0086431318743103E+00    4.3278471969066432E+00   -2.1741584046472995E+00
Ga    3.2550506455220587E+00    5.5390766373794760E+00    2.8265023275968182E+00
O   -1.7854147983056012E-01    6.9470537944913344E+00   -2.6464532383261297E-01
H    2.8214506419134935E-02    7.3139688117291515E+00    1.6347412844224118E+00
C    1.1159828833812098E+00    7.2591281312997236E+00   -8.0337186235018032E-01
H    1.4936938642507445E+00    8.1468349036259582E+00   -2.7680776243631344E-01
H    1.8382620900616473E+00    6.4495350637591713E+00   -6.1043719023487886E-01
H    1.0692790005286807E+00    7.4668014608658186E+00   -1.8836470188669932E+00
     &END COORD
     &KIND C
       BASIS_SET DZVP-MOLOPT-SR-GTH-q4
       POTENTIAL GTH-PBE-q4
       &POTENTIAL
 2 2
  0.3384712400000000E+00 2 -0.8803673979999999E+01  0.1339210850000000E+01
 2
  0.3025757500000000E+00 1  0.9622486650000001E+01
  0.2915069400000000E+00 0
         # Potential name:  GTH-PBE-Q4  for symbol:  C
         # Potential read from the potential filename: GTH_POTENTIALS
       &END POTENTIAL
     &END KIND
     &KIND O
       BASIS_SET DZVP-MOLOPT-SR-GTH-q6
       POTENTIAL GTH-PBE-q6
       &POTENTIAL
 2 4
  0.2445543000000000E+00 2 -0.1666721480000000E+02  0.2487311320000000E+01
 2
  0.2209559200000000E+00 1  0.1833745811000000E+02
  0.2113324700000000E+00 0
         # Potential name:  GTH-PBE-Q6  for symbol:  O
         # Potential read from the potential filename: GTH_POTENTIALS
       &END POTENTIAL
     &END KIND
     &KIND H
       BASIS_SET DZVP-MOLOPT-SR-GTH-q1
       POTENTIAL GTH-PBE-q1
       &POTENTIAL
 1
  0.2000000000000000E+00 2 -0.4178900440000000E+01  0.7244633100000000E+00
 0
         # Potential name:  GTH-PBE-Q1  for symbol:  H
         # Potential read from the potential filename: GTH_POTENTIALS
       &END POTENTIAL
     &END KIND
     &KIND N
       BASIS_SET DZVP-MOLOPT-SR-GTH
       POTENTIAL GTH-PBE-q5
       &POTENTIAL
 2 3
  0.2837905100000000E+00 2 -0.1241522559000000E+02  0.1868095920000000E+01
 2
  0.2554050000000000E+00 1  0.1363026257000000E+02
  0.2454945300000000E+00 0
         # Potential name:  GTH-PBE-Q5  for symbol:  N
         # Potential read from the potential filename: GTH_POTENTIALS
       &END POTENTIAL
     &END KIND
     &KIND Ga
       BASIS_SET DZVP-MOLOPT-SR-GTH
       POTENTIAL GTH-PBE-q13
       &POTENTIAL
 2 1 10
  0.4900000000000000E+00 0
 3
  0.4167772300000000E+00 3  0.1047568975000000E+02 -0.4921768140000000E+01  0.8707055900000000E+00
  0.7770178090000000E+01 -0.2248152160000000E+01
  0.1784415450000000E+01
  0.5696265200000000E+00 2  0.1777985340000000E+01  0.1958597600000000E+00
 -0.2317443900000000E+00
  0.2381265000000000E+00 1 -0.1624868022000000E+02
         # Potential name:  GTH-PBE-Q13  for symbol:  GA
         # Potential read from the potential filename: GTH_POTENTIALS
       &END POTENTIAL
     &END KIND
     &TOPOLOGY
       NUMBER_OF_ATOMS  212
       MULTIPLE_UNIT_CELL  1 1 1
     &END TOPOLOGY
   &END SUBSYS
 &END FORCE_EVAL
