 # Version information for this restart file 
 # current date 2019-06-30 08:30:08.026
 # current working dir /scratch/rzk/rzk/GaN-carbene/443-adatoms-both-2x2/04-2Methanol/01-CombineAsIs
 # Program compiled at                              Sun Apr  7 00:48:11 EDT 2019
 # Program compiled on                          beluga2.int.ets1.calculquebec.ca
 # Program compiled for                        Beluga-Linux-x86-64-intel-openmpi
 # Source code revision number                                         svn:18619
 &GLOBAL
   PRINT_LEVEL  MEDIUM
   PROJECT_NAME TEST
   RUN_TYPE  GEO_OPT
 &END GLOBAL
 &MOTION
   &GEO_OPT
     MAX_ITER  500
     STEP_START_VAL  243
   &END GEO_OPT
 &END MOTION
 &FORCE_EVAL
   METHOD  QS
   STRESS_TENSOR  ANALYTICAL
   &DFT
     BASIS_SET_FILE_NAME BASIS_MOLOPT
     POTENTIAL_FILE_NAME GTH_POTENTIALS
     UKS  T
     SURFACE_DIPOLE_CORRECTION  T
     SURF_DIP_DIR  Z
     &SCF
       MAX_SCF  80
       EPS_SCF     5.0000000000000004E-06
       &OT  T
         PRECONDITIONER  FULL_ALL
       &END OT
       &OUTER_SCF  T
         OPTIMIZER  NONE
         EPS_SCF     5.0000000000000004E-06
         MAX_SCF  4
       &END OUTER_SCF
       &PRINT
         &RESTART  OFF
           BACKUP_COPIES  1
           &EACH
             JUST_ENERGY  0
             QS_SCF  0
             MD  20
           &END EACH
         &END RESTART
       &END PRINT
     &END SCF
     &QS
       EPS_DEFAULT     1.0000000000000000E-14
       METHOD  GPW
     &END QS
     &MGRID
       NGRIDS  5
       CUTOFF     1.2000000000000000E+03
     &END MGRID
     &XC
       DENSITY_CUTOFF     1.0000000000000000E-10
       GRADIENT_CUTOFF     1.0000000000000000E-10
       TAU_CUTOFF     1.0000000000000000E-10
       &XC_FUNCTIONAL  NO_SHORTCUT
         &PBE  T
         &END PBE
       &END XC_FUNCTIONAL
       &VDW_POTENTIAL
         POTENTIAL_TYPE  PAIR_POTENTIAL
         &PAIR_POTENTIAL
           R_CUTOFF     1.0000000000000005E+01
           TYPE  DFTD3
           PARAMETER_FILE_NAME dftd3.dat
           REFERENCE_FUNCTIONAL PBE
           EPS_CN     9.9999999999999995E-07
           CALCULATE_C9_TERM  T
           REFERENCE_C9_TERM  T
           LONG_RANGE_CORRECTION  F
           VERBOSE_OUTPUT  F
         &END PAIR_POTENTIAL
       &END VDW_POTENTIAL
     &END XC
   &END DFT
   &SUBSYS
     &CELL
       A     1.2864472766435110E+01    0.0000000000000000E+00    0.0000000000000000E+00
       B    -6.4322363581020028E+00    1.1140960178524475E+01    0.0000000000000000E+00
       C     0.0000000000000000E+00    0.0000000000000000E+00    3.2000000000000000E+01
       MULTIPLE_UNIT_CELL  1 1 1
       &CELL_REF
         A     1.2982353780853531E+01    0.0000000000000000E+00    0.0000000000000000E+00
         B    -6.4911768904267628E+00    1.1243048175136114E+01    0.0000000000000000E+00
         C     0.0000000000000000E+00    0.0000000000000000E+00    3.2000000000000000E+01
         MULTIPLE_UNIT_CELL  1 1 1
       &END CELL_REF
     &END CELL
     &COORD
N    7.7801987508858597E-02    1.9773613737993034E+00    2.4893662059612116E+00
Ga    6.2656748765353959E-02    5.9114252174009329E-03    2.8204925237318532E+00
N    8.2678831795161736E-02   -2.5500094894005738E-02    5.0137416436637210E+00
Ga    8.0856417565395758E-02    1.7984821768982300E+00    5.7984187993105234E+00
N    7.9944968215926823E-02    1.8147058945276504E+00    7.8009654993871198E+00
Ga    7.7463490292470280E-02   -3.0194939177223101E-02    8.4434473201982634E+00
N    7.9087981115901110E-02   -3.1027986078094538E-02    1.0420170183444611E+01
Ga    7.9181412128249473E-02    1.8082540397356639E+00    1.1071696896414698E+01
N    7.9554820899228870E-02    1.7903904810985134E+00    1.3066088959271452E+01
Ga    7.9739805594346888E-02   -2.9547575187175330E-02    1.3877242241531230E+01
N    7.8688670272067746E-02   -2.9714955652528033E-02    1.6068559916068622E+01
Ga    8.0132081027155036E-02    2.0179849724406029E+00    1.6495147582800271E+01
Ga    4.3953544325404159E-02    3.6853176652707522E+00    1.3667948892309880E+00
N   -1.4092183446987727E+00    4.5478959211898422E+00    2.5295514769140253E+00
Ga   -1.6016862740630726E+00    2.7035685581279152E+00    3.2804325950790254E+00
N   -1.5296085542224915E+00    2.7536188809915099E+00    5.2580519396619998E+00
Ga   -1.5588576226044255E+00    4.6189892045706866E+00    5.8078121814192940E+00
N   -1.5389933754915721E+00    4.6183540182536742E+00    7.8033157418234520E+00
Ga   -1.5191607346905300E+00    2.7574923527935455E+00    8.4355921558839952E+00
N   -1.5175131132396040E+00    2.7608293460451252E+00    1.0432425810222167E+01
Ga   -1.5421944081139289E+00    4.6189541043479752E+00    1.1070273138297399E+01
N   -1.5581403641633227E+00    4.6296296222235398E+00    1.3062599948310977E+01
Ga   -1.5169864476139789E+00    2.7619626977502114E+00    1.3622097836141064E+01
N   -1.5504672788586515E+00    2.7503902391314154E+00    1.5581624007277302E+01
Ga   -1.3484179703937818E+00    4.5121100026731842E+00    1.6496686882943507E+01
N    8.0117179753821530E-02    3.6744230988432354E+00    1.7642321262735166E+01
N   -3.1314813641919259E+00    7.5191338541554407E+00    2.5321451101571455E+00
Ga   -3.1103908744665567E+00    5.5154952734943929E+00    2.8528619476339383E+00
N   -3.1368378530331671E+00    5.5405227194307534E+00    5.0220671193750945E+00
Ga   -3.1436928325492559E+00    7.3605429839737972E+00    5.8080421081837690E+00
N   -3.1358473482096527E+00    7.3863681519456836E+00    7.7998925316275374E+00
Ga   -3.1364030456714707E+00    5.5395953028643437E+00    8.4487053002297632E+00
N   -3.1362174154738018E+00    5.5411412838244400E+00    1.0422486497550816E+01
Ga   -3.1375295166408264E+00    7.3813337824982650E+00    1.1070896631315524E+01
N   -3.1360882283529583E+00    7.3623107433901112E+00    1.3062095238723710E+01
Ga   -3.1259992009832231E+00    5.5462764589897482E+00    1.3860945888882183E+01
N   -3.1246438116770796E+00    5.5469488343755549E+00    1.6068253388337276E+01
Ga   -3.1333961304844240E+00    7.6016607903624527E+00    1.6495301794769720E+01
Ga   -3.1497043961022539E+00    9.2527729960697549E+00    1.5004935507474033E+00
N   -4.6380520465922919E+00    1.0121198518050154E+01    2.5175323836958015E+00
Ga   -4.8569922586415153E+00    8.2707656216881276E+00    3.2910973702188646E+00
N   -4.7436255657198707E+00    8.3263060978233128E+00    5.2519785292630754E+00
Ga   -4.7768596859704804E+00    1.0201508118755486E+01    5.7992210115930884E+00
N   -4.7545148618791035E+00    1.0187574843591339E+01    7.7977431468618352E+00
Ga   -4.7372695855238947E+00    8.3323908232242072E+00    8.4372079589563391E+00
N   -4.7340065812008634E+00    8.3325192039501399E+00    1.0431549771161327E+01
Ga   -4.7609252783735965E+00    1.0191705663306612E+01    1.1072433862170547E+01
N   -4.7764102989428823E+00    1.0200939378945405E+01    1.3065875164625956E+01
Ga   -4.7328000933756256E+00    8.3321789374265069E+00    1.3623307214254570E+01
N   -4.7601219944174140E+00    8.3085031801289375E+00    1.5582558723215353E+01
Ga   -4.5809699015272685E+00    1.0087947325009862E+01    1.6494072504745013E+01
N   -3.1445494282177120E+00    9.2596991771415542E+00    1.7637227756245910E+01
N    3.2843769044286404E+00    1.8313464124444292E+00    2.6169426328374965E+00
Ga    3.2866001612587050E+00    9.2666775539959570E-02    3.2897600845213271E+00
N    3.2965235381997013E+00   -3.3555346025322320E-02    5.2517393763041893E+00
Ga    3.2871068367516676E+00    1.8285604495968653E+00    5.8739683333259975E+00
N    3.2955633109272569E+00    1.8252130408087377E+00    7.8516278807180599E+00
Ga    3.2930974865672851E+00   -4.1176869577011915E-02    8.4396969079556570E+00
N    3.2950306800632081E+00   -4.2711362104953479E-02    1.0433437251872931E+01
Ga    3.2949223037411186E+00    1.8266997879034057E+00    1.1028812184136530E+01
N    3.2981738976718824E+00    1.8279755844200245E+00    1.3002036057499419E+01
Ga    3.2962148313519952E+00   -4.3751551308860111E-02    1.3623624006704439E+01
N    3.3028448291706658E+00   -7.5413215116854476E-03    1.5583056620714157E+01
Ga    3.2942274418455582E+00    1.8257136986413394E+00    1.5862338105507874E+01
N    1.5682078374458597E+00    4.5489168104371718E+00    2.5169493667657767E+00
Ga    1.7554293800036536E+00    2.7170871821416003E+00    3.2661643279137746E+00
N    1.6883036626921060E+00    2.7538440447081247E+00    5.2505809362690474E+00
Ga    1.7196883281463327E+00    4.6184578718053757E+00    5.8084546987222021E+00
N    1.6969003960708726E+00    4.6171909485317100E+00    7.8049856040834849E+00
Ga    1.6764460729434045E+00    2.7585132141420736E+00    8.4397660648425461E+00
N    1.6769317226974501E+00    2.7606301609156079E+00    1.0435166050664401E+01
Ga    1.7017684157322370E+00    4.6197355162522156E+00    1.1070798262751730E+01
N    1.7177840418380841E+00    4.6299737703242974E+00    1.3062991586081710E+01
Ga    1.6758826701693565E+00    2.7624825077414878E+00    1.3622373948891537E+01
N    1.7103753903802499E+00    2.7504138754546239E+00    1.5581926760482292E+01
Ga    1.5091942850299098E+00    4.5120717528104199E+00    1.6496895215359711E+01
N    8.1331814795267382E-02    7.3793517451906974E+00    2.6962289999492879E+00
Ga    8.7963722752500209E-02    5.5381725367918380E+00    3.3375766559897970E+00
N    7.9488482082165746E-02    5.5525953283422123E+00    5.2744431967572032E+00
Ga    8.7242758148568772E-02    7.3942386492464891E+00    5.9064584420579136E+00
N    8.0019965904597784E-02    7.3981242616961715E+00    7.8656956704073693E+00
Ga    7.9511278650295308E-02    5.5248537245186791E+00    8.4451593907786862E+00
N    7.9482361013084799E-02    5.5280233101810614E+00    1.0435490261468624E+01
Ga    8.0405373784175949E-02    7.3968602497330878E+00    1.1029276255687009E+01
N    8.0088783234351174E-02    7.3976868860671710E+00    1.2997747181856237E+01
Ga    7.9903810231043551E-02    5.5285593569566602E+00    1.3621846527921496E+01
N    8.0169231101074989E-02    5.5603798599209870E+00    1.5580247793428560E+01
Ga    8.0230958045880776E-02    7.3978030559051700E+00    1.5860684459839193E+01
N   -1.6332694535632917E+00    1.0109610592353125E+01    2.5248399501868795E+00
Ga   -1.4872382731590454E+00    8.2964429347299262E+00    3.3365842178385789E+00
N   -1.5169214724879896E+00    8.3179156440762636E+00    5.2630961625668826E+00
Ga   -1.5030960947637719E+00    1.0203828331454941E+01    5.8105341938676922E+00
N   -1.5198516335073877E+00    1.0185447075167611E+01    7.8018799718629817E+00
Ga   -1.5405718888832134E+00    8.3316116601957919E+00    8.4470794818636605E+00
N   -1.5395723802596009E+00    8.3316292001576020E+00    1.0435094650511887E+01
Ga   -1.5150395698440671E+00    1.0190776385485758E+01    1.1070737766745419E+01
N   -1.4974215984038279E+00    1.0199709049146330E+01    1.3062293157583007E+01
Ga   -1.5385564293316563E+00    8.3315374087596918E+00    1.3623085867793533E+01
N   -1.5106545982770705E+00    8.3155126051771564E+00    1.5580753977130454E+01
Ga   -1.7031170007028718E+00    1.0078202184768461E+01    1.6495140542843725E+01
N    6.5095325966025497E+00    1.9497177210472616E+00    2.5387332241516352E+00
Ga    6.5267442281804602E+00   -3.1987996457312776E-02    2.8622123364596237E+00
N    6.5069084910377626E+00   -3.0012927970374158E-02    5.0248080347651536E+00
Ga    6.5099493710172753E+00    1.7983631279499774E+00    5.8055643936049783E+00
N    6.5108574647190807E+00    1.8140984778510016E+00    7.8023346302328287E+00
Ga    6.5133954330667461E+00   -3.1772938958694284E-02    8.4457711207952340E+00
N    6.5120272759057238E+00   -3.1828981923164162E-02    1.0420412487064853E+01
Ga    6.5123661130750605E+00    1.8082561867042695E+00    1.1068068660807372E+01
N    6.5122461627553214E+00    1.7878588342088300E+00    1.3068922783853601E+01
Ga    6.5120516356595965E+00   -4.1669840145104310E-02    1.3862440606206357E+01
N    6.5127593826672019E+00   -4.3606151932486958E-02    1.6069279769323483E+01
Ga    6.5114334622016594E+00    1.9597443095064859E+00    1.6433297310806708E+01
Ga    6.5157509536417413E+00    3.6820380949237204E+00    1.5372781219707541E+00
N    5.0088926826885558E+00    4.5481771799014785E+00    2.5314294647435798E+00
Ga    4.7907298427981813E+00    2.6970243356480315E+00    3.2985445796202248E+00
N    4.9011104840475408E+00    2.7539806803238802E+00    5.2589945833750731E+00
Ga    4.8756264318090494E+00    4.6272469281502682E+00    5.8050829304922669E+00
N    4.8938758218057732E+00    4.6174318384925650E+00    7.8026745026919864E+00
Ga    4.9121554375828707E+00    2.7598747676500368E+00    8.4391264950342517E+00
N    4.9146628848050238E+00    2.7616533936149938E+00    1.0435248375860105E+01
Ga    4.8877033475763287E+00    4.6220136796103999E+00    1.1069337502943146E+01
N    4.8703361621903998E+00    4.6318112207778244E+00    1.3069753692033570E+01
Ga    4.9144470666578002E+00    2.7613261667499382E+00    1.3614085811379590E+01
N    4.8981549570494529E+00    2.7519888840227305E+00    1.5592817817186541E+01
Ga    5.0181568479870355E+00    4.5459703909153095E+00    1.6433975467162711E+01
N    6.5122092851154587E+00    3.6847301935731411E+00    1.7550165200857531E+01
N    3.2922479867117724E+00    7.5108385044565118E+00    2.5023224825280086E+00
N    3.2953057311037086E+00    5.5372193503289449E+00    5.0286819392632731E+00
Ga    3.2994903343225697E+00    7.3649174034734921E+00    5.7958611378197427E+00
N    3.2932731414224379E+00    7.3875057078772626E+00    7.7947609422779296E+00
Ga    3.2950418910644608E+00    5.5418851174833224E+00    8.4464980050747656E+00
N    3.2950991950301884E+00    5.5416700947569231E+00    1.0422094667144043E+01
Ga    3.2971016934546844E+00    7.3816655371627178E+00    1.1070365589193978E+01
N    3.2957660128618396E+00    7.3623586021606746E+00    1.3061966829745163E+01
Ga    3.2853405161220617E+00    5.5465225657052741E+00    1.3860971555513922E+01
N    3.2842404213075551E+00    5.5477928595939590E+00    1.6067781592973226E+01
Ga    3.2929669469936251E+00    7.6031396934783304E+00    1.6497728534080927E+01
Ga    3.3305995794055794E+00    9.2749654344359804E+00    1.3246834367136060E+00
N    1.7844513024055768E+00    1.0117485829359209E+01    2.5063182496940364E+00
Ga    1.6803628894651219E+00    8.3128401256340272E+00    3.2880410900818893E+00
N    1.6736052695009236E+00    8.3167466510941424E+00    5.2372747872486274E+00
Ga    1.6642076806169959E+00    1.0197988907047675E+01    5.7962881366289363E+00
N    1.6770772835108463E+00    1.0184229145257833E+01    7.7943507489403370E+00
Ga    1.7007737619386127E+00    8.3326195633588771E+00    8.4453651013479476E+00
N    1.6991327022907061E+00    8.3320813068123201E+00    1.0434890588592836E+01
Ga    1.6753195251771129E+00    1.0191060109994188E+01    1.1069867295489040E+01
N    1.6573421655184197E+00    1.0199865986919693E+01    1.3061912234574631E+01
Ga    1.6985790069209066E+00    8.3316188139307865E+00    1.3622464092227233E+01
N    1.6711120471756507E+00    8.3155456829257854E+00    1.5580097005658354E+01
Ga    1.8645247777086507E+00    1.0076413047571151E+01    1.6497284338984894E+01
N    3.3046753299702458E+00    9.2596720679106799E+00    1.7638669988570253E+01
N    9.7371751515303728E+00    1.8251123508773786E+00    2.6289980075673811E+00
Ga    9.7311199500390622E+00    6.1120859217898400E-02    3.2566963323218743E+00
N    9.7242548904589334E+00   -3.4469244597428728E-02    5.2395875737277153E+00
Ga    9.7332478697403921E+00    1.8194258947923814E+00    5.8672231683045659E+00
N    9.7268484314458572E+00    1.8245988869035858E+00    7.8479495803054462E+00
Ga    9.7297510591732603E+00   -4.2578839546838033E-02    8.4317876293260703E+00
N    9.7283300793567218E+00   -4.3274415842746411E-02    1.0429441492301708E+01
Ga    9.7291850367338846E+00    1.8257704328093289E+00    1.1025133422866860E+01
N    9.7257788708116504E+00    1.8274288319031258E+00    1.2999857023116590E+01
Ga    9.7280806466307759E+00   -4.3735236412866536E-02    1.3623182039218596E+01
N    9.7207894811441786E+00   -7.8788086097227577E-03    1.5582490184054491E+01
Ga    9.7304397979112434E+00    1.8255035851164676E+00    1.5861785007507773E+01
N    8.0139094358046297E+00    4.5496227378429435E+00    2.5401040938938428E+00
Ga    8.2313949578234578E+00    2.6899328015910378E+00    3.3010266119320573E+00
N    8.1187651195389385E+00    2.7538768486731238E+00    5.2608736386357080E+00
Ga    8.1441091194561235E+00    4.6263246714833679E+00    5.8027051199198363E+00
N    8.1300854342254389E+00    4.6184449917905184E+00    7.8001598453730381E+00
Ga    8.1117093790891648E+00    2.7593828337105784E+00    8.4355533707890338E+00
N    8.1089470809779485E+00    2.7616502849983831E+00    1.0432915024139854E+01
Ga    8.1352959051285456E+00    4.6209790419229479E+00    1.1069110589943094E+01
N    8.1535064271663380E+00    4.6313658726003473E+00    1.3069525728859238E+01
Ga    8.1100412050568256E+00    2.7610311258047231E+00    1.3613857301958946E+01
N    8.1259083505021525E+00    2.7512556245163537E+00    1.5592640535777658E+01
Ga    8.0048923767873887E+00    4.5461579974579838E+00    1.6433685369870425E+01
N    6.5063403382559031E+00    7.3986769124691927E+00    2.6104903387802536E+00
Ga    6.5055669748309493E+00    5.6627657008031678E+00    3.2964032086460584E+00
N    6.5104684420434253E+00    5.5414827769575830E+00    5.2567944575057766E+00
Ga    6.5037188703635787E+00    7.4020390898315389E+00    5.8695663931867141E+00
N    6.5109647135684998E+00    7.3976147077178620E+00    7.8468760057335469E+00
Ga    6.5117036904282868E+00    5.5301642387606185E+00    8.4371173212247097E+00
N    6.5118350540208088E+00    5.5282506818043036E+00    1.0433589693865313E+01
Ga    6.5112640375861384E+00    7.3987095771075859E+00    1.1026033820374810E+01
N    6.5114845983218448E+00    7.3953187676675460E+00    1.2999711609908179E+01
Ga    6.5120535939463542E+00    5.5290168029383144E+00    1.3613916460942241E+01
N    6.5113771677138415E+00    5.5477813456007423E+00    1.5593091919436661E+01
Ga    6.5121731867991501E+00    7.4001827471179897E+00    1.5863778187832628E+01
N    4.8036791718494749E+00    1.0124908175461751E+01    2.5113586061851416E+00
Ga    4.9795322362885095E+00    8.2811092264651514E+00    3.2533156024288701E+00
N    4.9009936841268678E+00    8.3247729336350300E+00    5.2363933346568237E+00
Ga    4.9299323907762336E+00    1.0197893722909251E+01    5.7840662797551250E+00
N    4.9138954269036592E+00    1.0187598453926912E+01    7.7902077251498563E+00
Ga    4.8934250620968758E+00    8.3337776422190259E+00    8.4329484751152428E+00
N    4.8930230148835658E+00    8.3324839781618483E+00    1.0429970793899997E+01
Ga    4.9185926347094497E+00    1.0191240993986897E+01    1.1071115390473645E+01
N    4.9356244130913174E+00    1.0200976340686113E+01    1.3065285197270866E+01
Ga    4.8917257707928803E+00    8.3327129575799130E+00    1.3623141902282198E+01
N    4.9193530164563448E+00    8.3080088747034608E+00    1.5582306349672081E+01
Ga    4.7389023403973116E+00    1.0086622713089071E+01    1.6496103324714923E+01
O    9.8076116736306677E-03    4.0873729980057218E+00   -4.3014516633931954E-01
H   -1.8869061056939476E-01    5.8753813626171612E+00   -3.4184438916792931E-01
C    1.1259508064112635E+00    3.6362652895098360E+00   -1.2207189488312244E+00
H    2.0936886708628530E+00    3.9393963962543346E+00   -7.8987167247475476E-01
H    1.1190357125952106E+00    2.5407167250721603E+00   -1.3265407196147889E+00
H    1.0301803451246878E+00    4.0801265170674776E+00   -2.2215660831803352E+00
Ga    3.2652706738411972E+00    5.5331357505941874E+00    2.8506190025756082E+00
O   -1.9170781554316446E-01    6.8609150586617096E+00   -2.0015867556112071E-01
H    3.1380560340086315E-02    7.3090521983757286E+00    1.6587689241536738E+00
C    9.3932604942451270E-01    7.3926282421836573E+00   -9.0315486868793915E-01
H    9.5427212072325085E-01    8.4776821326190621E+00   -7.3035166279177943E-01
H    1.8899880147154826E+00    6.9694147323777100E+00   -5.3866240008405031E-01
H    8.6471786503994286E-01    7.2176252384602275E+00   -1.9874222471077299E+00
     &END COORD
     &KIND C
       BASIS_SET DZVP-MOLOPT-SR-GTH-q4
       POTENTIAL GTH-PBE-q4
       &POTENTIAL
2 2
0.3384712400000000E+00 2 -0.8803673979999999E+01  0.1339210850000000E+01
2
0.3025757500000000E+00 1  0.9622486650000001E+01
0.2915069400000000E+00 0
       &END POTENTIAL
     &END KIND
     &KIND O
       BASIS_SET DZVP-MOLOPT-SR-GTH-q6
       POTENTIAL GTH-PBE-q6
       &POTENTIAL
2 4
0.2445543000000000E+00 2 -0.1666721480000000E+02  0.2487311320000000E+01
2
0.2209559200000000E+00 1  0.1833745811000000E+02
0.2113324700000000E+00 0
       &END POTENTIAL
     &END KIND
     &KIND H
       BASIS_SET DZVP-MOLOPT-SR-GTH-q1
       POTENTIAL GTH-PBE-q1
       &POTENTIAL
1
0.2000000000000000E+00 2 -0.4178900440000000E+01  0.7244633100000000E+00
0
       &END POTENTIAL
     &END KIND
     &KIND N
       BASIS_SET DZVP-MOLOPT-SR-GTH
       POTENTIAL GTH-PBE-q5
       &POTENTIAL
2 3
0.2837905100000000E+00 2 -0.1241522559000000E+02  0.1868095920000000E+01
2
0.2554050000000000E+00 1  0.1363026257000000E+02
0.2454945300000000E+00 0
       &END POTENTIAL
     &END KIND
     &KIND Ga
       BASIS_SET DZVP-MOLOPT-SR-GTH
       POTENTIAL GTH-PBE-q13
       &POTENTIAL
2 1 10
0.4900000000000000E+00 0
3
0.4167772300000000E+00 3  0.1047568975000000E+02 -0.4921768140000000E+01  0.8707055900000000E+00
0.7770178090000000E+01 -0.2248152160000000E+01
0.1784415450000000E+01
0.5696265200000000E+00 2  0.1777985340000000E+01  0.1958597600000000E+00
-0.2317443900000000E+00
0.2381265000000000E+00 1 -0.1624868022000000E+02
       &END POTENTIAL
     &END KIND
     &TOPOLOGY
       NUMBER_OF_ATOMS  212
       MULTIPLE_UNIT_CELL  1 1 1
     &END TOPOLOGY
   &END SUBSYS
 &END FORCE_EVAL
