 # Version information for this restart file 
 # current date 2019-06-28 10:59:28.080
 # current working dir /scratch/rzk/rzk/GaN-carbene/443-adatoms-both-2x2/04-2Methanol/01-CombineAsIs
 # Program compiled at                              Sun Apr  7 00:48:11 EDT 2019
 # Program compiled on                          beluga2.int.ets1.calculquebec.ca
 # Program compiled for                        Beluga-Linux-x86-64-intel-openmpi
 # Source code revision number                                         svn:18619
 &GLOBAL
   PRINT_LEVEL  MEDIUM
   PROJECT_NAME TEST
   RUN_TYPE  GEO_OPT
 &END GLOBAL
 &MOTION
   &GEO_OPT
     MAX_ITER  500
     STEP_START_VAL  105
   &END GEO_OPT
 &END MOTION
 &FORCE_EVAL
   METHOD  QS
   STRESS_TENSOR  ANALYTICAL
   &DFT
     BASIS_SET_FILE_NAME BASIS_MOLOPT
     POTENTIAL_FILE_NAME GTH_POTENTIALS
     UKS  T
     SURFACE_DIPOLE_CORRECTION  T
     SURF_DIP_DIR  Z
     &SCF
       MAX_SCF  80
       EPS_SCF     5.0000000000000004E-06
       &OT  T
         PRECONDITIONER  FULL_ALL
       &END OT
       &OUTER_SCF  T
         OPTIMIZER  NONE
         EPS_SCF     5.0000000000000004E-06
         MAX_SCF  4
       &END OUTER_SCF
       &PRINT
         &RESTART  OFF
           BACKUP_COPIES  1
           &EACH
             JUST_ENERGY  0
             QS_SCF  0
             MD  20
           &END EACH
         &END RESTART
       &END PRINT
     &END SCF
     &QS
       EPS_DEFAULT     1.0000000000000000E-14
       METHOD  GPW
     &END QS
     &MGRID
       NGRIDS  5
       CUTOFF     1.2000000000000000E+03
     &END MGRID
     &XC
       DENSITY_CUTOFF     1.0000000000000000E-10
       GRADIENT_CUTOFF     1.0000000000000000E-10
       TAU_CUTOFF     1.0000000000000000E-10
       &XC_FUNCTIONAL  NO_SHORTCUT
         &PBE  T
         &END PBE
       &END XC_FUNCTIONAL
       &VDW_POTENTIAL
         POTENTIAL_TYPE  PAIR_POTENTIAL
         &PAIR_POTENTIAL
           R_CUTOFF     1.0000000000000004E+01
           TYPE  DFTD3
           PARAMETER_FILE_NAME dftd3.dat
           REFERENCE_FUNCTIONAL PBE
           EPS_CN     9.9999999999999995E-07
           CALCULATE_C9_TERM  T
           REFERENCE_C9_TERM  T
           LONG_RANGE_CORRECTION  F
           VERBOSE_OUTPUT  F
         &END PAIR_POTENTIAL
       &END VDW_POTENTIAL
     &END XC
   &END DFT
   &SUBSYS
     &CELL
       A     1.2864472766435110E+01    0.0000000000000000E+00    0.0000000000000000E+00
       B    -6.4322363581020028E+00    1.1140960178524473E+01    0.0000000000000000E+00
       C     0.0000000000000000E+00    0.0000000000000000E+00    3.2000000000000000E+01
       MULTIPLE_UNIT_CELL  1 1 1
       &CELL_REF
         A     1.2982353780853531E+01    0.0000000000000000E+00    0.0000000000000000E+00
         B    -6.4911768904267628E+00    1.1243048175136114E+01    0.0000000000000000E+00
         C     0.0000000000000000E+00    0.0000000000000000E+00    3.2000000000000000E+01
         MULTIPLE_UNIT_CELL  1 1 1
       &END CELL_REF
     &END CELL
     &COORD
N    6.7175461357084687E-02    1.9840612600601431E+00    2.4781835033063007E+00
Ga    4.9634313768977742E-02    1.4162154610188400E-02    2.8149625019172744E+00
N    7.1683233686665654E-02   -1.8183564923812113E-02    4.9984131513447947E+00
Ga    6.9421064930594981E-02    1.8071549712710790E+00    5.7805572654396293E+00
N    6.8015652954068626E-02    1.8226547566572593E+00    7.7832835193772718E+00
Ga    6.4571668495102541E-02   -2.2233694383537346E-02    8.4248718271255001E+00
N    6.6007123785571456E-02   -2.1647322329501412E-02    1.0401843001918646E+01
Ga    6.6899452279565647E-02    1.8171559621028481E+00    1.1055878909378903E+01
N    7.1415133919618873E-02    1.8006076128971151E+00    1.3051571861781163E+01
Ga    6.9560169667410673E-02   -1.9078466910231195E-02    1.3864152762177207E+01
N    7.5529993868871520E-02   -1.5550333295356003E-02    1.6056071068374319E+01
Ga    7.6948081931412907E-02    2.0308692238780437E+00    1.6477337009474777E+01
Ga    3.4903774998311862E-02    3.6852320682564259E+00    1.3520408895709743E+00
N   -1.4226844226469826E+00    4.5558390974534531E+00    2.5158001963213814E+00
Ga   -1.6169741938422602E+00    2.7119183156534223E+00    3.2637087583587339E+00
N   -1.5416798676581935E+00    2.7606269702908333E+00    5.2419016682178441E+00
Ga   -1.5695065947121682E+00    4.6264618248580263E+00    5.7874404818804077E+00
N   -1.5508845254350774E+00    4.6256205174933100E+00    7.7840771959915473E+00
Ga   -1.5310708789610821E+00    2.7649259701690365E+00    8.4184749258708518E+00
N   -1.5300634717937951E+00    2.7694715008378759E+00    1.0416003164561685E+01
Ga   -1.5541873571606313E+00    4.6282264872340138E+00    1.1052045515884087E+01
N   -1.5665393965570147E+00    4.6420915832679936E+00    1.3045995146001916E+01
Ga   -1.5249860746122701E+00    2.7738143908965682E+00    1.3607531948496190E+01
N   -1.5565192917697337E+00    2.7629940997010243E+00    1.5567678022034016E+01
Ga   -1.3522788703021689E+00    4.5251735848648833E+00    1.6477586004058111E+01
N    7.6156416265539859E-02    3.6883805544438055E+00    1.7616788142762257E+01
N   -3.1448589978190666E+00    7.5257031584983833E+00    2.5086315253381621E+00
Ga   -3.1232688446192278E+00    5.5221842403132504E+00    2.8340039828390986E+00
N   -3.1487872823992471E+00    5.5487042434390865E+00    5.0059813613871933E+00
Ga   -3.1536754000580931E+00    7.3690218534116010E+00    5.7864515504674650E+00
N   -3.1479877556380642E+00    7.3941108279646537E+00    7.7785575735804002E+00
Ga   -3.1482590585818313E+00    5.5474829336063047E+00    8.4294574737407828E+00
N   -3.1488177804568012E+00    5.5492298035015120E+00    1.0403709530181992E+01
Ga   -3.1497900895545792E+00    7.3903700600796460E+00    1.1050478535573093E+01
N   -3.1440498374033301E+00    7.3735881851118670E+00    1.3043626122414279E+01
Ga   -3.1352715314780890E+00    5.5572448569367197E+00    1.3842752383022153E+01
N   -3.1292547837536762E+00    5.5603750585280594E+00    1.6053680235910708E+01
Ga   -3.1371935602474905E+00    7.6139128022783291E+00    1.6475211170857261E+01
Ga   -3.1658625000893701E+00    9.2677109535879154E+00    1.4830596511258483E+00
N   -4.6520188643362914E+00    1.0132111379598664E+01    2.5040807728297558E+00
Ga   -4.8691285952279406E+00    8.2792205671704000E+00    3.2723429367193715E+00
N   -4.7545038747232953E+00    8.3342646749931202E+00    5.2333345236847348E+00
Ga   -4.7869208504865552E+00    1.0208666007209210E+01    5.7807666096129067E+00
N   -4.7669179131353641E+00    1.0195584929866529E+01    7.7787877090673749E+00
Ga   -4.7502422680756835E+00    8.3400500340486392E+00    8.4174734574191437E+00
N   -4.7473599350543489E+00    8.3404540302897203E+00    1.0412938121019270E+01
Ga   -4.7739300152619979E+00    1.0200031607830265E+01    1.1053145382276650E+01
N   -4.7862856949110837E+00    1.0212442215481934E+01    1.3048544481956291E+01
Ga   -4.7400809592525350E+00    8.3441083826796678E+00    1.3604714786378759E+01
N   -4.7628380166642561E+00    8.3224311955651071E+00    1.5564886123144376E+01
Ga   -4.5870396707608529E+00    1.0104083381217652E+01    1.6473276261440404E+01
N   -3.1492281438405398E+00    9.2746151817676132E+00    1.7612073113774784E+01
N    3.2755141325103820E+00    1.8407728621291712E+00    2.6072573229588403E+00
Ga    3.2778443126155175E+00    1.0009925307430213E-01    3.2744329000063956E+00
N    3.2868983164106544E+00   -2.6189116554849897E-02    5.2362468120677343E+00
Ga    3.2778984293993445E+00    1.8367380795246107E+00    5.8583394029482418E+00
N    3.2844636593571122E+00    1.8329447715519966E+00    7.8353931845140865E+00
Ga    3.2813888309942572E+00   -3.3945338371223807E-02    8.4197228970703577E+00
N    3.2820799071730540E+00   -3.4687329482993558E-02    1.0414065691588476E+01
Ga    3.2823889072405419E+00    1.8352604217517985E+00    1.1009804133912096E+01
N    3.2899602921144777E+00    1.8391213003854519E+00    1.2983826892339307E+01
Ga    3.2876632704866773E+00   -3.2179805350138112E-02    1.3604128836221497E+01
N    3.3004818200080654E+00    5.8859983133610462E-03    1.5563294119046493E+01
Ga    3.2943476623674401E+00    1.8389750750264753E+00    1.5849671524878531E+01
N    1.5575776456023604E+00    4.5530837030165836E+00    2.4966380110610920E+00
Ga    1.7455133371636644E+00    2.7242773119716177E+00    3.2540920393178276E+00
N    1.6780730201975282E+00    2.7614097003605864E+00    5.2373744920043102E+00
Ga    1.7096102125396289E+00    4.6260560739508181E+00    5.7916494708718247E+00
N    1.6856098114439033E+00    4.6241493195668451E+00    7.7870752310850921E+00
Ga    1.6647720339548402E+00    2.7654723677161925E+00    8.4218618153651139E+00
N    1.6638844513269730E+00    2.7693874158374334E+00    1.0417181554899390E+01
Ga    1.6893538514362048E+00    4.6290046373525051E+00    1.1052167363471893E+01
N    1.7096174795982835E+00    4.6418236687998622E+00    1.3045410147187892E+01
Ga    1.6689209193978241E+00    2.7731641698674703E+00    1.3607457304342649E+01
N    1.7106862436976491E+00    2.7635101100330126E+00    1.5567259618287348E+01
Ga    1.5070073744245041E+00    4.5251296310613798E+00    1.6478108693572818E+01
N    7.4323308914982678E-02    7.3835958124055638E+00    2.6662282109868696E+00
Ga    7.7008553902868815E-02    5.5443358111747036E+00    3.3172433013128844E+00
N    6.9933258387300301E-02    5.5596340008191225E+00    5.2548627026250232E+00
Ga    7.8475619200148741E-02    7.4021141744481573E+00    5.8812916882029533E+00
N    6.8909086009730683E-02    7.4054229530493778E+00    7.8415165919661689E+00
Ga    6.7685454967479075E-02    5.5331899136039997E+00    8.4230001435791237E+00
N    6.6968905764801342E-02    5.5361494659514596E+00    1.0414572565231289E+01
Ga    6.8201478740082241E-02    7.4064740449544564E+00    1.1007710258917834E+01
N    7.1545307828390886E-02    7.4095332403180798E+00    1.2975894109577672E+01
Ga    7.1874693495163455E-02    5.5438207480172155E+00    1.3606442881791962E+01
N    7.7939668317307628E-02    5.5768401069229840E+00    1.5564392001834534E+01
Ga    7.8439691770011463E-02    7.4139646679461713E+00    1.5850647697778653E+01
N   -1.6437232033343325E+00    1.0119949529010873E+01    2.5047857928639159E+00
Ga   -1.4959928118573531E+00    8.3025360568130431E+00    3.3065506514061789E+00
N   -1.5266090981352116E+00    8.3249530783880985E+00    5.2362225397236593E+00
Ga   -1.5122807382209698E+00    1.0209957707940790E+01    5.7888762837247905E+00
N   -1.5311023117551674E+00    1.0192900578222055E+01    7.7803017879621157E+00
Ga   -1.5514883637132033E+00    8.3386416624451787E+00    8.4230570914150800E+00
N   -1.5526449949042667E+00    8.3400668736711214E+00    1.0412289221771726E+01
Ga   -1.5274032338280752E+00    1.0198870944116067E+01    1.1049794349590565E+01
N   -1.5060976992888175E+00    1.0210305444731528E+01    1.3042789863085694E+01
Ga   -1.5443512986863601E+00    8.3420045565206937E+00    1.3604318843345972E+01
N   -1.5134971260612575E+00    8.3301013541973337E+00    1.5562533506448675E+01
Ga   -1.7061047072919269E+00    1.0093392481636139E+01    1.6473823610734463E+01
N    6.4976647998872181E+00    1.9586559337000822E+00    2.5218979021964514E+00
Ga    6.5176125392489199E+00   -2.4282284231564595E-02    2.8415681407181581E+00
N    6.4964290783382488E+00   -2.2012788157831115E-02    5.0048530439410062E+00
Ga    6.5003235875693468E+00    1.8062262520534476E+00    5.7904769497089008E+00
N    6.5000015916687293E+00    1.8216677901644012E+00    7.7858061988560880E+00
Ga    6.5024955713625632E+00   -2.5194397560122858E-02    8.4259808359258308E+00
N    6.4996984016863451E+00   -2.3008177280621513E-02    1.0400740915561396E+01
Ga    6.4998976214980280E+00    1.8163948255335458E+00    1.1051511606829523E+01
N    6.5037368411635201E+00    1.7990201798655789E+00    1.3051571074358908E+01
Ga    6.5048291183298890E+00   -2.9683053705477545E-02    1.3845319293735983E+01
N    6.5082219646663511E+00   -2.9083923004514661E-02    1.6052251712335771E+01
Ga    6.5084680082794240E+00    1.9699462200255173E+00    1.6421876301561383E+01
Ga    6.5029478647831587E+00    3.6886970520052258E+00    1.5226134095221397E+00
N    4.9974887397403016E+00    4.5560835163923565E+00    2.5148237885905287E+00
Ga    4.7827651056008209E+00    2.7062824945494564E+00    3.2871193492473187E+00
N    4.8921625414323247E+00    2.7622806305434713E+00    5.2474866394021733E+00
Ga    4.8662254639205500E+00    4.6352998140663102E+00    5.7916916807497065E+00
N    4.8829349882790893E+00    4.6251578895293930E+00    7.7876656690358237E+00
Ga    4.9007654465778385E+00    2.7670516665879106E+00    8.4232352505970081E+00
N    4.9026059738075798E+00    2.7698264213898049E+00    1.0418265912119072E+01
Ga    4.8754590281532915E+00    4.6303359296136639E+00    1.1052063240498654E+01
N    4.8618736409251895E+00    4.6430271772239911E+00    1.3051624332522353E+01
Ga    4.9071863322915856E+00    2.7726782863603203E+00    1.3598443880061350E+01
N    4.8967488964605996E+00    2.7665678758783012E+00    1.5578880884235977E+01
Ga    5.0110605055534529E+00    4.5621052252536822E+00    1.6423728507222464E+01
N    6.5032935594676049E+00    3.6956235814683107E+00    1.7550032889277954E+01
N    3.2841077327254529E+00    7.5171758458471496E+00    2.4801671832351500E+00
N    3.2852759816424979E+00    5.5436616619676489E+00    5.0119368957196420E+00
Ga    3.2879920036207682E+00    7.3731864069313593E+00    5.7721684068398202E+00
N    3.2821229344491423E+00    7.3953163140023888E+00    7.7726814385959830E+00
Ga    3.2829362376895572E+00    5.5509712586370608E+00    8.4276508844490277E+00
N    3.2827454216114895E+00    5.5506675376231920E+00    1.0403246903301632E+01
Ga    3.2844459691503798E+00    7.3915648998036376E+00    1.1052688774216486E+01
N    3.2875876876224486E+00    7.3742917381319693E+00    1.3045015673683720E+01
Ga    3.2788962320745929E+00    5.5587172972122847E+00    1.3842992932063837E+01
N    3.2810509176042828E+00    5.5610666974473455E+00    1.6058454939399329E+01
Ga    3.2915542359401142E+00    7.6189342485107332E+00    1.6491001354519355E+01
Ga    3.3347814332768144E+00    9.2900176520345070E+00    1.2995383034440069E+00
N    1.7728703472759337E+00    1.0126808096991502E+01    2.4836776940330418E+00
Ga    1.6714163480706050E+00    8.3208149235328825E+00    3.2607293142167846E+00
N    1.6633118267327374E+00    8.3243231907284834E+00    5.2128121124778390E+00
Ga    1.6537251052559105E+00    1.0204874948533593E+01    5.7706462303062436E+00
N    1.6655560501213134E+00    1.0192425867803038E+01    7.7712560095976677E+00
Ga    1.6896127995863950E+00    8.3412193704057138E+00    8.4217196775582899E+00
N    1.6873142160147534E+00    8.3415846193861807E+00    1.0412129680340993E+01
Ga    1.6628006732189622E+00    1.0199463246917741E+01    1.1052116696720375E+01
N    1.6489226724692840E+00    1.0210868124955704E+01    1.3044884477185390E+01
Ga    1.6887887021996986E+00    8.3426840550195767E+00    1.3609137327359372E+01
N    1.6683283253960040E+00    8.3291784550261827E+00    1.5565513556293819E+01
Ga    1.8656230127317417E+00    1.0088593730866087E+01    1.6488662428788036E+01
N    3.2967703713244485E+00    9.2704885140006947E+00    1.7640479330781115E+01
N    9.7228998094848276E+00    1.8331379841714548E+00    2.6131860020897202E+00
Ga    9.7164734830792767E+00    6.9255950951514947E-02    3.2398236259534130E+00
N    9.7129001306950862E+00   -2.5136136778056876E-02    5.2219824219354365E+00
Ga    9.7221509614475821E+00    1.8277192295366687E+00    5.8516363762022783E+00
N    9.7152769545511095E+00    1.8326091001474976E+00    7.8313931770421652E+00
Ga    9.7171871484990469E+00   -3.5061233407470034E-02    8.4134381847116142E+00
N    9.7157642840850809E+00   -3.4365587299892870E-02    1.0410864848939559E+01
Ga    9.7164249702493084E+00    1.8339963981253904E+00    1.1009660174674247E+01
N    9.7170246921065377E+00    1.8385565628148426E+00    1.2985358949308182E+01
Ga    9.7198064576205940E+00   -3.3144380444546269E-02    1.3611264061848846E+01
N    9.7188960564693065E+00    4.9541871095437418E-03    1.5569692502119816E+01
Ga    9.7241910170659729E+00    1.8380588485705933E+00    1.5849687212309441E+01
N    8.0004911847833569E+00    4.5580788371390843E+00    2.5219588623750386E+00
Ga    8.2179721604510423E+00    2.6981877674349790E+00    3.2868128378330610E+00
N    8.1084181619824420E+00    2.7624708738780064E+00    5.2467410605260287E+00
Ga    8.1320704705630238E+00    4.6347566404485159E+00    5.7872132748234453E+00
N    8.1175217353409810E+00    4.6260465481014101E+00    7.7844803948744676E+00
Ga    8.1006814016400348E+00    2.7663580480244816E+00    8.4200421861915853E+00
N    8.0967500164635329E+00    2.7697165195230995E+00    1.0416369791555830E+01
Ga    8.1225597422006413E+00    4.6291917203068804E+00    1.1051388685086525E+01
N    8.1441278604214524E+00    4.6419502148779301E+00    1.3051126674501534E+01
Ga    8.1011187198037913E+00    2.7724437767803654E+00    1.3599049760317250E+01
N    8.1202966210088636E+00    2.7665720236993723E+00    1.5579877641026238E+01
Ga    8.0020972186131836E+00    4.5594958388935733E+00    1.6422138590968185E+01
N    6.4932148577184581E+00    7.4064024895582810E+00    2.5944600161127278E+00
Ga    6.4928138427113709E+00    5.6704586351495205E+00    3.2809702440443949E+00
N    6.4995608113482097E+00    5.5505268593787180E+00    5.2421864470591233E+00
Ga    6.4919849995412733E+00    7.4105639673098018E+00    5.8514537084785703E+00
N    6.4987820541443115E+00    7.4057133256495238E+00    7.8286474299570399E+00
Ga    6.4994290046717245E+00    5.5393075654208541E+00    8.4214168325895962E+00
N    6.4994691781998757E+00    5.5370954022522829E+00    1.0417183321750732E+01
Ga    6.4977936644627157E+00    7.4074868572850088E+00    1.1010377584723932E+01
N    6.5030233131477111E+00    7.4061176418765520E+00    1.2985351836913239E+01
Ga    6.5041932158583187E+00    5.5392751793308808E+00    1.3599383187169650E+01
N    6.5091435253477918E+00    5.5590957468913524E+00    1.5580032789439839E+01
Ga    6.5093879227464448E+00    7.4126837729173101E+00    1.5848276705238904E+01
N    4.7941693210121352E+00    1.0134500576139716E+01    2.4966248177272274E+00
Ga    4.9664314258927780E+00    8.2880907535119341E+00    3.2379735350692473E+00
N    4.8897572239044536E+00    8.3332751664139302E+00    5.2198750070124156E+00
Ga    4.9167615461528023E+00    1.0205346569034186E+01    5.7647220035397559E+00
N    4.9016545512007879E+00    1.0196023059670718E+01    7.7710817907832892E+00
Ga    4.8810602695417149E+00    8.3421133027740879E+00    8.4138133510494395E+00
N    4.8805684749886709E+00    8.3414757346198911E+00    1.0410659163913717E+01
Ga    4.9057879074906721E+00    1.0199768633666286E+01    1.1054155261101867E+01
N    4.9265983200183587E+00    1.0211369313797688E+01    1.3049033255068482E+01
Ga    4.8835854263162748E+00    8.3444730618981531E+00    1.3611875209579770E+01
N    4.9177201903967962E+00    8.3229998317160021E+00    1.5570868192861438E+01
Ga    4.7303803876720982E+00    1.0097164490427824E+01    1.6489353611991366E+01
O   -6.4430912825657952E-02    4.1119444676939745E+00   -4.3168868432680824E-01
H   -2.8522382227260901E-01    5.9650393482233319E+00   -3.8684102336976023E-01
C    9.8900354335433960E-01    3.6567103215197072E+00   -1.3003807543528649E+00
H    1.9765879341441619E+00    3.6928935100226297E+00   -8.1482128023265488E-01
H    8.0297104396180508E-01    2.6279507968740710E+00   -1.6381180200260526E+00
H    1.0044294142554486E+00    4.3184670271726793E+00   -2.1770313576737212E+00
Ga    3.2556470445535277E+00    5.5418520645603522E+00    2.8297339767467826E+00
O   -1.6682310390504038E-01    6.9423349173906628E+00   -2.7523413063660501E-01
H    2.9525945046527474E-02    7.3144986883011001E+00    1.6287426253254795E+00
C    1.1223270904287441E+00    7.2632209109880295E+00   -8.2472212672729484E-01
H    1.4920311494604737E+00    8.1634850153045768E+00   -3.0966180763152529E-01
H    1.8530193398929873E+00    6.4626478428983782E+00   -6.3080505809634357E-01
H    1.0704096489557735E+00    7.4616478565376347E+00   -1.9050982828750562E+00
     &END COORD
     &KIND C
       BASIS_SET DZVP-MOLOPT-SR-GTH-q4
       POTENTIAL GTH-PBE-q4
       &POTENTIAL
 2 2
  0.3384712400000000E+00 2 -0.8803673979999999E+01  0.1339210850000000E+01
 2
  0.3025757500000000E+00 1  0.9622486650000001E+01
  0.2915069400000000E+00 0
         # Potential name:  GTH-PBE-Q4  for symbol:  C
         # Potential read from the potential filename: GTH_POTENTIALS
       &END POTENTIAL
     &END KIND
     &KIND O
       BASIS_SET DZVP-MOLOPT-SR-GTH-q6
       POTENTIAL GTH-PBE-q6
       &POTENTIAL
 2 4
  0.2445543000000000E+00 2 -0.1666721480000000E+02  0.2487311320000000E+01
 2
  0.2209559200000000E+00 1  0.1833745811000000E+02
  0.2113324700000000E+00 0
         # Potential name:  GTH-PBE-Q6  for symbol:  O
         # Potential read from the potential filename: GTH_POTENTIALS
       &END POTENTIAL
     &END KIND
     &KIND H
       BASIS_SET DZVP-MOLOPT-SR-GTH-q1
       POTENTIAL GTH-PBE-q1
       &POTENTIAL
 1
  0.2000000000000000E+00 2 -0.4178900440000000E+01  0.7244633100000000E+00
 0
         # Potential name:  GTH-PBE-Q1  for symbol:  H
         # Potential read from the potential filename: GTH_POTENTIALS
       &END POTENTIAL
     &END KIND
     &KIND N
       BASIS_SET DZVP-MOLOPT-SR-GTH
       POTENTIAL GTH-PBE-q5
       &POTENTIAL
 2 3
  0.2837905100000000E+00 2 -0.1241522559000000E+02  0.1868095920000000E+01
 2
  0.2554050000000000E+00 1  0.1363026257000000E+02
  0.2454945300000000E+00 0
         # Potential name:  GTH-PBE-Q5  for symbol:  N
         # Potential read from the potential filename: GTH_POTENTIALS
       &END POTENTIAL
     &END KIND
     &KIND Ga
       BASIS_SET DZVP-MOLOPT-SR-GTH
       POTENTIAL GTH-PBE-q13
       &POTENTIAL
 2 1 10
  0.4900000000000000E+00 0
 3
  0.4167772300000000E+00 3  0.1047568975000000E+02 -0.4921768140000000E+01  0.8707055900000000E+00
  0.7770178090000000E+01 -0.2248152160000000E+01
  0.1784415450000000E+01
  0.5696265200000000E+00 2  0.1777985340000000E+01  0.1958597600000000E+00
 -0.2317443900000000E+00
  0.2381265000000000E+00 1 -0.1624868022000000E+02
         # Potential name:  GTH-PBE-Q13  for symbol:  GA
         # Potential read from the potential filename: GTH_POTENTIALS
       &END POTENTIAL
     &END KIND
     &TOPOLOGY
       NUMBER_OF_ATOMS  212
       MULTIPLE_UNIT_CELL  1 1 1
     &END TOPOLOGY
   &END SUBSYS
 &END FORCE_EVAL
