 # Version information for this restart file 
 # current date 2019-06-28 13:29:43.824
 # current working dir /scratch/rzk/rzk/GaN-carbene/443-adatoms-both-2x2/04-2Methanol/01-CombineAsIs
 # Program compiled at                              Sun Apr  7 00:48:11 EDT 2019
 # Program compiled on                          beluga2.int.ets1.calculquebec.ca
 # Program compiled for                        Beluga-Linux-x86-64-intel-openmpi
 # Source code revision number                                         svn:18619
 &GLOBAL
   PRINT_LEVEL  MEDIUM
   PROJECT_NAME TEST
   RUN_TYPE  GEO_OPT
 &END GLOBAL
 &MOTION
   &GEO_OPT
     MAX_ITER  500
     STEP_START_VAL  166
   &END GEO_OPT
 &END MOTION
 &FORCE_EVAL
   METHOD  QS
   STRESS_TENSOR  ANALYTICAL
   &DFT
     BASIS_SET_FILE_NAME BASIS_MOLOPT
     POTENTIAL_FILE_NAME GTH_POTENTIALS
     UKS  T
     SURFACE_DIPOLE_CORRECTION  T
     SURF_DIP_DIR  Z
     &SCF
       MAX_SCF  80
       EPS_SCF     5.0000000000000004E-06
       &OT  T
         PRECONDITIONER  FULL_ALL
       &END OT
       &OUTER_SCF  T
         OPTIMIZER  NONE
         EPS_SCF     5.0000000000000004E-06
         MAX_SCF  4
       &END OUTER_SCF
       &PRINT
         &RESTART  OFF
           BACKUP_COPIES  1
           &EACH
             JUST_ENERGY  0
             QS_SCF  0
             MD  20
           &END EACH
         &END RESTART
       &END PRINT
     &END SCF
     &QS
       EPS_DEFAULT     1.0000000000000000E-14
       METHOD  GPW
     &END QS
     &MGRID
       NGRIDS  5
       CUTOFF     1.2000000000000000E+03
     &END MGRID
     &XC
       DENSITY_CUTOFF     1.0000000000000000E-10
       GRADIENT_CUTOFF     1.0000000000000000E-10
       TAU_CUTOFF     1.0000000000000000E-10
       &XC_FUNCTIONAL  NO_SHORTCUT
         &PBE  T
         &END PBE
       &END XC_FUNCTIONAL
       &VDW_POTENTIAL
         POTENTIAL_TYPE  PAIR_POTENTIAL
         &PAIR_POTENTIAL
           R_CUTOFF     1.0000000000000004E+01
           TYPE  DFTD3
           PARAMETER_FILE_NAME dftd3.dat
           REFERENCE_FUNCTIONAL PBE
           EPS_CN     9.9999999999999995E-07
           CALCULATE_C9_TERM  T
           REFERENCE_C9_TERM  T
           LONG_RANGE_CORRECTION  F
           VERBOSE_OUTPUT  F
         &END PAIR_POTENTIAL
       &END VDW_POTENTIAL
     &END XC
   &END DFT
   &SUBSYS
     &CELL
       A     1.2864472766435110E+01    0.0000000000000000E+00    0.0000000000000000E+00
       B    -6.4322363581020028E+00    1.1140960178524473E+01    0.0000000000000000E+00
       C     0.0000000000000000E+00    0.0000000000000000E+00    3.2000000000000000E+01
       MULTIPLE_UNIT_CELL  1 1 1
       &CELL_REF
         A     1.2982353780853531E+01    0.0000000000000000E+00    0.0000000000000000E+00
         B    -6.4911768904267628E+00    1.1243048175136114E+01    0.0000000000000000E+00
         C     0.0000000000000000E+00    0.0000000000000000E+00    3.2000000000000000E+01
         MULTIPLE_UNIT_CELL  1 1 1
       &END CELL_REF
     &END CELL
     &COORD
N    7.5255956366567608E-02    1.9778307284009229E+00    2.4866201821829623E+00
Ga    5.7141353521973158E-02    6.5686073020060484E-03    2.8189570943811102E+00
N    8.0438117592325178E-02   -2.5098646827048286E-02    5.0124122488170935E+00
Ga    7.8741265649719200E-02    1.7995934931781981E+00    5.7957000958330411E+00
N    7.8592845081732032E-02    1.8149324438193928E+00    7.7988087593685647E+00
Ga    7.5870419815488671E-02   -3.0114333164775242E-02    8.4416995403780071E+00
N    7.8408638151102883E-02   -3.1167886511323274E-02    1.0418002058857956E+01
Ga    7.8453183219733810E-02    1.8081559125779612E+00    1.1069231233034349E+01
N    7.9557929728131138E-02    1.7896740247821623E+00    1.3063791387440260E+01
Ga    7.9071850142543726E-02   -2.9109870999330240E-02    1.3876515615224294E+01
N    7.9689867381882690E-02   -2.9004646911486017E-02    1.6068379401681430E+01
Ga    8.0441792551942920E-02    2.0219061526519755E+00    1.6496374200335740E+01
Ga    4.2918813405601455E-02    3.6858426219864731E+00    1.3642976248582477E+00
N   -1.4111612145085770E+00    4.5492119123542736E+00    2.5266332522397548E+00
Ga   -1.6046884444166294E+00    2.7040213126409349E+00    3.2774572322297488E+00
N   -1.5320979954352201E+00    2.7540347210672551E+00    5.2561963640194422E+00
Ga   -1.5606937101234652E+00    4.6192349953359839E+00    5.8054707875716849E+00
N   -1.5407361475626407E+00    4.6183204738478301E+00    7.8017027639371745E+00
Ga   -1.5209741565920165E+00    2.7570581629777773E+00    8.4330054966247481E+00
N   -1.5184989793464376E+00    2.7605774834050809E+00    1.0429945885445935E+01
Ga   -1.5434603698463087E+00    4.6186601668642959E+00    1.1067920935380958E+01
N   -1.5586350229960657E+00    4.6297649989786454E+00    1.3060454172309658E+01
Ga   -1.5169087720173113E+00    2.7616063367960901E+00    1.3621555498517054E+01
N   -1.5501332828440879E+00    2.7495388272895425E+00    1.5580211869407256E+01
Ga   -1.3453845390555350E+00    4.5094936854865830E+00    1.6498177507002456E+01
N    8.0312302103417332E-02    3.6749683469455197E+00    1.7644468735101068E+01
N   -3.1343289845282118E+00    7.5196162705345948E+00    2.5286435645747454E+00
Ga   -3.1134611499648859E+00    5.5152785572048506E+00    2.8490788504365230E+00
N   -3.1390725199988374E+00    5.5416787309144153E+00    5.0208842462953438E+00
Ga   -3.1459647808750741E+00    7.3617581265754355E+00    5.8061983853646151E+00
N   -3.1375478737282738E+00    7.3866601105528247E+00    7.7983436717408505E+00
Ga   -3.1383397920161302E+00    5.5394946122491291E+00    8.4476359916145434E+00
N   -3.1376956903745392E+00    5.5409283917071619E+00    1.0421146363026361E+01
Ga   -3.1386242722061435E+00    7.3809582489327026E+00    1.1069349792711590E+01
N   -3.1361684400725407E+00    7.3622006696267261E+00    1.3061776879725969E+01
Ga   -3.1266847607769548E+00    5.5448780698515376E+00    1.3860050848339274E+01
N   -3.1242227134125153E+00    5.5467234372974508E+00    1.6068049762853459E+01
Ga   -3.1334931414388727E+00    7.5998407590982202E+00    1.6489737900407153E+01
Ga   -3.1526533562685115E+00    9.2553457248060749E+00    1.5009997271824984E+00
N   -4.6422357144289226E+00    1.0123470142047788E+01    2.5142667019702851E+00
Ga   -4.8605622175214860E+00    8.2726248355120813E+00    3.2885708239626186E+00
N   -4.7460367079882229E+00    8.3271288872872216E+00    5.2502638555772636E+00
Ga   -4.7786248685168760E+00    1.0202148150207194E+01    5.7972832929660782E+00
N   -4.7557873678029896E+00    1.0188035096108884E+01    7.7957666405512622E+00
Ga   -4.7392593938377301E+00    8.3327101784557840E+00    8.4350807029396311E+00
N   -4.7347692048481189E+00    8.3323308207394859E+00    1.0430012637816864E+01
Ga   -4.7616386959246428E+00    1.0191555112392559E+01    1.1070313003609602E+01
N   -4.7765384416342931E+00    1.0201028243210510E+01    1.3065184141626380E+01
Ga   -4.7329421111250110E+00    8.3324023474355098E+00    1.3621310385593036E+01
N   -4.7597966218618843E+00    8.3089978869027856E+00    1.5581153194265191E+01
Ga   -4.5834549679653875E+00    1.0090368891175892E+01    1.6487911709154204E+01
N   -3.1459453156124377E+00    9.2604023687791415E+00    1.7628406505518949E+01
N    3.2819895291507395E+00    1.8327037297752189E+00    2.6148520476956683E+00
Ga    3.2838671967739383E+00    9.3615293791898757E-02    3.2871774777383083E+00
N    3.2942881280684100E+00   -3.2596959172520784E-02    5.2499360539117133E+00
Ga    3.2850570272014403E+00    1.8297196644218841E+00    5.8717592720392222E+00
N    3.2944459887500095E+00    1.8254802809769104E+00    7.8494512665647909E+00
Ga    3.2916240573183031E+00   -4.0381892959250570E-02    8.4377531421573213E+00
N    3.2943091768448225E+00   -4.2808187187220563E-02    1.0431917326076830E+01
Ga    3.2946040375483610E+00    1.8266228728770768E+00    1.1025728364692132E+01
N    3.2985122742223516E+00    1.8276139558536273E+00    1.2999780907917131E+01
Ga    3.2961274878126647E+00   -4.3711749694119249E-02    1.3621682218633961E+01
N    3.3036272171486218E+00   -7.1887220808081612E-03    1.5581601728728135E+01
Ga    3.2952322928419457E+00    1.8269738684531400E+00    1.5861073983034427E+01
N    1.5657912438246353E+00    4.5502957166450910E+00    2.5147262036924976E+00
Ga    1.7524630337509723E+00    2.7183216144544460E+00    3.2637878885430807E+00
N    1.6862200932237998E+00    2.7546158894530928E+00    5.2491875150180540E+00
Ga    1.7176077653239596E+00    4.6189740350653610E+00    5.8063057825025393E+00
N    1.6956675472233729E+00    4.6170737936939261E+00    7.8031747479478772E+00
Ga    1.6755035252440755E+00    2.7582030807906670E+00    8.4370214692882808E+00
N    1.6762669021294327E+00    2.7602553179254232E+00    1.0432351280883228E+01
Ga    1.7015082119399505E+00    4.6193489682881186E+00    1.1067658277425746E+01
N    1.7181201765217857E+00    4.6300175940867074E+00    1.3060479735124774E+01
Ga    1.6758904275999200E+00    2.7620156292295697E+00    1.3622031944073433E+01
N    1.7113854150269114E+00    2.7493135964050168E+00    1.5580532546372822E+01
Ga    1.5069713975823897E+00    4.5094604687346900E+00    1.6498263215098778E+01
N    7.8898582720423133E-02    7.3801963870128926E+00    2.6930366988239025E+00
Ga    8.5916443826999131E-02    5.5396835843257302E+00    3.3358094196002579E+00
N    7.7452562452123744E-02    5.5534095575221958E+00    5.2734084736148681E+00
Ga    8.5538280726064148E-02    7.3950505199141769E+00    5.9039254543931925E+00
N    7.8448003979687375E-02    7.3987110081707002E+00    7.8633496838446773E+00
Ga    7.8163816656028187E-02    5.5251917383782434E+00    8.4423201073589116E+00
N    7.8528319340901848E-02    5.5277147331683194E+00    1.0433093728657136E+01
Ga    7.9478808153092120E-02    7.3970383723630793E+00    1.1026621954174326E+01
N    7.9565827085833096E-02    7.3977075221529187E+00    1.2996240438372267E+01
Ga    7.9816500098965543E-02    5.5283733193349640E+00    1.3621637012357724E+01
N    8.0638044234393427E-02    5.5610485794018967E+00    1.5578979413784204E+01
Ga    8.1424696497674157E-02    7.3972773440330428E+00    1.5857878679100853E+01
N   -1.6346007786593533E+00    1.0111469479138171E+01    2.5219420935263761E+00
Ga   -1.4892621777904438E+00    8.2976616299725912E+00    3.3338079625308237E+00
N   -1.5190049189538273E+00    8.3187498406235783E+00    5.2613030843962605E+00
Ga   -1.5054172026265737E+00    1.0204791081599867E+01    5.8088460887061952E+00
N   -1.5214191551692431E+00    1.0186224447659983E+01    7.8002234980277105E+00
Ga   -1.5420273701010776E+00    8.3321692508727949E+00    8.4452256575082476E+00
N   -1.5409290554757487E+00    8.3318795012514286E+00    1.0433898867602316E+01
Ga   -1.5155224653735719E+00    1.0191281828070546E+01    1.1068741329484746E+01
N   -1.4975072852811775E+00    1.0199781114646450E+01    1.3061339011151043E+01
Ga   -1.5384333560138348E+00    8.3316393046994932E+00    1.3620826902587154E+01
N   -1.5101812956102705E+00    8.3164339555421058E+00    1.5579203368212363E+01
Ga   -1.7016500460954789E+00    1.0080127034805514E+01    1.6489801036310475E+01
N    6.5067327162096635E+00    1.9508017840235889E+00    2.5358734160501117E+00
Ga    6.5266793960807226E+00   -3.0538580018781125E-02    2.8600808748315911E+00
N    6.5045128035524105E+00   -2.9539816599868832E-02    5.0240092063592163E+00
Ga    6.5077240347732932E+00    1.7997362452776045E+00    5.8032670972981428E+00
N    6.5093698527086392E+00    1.8149031679216754E+00    7.8006049416807270E+00
Ga    6.5122262709545096E+00   -3.0948079866810699E-02    8.4445562428444028E+00
N    6.5112145871843881E+00   -3.1083502901504991E-02    1.0419124967708076E+01
Ga    6.5117828003547871E+00    1.8088469080303027E+00    1.1066133779039250E+01
N    6.5123067450548708E+00    1.7883170969568463E+00    1.3066658622222706E+01
Ga    6.5129361193742108E+00   -4.0319675095832043E-02    1.3858783633469272E+01
N    6.5132196886108664E+00   -4.1991630585410174E-02    1.6067948703904136E+01
Ga    6.5133536516140778E+00    1.9600410024943937E+00    1.6431849116709152E+01
Ga    6.5121858373767534E+00    3.6828892292469648E+00    1.5325237862214296E+00
N    5.0057213979184167E+00    4.5498790446289483E+00    2.5280363601787625E+00
Ga    4.7890783321261523E+00    2.6990509193768504E+00    3.2960326687824146E+00
N    4.8985052778075522E+00    2.7547317008332288E+00    5.2573957631796384E+00
Ga    4.8737697612441453E+00    4.6276721670083258E+00    5.8027991311272622E+00
N    4.8929546220224509E+00    4.6173023414895331E+00    7.8008497540448705E+00
Ga    4.9106782913765885E+00    2.7600188952299760E+00    8.4371429300451695E+00
N    4.9143058110459732E+00    2.7615604602867325E+00    1.0433598032752791E+01
Ga    4.8878305333220240E+00    4.6214933814883823E+00    1.1066665669250007E+01
N    4.8709560277442892E+00    4.6313755062130388E+00    1.3067622541661883E+01
Ga    4.9151926300067927E+00    2.7612925134877395E+00    1.3612066654387625E+01
N    4.8993015044524650E+00    2.7513277518232280E+00    1.5590356704165091E+01
Ga    5.0173865112921439E+00    4.5474336037480327E+00    1.6431822603571632E+01
N    6.5119254366538080E+00    3.6863293107960189E+00    1.7553305145663934E+01
N    3.2894663913045625E+00    7.5112515697703186E+00    2.4983887221136829E+00
N    3.2927842577020883E+00    5.5381502182667761E+00    5.0276115450409629E+00
Ga    3.2971482465120250E+00    7.3657271870023600E+00    5.7926139456814498E+00
N    3.2920358479853027E+00    7.3877160399077306E+00    7.7923274764368724E+00
Ga    3.2942546983380012E+00    5.5419803026386241E+00    8.4441979032932490E+00
N    3.2951614525232245E+00    5.5412316452127035E+00    1.0419446765670727E+01
Ga    3.2968047261767937E+00    7.3812574108741726E+00    1.1067781139138386E+01
N    3.2957379203142820E+00    7.3624101382933658E+00    1.3060572021571048E+01
Ga    3.2863421779366528E+00    5.5458739194639115E+00    1.3860802510677958E+01
N    3.2851601689311951E+00    5.5472624061779765E+00    1.6067877516289137E+01
Ga    3.2948468895476277E+00    7.6034898193383373E+00    1.6493463671610545E+01
Ga    3.3285996262619695E+00    9.2759756513827405E+00    1.3127099150879207E+00
N    1.7808263592460103E+00    1.0118949248209756E+01    2.5031342928927818E+00
Ga    1.6787435495499017E+00    8.3145423277037906E+00    3.2849359017709605E+00
N    1.6714401465286979E+00    8.3174929699516440E+00    5.2351461526140337E+00
Ga    1.6623414235264669E+00    1.0198503357937906E+01    5.7933453633390464E+00
N    1.6755989285255239E+00    1.0184916898196668E+01    7.7921772950089423E+00
Ga    1.6997567958995390E+00    8.3331729939865884E+00    8.4427832312892122E+00
N    1.6986067884138896E+00    8.3322715600797235E+00    1.0432726517896077E+01
Ga    1.6743761672633803E+00    1.0191545665652615E+01    1.1067652273856291E+01
N    1.6574556064663610E+00    1.0199869190380365E+01    1.3060241572270815E+01
Ga    1.6983363282327177E+00    8.3317738695523982E+00    1.3620676950571449E+01
N    1.6716626358071582E+00    8.3165619401253981E+00    1.5578455207357420E+01
Ga    1.8663549848112662E+00    1.0078209199355939E+01    1.6493322657415145E+01
N    3.3057159468718966E+00    9.2600509630524606E+00    1.7635348213567092E+01
N    9.7341941324734531E+00    1.8255093481831051E+00    2.6267074056352353E+00
Ga    9.7281341803650392E+00    6.0933910152036301E-02    3.2537653597014295E+00
N    9.7220231058543991E+00   -3.3650688023366501E-02    5.2376162563437809E+00
Ga    9.7310960710232930E+00    1.8198425575847232E+00    5.8649590225334975E+00
N    9.7251574267238254E+00    1.8246831918647959E+00    7.8460003107037295E+00
Ga    9.7285566227917748E+00   -4.2416017997873541E-02    8.4295160166660850E+00
N    9.7275697912653367E+00   -4.3295687338218029E-02    1.0427242802246923E+01
Ga    9.7280566103095083E+00    1.8257366473065373E+00    1.1022717111023530E+01
N    9.7254931879488709E+00    1.8275325675387588E+00    1.2997483984623823E+01
Ga    9.7282302585572182E+00   -4.3436099562621150E-02    1.3621407908059759E+01
N    9.7222850770830007E+00   -7.1521384948056268E-03    1.5580509548186242E+01
Ga    9.7310529278734936E+00    1.8263331291891918E+00    1.5860105151398852E+01
N    8.0105958665764518E+00    4.5508005064007033E+00    2.5369531358286892E+00
Ga    8.2281926909641321E+00    2.6905778035948038E+00    3.2984941250648205E+00
N    8.1172074320549044E+00    2.7541957761824203E+00    5.2593655402255406E+00
Ga    8.1411735872841007E+00    4.6264824876447745E+00    5.8001647024222960E+00
N    8.1282699117760622E+00    4.6184316094603588E+00    7.7984711120593069E+00
Ga    8.1105121365293424E+00    2.7594470218728286E+00    8.4337009980670654E+00
N    8.1080134808728541E+00    2.7616968987201242E+00    1.0431406228166015E+01
Ga    8.1340673556188090E+00    4.6204780542749271E+00    1.1067023677148221E+01
N    8.1531000709038413E+00    4.6310471023661588E+00    1.3067357644760335E+01
Ga    8.1097734404785555E+00    2.7610455510754770E+00    1.3611631731490577E+01
N    8.1270560925872743E+00    2.7515332070196421E+00    1.5589672261992964E+01
Ga    8.0073304821165863E+00    4.5464006999610760E+00    1.6431990455674413E+01
N    6.5030756857122149E+00    7.4001639058799524E+00    2.6083621720859425E+00
Ga    6.5020303340495262E+00    5.6638271891112790E+00    3.2941399874629753E+00
N    6.5080937929743037E+00    5.5427535863643334E+00    5.2553317231394958E+00
Ga    6.5011577527020474E+00    7.4027206489270805E+00    5.8671188643050129E+00
N    6.5095522448526246E+00    7.3978124481924468E+00    7.8447354434910066E+00
Ga    6.5103423229330097E+00    5.5306347006998990E+00    8.4350372633355573E+00
N    6.5113484099459189E+00    5.5281453446114615E+00    1.0431989331891288E+01
Ga    6.5106276313332643E+00    7.3985205782587737E+00    1.1023618211382859E+01
N    6.5119181804703965E+00    7.3950303640254678E+00    1.2998254945504620E+01
Ga    6.5122685474800681E+00    5.5282589314531574E+00    1.3612322576389719E+01
N    6.5132795195839419E+00    5.5482883342478901E+00    1.5590718154631354E+01
Ga    6.5124818055524418E+00    7.3993490683159386E+00    1.5861826117481359E+01
N    4.8010902582908939E+00    1.0126281499800767E+01    2.5076222052703390E+00
Ga    4.9755981369381486E+00    8.2829744780833838E+00    3.2505135092609883E+00
N    4.8986062266075994E+00    8.3254042132260366E+00    5.2344356452782108E+00
Ga    4.9271449094293374E+00    1.0198232108641404E+01    5.7806717546055522E+00
N    4.9124799817100833E+00    1.0187922409323324E+01    7.7876246291685760E+00
Ga    4.8922122227808664E+00    8.3341929157750378E+00    8.4303165274865464E+00
N    4.8924799354832649E+00    8.3323269584336845E+00    1.0427443248155804E+01
Ga    4.9179597942060802E+00    1.0191078613391621E+01    1.1068684138729996E+01
N    4.9356175078447819E+00    1.0200956051548156E+01    1.3063608551276403E+01
Ga    4.8921738170912956E+00    8.3327994077314926E+00    1.3621523252431551E+01
N    4.9211826248522277E+00    8.3092841691537718E+00    1.5580441049154375E+01
Ga    4.7397081369966827E+00    1.0087789576461974E+01    1.6491676111250896E+01
O    6.3284630279470087E-03    4.0847515173735598E+00   -4.3275532709315562E-01
H   -2.0230112164035075E-01    5.8699310978069059E+00   -3.5136725095586768E-01
C    1.0964024466494624E+00    3.5918824635206112E+00   -1.2344799563706546E+00
H    2.0788337254471512E+00    3.8696188450496893E+00   -8.1922363983881952E-01
H    1.0553522001648994E+00    2.4959997957208944E+00   -1.3330333348035395E+00
H    1.0028743732251069E+00    4.0337099556240608E+00   -2.2369210518331135E+00
Ga    3.2627020121314785E+00    5.5365407374886173E+00    2.8469915667756722E+00
O   -2.0165943873558009E-01    6.8547016772343046E+00   -2.0674701002306761E-01
H    2.7865336634883782E-02    7.3088125518839471E+00    1.6559839774758272E+00
C    9.2912721858207692E-01    7.3821200341012840E+00   -9.1328002739922320E-01
H    9.5844392703551473E-01    8.4644713540691985E+00   -7.2552309593686992E-01
H    1.8771077691923350E+00    6.9430882160215246E+00   -5.6059115505462276E-01
H    8.4412639400576384E-01    7.2221925559601639E+00   -1.9990658708908484E+00
     &END COORD
     &KIND C
       BASIS_SET DZVP-MOLOPT-SR-GTH-q4
       POTENTIAL GTH-PBE-q4
       &POTENTIAL
 2 2
  0.3384712400000000E+00 2 -0.8803673979999999E+01  0.1339210850000000E+01
 2
  0.3025757500000000E+00 1  0.9622486650000001E+01
  0.2915069400000000E+00 0
         # Potential name:  GTH-PBE-Q4  for symbol:  C
         # Potential read from the potential filename: GTH_POTENTIALS
       &END POTENTIAL
     &END KIND
     &KIND O
       BASIS_SET DZVP-MOLOPT-SR-GTH-q6
       POTENTIAL GTH-PBE-q6
       &POTENTIAL
 2 4
  0.2445543000000000E+00 2 -0.1666721480000000E+02  0.2487311320000000E+01
 2
  0.2209559200000000E+00 1  0.1833745811000000E+02
  0.2113324700000000E+00 0
         # Potential name:  GTH-PBE-Q6  for symbol:  O
         # Potential read from the potential filename: GTH_POTENTIALS
       &END POTENTIAL
     &END KIND
     &KIND H
       BASIS_SET DZVP-MOLOPT-SR-GTH-q1
       POTENTIAL GTH-PBE-q1
       &POTENTIAL
 1
  0.2000000000000000E+00 2 -0.4178900440000000E+01  0.7244633100000000E+00
 0
         # Potential name:  GTH-PBE-Q1  for symbol:  H
         # Potential read from the potential filename: GTH_POTENTIALS
       &END POTENTIAL
     &END KIND
     &KIND N
       BASIS_SET DZVP-MOLOPT-SR-GTH
       POTENTIAL GTH-PBE-q5
       &POTENTIAL
 2 3
  0.2837905100000000E+00 2 -0.1241522559000000E+02  0.1868095920000000E+01
 2
  0.2554050000000000E+00 1  0.1363026257000000E+02
  0.2454945300000000E+00 0
         # Potential name:  GTH-PBE-Q5  for symbol:  N
         # Potential read from the potential filename: GTH_POTENTIALS
       &END POTENTIAL
     &END KIND
     &KIND Ga
       BASIS_SET DZVP-MOLOPT-SR-GTH
       POTENTIAL GTH-PBE-q13
       &POTENTIAL
 2 1 10
  0.4900000000000000E+00 0
 3
  0.4167772300000000E+00 3  0.1047568975000000E+02 -0.4921768140000000E+01  0.8707055900000000E+00
  0.7770178090000000E+01 -0.2248152160000000E+01
  0.1784415450000000E+01
  0.5696265200000000E+00 2  0.1777985340000000E+01  0.1958597600000000E+00
 -0.2317443900000000E+00
  0.2381265000000000E+00 1 -0.1624868022000000E+02
         # Potential name:  GTH-PBE-Q13  for symbol:  GA
         # Potential read from the potential filename: GTH_POTENTIALS
       &END POTENTIAL
     &END KIND
     &TOPOLOGY
       NUMBER_OF_ATOMS  212
       MULTIPLE_UNIT_CELL  1 1 1
     &END TOPOLOGY
   &END SUBSYS
 &END FORCE_EVAL
