 # Version information for this restart file 
 # current date 2019-05-25 04:55:27.575
 # current working dir /lustre03/project/6004141/rzk/GaN-carbene/00-Surface/00-Preoptimization/443-capped
 # Program compiled at                              Sun Apr  7 00:48:11 EDT 2019
 # Program compiled on                          beluga2.int.ets1.calculquebec.ca
 # Program compiled for                        Beluga-Linux-x86-64-intel-openmpi
 # Source code revision number                                         svn:18619
 &GLOBAL
   PRINT_LEVEL  MEDIUM
   PROJECT_NAME TEST
   RUN_TYPE  GEO_OPT
 &END GLOBAL
 &MOTION
   &GEO_OPT
     MAX_ITER 500
   &END GEO_OPT
   &CONSTRAINT
     &COLLECTIVE
       INTERMOLECULAR T
       COLVAR 1
       &RESTRAINT
         K=2.0
       &END
       TARGET [angstrom] 1.70
     &END
   &END
 &END MOTION
 &FORCE_EVAL
   METHOD  QS
   STRESS_TENSOR  ANALYTICAL
   &DFT
     UKS  T
     SURFACE_DIPOLE_CORRECTION  TRUE
     SURF_DIP_DIR               Z
     BASIS_SET_FILE_NAME BASIS_MOLOPT
     POTENTIAL_FILE_NAME GTH_POTENTIALS
     &SCF
       MAX_SCF  80
       EPS_SCF     5.0000000000000004E-06
       &OT  T
         PRECONDITIONER  FULL_ALL
       &END OT
       &OUTER_SCF  T
         OPTIMIZER  NONE
         EPS_SCF     5.0000000000000004E-06
         MAX_SCF  4
       &END OUTER_SCF
       &PRINT
         &RESTART  OFF
           BACKUP_COPIES  1
           &EACH
             JUST_ENERGY  0
             QS_SCF  0
             MD  20
           &END EACH
         &END RESTART
       &END PRINT
     &END SCF
     &QS
       EPS_DEFAULT     1.0000000000000000E-14
       METHOD  GPW
     &END QS
     &MGRID
       NGRIDS  5
       CUTOFF     1.2000000000000000E+03
     &END MGRID
     &XC
       DENSITY_CUTOFF     1.0000000000000000E-10
       GRADIENT_CUTOFF     1.0000000000000000E-10
       TAU_CUTOFF     1.0000000000000000E-10
       &XC_FUNCTIONAL  NO_SHORTCUT
         &PBE  T
         &END PBE
       &END XC_FUNCTIONAL
       &VDW_POTENTIAL
         POTENTIAL_TYPE  PAIR_POTENTIAL
         &PAIR_POTENTIAL
           R_CUTOFF     1.0000000000000002E+01
           TYPE  DFTD3
           PARAMETER_FILE_NAME dftd3.dat
           REFERENCE_FUNCTIONAL PBE
           EPS_CN     9.9999999999999995E-07
           CALCULATE_C9_TERM  T
           REFERENCE_C9_TERM  T
           LONG_RANGE_CORRECTION  F
           VERBOSE_OUTPUT  F
         &END PAIR_POTENTIAL
       &END VDW_POTENTIAL
     &END XC
   &END DFT
   &SUBSYS
     &CELL
       A     1.2864472766435110E+01    0.0000000000000000E+00    0.0000000000000000E+00
       B    -6.4322363581020028E+00    1.1140960178524471E+01    0.0000000000000000E+00
       #A     1.2982353780853531E+01    0.0000000000000000E+00    0.0000000000000000E+00
       #B    -6.4911768904267628E+00    1.1243048175136114E+01    0.0000000000000000E+00
       C     0.0000000000000000E+00    0.0000000000000000E+00    3.2000000000000000E+01
       MULTIPLE_UNIT_CELL  1 1 1
       &CELL_REF
         A     1.2982353780853531E+01    0.0000000000000000E+00    0.0000000000000000E+00
         B    -6.4911768904267628E+00    1.1243048175136114E+01    0.0000000000000000E+00
         C     0.0000000000000000E+00    0.0000000000000000E+00    3.2000000000000000E+01
         MULTIPLE_UNIT_CELL  1 1 1
       &END CELL_REF
     &END CELL
     &COORD
  N        -0.0298640387        2.1043218008        2.4596797895
 Ga        -0.0275370956        0.1544972136        2.8154466105
  N        -0.0228619120        0.1053678677        4.9782710158
 Ga        -0.0261495681        1.9394426803        5.7472709004
  N        -0.0297346360        1.9520678557        7.7457378435
 Ga        -0.0265608285        0.1089196225        8.4044263745
  N        -0.0270662134        0.1059212255       10.3730587668
 Ga        -0.0240576980        1.9444365820       11.0323141837
  N        -0.0262820581        1.9251534342       13.0204922182
 Ga        -0.0264404510        0.1051350693       13.8355109314
  N        -0.0257137144        0.1056094655       16.0240997042
 Ga        -0.0269983766        2.1493672083       16.4410473107
 Ga         0.0384694058        3.8283473254        1.3013402795
  N        -1.4939809429        4.6871945261        2.4853692278
 Ga        -1.6931465967        2.8614821565        3.2069853925
  N        -1.6531676625        2.8821104829        5.1789759018
 Ga        -1.6547037931        4.7420591933        5.7972217469
  N        -1.6413366459        4.7468030361        7.7741393529
 Ga        -1.6246304790        2.8885181754        8.4088351312
  N        -1.6230789244        2.8950118998       10.3923199833
 Ga        -1.6533308182        4.7545006603       11.0353087066
  N        -1.6687700181        4.7662890828       13.0221231835
 Ga        -1.6248609100        2.8965963131       13.5799269994
  N        -1.6510792866        2.8826557849       15.5375782641
 Ga        -1.4700292549        4.6524531721       16.4411428256
  N        -0.0218692245        3.8158107513       17.5830678156
  N        -3.2257217196        7.6647334143        2.5166636249
 Ga        -3.1175785346        5.6880780838        2.9883602685
  N        -3.2126296145        5.6949642743        5.0448250418
 Ga        -3.2419021516        7.5066232156        5.8097862675
  N        -3.2424323237        7.5273290738        7.7786565089
 Ga        -3.2523670787        5.6687094684        8.4036574513
  N        -3.2456905665        5.6742261955       10.3723985714
 Ga        -3.2478953237        7.5126415470       11.0355172191
  N        -3.2452092027        7.4946983688       13.0224283342
 Ga        -3.2447392017        5.6751693164       13.8388430053
  N        -3.2434553647        5.6760813218       16.0229837133
 Ga        -3.2435020234        7.7246627965       16.4433291690
 Ga        -3.2264234520        9.4204980877        1.4505254434
  N        -4.7475260834       10.2488998148        2.4856059062
 Ga        -4.8893068970        8.4370899007        3.2937962803
  N        -4.8593732500        8.4508535544        5.2160247442
 Ga        -4.8789100314       10.3419282242        5.7692656865
  N        -4.8612806149       10.3214837419        7.7550617040
 Ga        -4.8522590887        8.4652042972        8.4007297519
  N        -4.8439922865        8.4668985792       10.3853214988
 Ga        -4.8667956943       10.3276679902       11.0307687358
  N        -4.8835237992       10.3364966708       13.0188755217
 Ga        -4.8422160354        8.4676650185       13.5816212314
  N        -4.8712122974        8.4527370075       15.5374775030
 Ga        -4.6810826022       10.2211784187       16.4443814951
  N        -3.2388277508        9.3884540571       17.5748123603
  N         3.1826860299        1.9600842154        2.5537393202
 Ga         3.1969021000        0.2398139928        3.2512499518
  N         3.1919874674        0.0978655627        5.2110495615
 Ga         3.2168187999        1.9864505475        5.7873544426
  N         3.1965646016        1.9645987497        7.7776046432
 Ga         3.1864014492        0.1053584299        8.3993177393
  N         3.1873754720        0.0948369521       10.3867013939
 Ga         3.1924632879        1.9655329306       10.9804706247
  N         3.1899990035        1.9641177906       12.9466799728
 Ga         3.1880868184        0.0959008264       13.5791759282
  N         3.1867699368        0.1279267050       15.5354451970
 Ga         3.1882111157        1.9638785481       15.8198689277
  N         1.4436007642        4.6932849446        2.4876658929
 Ga         1.6739981486        2.8477636922        3.2267353722
  N         1.5827173457        2.8937407933        5.2044372556
 Ga         1.6109705452        4.7490890996        5.7912192168
  N         1.5912579498        4.7524946729        7.7715171063
 Ga         1.5784644409        2.8876708101        8.3891746859
  N         1.5711653931        2.8942322036       10.3806458039
 Ga         1.6022007857        4.7526016444       11.0286793120
  N         1.6152555349        4.7657863751       13.0183641135
 Ga         1.5717510951        2.8969025548       13.5791993682
  N         1.5963652637        2.8826019224       15.5377232923
 Ga         1.4199361406        4.6546175114       16.4418433895
  N        -0.0254347134        7.5179912070        2.6894381090
 Ga        -0.0252893649        5.6548098499        3.3235090284
  N        -0.0267350067        5.6886623040        5.2532594376
 Ga        -0.0209929208        7.5270116512        5.8973189375
  N        -0.0261039829        7.5333338646        7.8459097133
 Ga        -0.0239545932        5.6578936796        8.4230158262
  N        -0.0265198976        5.6617912364       10.4027071649
 Ga        -0.0253007016        7.5311101756       11.0019523982
  N        -0.0259610451        7.5328790673       12.9635940879
 Ga        -0.0263135692        5.6608997756       13.5815609345
  N        -0.0273117706        5.6934799721       15.5388528112
 Ga        -0.0258456561        7.5325518624       15.8164985739
  N        -1.7288405411       10.2402040772        2.5121020011
 Ga        -1.6002323416        8.4566620649        3.3320498497
  N        -1.6208292872        8.4543698305        5.2509827541
 Ga        -1.6127091301       10.3409024728        5.8071853851
  N        -1.6295000140       10.3197823365        7.7831463230
 Ga        -1.6465796482        8.4703875414        8.4329572374
  N        -1.6462394912        8.4673840483       10.4094929423
 Ga        -1.6197792221       10.3332489378       11.0352636554
  N        -1.6030510890       10.3388913766       13.0226915309
 Ga        -1.6481210885        8.4690103501       13.5822760753
  N        -1.6162751225        8.4508727301       15.5389571336
 Ga        -1.8010035720       10.2240661462       16.4423291064
  N         6.4523855239        1.9635001965        2.4853495759
 Ga         6.4094832575        0.1180859636        2.9212807487
  N         6.4017210464        0.0753835855        5.0490651655
 Ga         6.3928152535        1.9506460632        5.7127727916
  N         6.4060925887        1.9555961504        7.7267439783
 Ga         6.4057872428        0.1190892110        8.4056344058
  N         6.4063439114        0.1092985696       10.3757238976
 Ga         6.4040346481        1.9507319364       11.0247077174
  N         6.4046085119        1.9271736457       13.0152186279
 Ga         6.4051498816        0.1081219702       13.8368580799
  N         6.4055554696        0.1069823697       16.0232942127
 Ga         6.4048601273        2.1548844903       16.4423344958
 Ga         8.9075480789        1.6310257221        0.6192948310
  N         4.7199637753        4.7362653646        2.4893086191
 Ga         4.8024750347        2.8103802884        3.0249375196
  N         4.8051890715        2.8960729651        5.0987282633
 Ga         4.8004299834        4.7525110926        5.6751743331
  N         4.7967441871        4.7568974938        7.7001807565
 Ga         4.8108764403        2.9030168778        8.3708414656
  N         4.8088391025        2.9003403212       10.3687983635
 Ga         4.7841916024        4.7538371222       11.0263247256
  N         4.7658675199        4.7660149332       13.0154036150
 Ga         4.8076913121        2.8975481995       13.5784172601
  N         4.7778501868        2.8819882919       15.5341155256
 Ga         4.9681184351        4.6489964895       16.4440608377
  N         6.4099643477        3.8166564004       17.5751085750
  N         3.1673535375        7.6767689062        2.4745848381
  N         3.1650051650        5.6933259518        5.0121565241
 Ga         3.1908582638        7.5008127201        5.7909473233
  N         3.1904454145        7.5265098347        7.7667873941
 Ga         3.2048350084        5.6681381738        8.3945935986
  N         3.1943019737        5.6749515242       10.3670756679
 Ga         3.1948662984        7.5116567994       11.0336651069
  N         3.1910134621        7.4949117143       13.0214105224
 Ga         3.1910375561        5.6747226408       13.8347209213
  N         3.1910444785        5.6755597233       16.0243206621
 Ga         3.1894278615        7.7196657961       16.4443224180
 Ga         3.1580979729        9.4624332185        1.3005237187
  N         1.6752818471       10.2567036055        2.5227441070
 Ga         1.5680385864        8.4635525567        3.3010531039
  N         1.5698962549        8.4544642973        5.2341652277
 Ga         1.5513311380       10.3352546858        5.8036370756
  N         1.5769883473       10.3197107577        7.7799424129
 Ga         1.5967632397        8.4679838780        8.4284520556
  N         1.5945620424        8.4672451039       10.4062048060
 Ga         1.5660175708       10.3313964343       11.0365286125
  N         1.5488342860       10.3380730504       13.0233025492
 Ga         1.5947132448        8.4690138321       13.5836767113
  N         1.5662935853        8.4538107466       15.5413009197
 Ga         1.7460436319       10.2243189150       16.4431806670
  N         3.1948359702        9.3885825859       17.5843605137
  N         9.5892865178        1.9407275253        2.5261532435
 Ga         9.6194220926        0.1657547537        3.2942679271
  N         9.6208739893        0.1126898494        5.2281589658
 Ga         9.6094075925        1.9813649003        5.8367450033
  N         9.6192434849        1.9653814032        7.8043090372
 Ga         9.6255856274        0.0983353504        8.4060100534
  N         9.6241134404        0.0930689311       10.3907403703
 Ga         9.6185638335        1.9639267690       10.9852086878
  N         9.6202981828        1.9626447741       12.9511577679
 Ga         9.6215327523        0.0939331821       13.5816340910
  N         9.6212909491        0.1238217971       15.5394224600
 Ga         9.6217375457        1.9624942262       15.8181216501
  N         8.1318424661        4.7219366318        2.4930189512
 Ga         7.9794706155        2.8638111636        3.1890766578
  N         8.0245759545        2.9002838712        5.1636111723
 Ga         8.0105056970        4.7739370322        5.7119947974
  N         8.0157196795        4.7596477256        7.7185159905
 Ga         7.9956929284        2.9024497600        8.3810823968
  N         8.0020256753        2.8999989883       10.3750643601
 Ga         8.0259705650        4.7550237179       11.0289281330
  N         8.0444410426        4.7665866381       13.0173949324
 Ga         8.0011259609        2.8976192204       13.5793449536
  N         8.0322124133        2.8802200637       15.5356313998
 Ga         7.8467999041        4.6519786888       16.4425929834
  N         6.3913196875        7.5835823822        2.5877001134
 Ga         6.4086233433        5.6458163555        2.9274622536
  N         6.4106942422        5.6799501869        5.0199176879
 Ga         6.3979925713        7.4792824038        5.8003623322
  N         6.4042945378        7.5214844621        7.7750504134
 Ga         6.4012597222        5.6577865167        8.3863965403
  N         6.4049925159        5.6624910674       10.3759678107
 Ga         6.4048007270        7.5292201780       10.9868761831
  N         6.4043080915        7.5324183067       12.9505897975
 Ga         6.4045264304        5.6636119442       13.5800090055
  N         6.4035207718        5.6978244094       15.5353595535
 Ga         6.4039320949        7.5333644242       15.8221894463
  N         4.6935176331       10.2800972206        2.4910219766
 Ga         4.8010411894        8.4613832662        3.2588162265
  N         4.8033288083        8.4547810096        5.1960333243
 Ga         4.8355936445       10.3361809181        5.7686233457
  N         4.8084464533       10.3207198613        7.7534821329
 Ga         4.7960880606        8.4636272202        8.3982650635
  N         4.7899169029        8.4672946284       10.3838631290
 Ga         4.8145613427       10.3265251919       11.0331161669
  N         4.8294971732       10.3360558550       13.0208858520
 Ga         4.7868828646        8.4673771310       13.5832122935
  N         4.8126263031        8.4533557576       15.5414444849
 Ga         4.6364189111       10.2264386467       16.4437632624
  O         0.0068558444        3.8674911621       -0.5123665898
  H        -0.0355558252        7.5049715998        1.6627909306
  C        -0.7175831901        2.8230736544       -1.1692365476
  H        -0.4151571226        1.8179253171       -0.8308175905
  H        -1.8116837005        2.9204142515       -1.0290835643
  H        -0.5116633802        2.9009756410       -2.2470142346
 Ga         3.0867189359        5.7008458763        2.9306641874
  O         6.7796038370        5.4513971765        0.7452781064
  H         4.8324125179        4.7132694279        1.4640395838
  C         7.9357879022        4.8070330852        0.9933862831
  H         8.8293091256        5.2857443557        0.5292667349
  H         6.4191357200        7.6293579253        1.6726487483
  H         7.9486828816        3.7355382740        0.5683843687
     &END COORD

     &KIND C
       BASIS_SET DZVP-MOLOPT-SR-GTH-q4
       POTENTIAL GTH-PBE-q4
     &END KIND

     &KIND O
       BASIS_SET DZVP-MOLOPT-SR-GTH-q6
       POTENTIAL GTH-PBE-q6
     &END KIND

     &KIND H
       BASIS_SET DZVP-MOLOPT-SR-GTH-q1
       POTENTIAL GTH-PBE-q1
     &END KIND

     &KIND N
       BASIS_SET DZVP-MOLOPT-SR-GTH
       POTENTIAL GTH-PBE-q5
     &END KIND

     &KIND Ga
       BASIS_SET DZVP-MOLOPT-SR-GTH
       POTENTIAL GTH-PBE-q13
     &END KIND

     &COLVAR
       &DISTANCE
         ATOMS 176 211
       &END
       &PRINT
       &END
     &END

     &TOPOLOGY
       MULTIPLE_UNIT_CELL  1 1 1
     &END TOPOLOGY
   &END SUBSYS
 &END FORCE_EVAL
