 # Version information for this restart file 
 # current date 2019-07-18 04:37:41.602
 # current working dir /lustre04/scratch/rzk/rzk/GaN-carbene/443-adatoms-both-2x2/09-BondBreaking-CH/03-0501-CH-to-Nsur-PES/Phase03-Relaxation
 # Program compiled at                              Sun Apr  7 00:48:11 EDT 2019
 # Program compiled on                          beluga2.int.ets1.calculquebec.ca
 # Program compiled for                        Beluga-Linux-x86-64-intel-openmpi
 # Source code revision number                                         svn:18619
 &GLOBAL
   PRINT_LEVEL  MEDIUM
   PROJECT_NAME TEST
   RUN_TYPE  GEO_OPT
 &END GLOBAL
 &MOTION
   &GEO_OPT
     MAX_ITER  500
     STEP_START_VAL  57
   &END GEO_OPT
   &CONSTRAINT
     &COLLECTIVE
       COLVAR  1
       INTERMOLECULAR  T
       TARGET     3.2125344259055928E+00
       &RESTRAINT
         K     2.0000000000000000E+00
       &END RESTRAINT
     &END COLLECTIVE
     &COLVAR_RESTART
           3.2125344259055928E+00
     &END COLVAR_RESTART
   &END CONSTRAINT
 &END MOTION
 &FORCE_EVAL
   METHOD  QS
   STRESS_TENSOR  ANALYTICAL
   &DFT
     BASIS_SET_FILE_NAME BASIS_MOLOPT
     POTENTIAL_FILE_NAME GTH_POTENTIALS
     UKS  T
     SURFACE_DIPOLE_CORRECTION  T
     SURF_DIP_DIR  Z
     &SCF
       MAX_SCF  80
       EPS_SCF     5.0000000000000004E-06
       &OT  T
         PRECONDITIONER  FULL_ALL
       &END OT
       &OUTER_SCF  T
         OPTIMIZER  NONE
         EPS_SCF     5.0000000000000004E-06
         MAX_SCF  4
       &END OUTER_SCF
       &PRINT
         &RESTART  OFF
           BACKUP_COPIES  1
           &EACH
             JUST_ENERGY  0
             QS_SCF  0
             MD  20
           &END EACH
         &END RESTART
       &END PRINT
     &END SCF
     &QS
       EPS_DEFAULT     1.0000000000000000E-14
       METHOD  GPW
     &END QS
     &MGRID
       NGRIDS  5
       CUTOFF     1.2000000000000000E+03
     &END MGRID
     &XC
       DENSITY_CUTOFF     1.0000000000000000E-10
       GRADIENT_CUTOFF     1.0000000000000000E-10
       TAU_CUTOFF     1.0000000000000000E-10
       &XC_FUNCTIONAL  NO_SHORTCUT
         &PBE  T
         &END PBE
       &END XC_FUNCTIONAL
       &VDW_POTENTIAL
         POTENTIAL_TYPE  PAIR_POTENTIAL
         &PAIR_POTENTIAL
           R_CUTOFF     1.0000000000000004E+01
           TYPE  DFTD3
           PARAMETER_FILE_NAME dftd3.dat
           REFERENCE_FUNCTIONAL PBE
           EPS_CN     9.9999999999999995E-07
           CALCULATE_C9_TERM  T
           REFERENCE_C9_TERM  T
           LONG_RANGE_CORRECTION  F
           VERBOSE_OUTPUT  F
         &END PAIR_POTENTIAL
       &END VDW_POTENTIAL
     &END XC
   &END DFT
   &SUBSYS
     &CELL
       A     1.2864472766435110E+01    0.0000000000000000E+00    0.0000000000000000E+00
       B    -6.4322363581020028E+00    1.1140960178524473E+01    0.0000000000000000E+00
       C     0.0000000000000000E+00    0.0000000000000000E+00    3.2000000000000000E+01
       MULTIPLE_UNIT_CELL  1 1 1
       &CELL_REF
         A     1.2982353780853531E+01    0.0000000000000000E+00    0.0000000000000000E+00
         B    -6.4911768904267628E+00    1.1243048175136114E+01    0.0000000000000000E+00
         C     0.0000000000000000E+00    0.0000000000000000E+00    3.2000000000000000E+01
         MULTIPLE_UNIT_CELL  1 1 1
       &END CELL_REF
     &END CELL
     &COORD
N   -3.2581184373879968E-02    2.1052283480627998E+00    2.4564471071805452E+00
Ga   -3.8141491556618681E-02    1.3687821815033402E-01    2.7983405118869804E+00
N   -1.9396200854012429E-02    1.0730516823508232E-01    4.9768984054039196E+00
Ga   -2.8010171699343570E-02    1.9336974258502140E+00    5.7450215703636696E+00
N   -3.1795105697704169E-02    1.9519880521531032E+00    7.7483950327285882E+00
Ga   -2.9359231678414550E-02    1.0600697781019797E-01    8.3929603002780908E+00
N   -2.8373630793849601E-02    1.0586295516662114E-01    1.0370539944214476E+01
Ga   -2.6943954161837237E-02    1.9453182369906024E+00    1.1021696608547796E+01
N   -2.8618838625917374E-02    1.9272329956774170E+00    1.3017911766621173E+01
Ga   -2.9143771365986820E-02    1.0704368428101907E-01    1.3820511270395725E+01
N   -2.8446678041133031E-02    1.0767245591828518E-01    1.6025728218703446E+01
Ga   -3.0056526782409852E-02    2.1457560528904676E+00    1.6432932532788907E+01
Ga    4.9553207602285626E-02    3.8253690539542542E+00    1.3025051145088693E+00
N   -1.5192088169623996E+00    4.6928335308599491E+00    2.4860530695479950E+00
Ga   -1.6910661317323388E+00    2.8644021604458514E+00    3.2111248854879029E+00
N   -1.6509334990843689E+00    2.8840047330213543E+00    5.1814124082739381E+00
Ga   -1.6563837765635934E+00    4.7455061944257482E+00    5.7851769065964556E+00
N   -1.6429788130026446E+00    4.7482840315239274E+00    7.7697746241277255E+00
Ga   -1.6289781100068379E+00    2.8880507975901257E+00    8.3956435076176916E+00
N   -1.6265602120473084E+00    2.8954566574851981E+00    1.0388208080287702E+01
Ga   -1.6531798634437020E+00    4.7534538136008457E+00    1.1028265187294505E+01
N   -1.6695368069875527E+00    4.7666066504396110E+00    1.3021806829470554E+01
Ga   -1.6268988004518956E+00    2.8971956979340820E+00    1.3576605414443330E+01
N   -1.6541683489685559E+00    2.8851953591867758E+00    1.5538714679861778E+01
Ga   -1.4754900699773337E+00    4.6562327618151347E+00    1.6434039675592214E+01
N   -2.1383538641018256E-02    3.8175395268162218E+00    1.7569236551359051E+01
N   -3.2165052343453735E+00    7.6649236307559852E+00    2.5205045681607903E+00
Ga   -3.1573803901214528E+00    5.6934266071431709E+00    2.9746957256532434E+00
N   -3.2265016142937029E+00    5.6894967825272937E+00    5.0383737332803955E+00
Ga   -3.2473971141006839E+00    7.5105136170176108E+00    5.7993745885558194E+00
N   -3.2415860295857044E+00    7.5250035038453049E+00    7.7782507376441767E+00
Ga   -3.2474961368011552E+00    5.6706512921899783E+00    8.4059264635288589E+00
N   -3.2455901135880141E+00    5.6755686603232567E+00    1.0378112870992021E+01
Ga   -3.2476136129324256E+00    7.5154526675392983E+00    1.1029349679883245E+01
N   -3.2465962016180918E+00    7.4977653147549521E+00    1.3023517904799450E+01
Ga   -3.2467741198256221E+00    5.6759922423433506E+00    1.3824249460017432E+01
N   -3.2452136404517944E+00    5.6778182753368540E+00    1.6026578585860026E+01
Ga   -3.2462337147509257E+00    7.7153069941845116E+00    1.6430893749321992E+01
Ga   -3.2484390923000763E+00    9.4071964857629773E+00    1.5086384652582656E+00
N   -4.7466406540272539E+00    1.0247392512505472E+01    2.5011957589037968E+00
Ga   -4.9586602858384516E+00    8.3856927838279187E+00    3.2599987938824158E+00
N   -4.8526619776577542E+00    8.4532799585121712E+00    5.2140977418897094E+00
Ga   -4.8766174523804686E+00    1.0336684893984055E+01    5.7567009086045644E+00
N   -4.8611807280878985E+00    1.0321634161008795E+01    7.7545065276497152E+00
Ga   -4.8497227938628953E+00    8.4673650064377366E+00    8.3966047505919583E+00
N   -4.8436068524466798E+00    8.4677121647139906E+00    1.0388822034460853E+01
Ga   -4.8677025490231305E+00    1.0328484595555757E+01    1.1022620230315963E+01
N   -4.8846032788968667E+00    1.0337794014241739E+01    1.3018384397128855E+01
Ga   -4.8445149427863585E+00    8.4696654648178651E+00    1.3577204119775196E+01
N   -4.8715121050089332E+00    8.4564356946743651E+00    1.5539536575709645E+01
Ga   -4.6925465201753527E+00    1.0228179209380324E+01    1.6431260322834230E+01
N   -3.2386527774049543E+00    9.3894675747186369E+00    1.7562072521554661E+01
N    3.1789978685309888E+00    1.9695137747243814E+00    2.5603860373929255E+00
Ga    3.1981636257045247E+00    2.4689576528482099E-01    3.2555713901904810E+00
N    3.1951295493356939E+00    1.0036987500686743E-01    5.2156953538339215E+00
Ga    3.2142140251502918E+00    1.9835727096310891E+00    5.7876930427477218E+00
N    3.1944210199328027E+00    1.9641840058858346E+00    7.7839274468218287E+00
Ga    3.1843647295333675E+00    1.0351632536781011E-01    8.3921381163965769E+00
N    3.1864681794155865E+00    9.5437832309312604E-02    1.0387734584693456E+01
Ga    3.1899703255258074E+00    1.9643443029565013E+00    1.0978970972031284E+01
N    3.1880181545354693E+00    1.9646681904302239E+00    1.2952343641035654E+01
Ga    3.1862348881458047E+00    9.6878523412003453E-02    1.3575326550255516E+01
N    3.1843554682435307E+00    1.2706218917977069E-01    1.5537990809824244E+01
Ga    3.1862472923282374E+00    1.9657007876395547E+00    1.5816815071461169E+01
N    1.4437956169486355E+00    4.6927811970325104E+00    2.4957754330777262E+00
Ga    1.6682370935461293E+00    2.8475700929832097E+00    3.2342909212541859E+00
N    1.5793372239739574E+00    2.8931785170590110E+00    5.2129410638350686E+00
Ga    1.6051363680191688E+00    4.7519629425622449E+00    5.7849694397740246E+00
N    1.5870433727672406E+00    4.7530336089144232E+00    7.7728818018881931E+00
Ga    1.5753528825141734E+00    2.8882177130193414E+00    8.3844344016812506E+00
N    1.5704705134857053E+00    2.8947261159987234E+00    1.0383378361957890E+01
Ga    1.5982156871048330E+00    4.7529380967934687E+00    1.1023754759016823E+01
N    1.6119660561762392E+00    4.7664646039463250E+00    1.3019722371430817E+01
Ga    1.5690313837328866E+00    2.8976781720020619E+00    1.3576422815008051E+01
N    1.5938513703219326E+00    2.8836280933655281E+00    1.5539912918432160E+01
Ga    1.4232153198939055E+00    4.6606916371423539E+00    1.6433055906595570E+01
N   -1.3930921241170825E-02    7.5246171712377610E+00    2.6859259719400286E+00
Ga   -3.4543651331664600E-02    5.6642717906624949E+00    3.3105340505512251E+00
N   -3.0706695384175000E-02    5.6913071432723239E+00    5.2460682009262456E+00
Ga   -1.2656830733942430E-02    7.5305419409342331E+00    5.8865985067694284E+00
N   -2.4814046989269249E-02    7.5336560784133990E+00    7.8421025747233459E+00
Ga   -2.6718920919455665E-02    5.6590961598429423E+00    8.4155361602405439E+00
N   -2.8816032251794403E-02    5.6630537349035102E+00    1.0402170416860050E+01
Ga   -2.6035832877970205E-02    7.5325477426582923E+00    1.0993927202091376E+01
N   -2.8633789023034380E-02    7.5344696807885230E+00    1.2963252183519739E+01
Ga   -2.8521214187004342E-02    5.6635815384702530E+00    1.3578103561885742E+01
N   -3.1497863951249365E-02    5.6965618621457708E+00    1.5539962267006420E+01
Ga   -2.9290894642909227E-02    7.5355972957365998E+00    1.5814614948870309E+01
N   -1.7322089257974136E+00    1.0239780326782931E+01    2.5096859642844147E+00
Ga   -1.5878584737423636E+00    8.4545477508063307E+00    3.3336342405752752E+00
N   -1.6181191800674208E+00    8.4530725446110129E+00    5.2533569234329400E+00
Ga   -1.6088985790561676E+00    1.0342473638490615E+01    5.8000929686012528E+00
N   -1.6290826510079559E+00    1.0320486343664136E+01    7.7826827323574994E+00
Ga   -1.6456770319566434E+00    8.4700770033955575E+00    8.4227455093192471E+00
N   -1.6464268686388333E+00    8.4679942388932155E+00    1.0407288822243236E+01
Ga   -1.6206270637278160E+00    1.0333449117701353E+01    1.1024981791174003E+01
N   -1.6054595146284987E+00    1.0339905543810275E+01    1.3020988321083879E+01
Ga   -1.6489893181953283E+00    8.4707863520835307E+00    1.3577533209134273E+01
N   -1.6214938560247791E+00    8.4548977732944852E+00    1.5541096085231629E+01
Ga   -1.7925377827217319E+00    1.0232388252451324E+01    1.6430306440335812E+01
N    6.4291079272903087E+00    1.9635998640780061E+00    2.4702656179683049E+00
Ga    6.4296956318672853E+00    1.1488765207025316E-01    2.8897355830011167E+00
N    6.4035969452309711E+00    7.5924144069957428E-02    5.0415868101348220E+00
Ga    6.3984541902337106E+00    1.9518030027487110E+00    5.6906998553536567E+00
N    6.4083530480394968E+00    1.9574274475663946E+00    7.7208247924296867E+00
Ga    6.4082885456770384E+00    1.1918669592853115E-01    8.3930502840282770E+00
N    6.4056016441171950E+00    1.0993444908354334E-01    1.0371725810244948E+01
Ga    6.4036250216670192E+00    1.9487235737547699E+00    1.1021458304416162E+01
N    6.4028407997762846E+00    1.9290219800107067E+00    1.3017530739029798E+01
Ga    6.4041890798178143E+00    1.0925195544038190E-01    1.3822421855437153E+01
N    6.4042036453095781E+00    1.0862465508197230E-01    1.6025865627821705E+01
Ga    6.4025538813236951E+00    2.1508610426224943E+00    1.6437093479479046E+01
Ga    9.2158238297231723E+00    1.5221549649570334E+00    5.7021543577540035E-01
N    4.7710665095938296E+00    4.7533999422890822E+00    2.5220723971406462E+00
Ga    4.8013609356390594E+00    2.8166163473961987E+00    3.0238499803144792E+00
N    4.8002338936786506E+00    2.8970582519324277E+00    5.1098178873575621E+00
Ga    4.7721661426624955E+00    4.7348376254366080E+00    5.7265620734802445E+00
N    4.7881390323372006E+00    4.7513103633380247E+00    7.7360095622326215E+00
Ga    4.8111103194940465E+00    2.8939490495529907E+00    8.3755358964192688E+00
N    4.8079658162574903E+00    2.8967742400132654E+00    1.0377434899167255E+01
Ga    4.7830714708085047E+00    4.7537076833777911E+00    1.1019852682452520E+01
N    4.7647185487906638E+00    4.7665507337300568E+00    1.3015973574985836E+01
Ga    4.8053617935939608E+00    2.8990073640321867E+00    1.3576790785894886E+01
N    4.7768334069167970E+00    2.8849876044299636E+00    1.5537589098791340E+01
Ga    4.9607767000741818E+00    4.6544524244101710E+00    1.6437979220302644E+01
N    6.4090305286233953E+00    3.8181894366115268E+00    1.7571513671141233E+01
N    3.1786294397345785E+00    7.6573907062042634E+00    2.4836434352734837E+00
N    3.1679823948846146E+00    5.6841149817021668E+00    5.0213372305322332E+00
Ga    3.2023433223875792E+00    7.5082845418877913E+00    5.7653919507616482E+00
N    3.1912103984935802E+00    7.5257565117814558E+00    7.7593692317918714E+00
Ga    3.1952838429818686E+00    5.6736615250308269E+00    8.3976481627922333E+00
N    3.1904360794998059E+00    5.6766003313636695E+00    1.0374060880487566E+01
Ga    3.1926675703059169E+00    7.5150669281425326E+00    1.1026906885308378E+01
N    3.1888771075290907E+00    7.4973835157469004E+00    1.3021199280704904E+01
Ga    3.1891488584494154E+00    5.6761679997851981E+00    1.3822691692776246E+01
N    3.1884746291302455E+00    5.6779539560504881E+00    1.6025855856377984E+01
Ga    3.1863190849768466E+00    7.7169528973696773E+00    1.6434406213127613E+01
Ga    3.2026913833382360E+00    9.3818576577175321E+00    1.2218811771799403E+00
N    1.6831666151780376E+00    1.0255400956826829E+01    2.4934914390341723E+00
Ga    1.5952645139623658E+00    8.4723731458186826E+00    3.2813331591686379E+00
N    1.5735354503557921E+00    8.4550836098985656E+00    5.2249607215097571E+00
Ga    1.5555360522366832E+00    1.0333986139264967E+01    5.7841864621770327E+00
N    1.5778485094282131E+00    1.0319914389729547E+01    7.7711781440664485E+00
Ga    1.5993615148185190E+00    8.4686560363542416E+00    8.4149283933848835E+00
N    1.5929559371637243E+00    8.4679670124222195E+00    1.0401751026376237E+01
Ga    1.5666904007741780E+00    1.0332059079153076E+01    1.1023066871722481E+01
N    1.5477221071273752E+00    1.0339357311064109E+01    1.3018335474176615E+01
Ga    1.5915449781298121E+00    8.4707024476185779E+00    1.3577646729495857E+01
N    1.5618186852519040E+00    8.4570750465597300E+00    1.5539169346619767E+01
Ga    1.7420797836827060E+00    1.0227297968974383E+01    1.6435149065649817E+01
N    3.1941433522364946E+00    9.3882101025462443E+00    1.7571249975604378E+01
N    9.5984008964277265E+00    1.9450680966237501E+00    2.5150699348905974E+00
Ga    9.6236113438330442E+00    1.3298779333490782E-01    3.2653736462730749E+00
N    9.6217960540262588E+00    1.1214034327473352E-01    5.2106054416194736E+00
Ga    9.6041152083729902E+00    1.9761204888196615E+00    5.8083003434187805E+00
N    9.6161815038849845E+00    1.9651143404233400E+00    7.7892213148261495E+00
Ga    9.6276139152104268E+00    9.8104342944959178E-02    8.3872833717059443E+00
N    9.6234823913245631E+00    9.5115446684715124E-02    1.0383400131185104E+01
Ga    9.6189533423188500E+00    1.9624306651423966E+00    1.0981043303873237E+01
N    9.6185179981565749E+00    1.9642721428244572E+00    1.2953237484825365E+01
Ga    9.6195115573700569E+00    9.5681302287270953E-02    1.3576061773025161E+01
N    9.6177529786362932E+00    1.2644260864138449E-01    1.5537555907117797E+01
Ga    9.6182648245079481E+00    1.9648121056478451E+00    1.5816480226853027E+01
N    8.0248616846437137E+00    4.7899170787189673E+00    2.4468694799804713E+00
Ga    7.9615311651159422E+00    2.8744709864437805E+00    3.1170610229530635E+00
N    8.0267422738636522E+00    2.9059506807661979E+00    5.1215380285661727E+00
Ga    8.0292865481390425E+00    4.7506261291147700E+00    5.7474139705687000E+00
N    8.0215656929498937E+00    4.7516756266197460E+00    7.7432498732997965E+00
Ga    7.9973711474176126E+00    2.8932336621709189E+00    8.3840481625794023E+00
N    8.0016831712177243E+00    2.8970930316898182E+00    1.0381346511337910E+01
Ga    8.0244278336051220E+00    4.7543938434594297E+00    1.1022914967241443E+01
N    8.0414900234907130E+00    4.7669624444153094E+00    1.3018187105708504E+01
Ga    7.9998589745492978E+00    2.8986336868463067E+00    1.3577170639004807E+01
N    8.0279527222578260E+00    2.8837273869322311E+00    1.5538891791325293E+01
Ga    7.8496567660569161E+00    4.6574436620530957E+00    1.6437454081094661E+01
N    6.4243036883672664E+00    7.4858577032959266E+00    2.5332232183688017E+00
Ga    6.3788430378556047E+00    5.6946624070858034E+00    3.1893234718847587E+00
N    6.4050286686971019E+00    5.6607171295198846E+00    5.1597752579593807E+00
Ga    6.3962566455111567E+00    7.5117862571424228E+00    5.8089399221153943E+00
N    6.4046761496014106E+00    7.5261916131320588E+00    7.7898856744500664E+00
Ga    6.4012885425399997E+00    5.6602471647807704E+00    8.3849755522188314E+00
N    6.4044165594994968E+00    5.6635091340478532E+00    1.0381282364770142E+01
Ga    6.4038248018776427E+00    7.5310433034326962E+00    1.0981893508969463E+01
N    6.4034289140145635E+00    7.5337407487407937E+00    1.2953703526439442E+01
Ga    6.4022391807685333E+00    5.6653177087243707E+00    1.3577067493860367E+01
N    6.4013249411935211E+00    5.6980150026215659E+00    1.5537580101056951E+01
Ga    6.4016904446640321E+00    7.5349568634048287E+00    1.5817751090180542E+01
N    4.7043950448985674E+00    1.0266216289018560E+01    2.4776854328504472E+00
Ga    4.8867316176588611E+00    8.4040282924433658E+00    3.1772103900140398E+00
N    4.8068334880255570E+00    8.4527244505997707E+00    5.1707880208492751E+00
Ga    4.8337594889313005E+00    1.0324228658621267E+01    5.7379452094279282E+00
N    4.8075750379759041E+00    1.0319830656475597E+01    7.7411511400197428E+00
Ga    4.7924122172055057E+00    8.4666774582511195E+00    8.3899351153915305E+00
N    4.7882697425987182E+00    8.4681002325978856E+00    1.0384949944019178E+01
Ga    4.8118233266167021E+00    1.0327584773637710E+01    1.1022374640885751E+01
N    4.8269195480562237E+00    1.0337557404879043E+01    1.3017809812332665E+01
Ga    4.7855110098398042E+00    8.4692737162416432E+00    1.3577916342888940E+01
N    4.8112655430960132E+00    8.4556067771881764E+00    1.5540536675911820E+01
Ga    4.6368451508214559E+00    1.0230583550670879E+01    1.6434469317180692E+01
O    4.3568576089271310E-02    3.8946129596573598E+00   -5.1023769748648862E-01
H   -3.0281446918554670E-02    7.5167736849954565E+00    1.6593378111833854E+00
C   -7.3729548437109793E-01    2.9172706580575749E+00   -1.2022760189420971E+00
H   -5.6055044999891046E-01    1.8897769677877927E+00   -8.3687495238598597E-01
H   -1.8223422127120430E+00    3.1280907335907311E+00   -1.1362479099726943E+00
H   -4.5367680017044182E-01    2.9531528734947421E+00   -2.2656225204197096E+00
Ga    3.1013925980710781E+00    5.7096341404825539E+00    2.9223994267267193E+00
O    6.8661044960185373E+00    5.7825697414004766E+00    5.2993574472474991E-01
H    4.9252168263743918E+00    4.7944488088395474E+00    1.5037208466869314E+00
C    7.8915014715896339E+00    4.9038776115528808E+00    9.4828989078644466E-01
H    8.8701540514082691E+00    5.2051530956939800E+00    5.2498536373639793E-01
H    6.8191805749129548E+00    6.6209529167152654E+00    1.1230379424165393E+00
H    7.6270220092456933E+00    3.9183302406482321E+00    5.2056472542567178E-01
     &END COORD
     &KIND C
       BASIS_SET DZVP-MOLOPT-SR-GTH-q4
       POTENTIAL GTH-PBE-q4
       &POTENTIAL
 2 2
  0.3384712400000000E+00 2 -0.8803673979999999E+01  0.1339210850000000E+01
 2
  0.3025757500000000E+00 1  0.9622486650000001E+01
  0.2915069400000000E+00 0
         # Potential name:  GTH-PBE-Q4  for symbol:  C
         # Potential read from the potential filename: GTH_POTENTIALS
       &END POTENTIAL
     &END KIND
     &KIND O
       BASIS_SET DZVP-MOLOPT-SR-GTH-q6
       POTENTIAL GTH-PBE-q6
       &POTENTIAL
 2 4
  0.2445543000000000E+00 2 -0.1666721480000000E+02  0.2487311320000000E+01
 2
  0.2209559200000000E+00 1  0.1833745811000000E+02
  0.2113324700000000E+00 0
         # Potential name:  GTH-PBE-Q6  for symbol:  O
         # Potential read from the potential filename: GTH_POTENTIALS
       &END POTENTIAL
     &END KIND
     &KIND H
       BASIS_SET DZVP-MOLOPT-SR-GTH-q1
       POTENTIAL GTH-PBE-q1
       &POTENTIAL
 1
  0.2000000000000000E+00 2 -0.4178900440000000E+01  0.7244633100000000E+00
 0
         # Potential name:  GTH-PBE-Q1  for symbol:  H
         # Potential read from the potential filename: GTH_POTENTIALS
       &END POTENTIAL
     &END KIND
     &KIND N
       BASIS_SET DZVP-MOLOPT-SR-GTH
       POTENTIAL GTH-PBE-q5
       &POTENTIAL
 2 3
  0.2837905100000000E+00 2 -0.1241522559000000E+02  0.1868095920000000E+01
 2
  0.2554050000000000E+00 1  0.1363026257000000E+02
  0.2454945300000000E+00 0
         # Potential name:  GTH-PBE-Q5  for symbol:  N
         # Potential read from the potential filename: GTH_POTENTIALS
       &END POTENTIAL
     &END KIND
     &KIND Ga
       BASIS_SET DZVP-MOLOPT-SR-GTH
       POTENTIAL GTH-PBE-q13
       &POTENTIAL
 2 1 10
  0.4900000000000000E+00 0
 3
  0.4167772300000000E+00 3  0.1047568975000000E+02 -0.4921768140000000E+01  0.8707055900000000E+00
  0.7770178090000000E+01 -0.2248152160000000E+01
  0.1784415450000000E+01
  0.5696265200000000E+00 2  0.1777985340000000E+01  0.1958597600000000E+00
 -0.2317443900000000E+00
  0.2381265000000000E+00 1 -0.1624868022000000E+02
         # Potential name:  GTH-PBE-Q13  for symbol:  GA
         # Potential read from the potential filename: GTH_POTENTIALS
       &END POTENTIAL
     &END KIND
     &TOPOLOGY
       NUMBER_OF_ATOMS  212
       MULTIPLE_UNIT_CELL  1 1 1
     &END TOPOLOGY
     &COLVAR
       &DISTANCE
         ATOMS  176 211
       &END DISTANCE
       &PRINT
       &END PRINT
     &END COLVAR
   &END SUBSYS
 &END FORCE_EVAL
