 # Version information for this restart file 
 # current date 2019-07-18 04:31:10.225
 # current working dir /lustre04/scratch/rzk/rzk/GaN-carbene/443-adatoms-both-2x2/09-BondBreaking-CH/03-0501-CH-to-Nsur-PES/Phase03-Relaxation
 # Program compiled at                              Sun Apr  7 00:48:11 EDT 2019
 # Program compiled on                          beluga2.int.ets1.calculquebec.ca
 # Program compiled for                        Beluga-Linux-x86-64-intel-openmpi
 # Source code revision number                                         svn:18619
 &GLOBAL
   PRINT_LEVEL  MEDIUM
   PROJECT_NAME TEST
   RUN_TYPE  GEO_OPT
 &END GLOBAL
 &MOTION
   &GEO_OPT
     MAX_ITER  500
     STEP_START_VAL  56
   &END GEO_OPT
   &CONSTRAINT
     &COLLECTIVE
       COLVAR  1
       INTERMOLECULAR  T
       TARGET     3.2125344259055928E+00
       &RESTRAINT
         K     2.0000000000000000E+00
       &END RESTRAINT
     &END COLLECTIVE
     &COLVAR_RESTART
           3.2125344259055928E+00
     &END COLVAR_RESTART
   &END CONSTRAINT
 &END MOTION
 &FORCE_EVAL
   METHOD  QS
   STRESS_TENSOR  ANALYTICAL
   &DFT
     BASIS_SET_FILE_NAME BASIS_MOLOPT
     POTENTIAL_FILE_NAME GTH_POTENTIALS
     UKS  T
     SURFACE_DIPOLE_CORRECTION  T
     SURF_DIP_DIR  Z
     &SCF
       MAX_SCF  80
       EPS_SCF     5.0000000000000004E-06
       &OT  T
         PRECONDITIONER  FULL_ALL
       &END OT
       &OUTER_SCF  T
         OPTIMIZER  NONE
         EPS_SCF     5.0000000000000004E-06
         MAX_SCF  4
       &END OUTER_SCF
       &PRINT
         &RESTART  OFF
           BACKUP_COPIES  1
           &EACH
             JUST_ENERGY  0
             QS_SCF  0
             MD  20
           &END EACH
         &END RESTART
       &END PRINT
     &END SCF
     &QS
       EPS_DEFAULT     1.0000000000000000E-14
       METHOD  GPW
     &END QS
     &MGRID
       NGRIDS  5
       CUTOFF     1.2000000000000000E+03
     &END MGRID
     &XC
       DENSITY_CUTOFF     1.0000000000000000E-10
       GRADIENT_CUTOFF     1.0000000000000000E-10
       TAU_CUTOFF     1.0000000000000000E-10
       &XC_FUNCTIONAL  NO_SHORTCUT
         &PBE  T
         &END PBE
       &END XC_FUNCTIONAL
       &VDW_POTENTIAL
         POTENTIAL_TYPE  PAIR_POTENTIAL
         &PAIR_POTENTIAL
           R_CUTOFF     1.0000000000000004E+01
           TYPE  DFTD3
           PARAMETER_FILE_NAME dftd3.dat
           REFERENCE_FUNCTIONAL PBE
           EPS_CN     9.9999999999999995E-07
           CALCULATE_C9_TERM  T
           REFERENCE_C9_TERM  T
           LONG_RANGE_CORRECTION  F
           VERBOSE_OUTPUT  F
         &END PAIR_POTENTIAL
       &END VDW_POTENTIAL
     &END XC
   &END DFT
   &SUBSYS
     &CELL
       A     1.2864472766435110E+01    0.0000000000000000E+00    0.0000000000000000E+00
       B    -6.4322363581020028E+00    1.1140960178524473E+01    0.0000000000000000E+00
       C     0.0000000000000000E+00    0.0000000000000000E+00    3.2000000000000000E+01
       MULTIPLE_UNIT_CELL  1 1 1
       &CELL_REF
         A     1.2982353780853531E+01    0.0000000000000000E+00    0.0000000000000000E+00
         B    -6.4911768904267628E+00    1.1243048175136114E+01    0.0000000000000000E+00
         C     0.0000000000000000E+00    0.0000000000000000E+00    3.2000000000000000E+01
         MULTIPLE_UNIT_CELL  1 1 1
       &END CELL_REF
     &END CELL
     &COORD
N   -3.3074776640072058E-02    2.1057913349289037E+00    2.4586039870905312E+00
Ga   -3.7729113031702517E-02    1.3903799461880392E-01    2.8004386000439667E+00
N   -1.9531790697990829E-02    1.0718396182269789E-01    4.9775152794627591E+00
Ga   -2.8104094798886477E-02    1.9335588049306116E+00    5.7449643590403552E+00
N   -3.1441940040878254E-02    1.9519754655514043E+00    7.7486382736698056E+00
Ga   -2.9041586100673762E-02    1.0608706565793381E-01    8.3940799963820449E+00
N   -2.8301419592606687E-02    1.0613442004863712E-01    1.0371641031565751E+01
Ga   -2.6658256615684217E-02    1.9451719206395341E+00    1.1023229881779896E+01
N   -2.8886760594630079E-02    1.9275096903311317E+00    1.3019142367252959E+01
Ga   -2.8899706336631557E-02    1.0744592179549609E-01    1.3821181096799048E+01
N   -2.8656260353372570E-02    1.0806639214328682E-01    1.6025143020775957E+01
Ga   -3.0066820452161722E-02    2.1470454233382377E+00    1.6435307719659779E+01
Ga    4.7598676457965637E-02    3.8251105731943076E+00    1.3045617219735661E+00
N   -1.5197905838692558E+00    4.6928072456858381E+00    2.4874350044994333E+00
Ga   -1.6918715605838348E+00    2.8639024402429136E+00    3.2117364085965225E+00
N   -1.6514940122747439E+00    2.8837183923493641E+00    5.1819816122820752E+00
Ga   -1.6570412351738608E+00    4.7452460365908227E+00    5.7857510008545452E+00
N   -1.6430193459922451E+00    4.7481881272498683E+00    7.7704756337423131E+00
Ga   -1.6289746203865971E+00    2.8878514633195085E+00    8.3963402723483593E+00
N   -1.6260692922242881E+00    2.8956316225433607E+00    1.0389155365578850E+01
Ga   -1.6531391809221259E+00    4.7537042734167079E+00    1.1029511870369719E+01
N   -1.6695368849870251E+00    4.7668229189461542E+00    1.3022675930302301E+01
Ga   -1.6265283051620190E+00    2.8979185002110985E+00    1.3576790876186548E+01
N   -1.6544475301884618E+00    2.8852419060934937E+00    1.5539102645559886E+01
Ga   -1.4745647264893318E+00    4.6557909132582500E+00    1.6436346827177548E+01
N   -2.1982874659058228E-02    3.8174258957122218E+00    1.7570808755047000E+01
N   -3.2168378992654856E+00    7.6659613682612697E+00    2.5204837172191463E+00
Ga   -3.1578264503498268E+00    5.6935856174381874E+00    2.9752376953951964E+00
N   -3.2268858262857463E+00    5.6901484334761143E+00    5.0383593161096707E+00
Ga   -3.2471232344478338E+00    7.5107963307491348E+00    5.7996697926914731E+00
N   -3.2416134198708106E+00    7.5250020412209873E+00    7.7785362898661541E+00
Ga   -3.2476437578175186E+00    5.6706307558281690E+00    8.4063613816843787E+00
N   -3.2452823701631091E+00    5.6756123554625839E+00    1.0378681934121218E+01
Ga   -3.2475225340569280E+00    7.5153774801290041E+00    1.1030485861571492E+01
N   -3.2465018179783165E+00    7.4975213773423643E+00    1.3024095848753070E+01
Ga   -3.2463050068678694E+00    5.6763630816823616E+00    1.3824495299572959E+01
N   -3.2454455050847968E+00    5.6778221714387369E+00    1.6025833503675621E+01
Ga   -3.2465231743968568E+00    7.7168146196249996E+00    1.6434250465568834E+01
Ga   -3.2489998259844071E+00    9.4088815302240327E+00    1.5119282318233358E+00
N   -4.7467371100114883E+00    1.0248337619106362E+01    2.5023661946332050E+00
Ga   -4.9588497006645715E+00    8.3876140608169898E+00    3.2613130686682839E+00
N   -4.8522465845975500E+00    8.4538234521479918E+00    5.2147390357985897E+00
Ga   -4.8769414796716468E+00    1.0337151797528342E+01    5.7572923767924777E+00
N   -4.8608098130787996E+00    1.0321845578439911E+01    7.7549910528116888E+00
Ga   -4.8498571824755956E+00    8.4673997745728684E+00    8.3971040979771612E+00
N   -4.8432878151370282E+00    8.4679260053046725E+00    1.0389526514782935E+01
Ga   -4.8678499278524647E+00    1.0328731259281259E+01    1.1023899592774145E+01
N   -4.8849208598786618E+00    1.0338197519049928E+01    1.3019193928335246E+01
Ga   -4.8437649605341218E+00    8.4701730583263295E+00    1.3577229257151071E+01
N   -4.8716829653657774E+00    8.4568745353993986E+00    1.5539744937206525E+01
Ga   -4.6916434175891295E+00    1.0227863537641024E+01    1.6434573959537037E+01
N   -3.2390620551691671E+00    9.3896036563425938E+00    1.7566545851637144E+01
N    3.1785509407152279E+00    1.9697873004163251E+00    2.5612033838106596E+00
Ga    3.1978290037380543E+00    2.4759966356296112E-01    3.2568093032842884E+00
N    3.1949883756781179E+00    1.0051264682543488E-01    5.2159915862048241E+00
Ga    3.2146237591111366E+00    1.9838054106516794E+00    5.7884496761267616E+00
N    3.1949810993864287E+00    1.9642367635345990E+00    7.7842140461330382E+00
Ga    3.1846335533873256E+00    1.0380347877111085E-01    8.3926281718915572E+00
N    3.1864945801421189E+00    9.5440999829104464E-02    1.0388389102561488E+01
Ga    3.1901352055134486E+00    1.9646501902321729E+00    1.0978835730856167E+01
N    3.1878145073152413E+00    1.9650673538144310E+00    1.2952660163672540E+01
Ga    3.1863411007954197E+00    9.6391402643110025E-02    1.3575210392716867E+01
N    3.1841356753993320E+00    1.2711153477881912E-01    1.5538102702777635E+01
Ga    3.1860285300543065E+00    1.9657294279016206E+00    1.5817365376141746E+01
N    1.4427103758384421E+00    4.6930766319462682E+00    2.4962324890697625E+00
Ga    1.6674059636490419E+00    2.8484560340560812E+00    3.2344991438357638E+00
N    1.5797728285796677E+00    2.8928588993612454E+00    5.2130437140635513E+00
Ga    1.6058165954774124E+00    4.7517935928442068E+00    5.7858516520460244E+00
N    1.5875027578029002E+00    4.7527448644625752E+00    7.7736128182138495E+00
Ga    1.5758775993922640E+00    2.8881002789942820E+00    8.3847477117162104E+00
N    1.5702833477470115E+00    2.8949364069200785E+00    1.0383934308263722E+01
Ga    1.5986353273118121E+00    4.7530495207878420E+00    1.1024807102763951E+01
N    1.6118424666087587E+00    4.7668374475401061E+00    1.3020520086081909E+01
Ga    1.5683607811712410E+00    2.8983198601566680E+00    1.3576104994748702E+01
N    1.5938147124900790E+00    2.8839491997799276E+00    1.5539900246513273E+01
Ga    1.4215369948934753E+00    4.6597485088039896E+00    1.6435452983726410E+01
N   -1.4137630956177682E-02    7.5244188468349753E+00    2.6872140933779627E+00
Ga   -3.4811112242241093E-02    5.6638155170553111E+00    3.3120494551004662E+00
N   -3.0863001199343775E-02    5.6908881112216703E+00    5.2474042115863497E+00
Ga   -1.3810656318865850E-02    7.5303659796566684E+00    5.8883632848532752E+00
N   -2.4923903208159254E-02    7.5333994459527789E+00    7.8435075230621836E+00
Ga   -2.6352358001651106E-02    5.6589043502328638E+00    8.4159873712255546E+00
N   -2.8561022269656029E-02    5.6627456332993349E+00    1.0402939691113431E+01
Ga   -2.5885676656463668E-02    7.5325731189339162E+00    1.0994204960690809E+01
N   -2.8382786513229185E-02    7.5345372200312113E+00    1.2963980215244497E+01
Ga   -2.8684043217465035E-02    5.6631701277074127E+00    1.3578059568668252E+01
N   -3.1325394102424367E-02    5.6967260865086926E+00    1.5540236773952261E+01
Ga   -2.9739496838514672E-02    7.5357994926370253E+00    1.5815569311317939E+01
N   -1.7331690583137065E+00    1.0240878089046022E+01    2.5104392909181792E+00
Ga   -1.5877758123490442E+00    8.4554044945158040E+00    3.3334793739255422E+00
N   -1.6185758576273723E+00    8.4532858404256768E+00    5.2530513437932429E+00
Ga   -1.6088393234281788E+00    1.0342444855224803E+01    5.8001076461391641E+00
N   -1.6291486072269470E+00    1.0320527553143201E+01    7.7826909159292272E+00
Ga   -1.6454920635203083E+00    8.4700594164514129E+00    8.4231896680820793E+00
N   -1.6464475555260496E+00    8.4680436535526429E+00    1.0407914535151365E+01
Ga   -1.6204764075160669E+00    1.0333564995422352E+01    1.1025968368085554E+01
N   -1.6050964653383073E+00    1.0340144915354555E+01    1.3021478992033195E+01
Ga   -1.6495480378787839E+00    8.4712386602202674E+00    1.3577534281234373E+01
N   -1.6218753805451656E+00    8.4553803224294164E+00    1.5541432472116808E+01
Ga   -1.7943515583605913E+00    1.0231888236563075E+01    1.6433644761850868E+01
N    6.4285541748065445E+00    1.9652142432496937E+00    2.4706106526817742E+00
Ga    6.4270590292844085E+00    1.1692077290612746E-01    2.8933354414383192E+00
N    6.4033793854819967E+00    7.6688805001583357E-02    5.0428634985545742E+00
Ga    6.3983261121315174E+00    1.9521931283679932E+00    5.6910081463937896E+00
N    6.4083172712800636E+00    1.9577024337840552E+00    7.7210028494704348E+00
Ga    6.4080228548909863E+00    1.1954468523104055E-01    8.3939190687349594E+00
N    6.4057430770692649E+00    1.1018098258220133E-01    1.0372720521810928E+01
Ga    6.4036291578972557E+00    1.9488443089473928E+00    1.1022495105366106E+01
N    6.4030065805516019E+00    1.9288379751995826E+00    1.3018320514891137E+01
Ga    6.4039475410143254E+00    1.0913039793317759E-01    1.3822253792860765E+01
N    6.4039425494311386E+00    1.0904593641990419E-01    1.6025231201000082E+01
Ga    6.4020943790457556E+00    2.1501898727971240E+00    1.6437102444490968E+01
Ga    9.2008990971807236E+00    1.5154549484429598E+00    5.7467088530792942E-01
N    4.7700197856690227E+00    4.7538392297128578E+00    2.5215159188385745E+00
Ga    4.8004312055738767E+00    2.8181205957997051E+00    3.0240198951237534E+00
N    4.8003393805901577E+00    2.8970949164385122E+00    5.1092054981569941E+00
Ga    4.7715399393687932E+00    4.7351797848255828E+00    5.7264944511725844E+00
N    4.7884263022358100E+00    4.7511896041678918E+00    7.7359536972411700E+00
Ga    4.8113328617006745E+00    2.8942659442538305E+00    8.3756919753039707E+00
N    4.8083438819929887E+00    2.8972873127308216E+00    1.0377890198380722E+01
Ga    4.7829467891814650E+00    4.7541125337634851E+00    1.1020715361196098E+01
N    4.7644141770348947E+00    4.7670013955440460E+00    1.3016597941253771E+01
Ga    4.8059113489126153E+00    2.8995157892766286E+00    1.3575898209018540E+01
N    4.7769690014800830E+00    2.8856432879308311E+00    1.5537552611952425E+01
Ga    4.9598474511063699E+00    4.6550339557222866E+00    1.6437895883619241E+01
N    6.4090930461472437E+00    3.8183604138522846E+00    1.7572261707915303E+01
N    3.1776324761610399E+00    7.6564668521027901E+00    2.4849981195492736E+00
N    3.1677051455509257E+00    5.6843623252674798E+00    5.0221807822504552E+00
Ga    3.2020561623013837E+00    7.5078694993663246E+00    5.7677838290553964E+00
N    3.1914505525115913E+00    7.5255866257373540E+00    7.7613405451185935E+00
Ga    3.1957419017477964E+00    5.6734590321951455E+00    8.3981088828303339E+00
N    3.1904807619486659E+00    5.6767199712360119E+00    1.0374746899546301E+01
Ga    3.1928916039049544E+00    7.5148329329224763E+00    1.1028364913359031E+01
N    3.1886472461326210E+00    7.4975437991061700E+00    1.3022574824130315E+01
Ga    3.1887940538237252E+00    5.6762708769164156E+00    1.3822311833315663E+01
N    3.1883092550902354E+00    5.6779416159732916E+00    1.6025308745848264E+01
Ga    3.1862569317822542E+00    7.7170708777387516E+00    1.6435104323329455E+01
Ga    3.2012671118603397E+00    9.3831793902232974E+00    1.2224669014029717E+00
N    1.6802412157958819E+00    1.0257399689896555E+01    2.4968934498353792E+00
Ga    1.5945990567966737E+00    8.4726495679321943E+00    3.2835985516277137E+00
N    1.5726805050046493E+00    8.4550225607280023E+00    5.2270998182655006E+00
Ga    1.5547380003648930E+00    1.0334422150629484E+01    5.7870174491539101E+00
N    1.5774695270472134E+00    1.0320064958696376E+01    7.7733978292625636E+00
Ga    1.5994276099826583E+00    8.4684572913844445E+00    8.4160120130969478E+00
N    1.5934185634692846E+00    8.4680302663816676E+00    1.0403063228422244E+01
Ga    1.5666232602856964E+00    1.0332177446572533E+01    1.1024433354765931E+01
N    1.5477149529210803E+00    1.0339615584362253E+01    1.3019592079400947E+01
Ga    1.5918754426522872E+00    8.4712926566293838E+00    1.3577491859527241E+01
N    1.5619602144862363E+00    8.4573103995006758E+00    1.5539870317399926E+01
Ga    1.7414782166620244E+00    1.0227729012158061E+01    1.6435764071312324E+01
N    3.1939750989332230E+00    9.3888810370629479E+00    1.7570506802871780E+01
N    9.5970073463064214E+00    1.9460830400088378E+00    2.5163833426858790E+00
Ga    9.6233115999346577E+00    1.3422049621355445E-01    3.2683246338443941E+00
N    9.6212933405594256E+00    1.1315639219788293E-01    5.2129527623350338E+00
Ga    9.6033416759739954E+00    1.9772488761200875E+00    5.8102479433838150E+00
N    9.6158555577401312E+00    1.9655333612246408E+00    7.7908077267952223E+00
Ga    9.6275765538402869E+00    9.8371880532657316E-02    8.3886794478354059E+00
N    9.6237284954555076E+00    9.5065060858869149E-02    1.0384930153608135E+01
Ga    9.6190543620434372E+00    1.9626897893445694E+00    1.0981318606598821E+01
N    9.6187160109699459E+00    1.9644009460507086E+00    1.2953986851873472E+01
Ga    9.6192765623185466E+00    9.5474092475624786E-02    1.3576117409420821E+01
N    9.6174852660895045E+00    1.2657475808352436E-01    1.5538402844449827E+01
Ga    9.6180317903190780E+00    1.9652288645475673E+00    1.5817308719293360E+01
N    8.0240299915014379E+00    4.7916154300385028E+00    2.4469318636947701E+00
Ga    7.9610496796206212E+00    2.8760484954838681E+00    3.1182141061894875E+00
N    8.0261274528536291E+00    2.9066844799166360E+00    5.1219647309498022E+00
Ga    8.0291642212164671E+00    4.7510951144743379E+00    5.7479281783147105E+00
N    8.0214216795272115E+00    4.7520371004053228E+00    7.7436007805271698E+00
Ga    7.9972110359565116E+00    2.8936993310071251E+00    8.3844133214397676E+00
N    8.0015957312200765E+00    2.8975593825455155E+00    1.0382018744936994E+01
Ga    8.0247597116464870E+00    4.7548886386923606E+00    1.1023898648246631E+01
N    8.0419931097049648E+00    4.7673678124428074E+00    1.3018939872910511E+01
Ga    7.9994499807209998E+00    2.8991802840936214E+00    1.3576611613204587E+01
N    8.0271847916959835E+00    2.8841171423188601E+00    1.5539227412413739E+01
Ga    7.8503956693741976E+00    4.6584263545047291E+00    1.6437515398291822E+01
N    6.4238818848880603E+00    7.4883746453116551E+00    2.5334078663645974E+00
Ga    6.3770314581790544E+00    5.6954573097797772E+00    3.1879485199284243E+00
N    6.4048965146848014E+00    5.6611879648774890E+00    5.1591515067176292E+00
Ga    6.3964442221348081E+00    7.5123839392089531E+00    5.8102863659869302E+00
N    6.4048932086404271E+00    7.5263642616024020E+00    7.7909432948726804E+00
Ga    6.4012102327006781E+00    5.6605661438854034E+00    8.3851157180616926E+00
N    6.4045239424671498E+00    5.6634956737048769E+00    1.0381782797385032E+01
Ga    6.4038909468397289E+00    7.5312617921381513E+00    1.0982145431155617E+01
N    6.4031738108717517E+00    7.5341286715862470E+00    1.2954406936936131E+01
Ga    6.4023211888188118E+00    5.6648965782036038E+00    1.3576237792340336E+01
N    6.4007849152382708E+00    5.6978204793381408E+00    1.5537577421742835E+01
Ga    6.4017423550473476E+00    7.5352620120648766E+00    1.5818485750278205E+01
N    4.7048314448119415E+00    1.0268435342661943E+01    2.4801308353385116E+00
Ga    4.8852923984111332E+00    8.4059825819437126E+00    3.1785022655250232E+00
N    4.8066632256243071E+00    8.4531930200530141E+00    5.1723164430189321E+00
Ga    4.8337639486735080E+00    1.0324966189247654E+01    5.7406415566797850E+00
N    4.8078598894385323E+00    1.0320124255399158E+01    7.7434267742641403E+00
Ga    4.7926644251566666E+00    8.4666641674399621E+00    8.3912519706828448E+00
N    4.7880848514102752E+00    8.4684402854675902E+00    1.0386404581618651E+01
Ga    4.8123399556109332E+00    1.0327860072334172E+01    1.1024097935965754E+01
N    4.8268102744972943E+00    1.0338061884596216E+01    1.3019509952402922E+01
Ga    4.7848099124710979E+00    8.4698486180504471E+00    1.3577549340620163E+01
N    4.8108363670359715E+00    8.4557472180904156E+00    1.5540995962605793E+01
Ga    4.6373073532046716E+00    1.0231051893559558E+01    1.6435214347133758E+01
O    3.8248590268970248E-02    3.8895880596658912E+00   -5.0832993339116206E-01
H   -2.8611338699769107E-02    7.5160129891078071E+00    1.6606310388559604E+00
C   -7.3478761575285267E-01    2.9024680909782647E+00   -1.1951751571318341E+00
H   -5.4138842991021230E-01    1.8779160082363120E+00   -8.3258798154993174E-01
H   -1.8213732221463010E+00    3.0981338478612841E+00   -1.1187625486086552E+00
H   -4.6308975877151126E-01    2.9438937870268389E+00   -2.2605445242563085E+00
Ga    3.1005364560500261E+00    5.7081731447493897E+00    2.9246167258341145E+00
O    6.8628122825424533E+00    5.7844244626511445E+00    5.3081579480350138E-01
H    4.9234865183269623E+00    4.7957299974079257E+00    1.5032540250271442E+00
C    7.8922971479212523E+00    4.9087887769172713E+00    9.4820222234082197E-01
H    8.8672036481957104E+00    5.2192521547413593E+00    5.2567154270707095E-01
H    6.8154777306362408E+00    6.6248338270838643E+00    1.1214661710979767E+00
H    7.6341294894624614E+00    3.9242293105919965E+00    5.1587371452763087E-01
     &END COORD
     &KIND C
       BASIS_SET DZVP-MOLOPT-SR-GTH-q4
       POTENTIAL GTH-PBE-q4
       &POTENTIAL
 2 2
  0.3384712400000000E+00 2 -0.8803673979999999E+01  0.1339210850000000E+01
 2
  0.3025757500000000E+00 1  0.9622486650000001E+01
  0.2915069400000000E+00 0
         # Potential name:  GTH-PBE-Q4  for symbol:  C
         # Potential read from the potential filename: GTH_POTENTIALS
       &END POTENTIAL
     &END KIND
     &KIND O
       BASIS_SET DZVP-MOLOPT-SR-GTH-q6
       POTENTIAL GTH-PBE-q6
       &POTENTIAL
 2 4
  0.2445543000000000E+00 2 -0.1666721480000000E+02  0.2487311320000000E+01
 2
  0.2209559200000000E+00 1  0.1833745811000000E+02
  0.2113324700000000E+00 0
         # Potential name:  GTH-PBE-Q6  for symbol:  O
         # Potential read from the potential filename: GTH_POTENTIALS
       &END POTENTIAL
     &END KIND
     &KIND H
       BASIS_SET DZVP-MOLOPT-SR-GTH-q1
       POTENTIAL GTH-PBE-q1
       &POTENTIAL
 1
  0.2000000000000000E+00 2 -0.4178900440000000E+01  0.7244633100000000E+00
 0
         # Potential name:  GTH-PBE-Q1  for symbol:  H
         # Potential read from the potential filename: GTH_POTENTIALS
       &END POTENTIAL
     &END KIND
     &KIND N
       BASIS_SET DZVP-MOLOPT-SR-GTH
       POTENTIAL GTH-PBE-q5
       &POTENTIAL
 2 3
  0.2837905100000000E+00 2 -0.1241522559000000E+02  0.1868095920000000E+01
 2
  0.2554050000000000E+00 1  0.1363026257000000E+02
  0.2454945300000000E+00 0
         # Potential name:  GTH-PBE-Q5  for symbol:  N
         # Potential read from the potential filename: GTH_POTENTIALS
       &END POTENTIAL
     &END KIND
     &KIND Ga
       BASIS_SET DZVP-MOLOPT-SR-GTH
       POTENTIAL GTH-PBE-q13
       &POTENTIAL
 2 1 10
  0.4900000000000000E+00 0
 3
  0.4167772300000000E+00 3  0.1047568975000000E+02 -0.4921768140000000E+01  0.8707055900000000E+00
  0.7770178090000000E+01 -0.2248152160000000E+01
  0.1784415450000000E+01
  0.5696265200000000E+00 2  0.1777985340000000E+01  0.1958597600000000E+00
 -0.2317443900000000E+00
  0.2381265000000000E+00 1 -0.1624868022000000E+02
         # Potential name:  GTH-PBE-Q13  for symbol:  GA
         # Potential read from the potential filename: GTH_POTENTIALS
       &END POTENTIAL
     &END KIND
     &TOPOLOGY
       NUMBER_OF_ATOMS  212
       MULTIPLE_UNIT_CELL  1 1 1
     &END TOPOLOGY
     &COLVAR
       &DISTANCE
         ATOMS  176 211
       &END DISTANCE
       &PRINT
       &END PRINT
     &END COLVAR
   &END SUBSYS
 &END FORCE_EVAL
