 # Version information for this restart file 
 # current date 2019-07-18 04:42:30.721
 # current working dir /lustre04/scratch/rzk/rzk/GaN-carbene/443-adatoms-both-2x2/09-BondBreaking-CH/03-0501-CH-to-Nsur-PES/Phase03-Relaxation
 # Program compiled at                              Sun Apr  7 00:48:11 EDT 2019
 # Program compiled on                          beluga2.int.ets1.calculquebec.ca
 # Program compiled for                        Beluga-Linux-x86-64-intel-openmpi
 # Source code revision number                                         svn:18619
 &GLOBAL
   PRINT_LEVEL  MEDIUM
   PROJECT_NAME TEST
   RUN_TYPE  GEO_OPT
 &END GLOBAL
 &MOTION
   &GEO_OPT
     MAX_ITER  500
     STEP_START_VAL  58
   &END GEO_OPT
   &CONSTRAINT
     &COLLECTIVE
       COLVAR  1
       INTERMOLECULAR  T
       TARGET     3.2125344259055928E+00
       &RESTRAINT
         K     2.0000000000000000E+00
       &END RESTRAINT
     &END COLLECTIVE
     &COLVAR_RESTART
           3.2125344259055928E+00
     &END COLVAR_RESTART
   &END CONSTRAINT
 &END MOTION
 &FORCE_EVAL
   METHOD  QS
   STRESS_TENSOR  ANALYTICAL
   &DFT
     BASIS_SET_FILE_NAME BASIS_MOLOPT
     POTENTIAL_FILE_NAME GTH_POTENTIALS
     UKS  T
     SURFACE_DIPOLE_CORRECTION  T
     SURF_DIP_DIR  Z
     &SCF
       MAX_SCF  80
       EPS_SCF     5.0000000000000004E-06
       &OT  T
         PRECONDITIONER  FULL_ALL
       &END OT
       &OUTER_SCF  T
         OPTIMIZER  NONE
         EPS_SCF     5.0000000000000004E-06
         MAX_SCF  4
       &END OUTER_SCF
       &PRINT
         &RESTART  OFF
           BACKUP_COPIES  1
           &EACH
             JUST_ENERGY  0
             QS_SCF  0
             MD  20
           &END EACH
         &END RESTART
       &END PRINT
     &END SCF
     &QS
       EPS_DEFAULT     1.0000000000000000E-14
       METHOD  GPW
     &END QS
     &MGRID
       NGRIDS  5
       CUTOFF     1.2000000000000000E+03
     &END MGRID
     &XC
       DENSITY_CUTOFF     1.0000000000000000E-10
       GRADIENT_CUTOFF     1.0000000000000000E-10
       TAU_CUTOFF     1.0000000000000000E-10
       &XC_FUNCTIONAL  NO_SHORTCUT
         &PBE  T
         &END PBE
       &END XC_FUNCTIONAL
       &VDW_POTENTIAL
         POTENTIAL_TYPE  PAIR_POTENTIAL
         &PAIR_POTENTIAL
           R_CUTOFF     1.0000000000000004E+01
           TYPE  DFTD3
           PARAMETER_FILE_NAME dftd3.dat
           REFERENCE_FUNCTIONAL PBE
           EPS_CN     9.9999999999999995E-07
           CALCULATE_C9_TERM  T
           REFERENCE_C9_TERM  T
           LONG_RANGE_CORRECTION  F
           VERBOSE_OUTPUT  F
         &END PAIR_POTENTIAL
       &END VDW_POTENTIAL
     &END XC
   &END DFT
   &SUBSYS
     &CELL
       A     1.2864472766435110E+01    0.0000000000000000E+00    0.0000000000000000E+00
       B    -6.4322363581020028E+00    1.1140960178524473E+01    0.0000000000000000E+00
       C     0.0000000000000000E+00    0.0000000000000000E+00    3.2000000000000000E+01
       MULTIPLE_UNIT_CELL  1 1 1
       &CELL_REF
         A     1.2982353780853531E+01    0.0000000000000000E+00    0.0000000000000000E+00
         B    -6.4911768904267628E+00    1.1243048175136114E+01    0.0000000000000000E+00
         C     0.0000000000000000E+00    0.0000000000000000E+00    3.2000000000000000E+01
         MULTIPLE_UNIT_CELL  1 1 1
       &END CELL_REF
     &END CELL
     &COORD
N   -3.2659631535924570E-02    2.1056055393620694E+00    2.4574693270783747E+00
Ga   -3.7549824219890587E-02    1.3834720103789017E-01    2.7995238607239314E+00
N   -1.9444697151324599E-02    1.0723731262732432E-01    4.9771278111758877E+00
Ga   -2.7981774724736286E-02    1.9335967114044048E+00    5.7447663335968775E+00
N   -3.1493917176068337E-02    1.9520038256862065E+00    7.7483339881793301E+00
Ga   -2.9107866250070866E-02    1.0606042095148768E-01    8.3935056711743812E+00
N   -2.8335976223837291E-02    1.0605155218708856E-01    1.0371057760526190E+01
Ga   -2.6737873748461569E-02    1.9452065141874304E+00    1.1022614462808319E+01
N   -2.8853107520466888E-02    1.9274172562622260E+00    1.3018679310372221E+01
Ga   -2.8992866844130487E-02    1.0719114407193731E-01    1.3820393797970281E+01
N   -2.8515749239904666E-02    1.0782544652876493E-01    1.6025077421004006E+01
Ga   -2.9956943338003895E-02    2.1462413000827287E+00    1.6434250886921497E+01
Ga    4.8705214226343954E-02    3.8250931651666082E+00    1.3034976840454768E+00
N   -1.5194472626300035E+00    4.6926272151060227E+00    2.4866181808069068E+00
Ga   -1.6911669575972910E+00    2.8640135827794189E+00    3.2114519379502626E+00
N   -1.6512147273192406E+00    2.8837564725065303E+00    5.1816408707779775E+00
Ga   -1.6567554027213751E+00    4.7452619849330633E+00    5.7853583686623882E+00
N   -1.6430131330342399E+00    4.7482489388925382E+00    7.7700550266212289E+00
Ga   -1.6289554721927699E+00    2.8879183544055680E+00    8.3959148656203464E+00
N   -1.6262333745504569E+00    2.8956045736946279E+00    1.0388670703509673E+01
Ga   -1.6531956412234330E+00    4.7536572476891505E+00    1.1029063383853957E+01
N   -1.6695483556123587E+00    4.7667128793277476E+00    1.3022355254054812E+01
Ga   -1.6266750616247279E+00    2.8976742252141152E+00    1.3576468040490205E+01
N   -1.6542558091269115E+00    2.8851665995488278E+00    1.5538846420820374E+01
Ga   -1.4750555613651022E+00    4.6560737430147707E+00    1.6435291580039124E+01
N   -2.1690180353107925E-02    3.8174425860211585E+00    1.7569573942534721E+01
N   -3.2166221998230968E+00    7.6654075568637401E+00    2.5202365100209700E+00
Ga   -3.1574820766823954E+00    5.6933538651595432E+00    2.9749013557391972E+00
N   -3.2267761299729152E+00    5.6898218786670416E+00    5.0382370828361651E+00
Ga   -3.2472333602065468E+00    7.5105797698010903E+00    5.7995040500876360E+00
N   -3.2416770718417616E+00    7.5249764547893108E+00    7.7783235626410656E+00
Ga   -3.2476386993100688E+00    5.6706152532041711E+00    8.4061347960663273E+00
N   -3.2454471742970967E+00    5.6755785499904006E+00    1.0378392069657284E+01
Ga   -3.2476161121893883E+00    7.5154047468277581E+00    1.1030048545073253E+01
N   -3.2465221116279590E+00    7.4975624014712690E+00    1.3023817386501930E+01
Ga   -3.2465541224480869E+00    5.6761806473243546E+00    1.3824008413023051E+01
N   -3.2452734899363289E+00    5.6778198914596700E+00    1.6025867363648906E+01
Ga   -3.2464175030313243E+00    7.7160470346487964E+00    1.6432861862908307E+01
Ga   -3.2488468623995694E+00    9.4080224337981466E+00    1.5097423742818659E+00
N   -4.7466274782938802E+00    1.0247778968423889E+01    2.5015817898139034E+00
Ga   -4.9585762569655589E+00    8.3868829370036995E+00    3.2606328547408925E+00
N   -4.8523373071857314E+00    8.4535873621457931E+00    5.2143483230777967E+00
Ga   -4.8768281316833049E+00    1.0336968832386582E+01    5.7568797443587254E+00
N   -4.8608693235897569E+00    1.0321789813485873E+01    7.7545971919055958E+00
Ga   -4.8498871093708829E+00    8.4674006452126136E+00    8.3968212267359075E+00
N   -4.8434559678993940E+00    8.4678275627058017E+00    1.0389141478126612E+01
Ga   -4.8678366274706226E+00    1.0328617314802953E+01    1.1023365394011538E+01
N   -4.8847808193184159E+00    1.0337984512046322E+01    1.3018811693827832E+01
Ga   -4.8440123239274735E+00    8.4699240495322830E+00    1.3576885803786949E+01
N   -4.8715638812214053E+00    8.4567060422246634E+00    1.5539423644474793E+01
Ga   -4.6920381093326640E+00    1.0227976653816178E+01    1.6433222733955851E+01
N   -3.2387357223782312E+00    9.3894720759483956E+00    1.7564599406049535E+01
N    3.1788436358894852E+00    1.9695387653223742E+00    2.5608281419780985E+00
Ga    3.1979229777851663E+00    2.4707311308288665E-01    3.2558379733147782E+00
N    3.1950554971327576E+00    1.0039967971635697E-01    5.2154980092579821E+00
Ga    3.2145487952066594E+00    1.9836298792848668E+00    5.7879870969682834E+00
N    3.1948217068999738E+00    1.9641755993400156E+00    7.7838708017110321E+00
Ga    3.1845537555215655E+00    1.0373504026305709E-01    8.3923538984866379E+00
N    3.1864541459720908E+00    9.5446078620534960E-02    1.0388044527282071E+01
Ga    3.1900640626671182E+00    1.9645593147361966E+00    1.0978882243825094E+01
N    3.1878582969542810E+00    1.9649045933737708E+00    1.2952561819185902E+01
Ga    3.1863282654782070E+00    9.6485174482563871E-02    1.3574940795441160E+01
N    3.1841850580633313E+00    1.2700179176166246E-01    1.5537829798913330E+01
Ga    3.1861775890358479E+00    1.9656194557564217E+00    1.5817297835883563E+01
N    1.4432350628912909E+00    4.6928461096194285E+00    2.4958419622250467E+00
Ga    1.6678642107381429E+00    2.8480850628687326E+00    3.2341773172997863E+00
N    1.5797637460606493E+00    2.8928396126226334E+00    5.2127161444072172E+00
Ga    1.6056775113186923E+00    4.7517518230862912E+00    5.7853079708057473E+00
N    1.5873545146901589E+00    4.7527979597444476E+00    7.7731270333536946E+00
Ga    1.5757787448579579E+00    2.8881432392138215E+00    8.3844519190860520E+00
N    1.5703284341924781E+00    2.8948866306946321E+00    1.0383570242233921E+01
Ga    1.5985266196937831E+00    4.7530180968019753E+00    1.1024426549652452E+01
N    1.6118164746589998E+00    4.7666860928060908E+00    1.3020270519331348E+01
Ga    1.5685636406383918E+00    2.8980628662144294E+00    1.3575946923082164E+01
N    1.5938605941412696E+00    2.8837672786737478E+00    1.5539759355233244E+01
Ga    1.4224947576642268E+00    4.6602019350793844E+00    1.6434386157140967E+01
N   -1.4176631329708230E-02    7.5243106709186360E+00    2.6864410904066602E+00
Ga   -3.4595965040641420E-02    5.6637929567429648E+00    3.3112551657280966E+00
N   -3.0751626368011230E-02    5.6908800651689564E+00    5.2467054521328489E+00
Ga   -1.3469664293536064E-02    7.5302600480809998E+00    5.8875759228594706E+00
N   -2.4897335970206207E-02    7.5334665852471723E+00    7.8428382206803153E+00
Ga   -2.6424002086201430E-02    5.6589775063223460E+00    8.4156767009022246E+00
N   -2.8653320563545633E-02    5.6628312355493957E+00    1.0402534624761032E+01
Ga   -2.5943411540933457E-02    7.5325910968230811E+00    1.0994053853938661E+01
N   -2.8448857873648578E-02    7.5344739236608467E+00    1.2963709014161894E+01
Ga   -2.8679428668419254E-02    5.6632614861543100E+00    1.3577820613492102E+01
N   -3.1334844486681980E-02    5.6966399797880252E+00    1.5540000835940685E+01
Ga   -2.9569591730578305E-02    7.5357428408928033E+00    1.5815316355463633E+01
N   -1.7328867065973954E+00    1.0240322869445780E+01    2.5096949196441884E+00
Ga   -1.5878662447175318E+00    8.4550458402493085E+00    3.3332799709304894E+00
N   -1.6185036401183077E+00    8.4531149341968490E+00    5.2529356879323075E+00
Ga   -1.6088009128660117E+00    1.0342402144059601E+01    5.7998413324305682E+00
N   -1.6291650209337187E+00    1.0320523471811656E+01    7.7824375217298778E+00
Ga   -1.6455498111964504E+00    8.4700589045605632E+00    8.4228685376443799E+00
N   -1.6464858276583514E+00    8.4680164318994180E+00    1.0407538592320444E+01
Ga   -1.6205452223159766E+00    1.0333526234232767E+01    1.1025595215939758E+01
N   -1.6051955799824202E+00    1.0340011439368995E+01    1.3021255289455649E+01
Ga   -1.6493935762859799E+00    8.4710658631889366E+00    1.3577250534784552E+01
N   -1.6217526044050639E+00    8.4551632669690040E+00    1.5541127413666494E+01
Ga   -1.7934540043718172E+00    1.0232184149770898E+01    1.6432253233347371E+01
N    6.4288470174049896E+00    1.9646770056053724E+00    2.4701466501584806E+00
Ga    6.4278193194349154E+00    1.1610683778674732E-01    2.8917497512661861E+00
N    6.4035796513794985E+00    7.6374109158223985E-02    5.0422429129461541E+00
Ga    6.3985152022528915E+00    1.9519209527505865E+00    5.6908510133516641E+00
N    6.4083112622393275E+00    1.9575834883316410E+00    7.7208090448420377E+00
Ga    6.4080841729860403E+00    1.1939835768678808E-01    8.3935096124530570E+00
N    6.4056805414351174E+00    1.1011182458066029E-01    1.0372253572150315E+01
Ga    6.4035773871774833E+00    1.9488130782831179E+00    1.1022134291202315E+01
N    6.4029858606146881E+00    1.9288758047712304E+00    1.3018007799165387E+01
Ga    6.4040789120062502E+00    1.0916782475157126E-01    1.3821943990637500E+01
N    6.4040774069916075E+00    1.0874828162472447E-01    1.6025207815715167E+01
Ga    6.4022254030247936E+00    2.1502561232219568E+00    1.6437198889036701E+01
Ga    9.2085382070576109E+00    1.5194083861078544E+00    5.7213926527672121E-01
N    4.7706259566224860E+00    4.7533053715477882E+00    2.5216318885986690E+00
Ga    4.8007965907743149E+00    2.8173834730900946E+00    3.0240402092374601E+00
N    4.8004355357219755E+00    2.8968952703571018E+00    5.1093315779017567E+00
Ga    4.7717356776793851E+00    4.7349410122731355E+00    5.7264728399734421E+00
N    4.7883234646814827E+00    4.7511244409559215E+00    7.7358466431669877E+00
Ga    4.8112095989562400E+00    2.8941122834049140E+00    8.3755265186051329E+00
N    4.8081894692047431E+00    2.8971212081957241E+00    1.0377592011496256E+01
Ga    4.7829313518358054E+00    4.7539751404550605E+00    1.1020388389336709E+01
N    4.7645397133707172E+00    4.7667662079136042E+00    1.3016334178780456E+01
Ga    4.8057794800000124E+00    2.8992957211320007E+00    1.3576057656569036E+01
N    4.7769187142675715E+00    2.8853774370811078E+00    1.5537474107654951E+01
Ga    4.9601923959053016E+00    4.6547717503784201E+00    1.6438075148829338E+01
N    6.4091682048441498E+00    3.8181473617250763E+00    1.7572088524281394E+01
N    3.1781053616324004E+00    7.6563828562276726E+00    2.4843559529111254E+00
N    3.1679118563134314E+00    5.6842016485347147E+00    5.0218752223142111E+00
Ga    3.2022183206630732E+00    7.5078852762306481E+00    5.7670113590482179E+00
N    3.1913907759205493E+00    7.5256177409483165E+00    7.7606274590938034E+00
Ga    3.1955820296755202E+00    5.6734826506016951E+00    8.3977494272268487E+00
N    3.1904305600318090E+00    5.6766651733993223E+00    1.0374303055177919E+01
Ga    3.1928316415219591E+00    7.5148674970274403E+00    1.1027788336466530E+01
N    3.1886893759591164E+00    7.4975007385248054E+00    1.3022040311853324E+01
Ga    3.1890068410615182E+00    5.6762071090294679E+00    1.3822070786327377E+01
N    3.1883647797379724E+00    5.6779315853168510E+00    1.6025303465878483E+01
Ga    3.1863495138497564E+00    7.7169146391043570E+00    1.6434866438195190E+01
Ga    3.2019612841690184E+00    9.3825993801926355E+00    1.2226204867375248E+00
N    1.6814203676372816E+00    1.0256495208322969E+01    2.4952981072958464E+00
Ga    1.5947769611727387E+00    8.4721722838408962E+00    3.2827684391606402E+00
N    1.5729715423128716E+00    8.4549064465718491E+00    5.2262997787816960E+00
Ga    1.5550368408104600E+00    1.0334186189685722E+01    5.7860266591004121E+00
N    1.5775784132838278E+00    1.0320029581626651E+01    7.7725844377184794E+00
Ga    1.5994153754052798E+00    8.4685043516231033E+00    8.4154872609245199E+00
N    1.5932832572770592E+00    8.4680107772004902E+00    1.0402449963839317E+01
Ga    1.5666376872332388E+00    1.0332141833953301E+01    1.1023901057673736E+01
N    1.5477611608488098E+00    1.0339505307363657E+01    1.3019071644641667E+01
Ga    1.5917955907863441E+00    8.4711248142650195E+00    1.3577288823305690E+01
N    1.5619419716327672E+00    8.4571276474261854E+00    1.5539405932364705E+01
Ga    1.7416870333699217E+00    1.0227482866895677E+01    1.6435536144527667E+01
N    3.1940361762363261E+00    9.3885610280108995E+00    1.7570523008088617E+01
N    9.5978478671676815E+00    1.9457121228178456E+00    2.5156108360604370E+00
Ga    9.6236935467538078E+00    1.3386301296046277E-01    3.2672282471810759E+00
N    9.6214898479147219E+00    1.1283804390807120E-01    5.2120668458404422E+00
Ga    9.6036824341113043E+00    1.9769064855324274E+00    5.8094729150425728E+00
N    9.6159785734285403E+00    1.9654046378725452E+00    7.7900829350480434E+00
Ga    9.6276128992758849E+00    9.8282418752549019E-02    8.3880314710119634E+00
N    9.6236531708276214E+00    9.5098305398786623E-02    1.0384237929946414E+01
Ga    9.6189941726924726E+00    1.9626150078694906E+00    1.0981194713950543E+01
N    9.6186705464838234E+00    1.9643256572021452E+00    1.2953711989523990E+01
Ga    9.6193424837111632E+00    9.5482219541947272E-02    1.3575844177150445E+01
N    9.6176905519758211E+00    1.2643041045817396E-01    1.5537921490905873E+01
Ga    9.6181202076037238E+00    1.9649955732982627E+00    1.5817103354878581E+01
N    8.0246220098396641E+00    4.7906560358754628E+00    2.4468328535797954E+00
Ga    7.9614932271231433E+00    2.8751845200282160E+00    3.1177726697031818E+00
N    8.0263923465329512E+00    2.9063114070239746E+00    5.1217277395241645E+00
Ga    8.0292837239699129E+00    4.7507267436508389E+00    5.7477726912231413E+00
N    8.0214351458180619E+00    4.7518706634256853E+00    7.7434202269213097E+00
Ga    7.9972647801261711E+00    2.8935033963257468E+00    8.3841560615876443E+00
N    8.0015865870879566E+00    2.8974026548405747E+00    1.0381632646036106E+01
Ga    8.0245501393662302E+00    4.7547158776041396E+00    1.1023548942073898E+01
N    8.0418052433342080E+00    4.7671394266481855E+00    1.3018612725594858E+01
Ga    7.9995573350202989E+00    2.8989655785776938E+00    1.3576682536070502E+01
N    8.0274852476050569E+00    2.8839371051519254E+00    1.5539071721961403E+01
Ga    7.8501592397069011E+00    4.6580860399503612E+00    1.6437597642618304E+01
N    6.4243588590175982E+00    7.4871647519038964E+00    2.5331970026137465E+00
Ga    6.3777865575805555E+00    5.6948260976818377E+00    3.1884440267864536E+00
N    6.4050543186264379E+00    5.6608080677742549E+00    5.1593859876818424E+00
Ga    6.3964815374631598E+00    7.5120573979643446E+00    5.8098396282659088E+00
N    6.4048221419427875E+00    7.5262715663497746E+00    7.7905048273647166E+00
Ga    6.4011611303781644E+00    5.6604404145419513E+00    8.3849477676544382E+00
N    6.4044276706646501E+00    5.6634653705938351E+00    1.0381453777545913E+01
Ga    6.4038026979372455E+00    7.5311384583612817E+00    1.0982024591474662E+01
N    6.4032417589672042E+00    7.5339192066355833E+00    1.2954120869646490E+01
Ga    6.4022997828634960E+00    5.6649249444114833E+00    1.3576347945310705E+01
N    6.4009813461631246E+00    5.6978078236899821E+00    1.5537455614890815E+01
Ga    6.4017907625768053E+00    7.5350728198624912E+00    1.5818245389987240E+01
N    4.7049740374343338E+00    1.0267523322300651E+01    2.4789108867452976E+00
Ga    4.8860638442642035E+00    8.4050371263591881E+00    3.1780211047976974E+00
N    4.8068697576826800E+00    8.4529373307902382E+00    5.1716910383057764E+00
Ga    4.8338453154930807E+00    1.0324699341401487E+01    5.7396370227472184E+00
N    4.8077978169516760E+00    1.0320039572761271E+01    7.7425334847923333E+00
Ga    4.7925896523552556E+00    8.4666522029744442E+00    8.3906519938815283E+00
N    4.7881119702432926E+00    8.4683021431400469E+00    1.0385731040943769E+01
Ga    4.8121797162533779E+00    1.0327716232632239E+01    1.1023368830446870E+01
N    4.8267811678726558E+00    1.0337843411717392E+01    1.3018801131818757E+01
Ga    4.7850349737830964E+00    8.4696058776739065E+00    1.3577373532654399E+01
N    4.8110608417215284E+00    8.4556152711754979E+00    1.5540580978435903E+01
Ga    4.6372337845760372E+00    1.0230725444163326E+01    1.6434961306839607E+01
O    4.0988976449597245E-02    3.8923497089576244E+00   -5.0935975925279364E-01
H   -2.9340026102278146E-02    7.5163658832045259E+00    1.6597139532003511E+00
C   -7.3609566015404970E-01    2.9105285344658505E+00   -1.1991939088158221E+00
H   -5.5156221198863031E-01    1.8846052341441812E+00   -8.3482058031414152E-01
H   -1.8217317064838636E+00    3.1140810590002346E+00   -1.1280386122070778E+00
H   -4.5829067479573560E-01    2.9488200860667657E+00   -2.2634338054191545E+00
Ga    3.1010417897770139E+00    5.7082071905707341E+00    2.9239969939859023E+00
O    6.8642272070963850E+00    5.7835259523544522E+00    5.3052346007329410E-01
H    4.9242065383389972E+00    4.7949120773863374E+00    1.5032153494521241E+00
C    7.8918586245960798E+00    4.9060602435462695E+00    9.4830065832284749E-01
H    8.8679583764915151E+00    5.2124440410289719E+00    5.2460279091347672E-01
H    6.8173935108611792E+00    6.6233111200569716E+00    1.1218754402894915E+00
H    7.6303832296375003E+00    3.9212695847892904E+00    5.1793726299559306E-01
     &END COORD
     &KIND C
       BASIS_SET DZVP-MOLOPT-SR-GTH-q4
       POTENTIAL GTH-PBE-q4
       &POTENTIAL
 2 2
  0.3384712400000000E+00 2 -0.8803673979999999E+01  0.1339210850000000E+01
 2
  0.3025757500000000E+00 1  0.9622486650000001E+01
  0.2915069400000000E+00 0
         # Potential name:  GTH-PBE-Q4  for symbol:  C
         # Potential read from the potential filename: GTH_POTENTIALS
       &END POTENTIAL
     &END KIND
     &KIND O
       BASIS_SET DZVP-MOLOPT-SR-GTH-q6
       POTENTIAL GTH-PBE-q6
       &POTENTIAL
 2 4
  0.2445543000000000E+00 2 -0.1666721480000000E+02  0.2487311320000000E+01
 2
  0.2209559200000000E+00 1  0.1833745811000000E+02
  0.2113324700000000E+00 0
         # Potential name:  GTH-PBE-Q6  for symbol:  O
         # Potential read from the potential filename: GTH_POTENTIALS
       &END POTENTIAL
     &END KIND
     &KIND H
       BASIS_SET DZVP-MOLOPT-SR-GTH-q1
       POTENTIAL GTH-PBE-q1
       &POTENTIAL
 1
  0.2000000000000000E+00 2 -0.4178900440000000E+01  0.7244633100000000E+00
 0
         # Potential name:  GTH-PBE-Q1  for symbol:  H
         # Potential read from the potential filename: GTH_POTENTIALS
       &END POTENTIAL
     &END KIND
     &KIND N
       BASIS_SET DZVP-MOLOPT-SR-GTH
       POTENTIAL GTH-PBE-q5
       &POTENTIAL
 2 3
  0.2837905100000000E+00 2 -0.1241522559000000E+02  0.1868095920000000E+01
 2
  0.2554050000000000E+00 1  0.1363026257000000E+02
  0.2454945300000000E+00 0
         # Potential name:  GTH-PBE-Q5  for symbol:  N
         # Potential read from the potential filename: GTH_POTENTIALS
       &END POTENTIAL
     &END KIND
     &KIND Ga
       BASIS_SET DZVP-MOLOPT-SR-GTH
       POTENTIAL GTH-PBE-q13
       &POTENTIAL
 2 1 10
  0.4900000000000000E+00 0
 3
  0.4167772300000000E+00 3  0.1047568975000000E+02 -0.4921768140000000E+01  0.8707055900000000E+00
  0.7770178090000000E+01 -0.2248152160000000E+01
  0.1784415450000000E+01
  0.5696265200000000E+00 2  0.1777985340000000E+01  0.1958597600000000E+00
 -0.2317443900000000E+00
  0.2381265000000000E+00 1 -0.1624868022000000E+02
         # Potential name:  GTH-PBE-Q13  for symbol:  GA
         # Potential read from the potential filename: GTH_POTENTIALS
       &END POTENTIAL
     &END KIND
     &TOPOLOGY
       NUMBER_OF_ATOMS  212
       MULTIPLE_UNIT_CELL  1 1 1
     &END TOPOLOGY
     &COLVAR
       &DISTANCE
         ATOMS  176 211
       &END DISTANCE
       &PRINT
       &END PRINT
     &END COLVAR
   &END SUBSYS
 &END FORCE_EVAL
