 # Version information for this restart file 
 # current date 2019-07-18 04:48:03.731
 # current working dir /lustre04/scratch/rzk/rzk/GaN-carbene/443-adatoms-both-2x2/09-BondBreaking-CH/03-0501-CH-to-Nsur-PES/Phase03-Relaxation
 # Program compiled at                              Sun Apr  7 00:48:11 EDT 2019
 # Program compiled on                          beluga2.int.ets1.calculquebec.ca
 # Program compiled for                        Beluga-Linux-x86-64-intel-openmpi
 # Source code revision number                                         svn:18619
 &GLOBAL
   PRINT_LEVEL  MEDIUM
   PROJECT_NAME TEST
   RUN_TYPE  GEO_OPT
 &END GLOBAL
 &MOTION
   &GEO_OPT
     MAX_ITER  500
     STEP_START_VAL  59
   &END GEO_OPT
   &CONSTRAINT
     &COLLECTIVE
       COLVAR  1
       INTERMOLECULAR  T
       TARGET     3.2125344259055928E+00
       &RESTRAINT
         K     2.0000000000000000E+00
       &END RESTRAINT
     &END COLLECTIVE
     &COLVAR_RESTART
           3.2125344259055928E+00
     &END COLVAR_RESTART
   &END CONSTRAINT
 &END MOTION
 &FORCE_EVAL
   METHOD  QS
   STRESS_TENSOR  ANALYTICAL
   &DFT
     BASIS_SET_FILE_NAME BASIS_MOLOPT
     POTENTIAL_FILE_NAME GTH_POTENTIALS
     UKS  T
     SURFACE_DIPOLE_CORRECTION  T
     SURF_DIP_DIR  Z
     &SCF
       MAX_SCF  80
       EPS_SCF     5.0000000000000004E-06
       &OT  T
         PRECONDITIONER  FULL_ALL
       &END OT
       &OUTER_SCF  T
         OPTIMIZER  NONE
         EPS_SCF     5.0000000000000004E-06
         MAX_SCF  4
       &END OUTER_SCF
       &PRINT
         &RESTART  OFF
           BACKUP_COPIES  1
           &EACH
             JUST_ENERGY  0
             QS_SCF  0
             MD  20
           &END EACH
         &END RESTART
       &END PRINT
     &END SCF
     &QS
       EPS_DEFAULT     1.0000000000000000E-14
       METHOD  GPW
     &END QS
     &MGRID
       NGRIDS  5
       CUTOFF     1.2000000000000000E+03
     &END MGRID
     &XC
       DENSITY_CUTOFF     1.0000000000000000E-10
       GRADIENT_CUTOFF     1.0000000000000000E-10
       TAU_CUTOFF     1.0000000000000000E-10
       &XC_FUNCTIONAL  NO_SHORTCUT
         &PBE  T
         &END PBE
       &END XC_FUNCTIONAL
       &VDW_POTENTIAL
         POTENTIAL_TYPE  PAIR_POTENTIAL
         &PAIR_POTENTIAL
           R_CUTOFF     1.0000000000000004E+01
           TYPE  DFTD3
           PARAMETER_FILE_NAME dftd3.dat
           REFERENCE_FUNCTIONAL PBE
           EPS_CN     9.9999999999999995E-07
           CALCULATE_C9_TERM  T
           REFERENCE_C9_TERM  T
           LONG_RANGE_CORRECTION  F
           VERBOSE_OUTPUT  F
         &END PAIR_POTENTIAL
       &END VDW_POTENTIAL
     &END XC
   &END DFT
   &SUBSYS
     &CELL
       A     1.2864472766435110E+01    0.0000000000000000E+00    0.0000000000000000E+00
       B    -6.4322363581020028E+00    1.1140960178524473E+01    0.0000000000000000E+00
       C     0.0000000000000000E+00    0.0000000000000000E+00    3.2000000000000000E+01
       MULTIPLE_UNIT_CELL  1 1 1
       &CELL_REF
         A     1.2982353780853531E+01    0.0000000000000000E+00    0.0000000000000000E+00
         B    -6.4911768904267628E+00    1.1243048175136114E+01    0.0000000000000000E+00
         C     0.0000000000000000E+00    0.0000000000000000E+00    3.2000000000000000E+01
         MULTIPLE_UNIT_CELL  1 1 1
       &END CELL_REF
     &END CELL
     &COORD
N   -3.2497709578914222E-02    2.1055579205797113E+00    2.4570107776148142E+00
Ga   -3.7171748865483030E-02    1.3837426175471682E-01    2.7986884677491486E+00
N   -1.9280592202985870E-02    1.0707277004674501E-01    4.9767389402365643E+00
Ga   -2.7940774769746542E-02    1.9334480853882252E+00    5.7443892775839274E+00
N   -3.1374539089225550E-02    1.9518434260817228E+00    7.7480836893232103E+00
Ga   -2.9047733226127227E-02    1.0589130259560743E-01    8.3934319179147625E+00
N   -2.8291500103420811E-02    1.0590279918898585E-01    1.0370950641506715E+01
Ga   -2.6678668295272438E-02    1.9450513021764384E+00    1.1022527346738247E+01
N   -2.8854926710312839E-02    1.9273499511901120E+00    1.3018631314500809E+01
Ga   -2.9002229322100222E-02    1.0705571897853297E-01    1.3820111318495259E+01
N   -2.8609984890432528E-02    1.0772597494474684E-01    1.6025085978939654E+01
Ga   -3.0020928927296589E-02    2.1459808850365429E+00    1.6434091728076424E+01
Ga    4.9136450960252209E-02    3.8248588373250145E+00    1.3030785875140012E+00
N   -1.5194365248596768E+00    4.6924617831503816E+00    2.4861196531654390E+00
Ga   -1.6909822354708162E+00    2.8638716429983400E+00    3.2108891710303031E+00
N   -1.6511635770009583E+00    2.8835696648987019E+00    5.1812058160911443E+00
Ga   -1.6567037771102637E+00    4.7450896624094092E+00    5.7850146021567674E+00
N   -1.6429073299083436E+00    4.7480848341909843E+00    7.7698366954935310E+00
Ga   -1.6288942683723897E+00    2.8877410441602764E+00    8.3957928159369164E+00
N   -1.6261737745084290E+00    2.8954869189271690E+00    1.0388588759817591E+01
Ga   -1.6531726912928766E+00    4.7535493255942516E+00    1.1029035197205987E+01
N   -1.6695024851025930E+00    4.7666168864341660E+00    1.3022326818444375E+01
Ga   -1.6266107107075656E+00    2.8976561742495810E+00    1.3576227346449198E+01
N   -1.6540762654189363E+00    2.8852252663743179E+00    1.5538827393057522E+01
Ga   -1.4754749527921944E+00    4.6563007579083919E+00    1.6435009283455823E+01
N   -2.1647805994694170E-02    3.8175588890676595E+00    1.7569174546898886E+01
N   -3.2163732223995916E+00    7.6653633822009954E+00    2.5200456135608897E+00
Ga   -3.1574663891782273E+00    5.6931947187002727E+00    2.9743814133563258E+00
N   -3.2267813212514533E+00    5.6896393811382069E+00    5.0379750391651541E+00
Ga   -3.2470429401205441E+00    7.5103390866706912E+00    5.7993538298185090E+00
N   -3.2415700728790586E+00    7.5247733762920177E+00    7.7782268006893682E+00
Ga   -3.2475387225014321E+00    5.6704002849186557E+00    8.4061464347018546E+00
N   -3.2453890028271699E+00    5.6754098502790287E+00    1.0378353399051237E+01
Ga   -3.2475442217314776E+00    7.5152004552607146E+00    1.1030099632963120E+01
N   -3.2465055897272954E+00    7.4974467516669137E+00    1.3023801829842325E+01
Ga   -3.2466617485343625E+00    5.6760622978105584E+00    1.3823851878560584E+01
N   -3.2455445030748584E+00    5.6777755231339855E+00    1.6025816132676177E+01
Ga   -3.2464271868918715E+00    7.7162497991466585E+00    1.6432931880092656E+01
Ga   -3.2486658029615811E+00    9.4078474063628619E+00    1.5095183199376185E+00
N   -4.7463408086336720E+00    1.0247454609468187E+01    2.5013540605070297E+00
Ga   -4.9583392162059248E+00    8.3866374464726992E+00    3.2605007961406058E+00
N   -4.8521333296362439E+00    8.4534473160307630E+00    5.2143220775191397E+00
Ga   -4.8766926864281972E+00    1.0336833842417226E+01    5.7566983738669011E+00
N   -4.8607238418740000E+00    1.0321660389478575E+01    7.7544841556459625E+00
Ga   -4.8498127678840577E+00    8.4671997124743061E+00    8.3968593794040416E+00
N   -4.8433456392110461E+00    8.4676624380497003E+00    1.0389133243507519E+01
Ga   -4.8678004102605739E+00    1.0328470455403934E+01    1.1023350747843384E+01
N   -4.8847692759001573E+00    1.0337924302332228E+01    1.3018747126142816E+01
Ga   -4.8440286612375481E+00    8.4698205270410671E+00    1.3576638417193895E+01
N   -4.8717054476677983E+00    8.4567024600279481E+00    1.5539240102811320E+01
Ga   -4.6918120068803333E+00    1.0227838412418462E+01    1.6433328306743753E+01
N   -3.2386784384857581E+00    9.3895254062450704E+00    1.7564149004018873E+01
N    3.1788635056373580E+00    1.9692572505498496E+00    2.5607200200050970E+00
Ga    3.1981081164221132E+00    2.4687139003288669E-01    3.2556096033779602E+00
N    3.1951462546221485E+00    1.0025309156973745E-01    5.2153211016239878E+00
Ga    3.2147142370571098E+00    1.9834979502233321E+00    5.7878161785765663E+00
N    3.1949199920811941E+00    1.9640334860310196E+00    7.7837464391363405E+00
Ga    3.1846882097810161E+00    1.0365447029236269E-01    8.3924145461068242E+00
N    3.1865419961893515E+00    9.5311656674654688E-02    1.0388064509082348E+01
Ga    3.1901460959498689E+00    1.9645022259003189E+00    1.0978799020022658E+01
N    3.1877735839216808E+00    1.9649104855227335E+00    1.2952406537359408E+01
Ga    3.1863687958577316E+00    9.6454016462970291E-02    1.3574733202162472E+01
N    3.1840883254249457E+00    1.2717122318081173E-01    1.5537702246825299E+01
Ga    3.1861227907889922E+00    1.9657101752464670E+00    1.5817410167154147E+01
N    1.4433273525916070E+00    4.6925986346859974E+00    2.4956139125168764E+00
Ga    1.6679386244396208E+00    2.8479930860479525E+00    3.2338877113406981E+00
N    1.5798853744821708E+00    2.8926152482153924E+00    5.2124801976467330E+00
Ga    1.6058477130473530E+00    4.7516105329817799E+00    5.7849783423465482E+00
N    1.5874598311957659E+00    4.7526117423351728E+00    7.7728929488683791E+00
Ga    1.5759054797043854E+00    2.8880329941929159E+00    8.3843862619489844E+00
N    1.5703501096784223E+00    2.8947838234795498E+00    1.0383494351018907E+01
Ga    1.5986501650200011E+00    4.7529187926663630E+00    1.1024360806278189E+01
N    1.6118620182535059E+00    4.7666448034513138E+00    1.3020237886343773E+01
Ga    1.5685365809431613E+00    2.8980436139737034E+00    1.3575694772453780E+01
N    1.5935573621077659E+00    2.8838787337179106E+00    1.5539801889047414E+01
Ga    1.4228637606505528E+00    4.6604774681001242E+00    1.6434199604571425E+01
N   -1.4103652143137076E-02    7.5241317774194556E+00    2.6860510365104768E+00
Ga   -3.4493011142372437E-02    5.6635587588300256E+00    3.3107716717520970E+00
N   -3.0662877782201645E-02    5.6906523967558069E+00    5.2463638165231075E+00
Ga   -1.3344025262171377E-02    7.5300414427926121E+00    5.8872923064385088E+00
N   -2.4750856384817482E-02    7.5332699969146963E+00    7.8426240471688944E+00
Ga   -2.6268333953058696E-02    5.6588083471554196E+00    8.4155763406627120E+00
N   -2.8584540930139901E-02    5.6626637350144629E+00    1.0402476445678440E+01
Ga   -2.5817899190802268E-02    7.5324454593375281E+00    1.0993997158204298E+01
N   -2.8325972213135289E-02    7.5343568533019418E+00    1.2963730571138084E+01
Ga   -2.8665176431793695E-02    5.6630772588735221E+00    1.3577586862442223E+01
N   -3.1356675740319376E-02    5.6964819222486875E+00    1.5540006140064019E+01
Ga   -2.9483504629174342E-02    7.5357437672323648E+00    1.5815470835060022E+01
N   -1.7329097044018100E+00    1.0240167030052888E+01    2.5093623970257966E+00
Ga   -1.5876246344698661E+00    8.4549982427918149E+00    3.3330508228359532E+00
N   -1.6184048356942013E+00    8.4529677015647096E+00    5.2527851392540503E+00
Ga   -1.6086463173535581E+00    1.0342276982091576E+01    5.7995653812740633E+00
N   -1.6290980395415562E+00    1.0320380689304844E+01    7.7822540233664776E+00
Ga   -1.6453695030184643E+00    8.4698767595219255E+00    8.4228119731372466E+00
N   -1.6463946185734823E+00    8.4678559300137177E+00    1.0407523917638192E+01
Ga   -1.6203963896886342E+00    1.0333421316677764E+01    1.1025640091520298E+01
N   -1.6051088314681241E+00    1.0340000468484046E+01    1.3021242547166715E+01
Ga   -1.6494328388354431E+00    8.4710562705729302E+00    1.3577000531679140E+01
N   -1.6215804703191095E+00    8.4550311682884924E+00    1.5540941860238519E+01
Ga   -1.7934949892723322E+00    1.0232159739993198E+01    1.6432316897290733E+01
N    6.4287873183779070E+00    1.9646962210282923E+00    2.4699778500462672E+00
Ga    6.4277474339913363E+00    1.1611075195832100E-01    2.8907531372653299E+00
N    6.4037183845295020E+00    7.6166762524137982E-02    5.0418154679017499E+00
Ga    6.3986290368038512E+00    1.9517307366499062E+00    5.6903873122691992E+00
N    6.4083571074293273E+00    1.9574268795470817E+00    7.7205253665222795E+00
Ga    6.4081992343380083E+00    1.1926296565447503E-01    8.3934104636050986E+00
N    6.4057788122974415E+00    1.1000523757782170E-01    1.0372140921335152E+01
Ga    6.4036541556817372E+00    1.9486651819767400E+00    1.1022206631174377E+01
N    6.4030363230983678E+00    1.9288315187008764E+00    1.3017977499507346E+01
Ga    6.4041654632201848E+00    1.0920654410458870E-01    1.3821895190384227E+01
N    6.4041372075036955E+00    1.0893708502135241E-01    1.6025135512501748E+01
Ga    6.4022762350375135E+00    2.1510562013812233E+00    1.6437698298778535E+01
Ga    9.2086188387079435E+00    1.5204541256773056E+00    5.7120144432256481E-01
N    4.7707746017806691E+00    4.7530186073205893E+00    2.5212195878008909E+00
Ga    4.8007611751608588E+00    2.8171911390836892E+00    3.0236595772913053E+00
N    4.8005253342197891E+00    2.8967023621142385E+00    5.1090638569026252E+00
Ga    4.7716759516872207E+00    4.7346866631434539E+00    5.7264220251184526E+00
N    4.7883820472851522E+00    4.7509042465694407E+00    7.7358055412918310E+00
Ga    4.8112928332688982E+00    2.8939427918623397E+00    8.3755396823085686E+00
N    4.8083196030922739E+00    2.8969884205699370E+00    1.0377568221945642E+01
Ga    4.7829899224109109E+00    4.7538517530624942E+00    1.1020360898541242E+01
N    4.7646153592280056E+00    4.7666935023401198E+00    1.3016223709965852E+01
Ga    4.8058267290700041E+00    2.8992455728238209E+00    1.3575898247793337E+01
N    4.7766862965320680E+00    2.8852892973633892E+00    1.5537231958000095E+01
Ga    4.9609773506843711E+00    4.6543870532586427E+00    1.6438601387796300E+01
N    6.4090836462534861E+00    3.8181385401523111E+00    1.7572947916339469E+01
N    3.1782517854049459E+00    7.6558586939478959E+00    2.4839224343207293E+00
N    3.1680573524118167E+00    5.6840072997753586E+00    5.0215843245049445E+00
Ga    3.2022802292050598E+00    7.5075611080060858E+00    5.7668171446298668E+00
N    3.1914806669452056E+00    7.5253947594421948E+00    7.7604616851662120E+00
Ga    3.1956495434171477E+00    5.6732806879137563E+00    8.3976768087993676E+00
N    3.1904957858667400E+00    5.6765213177994989E+00    1.0374206988250158E+01
Ga    3.1929338395956366E+00    7.5146848491126770E+00    1.1027728404947171E+01
N    3.1887334027804286E+00    7.4974501031904559E+00    1.3021958141823658E+01
Ga    3.1892026568772658E+00    5.6761503356716583E+00    1.3821871360222561E+01
N    3.1886039471838701E+00    5.6779788594132823E+00    1.6025289270422821E+01
Ga    3.1863595287080697E+00    7.7171263569820798E+00    1.6435082753776765E+01
Ga    3.2022026884177488E+00    9.3819326078950862E+00    1.2214783059961263E+00
N    1.6812575761857256E+00    1.0256329739226040E+01    2.4946682142625050E+00
Ga    1.5949098856759785E+00    8.4719549044829812E+00    3.2821228748579272E+00
N    1.5730942642120254E+00    8.4547000309939033E+00    5.2257999364044467E+00
Ga    1.5551456782680297E+00    1.0334041035687077E+01    5.7856331628464854E+00
N    1.5776475680339843E+00    1.0319846293663186E+01    7.7723315525011074E+00
Ga    1.5995393935831757E+00    8.4683118311898387E+00    8.4154524681294163E+00
N    1.5934013895656713E+00    8.4678869942019848E+00    1.0402419250071279E+01
Ga    1.5666785599267943E+00    1.0332035898440687E+01    1.1023888523581938E+01
N    1.5478335716286529E+00    1.0339457340484495E+01    1.3019006268824175E+01
Ga    1.5919658246450914E+00    8.4711646933599063E+00    1.3577064171593847E+01
N    1.5620220319135074E+00    8.4571476234576846E+00    1.5539271872663610E+01
Ga    1.7417368289713531E+00    1.0227499789760264E+01    1.6435653520325069E+01
N    3.1939059497057114E+00    9.3885568500302483E+00    1.7570817534653042E+01
N    9.5979344751831359E+00    1.9457516625883913E+00    2.5149464643588182E+00
Ga    9.6237611435917074E+00    1.3372950327432501E-01    3.2662015579442403E+00
N    9.6216071723299628E+00    1.1270583949615838E-01    5.2113224211411060E+00
Ga    9.6037058406989537E+00    1.9767479934898495E+00    5.8090434811037523E+00
N    9.6160456075724206E+00    1.9652235313385924E+00    7.7897653273209295E+00
Ga    9.6276900720246346E+00    9.8103336750257703E-02    8.3879406618828511E+00
N    9.6237304352796951E+00    9.4946160845787317E-02    1.0384166282603633E+01
Ga    9.6190431534627923E+00    1.9624722804973760E+00    1.0981123349439583E+01
N    9.6188183038087036E+00    1.9642079792836868E+00    1.2953670417356266E+01
Ga    9.6193571318773827E+00    9.5345145963196140E-02    1.3575616359605331E+01
N    9.6177920515326250E+00    1.2636959516462265E-01    1.5537753156405243E+01
Ga    9.6181563796201068E+00    1.9649559496233411E+00    1.5817136408100591E+01
N    8.0243379949428366E+00    4.7907306311991800E+00    2.4465821975538380E+00
Ga    7.9615373248534480E+00    2.8749997751304126E+00    3.1172357703514972E+00
N    8.0264651106746996E+00    2.9061885249589512E+00    5.1213177096475064E+00
Ga    8.0294346755243442E+00    4.7504630007477662E+00    5.7477350925619000E+00
N    8.0215199899359710E+00    4.7516709385214773E+00    7.7433971915709652E+00
Ga    7.9973179437830257E+00    2.8932801658712677E+00    8.3841006307700532E+00
N    8.0016508618976072E+00    2.8972440728738200E+00    1.0381584036920044E+01
Ga    8.0246075273908524E+00    4.7545646765494682E+00    1.1023576617606832E+01
N    8.0417966130050615E+00    4.7670325883011779E+00    1.3018538819411926E+01
Ga    7.9995697221503015E+00    2.8989108318961652E+00    1.3576500954564123E+01
N    8.0278095730018411E+00    2.8838180533810260E+00    1.5538761351363243E+01
Ga    7.8493702462375179E+00    4.6576362925641286E+00    1.6438109395245174E+01
N    6.4246770502429262E+00    7.4868426566655222E+00    2.5333797830431228E+00
Ga    6.3776526338898591E+00    5.6944968787934922E+00    3.1885271846427257E+00
N    6.4051209312679065E+00    5.6604648074862638E+00    5.1594869613259409E+00
Ga    6.3966417072987216E+00    7.5117964738419225E+00    5.8097550066532024E+00
N    6.4049204256127039E+00    7.5260731317162604E+00    7.7904351530897289E+00
Ga    6.4012007091068206E+00    5.6602340552110117E+00    8.3849874822018560E+00
N    6.4045115870268488E+00    5.6632559919146361E+00    1.0381436276021544E+01
Ga    6.4038189269060881E+00    7.5309559883332611E+00    1.0981868056865059E+01
N    6.4031931670209037E+00    7.5339064744530688E+00    1.2953865543591956E+01
Ga    6.4023390982537265E+00    5.6648973973814334E+00    1.3576160896620420E+01
N    6.4010085174142368E+00    5.6980980115996216E+00    1.5537159512978599E+01
Ga    6.4016914655988293E+00    7.5351315472474845E+00    1.5818312340335185E+01
N    4.7054214992234042E+00    1.0267322108363690E+01    2.4782849711939945E+00
Ga    4.8861820661392485E+00    8.4047016748267307E+00    3.1773871381105012E+00
N    4.8069738710531702E+00    8.4527328971764231E+00    5.1713128839369062E+00
Ga    4.8339556641350443E+00    1.0324602018874227E+01    5.7392221443929214E+00
N    4.8078975715810577E+00    1.0319877646248422E+01    7.7422730429859188E+00
Ga    4.7926548019955524E+00    8.4664503627381755E+00    8.3905953414924568E+00
N    4.7881319845572143E+00    8.4681565830944550E+00    1.0385633831236108E+01
Ga    4.8122453547641362E+00    1.0327523946152125E+01    1.1023285749024591E+01
N    4.8267629174287059E+00    1.0337757582368537E+01    1.3018694588883026E+01
Ga    4.7850340395162441E+00    8.4695477958148970E+00    1.3577122722189776E+01
N    4.8109453472455979E+00    8.4557829609113249E+00    1.5540432932734042E+01
Ga    4.6369311852491357E+00    1.0230593898555881E+01    1.6435194572625498E+01
O    4.3251784300773678E-02    3.8931903820252827E+00   -5.0970790651935560E-01
H   -2.9647805334179184E-02    7.5161635248893903E+00    1.6593322826734334E+00
C   -7.3640252687756746E-01    2.9148349686696311E+00   -1.2017213734408418E+00
H   -5.5752984499781533E-01    1.8881343639684907E+00   -8.3671595616458627E-01
H   -1.8211590787549263E+00    3.1233521412594509E+00   -1.1335838940756464E+00
H   -4.5543870610224801E-01    2.9517083936509541E+00   -2.2650544231183014E+00
Ga    3.1011560474521214E+00    5.7077351063867701E+00    2.9235796968103305E+00
O    6.8657689093555225E+00    5.7848953839767567E+00    5.2937301328791975E-01
H    4.9245849773363890E+00    4.7948039385268544E+00    1.5028371868651831E+00
C    7.8915255772241055E+00    4.9055015173148844E+00    9.4807490594530686E-01
H    8.8676281776960870E+00    5.2100774067336886E+00    5.2369634466923276E-01
H    6.8183681533981639E+00    6.6238761235688877E+00    1.1216586260820578E+00
H    7.6278454868891163E+00    3.9212583165493218E+00    5.1807632046673679E-01
     &END COORD
     &KIND C
       BASIS_SET DZVP-MOLOPT-SR-GTH-q4
       POTENTIAL GTH-PBE-q4
       &POTENTIAL
 2 2
  0.3384712400000000E+00 2 -0.8803673979999999E+01  0.1339210850000000E+01
 2
  0.3025757500000000E+00 1  0.9622486650000001E+01
  0.2915069400000000E+00 0
         # Potential name:  GTH-PBE-Q4  for symbol:  C
         # Potential read from the potential filename: GTH_POTENTIALS
       &END POTENTIAL
     &END KIND
     &KIND O
       BASIS_SET DZVP-MOLOPT-SR-GTH-q6
       POTENTIAL GTH-PBE-q6
       &POTENTIAL
 2 4
  0.2445543000000000E+00 2 -0.1666721480000000E+02  0.2487311320000000E+01
 2
  0.2209559200000000E+00 1  0.1833745811000000E+02
  0.2113324700000000E+00 0
         # Potential name:  GTH-PBE-Q6  for symbol:  O
         # Potential read from the potential filename: GTH_POTENTIALS
       &END POTENTIAL
     &END KIND
     &KIND H
       BASIS_SET DZVP-MOLOPT-SR-GTH-q1
       POTENTIAL GTH-PBE-q1
       &POTENTIAL
 1
  0.2000000000000000E+00 2 -0.4178900440000000E+01  0.7244633100000000E+00
 0
         # Potential name:  GTH-PBE-Q1  for symbol:  H
         # Potential read from the potential filename: GTH_POTENTIALS
       &END POTENTIAL
     &END KIND
     &KIND N
       BASIS_SET DZVP-MOLOPT-SR-GTH
       POTENTIAL GTH-PBE-q5
       &POTENTIAL
 2 3
  0.2837905100000000E+00 2 -0.1241522559000000E+02  0.1868095920000000E+01
 2
  0.2554050000000000E+00 1  0.1363026257000000E+02
  0.2454945300000000E+00 0
         # Potential name:  GTH-PBE-Q5  for symbol:  N
         # Potential read from the potential filename: GTH_POTENTIALS
       &END POTENTIAL
     &END KIND
     &KIND Ga
       BASIS_SET DZVP-MOLOPT-SR-GTH
       POTENTIAL GTH-PBE-q13
       &POTENTIAL
 2 1 10
  0.4900000000000000E+00 0
 3
  0.4167772300000000E+00 3  0.1047568975000000E+02 -0.4921768140000000E+01  0.8707055900000000E+00
  0.7770178090000000E+01 -0.2248152160000000E+01
  0.1784415450000000E+01
  0.5696265200000000E+00 2  0.1777985340000000E+01  0.1958597600000000E+00
 -0.2317443900000000E+00
  0.2381265000000000E+00 1 -0.1624868022000000E+02
         # Potential name:  GTH-PBE-Q13  for symbol:  GA
         # Potential read from the potential filename: GTH_POTENTIALS
       &END POTENTIAL
     &END KIND
     &TOPOLOGY
       NUMBER_OF_ATOMS  212
       MULTIPLE_UNIT_CELL  1 1 1
     &END TOPOLOGY
     &COLVAR
       &DISTANCE
         ATOMS  176 211
       &END DISTANCE
       &PRINT
       &END PRINT
     &END COLVAR
   &END SUBSYS
 &END FORCE_EVAL
