 # Version information for this restart file 
 # current date 2019-05-28 09:30:06.283
 # current working dir /lustre03/project/6004141/rzk/GaN-carbene/334-native/08-2Methanol-Htransfer/03-CO-constraint/2.64
 # Program compiled at                              Sun Apr  7 00:48:11 EDT 2019
 # Program compiled on                          beluga2.int.ets1.calculquebec.ca
 # Program compiled for                        Beluga-Linux-x86-64-intel-openmpi
 # Source code revision number                                         svn:18619
 &GLOBAL
   PRINT_LEVEL  MEDIUM
   PROJECT_NAME TEST
   RUN_TYPE  GEO_OPT
 &END GLOBAL
 &MOTION
   &GEO_OPT
     MAX_ITER  500
     STEP_START_VAL  185
   &END GEO_OPT
   &CONSTRAINT
     &COLLECTIVE
       COLVAR  1
       INTERMOLECULAR  T
       TARGET     4.9888769908180972E+00
       &RESTRAINT
         K     1.0000000000000001E-01
       &END RESTRAINT
     &END COLLECTIVE
     &COLVAR_RESTART
           4.9888769908180972E+00
     &END COLVAR_RESTART
   &END CONSTRAINT
 &END MOTION
 &FORCE_EVAL
   METHOD  QS
   STRESS_TENSOR  ANALYTICAL
   &DFT
     BASIS_SET_FILE_NAME BASIS_MOLOPT
     POTENTIAL_FILE_NAME GTH_POTENTIALS
     &SCF
       MAX_SCF  100
       EPS_SCF     5.0000000000000004E-06
       &OT  T
         PRECONDITIONER  FULL_ALL
       &END OT
       &OUTER_SCF  T
         OPTIMIZER  NONE
         EPS_SCF     5.0000000000000004E-06
         MAX_SCF  4
       &END OUTER_SCF
       &PRINT
         &RESTART  OFF
           BACKUP_COPIES  1
           &EACH
             JUST_ENERGY  0
             QS_SCF  0
             MD  20
           &END EACH
         &END RESTART
       &END PRINT
     &END SCF
     &QS
       EPS_DEFAULT     1.0000000000000000E-14
       ALMO_SCF  F
       METHOD  GPW
     &END QS
     &MGRID
       NGRIDS  5
       CUTOFF     1.2000000000000000E+03
     &END MGRID
     &XC
       DENSITY_CUTOFF     1.0000000000000000E-10
       GRADIENT_CUTOFF     1.0000000000000000E-10
       TAU_CUTOFF     1.0000000000000000E-10
       &XC_FUNCTIONAL  NO_SHORTCUT
         &PBE  T
         &END PBE
       &END XC_FUNCTIONAL
       &VDW_POTENTIAL
         POTENTIAL_TYPE  PAIR_POTENTIAL
         &PAIR_POTENTIAL
           R_CUTOFF     1.0000000000000005E+01
           TYPE  DFTD3
           PARAMETER_FILE_NAME dftd3.dat
           REFERENCE_FUNCTIONAL PBE
           EPS_CN     9.9999999999999995E-07
           CALCULATE_C9_TERM  T
           REFERENCE_C9_TERM  T
           LONG_RANGE_CORRECTION  F
           VERBOSE_OUTPUT  F
         &END PAIR_POTENTIAL
       &END VDW_POTENTIAL
     &END XC
   &END DFT
   &SUBSYS
     &CELL
       A     9.7367653356401487E+00    0.0000000000000000E+00    0.0000000000000000E+00
       B    -4.8591341382960209E+00    8.4162672083210595E+00    0.0000000000000000E+00
       C     0.0000000000000000E+00    0.0000000000000000E+00    3.0744000000000000E+01
       MULTIPLE_UNIT_CELL  1 1 1
       &CELL_REF
         A     9.5580000000000052E+00    0.0000000000000000E+00    0.0000000000000000E+00
         B    -4.7790000000000026E+00    8.2774708093716640E+00    0.0000000000000000E+00
         C     0.0000000000000000E+00    0.0000000000000000E+00    3.0744000000000000E+01
         MULTIPLE_UNIT_CELL  1 1 1
       &END CELL_REF
     &END CELL
     &COORD
Ga   -1.4860692717895991E-03   -2.3709739805087355E-02   -5.4667183645801276E-01
N    1.7545442449809999E-03    1.8523480776433823E+00    6.0912329247387920E-01
Ga    1.4823870610378034E-03    1.8195298379406661E+00    2.6370750822809552E+00
N   -1.0715083215497197E-03   -2.4336479886867268E-02    3.2717596787861534E+00
Ga   -3.1592404614447434E-04   -2.3672521498822097E-02    5.2602699798948374E+00
N    2.4433062500552982E-03    1.8508524247394829E+00    5.8520089989879338E+00
Ga    1.9529978196719539E-03    1.8484699988953617E+00    7.8485907645380646E+00
N   -1.1946275494418084E-03   -2.3866357663461752E-02    8.4551314429606865E+00
Ga   -1.0118048625085695E-04   -2.2114050647994616E-02    1.0450176980866429E+01
N    5.1953621312388785E-03    1.8508451076379486E+00    1.1055898638582141E+01
Ga   -4.8274432616329062E-04    1.8526610117171303E+00    1.3049930906791246E+01
N    6.4620062302414192E-04   -2.0614148508678036E-02    1.3636973676338691E+01
Ga    8.0644407465720307E-03   -7.8926022429196552E-03    1.5621300706926920E+01
N    1.3079888463427159E-02    1.8461834752479491E+00    1.6280648800886432E+01
Ga   -1.1673713359799601E-01    1.8160410124986761E+00    1.8354437949406787E+01
N   -4.6261266038907914E-02   -5.2588125754694105E-02    1.8845506479067492E+01
Ga   -1.6208278553696132E+00    2.7814454723177438E+00    3.2281864885087841E-01
N   -1.6234065185590452E+00    4.6507703526690634E+00    6.0894349437267914E-01
Ga   -1.5943525627122936E+00    4.6666365316624425E+00    2.6369735129884235E+00
N   -1.6209253139859601E+00    2.7813244902756500E+00    3.2328080422520675E+00
Ga   -1.6205306554953498E+00    2.7819130797086173E+00    5.2411812700786129E+00
N   -1.6197921315292501E+00    4.6519497253309670E+00    5.8533100212439377E+00
Ga   -1.6185850209096004E+00    4.6515206119244406E+00    7.8502723198785356E+00
N   -1.6210393951764557E+00    2.7797367753380549E+00    8.4566757610731358E+00
Ga   -1.6216926779264476E+00    2.7793459877759590E+00    1.0450121883829091E+01
N   -1.6141158386544723E+00    4.6488802415238277E+00    1.1055746447604175E+01
Ga   -1.6050744327079731E+00    4.6324973253178179E+00    1.3048747647962736E+01
N   -1.6250991309991063E+00    2.7647468009018672E+00    1.3663095984197579E+01
Ga   -1.6438803827548796E+00    2.7287864598611491E+00    1.5680131964245861E+01
N   -1.6046776976444181E+00    4.6219936924213512E+00    1.6168139127965258E+01
Ga   -1.7041541008618213E+00    4.4928400155621127E+00    1.8163523452077364E+01
N   -1.7278118397820001E+00    2.7242453794628836E+00    1.8814178127447196E+01
Ga   -3.2413980177937418E+00    5.5873002640920308E+00    3.2296086515570721E-01
N   -3.2332572318569994E+00    7.4567312778018620E+00    6.0886289921859105E-01
Ga   -3.2618055644985162E+00    7.4721629689130475E+00    2.6368991815309371E+00
N   -3.2402925952240342E+00    5.5870428672639409E+00    3.2329323136376718E+00
Ga   -3.2393906609960763E+00    5.5877065572650126E+00    5.2411181307440309E+00
N   -3.2344657586880681E+00    7.4577251756939242E+00    5.8537150443778785E+00
Ga   -3.2354321240939239E+00    7.4585998451583313E+00    7.8509597431362250E+00
N   -3.2394604667978748E+00    5.5870439894553332E+00    8.4590862370250282E+00
Ga   -3.2347358426196791E+00    5.5882052470410972E+00    1.0453038084788389E+01
N   -3.2330766006367595E+00    7.4632632767983402E+00    1.1051452517304266E+01
Ga   -3.2266843773328713E+00    7.4787185041467632E+00    1.3040429292076229E+01
N   -3.2345245870223405E+00    5.5928694380235022E+00    1.3618883305267486E+01
Ga   -3.1304480844584366E+00    5.6287514175592834E+00    1.5575553960328374E+01
N   -3.2455223358944196E+00    7.4518881030824726E+00    1.6218670216118824E+01
Ga   -3.2985668377553288E+00    7.6901120460688945E+00    1.8198652026264973E+01
N   -3.8261516667042206E+00    5.0675734248559383E+00    1.8387421014807135E+01
Ga    3.2446337301368824E+00   -2.3773612441485969E-02    3.2280961757360410E-01
N    3.2424444258713456E+00    1.8455491679734981E+00    6.0883200436626617E-01
Ga    3.2714867510388155E+00    1.8614466553652143E+00    2.6369631731614835E+00
N    3.2444929793258654E+00   -2.4179168652269139E-02    3.2324638329527660E+00
Ga    3.2452588527107991E+00   -2.3728696344875136E-02    5.2407217066609828E+00
N    3.2458443166179736E+00    1.8470166869260509E+00    5.8499401772293407E+00
Ga    3.2465959995064249E+00    1.8469487177071604E+00    7.8448908242231141E+00
N    3.2461815164331487E+00   -2.1485170163241401E-02    8.4570248734289422E+00
Ga    3.2494627980376642E+00   -1.9328354361204232E-02    1.0450589754709226E+01
N    3.2517070913348487E+00    1.8530879757048937E+00    1.1067177861479708E+01
Ga    3.2467470013308706E+00    1.8527533353408436E+00    1.3062122044278398E+01
N    3.2453855521019022E+00   -8.3777135815263221E-03    1.3683491597066039E+01
Ga    3.2630717702702174E+00   -1.0006345268996157E-02    1.5713379659259729E+01
N    3.2420662694017151E+00    1.8836120019916760E+00    1.6352278563379684E+01
Ga    3.2541260592866834E+00    1.7621208337273062E+00    1.8433967144997311E+01
N    3.1900130023955966E+00   -1.1295922956180451E-01    1.8760850413694612E+01
Ga    1.6242923656663235E+00    2.7820932695424552E+00    3.2348375514011812E-01
N    1.6320534086597376E+00    4.6514705571512422E+00    6.0943485443511614E-01
Ga    1.6036631158128132E+00    4.6669537288449732E+00    2.6373861381007138E+00
N    1.6247493042916545E+00    2.7813146257742529E+00    3.2320709623912522E+00
Ga    1.6253045727939841E+00    2.7820887600851267E+00    5.2400645809208255E+00
N    1.6305803064251208E+00    4.6521144324413690E+00    5.8516498127965919E+00
Ga    1.6291720907304572E+00    4.6520796761698815E+00    7.8476735119992869E+00
N    1.6264342983726654E+00    2.7806864917266121E+00    8.4545377735139233E+00
Ga    1.6284084843047966E+00    2.7804746460866752E+00    1.0446026582365008E+01
N    1.6330370584279787E+00    4.6525345938733391E+00    1.1050578016515013E+01
Ga    1.6279733811167800E+00    4.6455261022099270E+00    1.3035310020376917E+01
N    1.6262492995581876E+00    2.7859364608549186E+00    1.3673121565978871E+01
Ga    1.6284627526580788E+00    2.7604827714797500E+00    1.5668511256525314E+01
N    1.6459752551081650E+00    4.6469333860444024E+00    1.6313827124750745E+01
Ga    1.3047597516611729E+00    4.5430991518728066E+00    1.8241256630499368E+01
N    1.5759664464145133E+00    2.7642245143379354E+00    1.8965077469941818E+01
Ga    4.9916037839780126E-03    5.5869767372667534E+00   -5.4705446717752348E-01
N    7.7806861315743645E-03    7.4629878536534608E+00    6.0867401108147512E-01
Ga    7.6021489073035704E-03    7.4302665033399427E+00    2.6367710280221783E+00
N    4.7824227291030979E-03    5.5865794072080526E+00    3.2717992710222710E+00
Ga    5.3923303514110104E-03    5.5873525546882483E+00    5.2603968031825534E+00
N    8.6615021399231006E-03    7.4617058720216507E+00    5.8530168597872176E+00
Ga    8.9195434339346819E-03    7.4603717427769274E+00    7.8498990790971623E+00
N    6.1536019820720642E-03    5.5868732782331216E+00    8.4549963723971278E+00
Ga    5.8243665077267227E-03    5.5885591154560945E+00    1.0450430608688656E+01
N    5.1188126991240932E-03    7.4580783859774389E+00    1.1063449048112078E+01
Ga    1.8964612487137403E-03    7.4612625806326891E+00    1.3063502764489570E+01
N    1.6431553434140538E-02    5.5781916553834412E+00    1.3645603921871880E+01
Ga    5.0988639632354935E-03    5.5897016914605970E+00    1.5642259485199521E+01
N   -8.3716245119045394E-04    7.4314449787435084E+00    1.6232384063383364E+01
Ga   -7.5815384142457129E-02    7.3700574028864994E+00    1.8320023656886917E+01
N   -2.2831876737290702E-01    5.5026147088927200E+00    1.8807655682717730E+01
Ga    6.4892200922901937E+00   -2.3523553189204717E-02    3.2319491903003816E-01
N    6.4970376597457200E+00    1.8460364266176579E+00    6.0867653325225302E-01
Ga    6.4687022047658731E+00    1.8616648953884782E+00    2.6366945805347184E+00
N    6.4898519405923594E+00   -2.4022005046501163E-02    3.2320640480974134E+00
Ga    6.4902834016966366E+00   -2.3442630287264041E-02    5.2400974878702513E+00
N    6.4955437310893513E+00    1.8463221308856856E+00    5.8522325064474199E+00
Ga    6.4948650960838759E+00    1.8453427072857176E+00    7.8485567627295625E+00
N    6.4903459808024566E+00   -2.3928093176031711E-02    8.4614413470393046E+00
Ga    6.4867630261878952E+00   -2.3777720792638651E-02    1.0457349156791706E+01
N    6.4875093961725003E+00    1.8507937165334789E+00    1.1062860493314151E+01
Ga    6.4926763069904503E+00    1.8469561501583425E+00    1.3058641937413375E+01
N    6.4867251932391463E+00   -2.3084158923055105E-02    1.3654574096593034E+01
Ga    6.4432342887864564E+00   -2.5657759715477201E-02    1.5661590688139942E+01
N    6.4628223258069477E+00    1.8233366321774080E+00    1.6322743758408027E+01
Ga    6.4493188036428837E+00    1.6654270233774557E+00    1.8517236206399044E+01
N    6.4608512054833964E+00   -2.6072539885021451E-01    1.8873950909003291E+01
Ga    4.8701893873041984E+00    2.7831258533989027E+00   -5.4685057620745303E-01
N    4.8733738920264571E+00    4.6576717036066544E+00    6.0975073388307199E-01
Ga    4.8733220310715062E+00    4.6252127483298384E+00    2.6375336956809146E+00
N    4.8704855716595290E+00    2.7813584927429011E+00    3.2712845396960288E+00
Ga    4.8714624192038833E+00    2.7822209381453904E+00    5.2592146181425514E+00
N    4.8743366848053480E+00    4.6564765980822065E+00    5.8512794404186579E+00
Ga    4.8753415860341560E+00    4.6555963874995490E+00    7.8467162219877364E+00
N    4.8705007831917557E+00    2.7820974868695081E+00    8.4515444300431728E+00
Ga    4.8707224242678580E+00    2.7817729237085684E+00    1.0443114912093112E+01
N    4.8735474060327961E+00    4.6530207597475979E+00    1.1056281969058427E+01
Ga    4.8762018114665668E+00    4.6538564200786094E+00    1.3038444545280793E+01
N    4.8696768207900316E+00    2.8006387532369605E+00    1.3703871987501749E+01
Ga    4.8710000527478057E+00    2.6717234003478891E+00    1.5688546594088068E+01
N    4.9319091343402768E+00    4.7912180834488103E+00    1.6307121347291194E+01
Ga    5.1273334629626861E+00    4.0285446270220113E+00    1.9950695406271254E+01
N    4.8374572038429537E+00    2.3643095316731455E+00    1.9296636769462424E+01
Ga    3.2509766821501094E+00    5.5865742468546893E+00    3.2347612757502320E-01
N    3.2480177451308849E+00    7.4559661409265638E+00    6.0936472236047123E-01
Ga    3.2774290352884266E+00    7.4720374734113104E+00    2.6371350634146502E+00
N    3.2507477137150071E+00    5.5868621965931116E+00    3.2329684048666683E+00
Ga    3.2514364676972751E+00    5.5876195699800446E+00    5.2410593684182052E+00
N    3.2512697079614492E+00    7.4581082101459906E+00    5.8522715377279102E+00
Ga    3.2519991757295705E+00    7.4595880526781819E+00    7.8487025298608026E+00
N    3.2521238208066361E+00    5.5873075374382211E+00    8.4528829508895402E+00
Ga    3.2527580411950550E+00    5.5888488312304201E+00    1.0442358316113818E+01
N    3.2541463204880507E+00    7.4563841656300038E+00    1.1059159119776011E+01
Ga    3.2494414531510394E+00    7.4655948911911230E+00    1.3051001119362290E+01
N    3.2532669907237541E+00    5.5786527369129972E+00    1.3666446712278905E+01
Ga    3.1913217932592692E+00    5.6107777785719763E+00    1.5631340393879519E+01
N    3.2527331562343496E+00    7.4556532016711374E+00    1.6194543242283263E+01
Ga    3.2365781436957666E+00    7.7365095695213828E+00    1.8144021935782781E+01
N    4.8599219872943999E+00    4.8805294967729465E+00    1.7657966541912796E+01
O    2.0127552543696265E+00    5.4502306572522174E+00    2.0189293494720388E+01
H    9.9622344441919430E-01    5.4995574421117599E+00    2.0186982887670737E+01
C    1.5258061049295195E+00    2.8302490544202188E+00    2.0462639979681136E+01
H    6.5237479025376988E-01    3.3978706712897058E+00    2.0811848054247644E+01
H    1.4390209572513337E+00    1.8089436015775147E+00    2.0864470495093510E+01
H    2.4329716474945648E+00    3.2781771098823906E+00    2.0880230350307304E+01
O    5.0675441637930883E+00    5.0533532508420747E+00    2.1416149566695033E+01
H    2.2098893377129349E+00    6.4191781418958636E+00    2.0099144950798141E+01
C    4.3837093949481227E+00    4.5821681644482330E+00    2.2592521675212527E+01
H    4.4217588385949060E+00    3.4874840040607253E+00    2.2706047369025598E+01
H    4.8787969287855146E+00    5.0372476516745150E+00    2.3462778014031485E+01
H    3.3303105616730515E+00    4.9001761097206051E+00    2.2569793403571364E+01
     &END COORD
     &KIND C
       BASIS_SET DZVP-MOLOPT-SR-GTH-q4
       POTENTIAL GTH-PBE-q4
       &POTENTIAL
 2 2
  0.3384712400000000E+00 2 -0.8803673979999999E+01  0.1339210850000000E+01
 2
  0.3025757500000000E+00 1  0.9622486650000001E+01
  0.2915069400000000E+00 0
         # Potential name:  GTH-PBE-Q4  for symbol:  C
         # Potential read from the potential filename: GTH_POTENTIALS
       &END POTENTIAL
     &END KIND
     &KIND O
       BASIS_SET DZVP-MOLOPT-SR-GTH-q6
       POTENTIAL GTH-PBE-q6
       &POTENTIAL
 2 4
  0.2445543000000000E+00 2 -0.1666721480000000E+02  0.2487311320000000E+01
 2
  0.2209559200000000E+00 1  0.1833745811000000E+02
  0.2113324700000000E+00 0
         # Potential name:  GTH-PBE-Q6  for symbol:  O
         # Potential read from the potential filename: GTH_POTENTIALS
       &END POTENTIAL
     &END KIND
     &KIND H
       BASIS_SET DZVP-MOLOPT-SR-GTH-q1
       POTENTIAL GTH-PBE-q1
       &POTENTIAL
 1
  0.2000000000000000E+00 2 -0.4178900440000000E+01  0.7244633100000000E+00
 0
         # Potential name:  GTH-PBE-Q1  for symbol:  H
         # Potential read from the potential filename: GTH_POTENTIALS
       &END POTENTIAL
     &END KIND
     &KIND N
       BASIS_SET DZVP-MOLOPT-SR-GTH-q5
       POTENTIAL GTH-PBE-q5
       &POTENTIAL
 2 3
  0.2837905100000000E+00 2 -0.1241522559000000E+02  0.1868095920000000E+01
 2
  0.2554050000000000E+00 1  0.1363026257000000E+02
  0.2454945300000000E+00 0
         # Potential name:  GTH-PBE-Q5  for symbol:  N
         # Potential read from the potential filename: GTH_POTENTIALS
       &END POTENTIAL
     &END KIND
     &KIND Ga
       BASIS_SET DZVP-MOLOPT-SR-GTH-q13
       POTENTIAL GTH-PBE-q13
       &POTENTIAL
 2 1 10
  0.4900000000000000E+00 0
 3
  0.4167772300000000E+00 3  0.1047568975000000E+02 -0.4921768140000000E+01  0.8707055900000000E+00
  0.7770178090000000E+01 -0.2248152160000000E+01
  0.1784415450000000E+01
  0.5696265200000000E+00 2  0.1777985340000000E+01  0.1958597600000000E+00
 -0.2317443900000000E+00
  0.2381265000000000E+00 1 -0.1624868022000000E+02
         # Potential name:  GTH-PBE-Q13  for symbol:  GA
         # Potential read from the potential filename: GTH_POTENTIALS
       &END POTENTIAL
     &END KIND
     &TOPOLOGY
       COORD_FILE_NAME ../start-first.xyz
       COORD_FILE_FORMAT  XYZ
       NUMBER_OF_ATOMS  156
       MULTIPLE_UNIT_CELL  1 1 1
     &END TOPOLOGY
     &COLVAR
       &DISTANCE
         ATOMS  145 147
       &END DISTANCE
       &PRINT
       &END PRINT
     &END COLVAR
   &END SUBSYS
 &END FORCE_EVAL
