 # Version information for this restart file 
 # current date 2019-05-28 09:29:25.992
 # current working dir /lustre03/project/6004141/rzk/GaN-carbene/334-native/08-2Methanol-Htransfer/03-CO-constraint/2.64
 # Program compiled at                              Sun Apr  7 00:48:11 EDT 2019
 # Program compiled on                          beluga2.int.ets1.calculquebec.ca
 # Program compiled for                        Beluga-Linux-x86-64-intel-openmpi
 # Source code revision number                                         svn:18619
 &GLOBAL
   PRINT_LEVEL  MEDIUM
   PROJECT_NAME TEST
   RUN_TYPE  GEO_OPT
 &END GLOBAL
 &MOTION
   &GEO_OPT
     MAX_ITER  500
     STEP_START_VAL  184
   &END GEO_OPT
   &CONSTRAINT
     &COLLECTIVE
       COLVAR  1
       INTERMOLECULAR  T
       TARGET     4.9888769908180972E+00
       &RESTRAINT
         K     1.0000000000000001E-01
       &END RESTRAINT
     &END COLLECTIVE
     &COLVAR_RESTART
           4.9888769908180972E+00
     &END COLVAR_RESTART
   &END CONSTRAINT
 &END MOTION
 &FORCE_EVAL
   METHOD  QS
   STRESS_TENSOR  ANALYTICAL
   &DFT
     BASIS_SET_FILE_NAME BASIS_MOLOPT
     POTENTIAL_FILE_NAME GTH_POTENTIALS
     &SCF
       MAX_SCF  100
       EPS_SCF     5.0000000000000004E-06
       &OT  T
         PRECONDITIONER  FULL_ALL
       &END OT
       &OUTER_SCF  T
         OPTIMIZER  NONE
         EPS_SCF     5.0000000000000004E-06
         MAX_SCF  4
       &END OUTER_SCF
       &PRINT
         &RESTART  OFF
           BACKUP_COPIES  1
           &EACH
             JUST_ENERGY  0
             QS_SCF  0
             MD  20
           &END EACH
         &END RESTART
       &END PRINT
     &END SCF
     &QS
       EPS_DEFAULT     1.0000000000000000E-14
       ALMO_SCF  F
       METHOD  GPW
     &END QS
     &MGRID
       NGRIDS  5
       CUTOFF     1.2000000000000000E+03
     &END MGRID
     &XC
       DENSITY_CUTOFF     1.0000000000000000E-10
       GRADIENT_CUTOFF     1.0000000000000000E-10
       TAU_CUTOFF     1.0000000000000000E-10
       &XC_FUNCTIONAL  NO_SHORTCUT
         &PBE  T
         &END PBE
       &END XC_FUNCTIONAL
       &VDW_POTENTIAL
         POTENTIAL_TYPE  PAIR_POTENTIAL
         &PAIR_POTENTIAL
           R_CUTOFF     1.0000000000000005E+01
           TYPE  DFTD3
           PARAMETER_FILE_NAME dftd3.dat
           REFERENCE_FUNCTIONAL PBE
           EPS_CN     9.9999999999999995E-07
           CALCULATE_C9_TERM  T
           REFERENCE_C9_TERM  T
           LONG_RANGE_CORRECTION  F
           VERBOSE_OUTPUT  F
         &END PAIR_POTENTIAL
       &END VDW_POTENTIAL
     &END XC
   &END DFT
   &SUBSYS
     &CELL
       A     9.7367653356401487E+00    0.0000000000000000E+00    0.0000000000000000E+00
       B    -4.8591341382960209E+00    8.4162672083210595E+00    0.0000000000000000E+00
       C     0.0000000000000000E+00    0.0000000000000000E+00    3.0744000000000000E+01
       MULTIPLE_UNIT_CELL  1 1 1
       &CELL_REF
         A     9.5580000000000052E+00    0.0000000000000000E+00    0.0000000000000000E+00
         B    -4.7790000000000026E+00    8.2774708093716640E+00    0.0000000000000000E+00
         C     0.0000000000000000E+00    0.0000000000000000E+00    3.0744000000000000E+01
         MULTIPLE_UNIT_CELL  1 1 1
       &END CELL_REF
     &END CELL
     &COORD
Ga   -1.4504612502588324E-03   -2.3368477127607045E-02   -5.4664717657199913E-01
N    1.8459232234031089E-03    1.8526749839283290E+00    6.0909304719546575E-01
Ga    1.6877088584512042E-03    1.8197081870835394E+00    2.6370693330996540E+00
N   -8.2420540819905729E-04   -2.4148351739560016E-02    3.2717924106593061E+00
Ga   -1.1091087830769007E-04   -2.3554769666307231E-02    5.2603368541929312E+00
N    2.6461376036787279E-03    1.8509520957354861E+00    5.8520978069848457E+00
Ga    2.1198552590111354E-03    1.8485072627061416E+00    7.8486887580312930E+00
N   -1.0561236417376367E-03   -2.3817653491203253E-02    8.4552745575561730E+00
Ga   -3.3293262668542124E-05   -2.2155970181328723E-02    1.0450281700031473E+01
N    5.2711381178378166E-03    1.8508192315840499E+00    1.1056000104655682E+01
Ga   -4.4446026135394411E-04    1.8526200743845351E+00    1.3050028080959004E+01
N    6.0928563616463745E-04   -2.0661106417583598E-02    1.3636987584921050E+01
Ga    7.9447269266273764E-03   -7.8623779097101894E-03    1.5621243954133785E+01
N    1.2984744537641306E-02    1.8462218216062516E+00    1.6280622948521163E+01
Ga   -1.1699405439941767E-01    1.8160376078366065E+00    1.8354383682037241E+01
N   -4.6406848426291322E-02   -5.2598538094409494E-02    1.8845656897952175E+01
Ga   -1.6207453828613176E+00    2.7817570037765282E+00    3.2293857105365181E-01
N   -1.6233430960531405E+00    4.6510551057139233E+00    6.0891578004299696E-01
Ga   -1.5941576448336945E+00    4.6668859195286316E+00    2.6369757087026455E+00
N   -1.6207056265662689E+00    2.7815361191747234E+00    3.2328333611525548E+00
Ga   -1.6203203531338293E+00    2.7820233291358716E+00    5.2412688164787973E+00
N   -1.6195986719180235E+00    4.6520470269733822E+00    5.8533656723544114E+00
Ga   -1.6184800049651378E+00    4.6515612580525074E+00    7.8503331684184330E+00
N   -1.6209058694518017E+00    2.7797765485050672E+00    8.4568017546713072E+00
Ga   -1.6216338265345940E+00    2.7793767906145015E+00    1.0450238512687310E+01
N   -1.6141333062101553E+00    4.6489091735520018E+00    1.1055885352777485E+01
Ga   -1.6051877372993053E+00    4.6324892088213598E+00    1.3048873187828702E+01
N   -1.6250940709219774E+00    2.7646942469076605E+00    1.3663036847053345E+01
Ga   -1.6438999846996118E+00    2.7287415333102896E+00    1.5679958230349301E+01
N   -1.6048225328304622E+00    4.6218952416475680E+00    1.6168207335372475E+01
Ga   -1.7043906986140449E+00    4.4930070764605547E+00    1.8163637204936350E+01
N   -1.7279493687339493E+00    2.7244041402225299E+00    1.8814528652464400E+01
Ga   -3.2413062260850385E+00    5.5876173658115018E+00    3.2307745120957576E-01
N   -3.2331960856271578E+00    7.4570286615130872E+00    6.0880536377476346E-01
Ga   -3.2615871042287403E+00    7.4723315779960640E+00    2.6368940525085729E+00
N   -3.2400909362479027E+00    5.5872306634073183E+00    3.2329842934539417E+00
Ga   -3.2391694665187662E+00    5.5878331651397763E+00    5.2411937267763218E+00
N   -3.2342582313054393E+00    7.4578530052918026E+00    5.8538139619895846E+00
Ga   -3.2352969321987803E+00    7.4586599957976842E+00    7.8510886070873136E+00
N   -3.2393331664140854E+00    5.5871048787629869E+00    8.4592180534613579E+00
Ga   -3.2347340415840851E+00    5.5882263964523178E+00    1.0453123084278662E+01
N   -3.2330317290470103E+00    7.4632493182335393E+00    1.1051664344558692E+01
Ga   -3.2267236941454280E+00    7.4786781472594877E+00    1.3040539428327392E+01
N   -3.2346528407010759E+00    5.5928437950607703E+00    1.3618885230213802E+01
Ga   -3.1305422017239124E+00    5.6285798569729044E+00    1.5575412350510783E+01
N   -3.2456764064509427E+00    7.4517598824012188E+00    1.6218619274358364E+01
Ga   -3.2987918857067937E+00    7.6898608770048664E+00    1.8198644663450107E+01
N   -3.8262003744173674E+00    5.0678647432959529E+00    1.8387593967727511E+01
Ga    3.2446776434859967E+00   -2.3494036428612176E-02    3.2291292633121366E-01
N    3.2425120985727971E+00    1.8458221093354303E+00    6.0879119235302892E-01
Ga    3.2716766771491508E+00    1.8616165467764465E+00    2.6369451179193151E+00
N    3.2446739101346056E+00   -2.4001077599545770E-02    3.2325065353237190E+00
Ga    3.2454821001638834E+00   -2.3652264506703928E-02    5.2407859455563148E+00
N    3.2460305462500769E+00    1.8471072578855525E+00    5.8500274936237737E+00
Ga    3.2467570089646474E+00    1.8470059887013996E+00    7.8449976804289321E+00
N    3.2463211285558744E+00   -2.1446094989916488E-02    8.4572075105200213E+00
Ga    3.2494850417453605E+00   -1.9322892326783733E-02    1.0450770181875070E+01
N    3.2517840462421401E+00    1.8530755431147135E+00    1.1067366219149198E+01
Ga    3.2467465698909121E+00    1.8527683130442150E+00    1.3062269219909661E+01
N    3.2453346991158671E+00   -8.3802882574235318E-03    1.3683499464067157E+01
Ga    3.2629201084385717E+00   -1.0034663650432509E-02    1.5713172176875160E+01
N    3.2419810083654017E+00    1.8836465113672292E+00    1.6352189964529259E+01
Ga    3.2536671423454093E+00    1.7623477420966736E+00    1.8433782106353078E+01
N    3.1896899485041561E+00   -1.1282129833752089E-01    1.8760856339251330E+01
Ga    1.6243781433470674E+00    2.7824172870137605E+00    3.2358591360296923E-01
N    1.6321520450331535E+00    4.6517597753599826E+00    6.0939580706462304E-01
Ga    1.6038179058799171E+00    4.6671589659968786E+00    2.6374082546622506E+00
N    1.6249645827561578E+00    2.7815030155023219E+00    3.2321237290640461E+00
Ga    1.6254796951093500E+00    2.7821888408602087E+00    5.2401637493022504E+00
N    1.6307452486469047E+00    4.6522210965498028E+00    5.8517170644486036E+00
Ga    1.6293089667536154E+00    4.6521306340086470E+00    7.8477495288189223E+00
N    1.6265783672835452E+00    2.7807389517189152E+00    8.4546841511931738E+00
Ga    1.6285074266906434E+00    2.7804945428657284E+00    1.0446149572588931E+01
N    1.6330472437710830E+00    4.6525838031071132E+00    1.1050717639813731E+01
Ga    1.6279583087988188E+00    4.6455695608958862E+00    1.3035412955414117E+01
N    1.6262196866326870E+00    2.7859727137861499E+00    1.3673070762896844E+01
Ga    1.6283277364842954E+00    2.7605083817489517E+00    1.5668364036618991E+01
N    1.6458258385139901E+00    4.6469222864780839E+00    1.6313776714038465E+01
Ga    1.3046513044084331E+00    4.5431533944840821E+00    1.8241169310014442E+01
N    1.5756272373882734E+00    2.7642288376787580E+00    1.8965049899302791E+01
Ga    4.9927423623857530E-03    5.5872644968570420E+00   -5.4706753603367364E-01
N    7.8424050894010128E-03    7.4633024475077985E+00    6.0864233439466620E-01
Ga    7.7306335490729267E-03    7.4304284909034415E+00    2.6367570209812943E+00
N    4.9694747435381371E-03    5.5867674851978206E+00    3.2718457380115251E+00
Ga    5.5588152631665111E-03    5.5874635686333463E+00    5.2604754669772893E+00
N    8.8559028957360345E-03    7.4617899631280009E+00    5.8530978449180449E+00
Ga    9.0457982836528294E-03    7.4604363369494573E+00    7.8499899530588149E+00
N    6.2485745707014312E-03    5.5869146735823803E+00    8.4551275117391871E+00
Ga    5.8351625132566079E-03    5.5885666371223577E+00    1.0450539381511906E+01
N    5.1482125143234546E-03    7.4580844872841174E+00    1.1063582007993025E+01
Ga    1.8582454726979174E-03    7.4612829454516305E+00    1.3063536761850170E+01
N    1.6355258100170595E-02    5.5782037404232341E+00    1.3645575044747691E+01
Ga    4.8698887659765436E-03    5.5896475196360651E+00    1.5642158560701882E+01
N   -9.4304444676982413E-04    7.4314291200092439E+00    1.6232335060281045E+01
Ga   -7.6083855980738024E-02    7.3701409668857742E+00    1.8320048282050806E+01
N   -2.2841594464062073E-01    5.5027196968001109E+00    1.8807843711187942E+01
Ga    6.4892770250566842E+00   -2.3237895610735478E-02    3.2332718556351536E-01
N    6.4971690753712945E+00    1.8463093506316699E+00    6.0869190977823218E-01
Ga    6.4688611674212630E+00    1.8618869952906929E+00    2.6367424356592024E+00
N    6.4900224379759752E+00   -2.3848299594822320E-02    3.2320649721506500E+00
Ga    6.4904558320920538E+00   -2.3326513180496587E-02    5.2401529453492710E+00
N    6.4957409559521304E+00    1.8464397683101874E+00    5.8522565342554742E+00
Ga    6.4950019259086158E+00    1.8454063654985757E+00    7.8485758874981091E+00
N    6.4904791939865571E+00   -2.3864310261490902E-02    8.4615808420580567E+00
Ga    6.4868261293265066E+00   -2.3806461053636267E-02    1.0457453792139756E+01
N    6.4875615648136042E+00    1.8507790520561282E+00    1.1062971847282503E+01
Ga    6.4926439778579157E+00    1.8469314951386053E+00    1.3058711381098055E+01
N    6.4867028475000437E+00   -2.3121835612271373E-02    1.3654603276167165E+01
Ga    6.4432157927360816E+00   -2.5663227491726937E-02    1.5661513976498872E+01
N    6.4628267753127258E+00    1.8233761605408643E+00    1.6322716969260973E+01
Ga    6.4492225059853929E+00    1.6655939695268536E+00    1.8516817012549218E+01
N    6.4606007457654577E+00   -2.6058492317746262E-01    1.8874034116524196E+01
Ga    4.8702788526832803E+00    2.7834162433643352E+00   -5.4685227869956377E-01
N    4.8734759983153859E+00    4.6579946406739117E+00    6.0971834835501759E-01
Ga    4.8735408443223136E+00    4.6254186815405403E+00    2.6375110012954877E+00
N    4.8706414600179322E+00    2.7815838178958439E+00    3.2713109937559501E+00
Ga    4.8716650563858437E+00    2.7823227581804240E+00    5.2592550163734204E+00
N    4.8745093897220215E+00    4.6565972360439085E+00    5.8513568211766724E+00
Ga    4.8754539964767742E+00    4.6556793345662895E+00    7.8468376845124608E+00
N    4.8706641356186999E+00    2.7821554095368937E+00    8.4517041093026268E+00
Ga    4.8707646481617877E+00    2.7818548570510968E+00    1.0443264689907068E+01
N    4.8735647733206831E+00    4.6530868882838616E+00    1.1056464230536072E+01
Ga    4.8760950100708582E+00    4.6538401604178734E+00    1.3038537667601993E+01
N    4.8696896866994619E+00    2.8006298412968671E+00    1.3703876513788799E+01
Ga    4.8709777761530280E+00    2.6716097411811419E+00    1.5688360184013600E+01
N    4.9317350506962692E+00    4.7912203534775655E+00    1.6307278089045678E+01
Ga    5.1270014506574206E+00    4.0287301832243463E+00    1.9950616838154723E+01
N    4.8373069452613127E+00    2.3646963950683957E+00    1.9295989491480100E+01
Ga    3.2510565025556288E+00    5.5868644974286195E+00    3.2359799681406548E-01
N    3.2480708954175768E+00    7.4562565648674237E+00    6.0937652293332467E-01
Ga    3.2776663936545392E+00    7.4722530428418850E+00    2.6371591898563187E+00
N    3.2509387723073537E+00    5.5870342603600678E+00    3.2329824566903969E+00
Ga    3.2515970409020221E+00    5.5877675105342499E+00    5.2411068497011435E+00
N    3.2514619917710208E+00    7.4582419787787284E+00    5.8523383075565265E+00
Ga    3.2521386689253333E+00    7.4596628187135794E+00    7.8487804466067939E+00
N    3.2522168552963473E+00    5.5873977925644613E+00    8.4530394951608692E+00
Ga    3.2528116743003377E+00    5.5888948454258118E+00    1.0442475502169886E+01
N    3.2542015576477703E+00    7.4564307742177363E+00    1.1059326433794116E+01
Ga    3.2493937343564672E+00    7.4655806659813848E+00    1.3051100996590682E+01
N    3.2532317000739179E+00    5.5786751444118350E+00    1.3666470122594408E+01
Ga    3.1912029518727296E+00    5.6107547614430056E+00    1.5631249071203863E+01
N    3.2526093689211568E+00    7.4555764751319078E+00    1.6194470060369227E+01
Ga    3.2364394266048127E+00    7.7364575377984766E+00    1.8143944788205175E+01
N    4.8597956917734013E+00    4.8806811536346029E+00    1.7658039444024823E+01
O    2.0121568967027375E+00    5.4499358440901542E+00    2.0189286462109209E+01
H    9.9558580417159226E-01    5.4995249312875272E+00    2.0186721755604804E+01
C    1.5253840354821684E+00    2.8300322373774645E+00    2.0462760274901360E+01
H    6.5179134895210589E-01    3.3974126999872536E+00    2.0811847184574749E+01
H    1.4387920507466265E+00    1.8086410752550544E+00    2.0864311647047970E+01
H    2.4324276719820408E+00    3.2781177670108814E+00    2.0880492831756857E+01
O    5.0660324876609328E+00    5.0535343890603599E+00    2.1416336771686716E+01
H    2.2094823492894808E+00    6.4188849505101153E+00    2.0098920106101172E+01
C    4.3835498025373516E+00    4.5811628367181267E+00    2.2592669861041010E+01
H    4.4216756795687759E+00    3.4864192618081020E+00    2.2705144558270529E+01
H    4.8796903022613325E+00    5.0356937841688971E+00    2.3462512855223988E+01
H    3.3298763936490481E+00    4.8989652743518501E+00    2.2570938162793414E+01
     &END COORD
     &KIND C
       BASIS_SET DZVP-MOLOPT-SR-GTH-q4
       POTENTIAL GTH-PBE-q4
       &POTENTIAL
 2 2
  0.3384712400000000E+00 2 -0.8803673979999999E+01  0.1339210850000000E+01
 2
  0.3025757500000000E+00 1  0.9622486650000001E+01
  0.2915069400000000E+00 0
         # Potential name:  GTH-PBE-Q4  for symbol:  C
         # Potential read from the potential filename: GTH_POTENTIALS
       &END POTENTIAL
     &END KIND
     &KIND O
       BASIS_SET DZVP-MOLOPT-SR-GTH-q6
       POTENTIAL GTH-PBE-q6
       &POTENTIAL
 2 4
  0.2445543000000000E+00 2 -0.1666721480000000E+02  0.2487311320000000E+01
 2
  0.2209559200000000E+00 1  0.1833745811000000E+02
  0.2113324700000000E+00 0
         # Potential name:  GTH-PBE-Q6  for symbol:  O
         # Potential read from the potential filename: GTH_POTENTIALS
       &END POTENTIAL
     &END KIND
     &KIND H
       BASIS_SET DZVP-MOLOPT-SR-GTH-q1
       POTENTIAL GTH-PBE-q1
       &POTENTIAL
 1
  0.2000000000000000E+00 2 -0.4178900440000000E+01  0.7244633100000000E+00
 0
         # Potential name:  GTH-PBE-Q1  for symbol:  H
         # Potential read from the potential filename: GTH_POTENTIALS
       &END POTENTIAL
     &END KIND
     &KIND N
       BASIS_SET DZVP-MOLOPT-SR-GTH-q5
       POTENTIAL GTH-PBE-q5
       &POTENTIAL
 2 3
  0.2837905100000000E+00 2 -0.1241522559000000E+02  0.1868095920000000E+01
 2
  0.2554050000000000E+00 1  0.1363026257000000E+02
  0.2454945300000000E+00 0
         # Potential name:  GTH-PBE-Q5  for symbol:  N
         # Potential read from the potential filename: GTH_POTENTIALS
       &END POTENTIAL
     &END KIND
     &KIND Ga
       BASIS_SET DZVP-MOLOPT-SR-GTH-q13
       POTENTIAL GTH-PBE-q13
       &POTENTIAL
 2 1 10
  0.4900000000000000E+00 0
 3
  0.4167772300000000E+00 3  0.1047568975000000E+02 -0.4921768140000000E+01  0.8707055900000000E+00
  0.7770178090000000E+01 -0.2248152160000000E+01
  0.1784415450000000E+01
  0.5696265200000000E+00 2  0.1777985340000000E+01  0.1958597600000000E+00
 -0.2317443900000000E+00
  0.2381265000000000E+00 1 -0.1624868022000000E+02
         # Potential name:  GTH-PBE-Q13  for symbol:  GA
         # Potential read from the potential filename: GTH_POTENTIALS
       &END POTENTIAL
     &END KIND
     &TOPOLOGY
       COORD_FILE_NAME ../start-first.xyz
       COORD_FILE_FORMAT  XYZ
       NUMBER_OF_ATOMS  156
       MULTIPLE_UNIT_CELL  1 1 1
     &END TOPOLOGY
     &COLVAR
       &DISTANCE
         ATOMS  145 147
       &END DISTANCE
       &PRINT
       &END PRINT
     &END COLVAR
   &END SUBSYS
 &END FORCE_EVAL
