 # Version information for this restart file 
 # current date 2019-05-28 09:28:37.552
 # current working dir /lustre03/project/6004141/rzk/GaN-carbene/334-native/08-2Methanol-Htransfer/03-CO-constraint/2.64
 # Program compiled at                              Sun Apr  7 00:48:11 EDT 2019
 # Program compiled on                          beluga2.int.ets1.calculquebec.ca
 # Program compiled for                        Beluga-Linux-x86-64-intel-openmpi
 # Source code revision number                                         svn:18619
 &GLOBAL
   PRINT_LEVEL  MEDIUM
   PROJECT_NAME TEST
   RUN_TYPE  GEO_OPT
 &END GLOBAL
 &MOTION
   &GEO_OPT
     MAX_ITER  500
     STEP_START_VAL  183
   &END GEO_OPT
   &CONSTRAINT
     &COLLECTIVE
       COLVAR  1
       INTERMOLECULAR  T
       TARGET     4.9888769908180972E+00
       &RESTRAINT
         K     1.0000000000000001E-01
       &END RESTRAINT
     &END COLLECTIVE
     &COLVAR_RESTART
           4.9888769908180972E+00
     &END COLVAR_RESTART
   &END CONSTRAINT
 &END MOTION
 &FORCE_EVAL
   METHOD  QS
   STRESS_TENSOR  ANALYTICAL
   &DFT
     BASIS_SET_FILE_NAME BASIS_MOLOPT
     POTENTIAL_FILE_NAME GTH_POTENTIALS
     &SCF
       MAX_SCF  100
       EPS_SCF     5.0000000000000004E-06
       &OT  T
         PRECONDITIONER  FULL_ALL
       &END OT
       &OUTER_SCF  T
         OPTIMIZER  NONE
         EPS_SCF     5.0000000000000004E-06
         MAX_SCF  4
       &END OUTER_SCF
       &PRINT
         &RESTART  OFF
           BACKUP_COPIES  1
           &EACH
             JUST_ENERGY  0
             QS_SCF  0
             MD  20
           &END EACH
         &END RESTART
       &END PRINT
     &END SCF
     &QS
       EPS_DEFAULT     1.0000000000000000E-14
       ALMO_SCF  F
       METHOD  GPW
     &END QS
     &MGRID
       NGRIDS  5
       CUTOFF     1.2000000000000000E+03
     &END MGRID
     &XC
       DENSITY_CUTOFF     1.0000000000000000E-10
       GRADIENT_CUTOFF     1.0000000000000000E-10
       TAU_CUTOFF     1.0000000000000000E-10
       &XC_FUNCTIONAL  NO_SHORTCUT
         &PBE  T
         &END PBE
       &END XC_FUNCTIONAL
       &VDW_POTENTIAL
         POTENTIAL_TYPE  PAIR_POTENTIAL
         &PAIR_POTENTIAL
           R_CUTOFF     1.0000000000000005E+01
           TYPE  DFTD3
           PARAMETER_FILE_NAME dftd3.dat
           REFERENCE_FUNCTIONAL PBE
           EPS_CN     9.9999999999999995E-07
           CALCULATE_C9_TERM  T
           REFERENCE_C9_TERM  T
           LONG_RANGE_CORRECTION  F
           VERBOSE_OUTPUT  F
         &END PAIR_POTENTIAL
       &END VDW_POTENTIAL
     &END XC
   &END DFT
   &SUBSYS
     &CELL
       A     9.7367653356401487E+00    0.0000000000000000E+00    0.0000000000000000E+00
       B    -4.8591341382960209E+00    8.4162672083210595E+00    0.0000000000000000E+00
       C     0.0000000000000000E+00    0.0000000000000000E+00    3.0744000000000000E+01
       MULTIPLE_UNIT_CELL  1 1 1
       &CELL_REF
         A     9.5580000000000052E+00    0.0000000000000000E+00    0.0000000000000000E+00
         B    -4.7790000000000026E+00    8.2774708093716640E+00    0.0000000000000000E+00
         C     0.0000000000000000E+00    0.0000000000000000E+00    3.0744000000000000E+01
         MULTIPLE_UNIT_CELL  1 1 1
       &END CELL_REF
     &END CELL
     &COORD
Ga   -4.8805627252583795E-04   -2.3884208808788568E-02   -5.4684307732863002E-01
N    2.4065591283240349E-03    1.8522508045082806E+00    6.0901311462880636E-01
Ga    1.6976685535173932E-03    1.8191793893172612E+00    2.6367679608602934E+00
N   -9.1162392115169038E-04   -2.4707326651975406E-02    3.2716382279642082E+00
Ga   -6.7934491309024807E-04   -2.4024930020799695E-02    5.2600154222984310E+00
N    1.9865645854505623E-03    1.8504949964776860E+00    5.8518063985315782E+00
Ga    1.2593593703942075E-03    1.8481610097181351E+00    7.8483870812818033E+00
N   -1.8644898253717226E-03   -2.4126260527079772E-02    8.4547809587928846E+00
Ga   -6.5073429346292251E-04   -2.2217632351474555E-02    1.0449905149308515E+01
N    4.6777124838698492E-03    1.8507271637997016E+00    1.1055472501355414E+01
Ga   -7.0653354070579618E-04    1.8527665506803050E+00    1.3049456083525738E+01
N    5.7068346507729590E-04   -2.0445103857133131E-02    1.3636471094184380E+01
Ga    8.4540444381860994E-03   -7.5826136829633857E-03    1.5620702246198938E+01
N    1.3379272573776064E-02    1.8465126147299644E+00    1.6280224952676939E+01
Ga   -1.1577483164449025E-01    1.8163170084662208E+00    1.8353849414125762E+01
N   -4.5452657112063505E-02   -5.2216661089916461E-02    1.8845318525618001E+01
Ga   -1.6201612285045028E+00    2.7813076534738479E+00    3.2244641327569201E-01
N   -1.6227101447733623E+00    4.6505701853300137E+00    6.0893780825869792E-01
Ga   -1.5941572212928938E+00    4.6662389872186818E+00    2.6368437282271113E+00
N   -1.6207692233652240E+00    2.7809451900967281E+00    3.2326271197775305E+00
Ga   -1.6209048587337815E+00    2.7815528204920437E+00    5.2409658204758340E+00
N   -1.6202486259839697E+00    4.6515975395472546E+00    5.8530937735187836E+00
Ga   -1.6193300133100139E+00    4.6512363684014923E+00    7.8500771961270424E+00
N   -1.6217167151306582E+00    2.7794735531704298E+00    8.4562914339680564E+00
Ga   -1.6222929575530709E+00    2.7791946395524594E+00    1.0449755931160913E+01
N   -1.6146748041846144E+00    4.6486844082655248E+00    1.1055378968806425E+01
Ga   -1.6053620339907928E+00    4.6325158645182833E+00    1.3048382243581562E+01
N   -1.6251944170068024E+00    2.7648415146281362E+00    1.3662538591768721E+01
Ga   -1.6437728195387071E+00    2.7288813522020212E+00    1.5679597936491268E+01
N   -1.6045004407799066E+00    4.6222239092846333E+00    1.6167587502013649E+01
Ga   -1.7036033454437098E+00    4.4930782066513357E+00    1.8162857310020645E+01
N   -1.7270642547627717E+00    2.7245151598344175E+00    1.8813864549621023E+01
Ga   -3.2406596164403920E+00    5.5870926419871685E+00    3.2275756267874134E-01
N   -3.2324218619206144E+00    7.4564768927447993E+00    6.0894206305438681E-01
Ga   -3.2615723909468475E+00    7.4718017042095308E+00    2.6367215677450759E+00
N   -3.2401626359509637E+00    5.5866699037246415E+00    3.2327868773411810E+00
Ga   -3.2397672527596328E+00    5.5873056955825824E+00    5.2408684208656480E+00
N   -3.2348690441245700E+00    7.4573266497419821E+00    5.8535452810785360E+00
Ga   -3.2360914280229727E+00    7.4583094506824272E+00    7.8507522189179015E+00
N   -3.2401411204928494E+00    5.5867949965926922E+00    8.4588276766151882E+00
Ga   -3.2352627231480038E+00    5.5880655305997253E+00    1.0452727675245342E+01
N   -3.2335676510505738E+00    7.4631693744563732E+00    1.1051128210906235E+01
Ga   -3.2268498842037365E+00    7.4787810203467959E+00    1.3040184007015236E+01
N   -3.2346824360108344E+00    5.5929530771612912E+00    1.3618520430339816E+01
Ga   -3.1304921334132838E+00    5.6290242934889205E+00    1.5575243300075643E+01
N   -3.2450960535662108E+00    7.4523040578830670E+00    1.6218200123897443E+01
Ga   -3.2974547421905580E+00    7.6907103045576237E+00    1.8198262224828412E+01
N   -3.8258474375570959E+00    5.0677898267923709E+00    1.8387697540614191E+01
Ga    3.2453721961857336E+00   -2.3931464219107582E-02    3.2274939763229804E-01
N    3.2430041694952370E+00    1.8453695803817489E+00    6.0883946404285583E-01
Ga    3.2715654541039156E+00    1.8611141444480577E+00    2.6368363995376090E+00
N    3.2446532155703727E+00   -2.4533265646561934E-02    3.2323847764821507E+00
Ga    3.2448847228325137E+00   -2.4113807306409635E-02    5.2405531445497822E+00
N    3.2453640782587181E+00    1.8466379703680984E+00    5.8497417335120936E+00
Ga    3.2458645177634580E+00    1.8466949696068471E+00    7.8446480719686029E+00
N    3.2455075244765386E+00   -2.1745885142531930E-02    8.4566854997333447E+00
Ga    3.2489297427976300E+00   -1.9396425458972064E-02    1.0450272671802990E+01
N    3.2511999396120927E+00    1.8530670556573738E+00    1.1066843810090791E+01
Ga    3.2466560650777976E+00    1.8529148518028653E+00    1.3061942645579602E+01
N    3.2453689931362786E+00   -8.2521295268142940E-03    1.3682989921157329E+01
Ga    3.2636142701433726E+00   -9.6608288629407377E-03    1.5712883583926621E+01
N    3.2425220372529262E+00    1.8840599883631346E+00    1.6351848020495623E+01
Ga    3.2552177684012795E+00    1.7630590539814734E+00    1.8433577724521889E+01
N    3.1912405556111478E+00   -1.1208421452653404E-01    1.8760257302769084E+01
Ga    1.6249587781813364E+00    2.7819820242666489E+00    3.2313223430640609E-01
N    1.6328612119307062E+00    4.6512858292848378E+00    6.0932939009712284E-01
Ga    1.6038783978099560E+00    4.6666103740637750E+00    2.6371105620741448E+00
N    1.6248453055148031E+00    2.7809751455256042E+00    3.2319417746823382E+00
Ga    1.6248527824819803E+00    2.7817180136626001E+00    5.2398803017589399E+00
N    1.6301436612164033E+00    4.6516980616341215E+00    5.8514956861853378E+00
Ga    1.6284628635669762E+00    4.6517743739262674E+00    7.8474780742312635E+00
N    1.6256909216327153E+00    2.7804108575152853E+00    8.4542700123617074E+00
Ga    1.6277898934341830E+00    2.7803752639080623E+00    1.0445737521585531E+01
N    1.6324850174730678E+00    4.6524711390042084E+00    1.1050240284090261E+01
Ga    1.6278345075167362E+00    4.6456776760693730E+00    1.3035031793941505E+01
N    1.6260494911133647E+00    2.7860634630913408E+00    1.3672565707780555E+01
Ga    1.6287274294194842E+00    2.7608518276479210E+00    1.5667932455661187E+01
N    1.6461613089214691E+00    4.6472191446539330E+00    1.6313045445404388E+01
Ga    1.3047236218898761E+00    4.5435412851851069E+00    1.8240364462698583E+01
N    1.5767236050360154E+00    2.7648816822753539E+00    1.8964463011624929E+01
Ga    5.7729843736638422E-03    5.5869111109114096E+00   -5.4729589346591645E-01
N    8.5454995839769586E-03    7.4629816106332276E+00    6.0865764177235637E-01
Ga    7.8905182113758413E-03    7.4299538427649088E+00    2.6365007334911414E+00
N    4.9581432842937907E-03    5.5862155726707048E+00    3.2716951467548632E+00
Ga    5.0276662426894667E-03    5.5869417158801946E+00    5.2601880707148334E+00
N    8.2768874565490261E-03    7.4613438155459280E+00    5.8528031180217814E+00
Ga    8.2382609375861119E-03    7.4601297575187173E+00    7.8497116210162012E+00
N    5.4040801369601484E-03    5.5865924352760921E+00    8.4546190327639685E+00
Ga    5.1964968372594234E-03    5.5883931682528978E+00    1.0450059506422962E+01
N    4.5526662610544128E-03    7.4579305502404303E+00    1.1063076126995806E+01
Ga    1.7833301450410079E-03    7.4612725337758476E+00    1.3063041329842635E+01
N    1.6178397890532204E-02    5.5782235149560560E+00    1.3645001398182785E+01
Ga    5.2578996651028650E-03    5.5899699251334063E+00    1.5641600640430918E+01
N   -2.5599634691018171E-04    7.4315880212692287E+00    1.6232006400435864E+01
Ga   -7.5053908428379792E-02    7.3701496396007125E+00    1.8319809397912845E+01
N   -2.2793888221238345E-01    5.5028940590430739E+00    1.8807442784523246E+01
Ga    6.4900134722347067E+00   -2.3668095932939247E-02    3.2281813258859032E-01
N    6.4977441432179726E+00    1.8458491274043038E+00    6.0847549337482021E-01
Ga    6.4689298888511795E+00    1.8613501597064319E+00    2.6363097034639940E+00
N    6.4900714541059434E+00   -2.4322755968320266E-02    3.2318909100030910E+00
Ga    6.4899268509925454E+00   -2.3782018588869771E-02    5.2398631783583065E+00
N    6.4951091248278079E+00    1.8459827446147385E+00    5.8519740254321402E+00
Ga    6.4941697062853381E+00    1.8451157307171928E+00    7.8483136271551466E+00
N    6.4896597842464558E+00   -2.4147447400528686E-02    8.4611289844606166E+00
Ga    6.4862062741071131E+00   -2.3858170494248713E-02    1.0457040770276832E+01
N    6.4868718644271830E+00    1.8507615211265245E+00    1.1062560524527806E+01
Ga    6.4924839420994314E+00    1.8470429829616017E+00    1.3058382668358888E+01
N    6.4866332747616759E+00   -2.3105847096067205E-02    1.3654032778864854E+01
Ga    6.4437028107729049E+00   -2.5422464637267685E-02    1.5661109741518343E+01
N    6.4633475787227272E+00    1.8234145366301908E+00    1.6322285872174561E+01
Ga    6.4500469335793706E+00    1.6653389103893295E+00    1.8518327381580043E+01
N    6.4620215464015160E+00   -2.6096360797621393E-01    1.8873942981149568E+01
Ga    4.8708512807604842E+00    2.7829939118067784E+00   -5.4717516712754821E-01
N    4.8740464302711457E+00    4.6575623700674988E+00    6.0961836483878140E-01
Ga    4.8735176086917624E+00    4.6248334356294301E+00    2.6372161002161758E+00
N    4.8706258467295704E+00    2.7809947047534775E+00    3.2711089712826387E+00
Ga    4.8710291987456804E+00    2.7818761680426216E+00    5.2589338424657219E+00
N    4.8739004110776278E+00    4.6561343282857282E+00    5.8510621796122972E+00
Ga    4.8746363338535241E+00    4.6554242960888166E+00    7.8464532223673897E+00
N    4.8698078078339044E+00    2.7818938077066862E+00    8.4510851683848216E+00
Ga    4.8701325198568659E+00    2.7817212954407622E+00    1.0442651996104384E+01
N    4.8729105272169040E+00    4.6530166753070556E+00    1.1055868437338983E+01
Ga    4.8759664710087796E+00    4.6540324471887189E+00    1.3038026919858810E+01
N    4.8696150253021182E+00    2.8009285090888567E+00    1.3703525261776933E+01
Ga    4.8715522642186073E+00    2.6723094106974243E+00    1.5688527027204866E+01
N    4.9322861642990974E+00    4.7917392746560035E+00    1.6307446445092303E+01
Ga    5.1291582646557572E+00    4.0288105793377316E+00    1.9951724672178994E+01
N    4.8383038314872175E+00    2.3645896434979496E+00    1.9297677832534632E+01
Ga    3.2517129076422604E+00    5.5864543173612136E+00    3.2313187195540993E-01
N    3.2486819531399984E+00    7.4557852975581200E+00    6.0917139737442549E-01
Ga    3.2776525993783521E+00    7.4716759914460225E+00    2.6368223272717697E+00
N    3.2509181931717732E+00    5.5864991856866490E+00    3.2327825546808695E+00
Ga    3.2510034711851761E+00    5.5872282609470307E+00    5.2408120051128666E+00
N    3.2508674549518393E+00    7.4577542458497543E+00    5.8520538590936919E+00
Ga    3.2513177358346659E+00    7.4593553455640418E+00    7.8484657260604829E+00
N    3.2513749266259384E+00    5.5870877409803850E+00    8.4525089927443027E+00
Ga    3.2521064394511141E+00    5.5887592414096758E+00    1.0441928653681005E+01
N    3.2536121587757769E+00    7.4562773488267942E+00    1.1058810493936763E+01
Ga    3.2493379447447372E+00    7.4655989573411485E+00    1.3050677964658870E+01
N    3.2532166396425093E+00    5.5786907023085810E+00    1.3666148187017006E+01
Ga    3.1917821372112569E+00    5.6109863195760488E+00    1.5631262029832667E+01
N    3.2533425109156946E+00    7.4559623880408097E+00    1.6194030443856335E+01
Ga    3.2375505938122418E+00    7.7367776154199071E+00    1.8143288435536427E+01
N    4.8601707664954565E+00    4.8811998888354724E+00    1.7658367519597292E+01
O    2.0165121895221385E+00    5.4517693431354122E+00    2.0187218331001226E+01
H    1.0004402159467418E+00    5.4981751872904772E+00    2.0189405523623577E+01
C    1.5251944031779143E+00    2.8326680283529040E+00    2.0461861008512571E+01
H    6.5008261576775195E-01    3.3989361509293072E+00    2.0809152509509705E+01
H    1.4397065002978893E+00    1.8117715654152122E+00    2.0865078919733957E+01
H    2.4312549518281581E+00    3.2827693250989713E+00    2.0879215440233065E+01
O    5.0723560310896465E+00    5.0514974270735831E+00    2.1418841808301561E+01
H    2.2096795433670069E+00    6.4216078112364174E+00    2.0094922280640080E+01
C    4.3848333562744601E+00    4.5830429199974292E+00    2.2594894617796523E+01
H    4.4162101492076209E+00    3.4878220439901644E+00    2.2707527192479777E+01
H    4.8819840633751301E+00    5.0343248158326501E+00    2.3466087433042311E+01
H    3.3335494848522353E+00    4.9081824113765391E+00    2.2572114073884233E+01
     &END COORD
     &KIND C
       BASIS_SET DZVP-MOLOPT-SR-GTH-q4
       POTENTIAL GTH-PBE-q4
       &POTENTIAL
 2 2
  0.3384712400000000E+00 2 -0.8803673979999999E+01  0.1339210850000000E+01
 2
  0.3025757500000000E+00 1  0.9622486650000001E+01
  0.2915069400000000E+00 0
         # Potential name:  GTH-PBE-Q4  for symbol:  C
         # Potential read from the potential filename: GTH_POTENTIALS
       &END POTENTIAL
     &END KIND
     &KIND O
       BASIS_SET DZVP-MOLOPT-SR-GTH-q6
       POTENTIAL GTH-PBE-q6
       &POTENTIAL
 2 4
  0.2445543000000000E+00 2 -0.1666721480000000E+02  0.2487311320000000E+01
 2
  0.2209559200000000E+00 1  0.1833745811000000E+02
  0.2113324700000000E+00 0
         # Potential name:  GTH-PBE-Q6  for symbol:  O
         # Potential read from the potential filename: GTH_POTENTIALS
       &END POTENTIAL
     &END KIND
     &KIND H
       BASIS_SET DZVP-MOLOPT-SR-GTH-q1
       POTENTIAL GTH-PBE-q1
       &POTENTIAL
 1
  0.2000000000000000E+00 2 -0.4178900440000000E+01  0.7244633100000000E+00
 0
         # Potential name:  GTH-PBE-Q1  for symbol:  H
         # Potential read from the potential filename: GTH_POTENTIALS
       &END POTENTIAL
     &END KIND
     &KIND N
       BASIS_SET DZVP-MOLOPT-SR-GTH-q5
       POTENTIAL GTH-PBE-q5
       &POTENTIAL
 2 3
  0.2837905100000000E+00 2 -0.1241522559000000E+02  0.1868095920000000E+01
 2
  0.2554050000000000E+00 1  0.1363026257000000E+02
  0.2454945300000000E+00 0
         # Potential name:  GTH-PBE-Q5  for symbol:  N
         # Potential read from the potential filename: GTH_POTENTIALS
       &END POTENTIAL
     &END KIND
     &KIND Ga
       BASIS_SET DZVP-MOLOPT-SR-GTH-q13
       POTENTIAL GTH-PBE-q13
       &POTENTIAL
 2 1 10
  0.4900000000000000E+00 0
 3
  0.4167772300000000E+00 3  0.1047568975000000E+02 -0.4921768140000000E+01  0.8707055900000000E+00
  0.7770178090000000E+01 -0.2248152160000000E+01
  0.1784415450000000E+01
  0.5696265200000000E+00 2  0.1777985340000000E+01  0.1958597600000000E+00
 -0.2317443900000000E+00
  0.2381265000000000E+00 1 -0.1624868022000000E+02
         # Potential name:  GTH-PBE-Q13  for symbol:  GA
         # Potential read from the potential filename: GTH_POTENTIALS
       &END POTENTIAL
     &END KIND
     &TOPOLOGY
       COORD_FILE_NAME ../start-first.xyz
       COORD_FILE_FORMAT  XYZ
       NUMBER_OF_ATOMS  156
       MULTIPLE_UNIT_CELL  1 1 1
     &END TOPOLOGY
     &COLVAR
       &DISTANCE
         ATOMS  145 147
       &END DISTANCE
       &PRINT
       &END PRINT
     &END COLVAR
   &END SUBSYS
 &END FORCE_EVAL
