 # Version information for this restart file 
 # current date 2019-05-28 05:24:34.749
 # current working dir /lustre03/project/6004141/rzk/GaN-carbene/334-native/08-2Methanol-Htransfer/03-CO-constraint/2.14
 # Program compiled at                              Sun Apr  7 00:48:11 EDT 2019
 # Program compiled on                          beluga2.int.ets1.calculquebec.ca
 # Program compiled for                        Beluga-Linux-x86-64-intel-openmpi
 # Source code revision number                                         svn:18619
 &GLOBAL
   PRINT_LEVEL  MEDIUM
   PROJECT_NAME TEST
   RUN_TYPE  GEO_OPT
 &END GLOBAL
 &MOTION
   &GEO_OPT
     MAX_ITER  500
     STEP_START_VAL  136
   &END GEO_OPT
   &CONSTRAINT
     &COLLECTIVE
       COLVAR  1
       INTERMOLECULAR  T
       TARGET     4.0440139243752764E+00
       &RESTRAINT
         K     1.0000000000000001E-01
       &END RESTRAINT
     &END COLLECTIVE
     &COLVAR_RESTART
           4.0440139243752764E+00
     &END COLVAR_RESTART
   &END CONSTRAINT
 &END MOTION
 &FORCE_EVAL
   METHOD  QS
   STRESS_TENSOR  ANALYTICAL
   &DFT
     BASIS_SET_FILE_NAME BASIS_MOLOPT
     POTENTIAL_FILE_NAME GTH_POTENTIALS
     &SCF
       MAX_SCF  100
       EPS_SCF     5.0000000000000004E-06
       &OT  T
         PRECONDITIONER  FULL_ALL
       &END OT
       &OUTER_SCF  T
         OPTIMIZER  NONE
         EPS_SCF     5.0000000000000004E-06
         MAX_SCF  4
       &END OUTER_SCF
       &PRINT
         &RESTART  OFF
           BACKUP_COPIES  1
           &EACH
             JUST_ENERGY  0
             QS_SCF  0
             MD  20
           &END EACH
         &END RESTART
       &END PRINT
     &END SCF
     &QS
       EPS_DEFAULT     1.0000000000000000E-14
       ALMO_SCF  F
       METHOD  GPW
     &END QS
     &MGRID
       NGRIDS  5
       CUTOFF     1.2000000000000000E+03
     &END MGRID
     &XC
       DENSITY_CUTOFF     1.0000000000000000E-10
       GRADIENT_CUTOFF     1.0000000000000000E-10
       TAU_CUTOFF     1.0000000000000000E-10
       &XC_FUNCTIONAL  NO_SHORTCUT
         &PBE  T
         &END PBE
       &END XC_FUNCTIONAL
       &VDW_POTENTIAL
         POTENTIAL_TYPE  PAIR_POTENTIAL
         &PAIR_POTENTIAL
           R_CUTOFF     1.0000000000000005E+01
           TYPE  DFTD3
           PARAMETER_FILE_NAME dftd3.dat
           REFERENCE_FUNCTIONAL PBE
           EPS_CN     9.9999999999999995E-07
           CALCULATE_C9_TERM  T
           REFERENCE_C9_TERM  T
           LONG_RANGE_CORRECTION  F
           VERBOSE_OUTPUT  F
         &END PAIR_POTENTIAL
       &END VDW_POTENTIAL
     &END XC
   &END DFT
   &SUBSYS
     &CELL
       A     9.7367653356401487E+00    0.0000000000000000E+00    0.0000000000000000E+00
       B    -4.8591341382960209E+00    8.4162672083210595E+00    0.0000000000000000E+00
       C     0.0000000000000000E+00    0.0000000000000000E+00    3.0744000000000000E+01
       MULTIPLE_UNIT_CELL  1 1 1
       &CELL_REF
         A     9.5580000000000052E+00    0.0000000000000000E+00    0.0000000000000000E+00
         B    -4.7790000000000026E+00    8.2774708093716640E+00    0.0000000000000000E+00
         C     0.0000000000000000E+00    0.0000000000000000E+00    3.0744000000000000E+01
         MULTIPLE_UNIT_CELL  1 1 1
       &END CELL_REF
     &END CELL
     &COORD
Ga    2.0144410789654201E-02   -2.4142276849374141E-02   -5.3689745449850856E-01
N    2.2820245006318400E-02    1.8487178188621665E+00    6.0607080769355348E-01
Ga    2.2072735995793888E-02    1.8180294344257164E+00    2.6375160094725278E+00
N    1.8979053768359948E-02   -2.5510890825712406E-02    3.2688542038208590E+00
Ga    1.8913509129919712E-02   -2.4568873797986363E-02    5.2593861454196924E+00
N    2.1862399040723467E-02    1.8499584383217540E+00    5.8472465674214362E+00
Ga    2.2076820103276669E-02    1.8474219822128817E+00    7.8466513368437898E+00
N    2.1137400835939821E-02   -2.5701419687666090E-02    8.4471512153844142E+00
Ga    2.3109733760858498E-02   -2.5855001103267321E-02    1.0444969614262378E+01
N    2.1477067576412222E-02    1.8464189755448523E+00    1.1047663076293739E+01
Ga    2.7611766447333111E-02    1.8422961312696360E+00    1.3041146764542594E+01
N    3.6489354946410209E-02   -2.8933527745735672E-02    1.3638443525955264E+01
Ga    5.4628325707962846E-02   -5.2757295972837570E-02    1.5631884102079617E+01
N    4.8304453876926008E-02    1.8297512404424001E+00    1.6214682310679844E+01
Ga    8.5662706785445700E-02    1.8102761704672807E+00    1.8267047211796086E+01
N    6.8708342510566067E-02   -6.7114030500324648E-02    1.8661620948511491E+01
Ga   -1.5997075992766081E+00    2.7798774506760240E+00    3.2397140723422213E-01
N   -1.6008358709182113E+00    4.6496226772849107E+00    6.0648598365815276E-01
Ga   -1.5728918117282271E+00    4.6655169430963666E+00    2.6365851964026459E+00
N   -1.6003737443839174E+00    2.7799744019507950E+00    3.2277045032169798E+00
Ga   -1.6001039270107422E+00    2.7808527226343314E+00    5.2389270718607497E+00
N   -1.6002912958063051E+00    4.6506039228606308E+00    5.8458645729905951E+00
Ga   -1.6002376407811079E+00    4.6508233784620945E+00    7.8443791960225031E+00
N   -1.6008248273234198E+00    2.7805562096269201E+00    8.4511119573201476E+00
Ga   -1.6011432424752761E+00    2.7823968995572241E+00    1.0447222285816620E+01
N   -1.6022432665393245E+00    4.6522178148540245E+00    1.1056206358435302E+01
Ga   -1.6062336291608008E+00    4.6508671578734981E+00    1.3054785471966524E+01
N   -1.5889335484317251E+00    2.7806529781622644E+00    1.3668632122370829E+01
Ga   -1.5856191966270807E+00    2.7896744978256525E+00    1.5676768007607832E+01
N   -1.5775101135501852E+00    4.6554247050153847E+00    1.6301568704277621E+01
Ga   -1.4730104949654097E+00    4.6423707507209855E+00    1.8377176545847657E+01
N   -1.5135596644929559E+00    2.7442462842950395E+00    1.8718843645286150E+01
Ga   -3.2199299751516355E+00    5.5852101178758611E+00    3.2433020807065266E-01
N   -3.2139334654144593E+00    7.4560334023884582E+00    6.0549953496886599E-01
Ga   -3.2418440555938579E+00    7.4711637529071764E+00    2.6370556151349103E+00
N   -3.2201096406026011E+00    5.5854193153338079E+00    3.2274290901212916E+00
Ga   -3.2202058908000306E+00    5.5858453698868900E+00    5.2388202718971462E+00
N   -3.2146200036327754E+00    7.4562386719409499E+00    5.8451866568747786E+00
Ga   -3.2159206082518552E+00    7.4559578291550048E+00    7.8437343443846519E+00
N   -3.2209612718620040E+00    5.5854051968464082E+00    8.4478602007663657E+00
Ga   -3.2210222323211437E+00    5.5838952079847211E+00    1.0442896000064771E+01
N   -3.2132296913808132E+00    7.4527664078606399E+00    1.1053026164213293E+01
Ga   -3.2053756526632355E+00    7.4460342769020897E+00    1.3051221335587828E+01
N   -3.2256053467632810E+00    5.5789705472695523E+00    1.3690442185088550E+01
Ga   -3.2068047044252848E+00    5.5742947846513475E+00    1.5726749244746452E+01
N   -3.1814139064143334E+00    7.4387619205369173E+00    1.6286709774758489E+01
Ga   -3.1621296263202332E+00    7.3938603394727593E+00    1.8347689987245470E+01
N   -3.1096912249708133E+00    5.5340813672010558E+00    1.8884443712659564E+01
Ga    3.2661696038544630E+00   -2.5579169665533780E-02    3.2421110276073195E-01
N    3.2640933663879714E+00    1.8444154578873659E+00    6.0617847994620888E-01
Ga    3.2918697964001939E+00    1.8603786925162733E+00    2.6365266626289579E+00
N    3.2650720859436611E+00   -2.5526794385062484E-02    3.2272169164428370E+00
Ga    3.2654203848452772E+00   -2.4683416898378836E-02    5.2387010186466210E+00
N    3.2655837359826925E+00    1.8455857291447912E+00    5.8456829748794359E+00
Ga    3.2664127232256508E+00    1.8452471865067908E+00    7.8444705997899433E+00
N    3.2634795617182828E+00   -2.5062870192218561E-02    8.4477894251612522E+00
Ga    3.2650423798851169E+00   -2.5898117189392209E-02    1.0442474829375760E+01
N    3.2715297492347899E+00    1.8444874288037010E+00    1.1050315976395085E+01
Ga    3.2788049965429251E+00    1.8371224746881392E+00    1.3046880647436522E+01
N    3.2701155274413782E+00   -3.0924550448878096E-02    1.3665512904596197E+01
Ga    3.2815879600308384E+00   -3.7959447434934658E-02    1.5674960295009111E+01
N    3.3045477378393224E+00    1.8255403369612071E+00    1.6262144972270885E+01
Ga    3.3557225814186693E+00    1.8234023531639039E+00    1.8298976009648879E+01
N    3.3287813299854694E+00   -6.9858410794018930E-02    1.8759624020982201E+01
Ga    1.6452471212228819E+00    2.7804661249005878E+00    3.2413780968265182E-01
N    1.6517278916248999E+00    4.6503327068255009E+00    6.0667233268724674E-01
Ga    1.6231196404306154E+00    4.6658051048473279E+00    2.6368266922190697E+00
N    1.6449857340420495E+00    2.7801601980706239E+00    3.2283636652405310E+00
Ga    1.6450345674161098E+00    2.7813161855975226E+00    5.2400431533491973E+00
N    1.6504517457875441E+00    4.6509976399963788E+00    5.8484233800913961E+00
Ga    1.6490204251026688E+00    4.6510053147664516E+00    7.8487857239514698E+00
N    1.6457008040961274E+00    2.7784975460272969E+00    8.4488884848417261E+00
Ga    1.6463219824401751E+00    2.7776308743580045E+00    1.0444434021599360E+01
N    1.6420536803477017E+00    4.6485564038520817E+00    1.1039558470278479E+01
Ga    1.6374971497396225E+00    4.6470157617541270E+00    1.3032904663021712E+01
N    1.6527067460969469E+00    2.7687716668745832E+00    1.3639648990271892E+01
Ga    1.6822128202464537E+00    2.7582786780699564E+00    1.5631651153294500E+01
N    1.6376745377472550E+00    4.6359716527024926E+00    1.6134903575268403E+01
Ga    1.7161579721971518E+00    4.5919201142530373E+00    1.8117782821174941E+01
N    1.7154771621042089E+00    2.7502673787212695E+00    1.8646329020070429E+01
Ga    2.5995223634616437E-02    5.5843676815933323E+00   -5.4612994249276769E-01
N    2.9180529076269474E-02    7.4595280399042441E+00    6.0590310870265185E-01
Ga    2.8542933969775357E-02    7.4281729658167404E+00    2.6364217222835995E+00
N    2.5322733383023318E-02    5.5853085144456678E+00    3.2694227045609017E+00
Ga    2.5778038693268054E-02    5.5859948281792313E+00    5.2597390863717086E+00
N    2.8557613660910936E-02    7.4607988390269711E+00    5.8471061326497491E+00
Ga    2.7931574934037071E-02    7.4595033574170868E+00    7.8466782363291392E+00
N    2.2862609363424140E-02    5.5855146042923289E+00    8.4460195717339968E+00
Ga    2.0699568998765443E-02    5.5846429057870655E+00    1.0443323271019427E+01
N    2.8267248373272366E-02    7.4581186454904920E+00    1.1041360615960052E+01
Ga    2.7934763964301768E-02    7.4605047354214005E+00    1.3033248442013511E+01
N    1.6321539603231062E-02    5.5900904613409574E+00    1.3631952569704007E+01
Ga    1.6655532137669831E-02    5.5779974686430194E+00    1.5627467745393924E+01
N    5.7853464015789106E-02    7.4461214383696506E+00    1.6256206752875276E+01
Ga    8.3136521165382851E-02    7.4006325663587571E+00    1.8342640700785921E+01
N    1.9893806220074825E-01    5.5402876630668949E+00    1.8869341261313412E+01
Ga    6.5100943155849089E+00   -2.4885804585939961E-02    3.2352226479875351E-01
N    6.5173545722855515E+00    1.8449641490402791E+00    6.0616747856908670E-01
Ga    6.4888901717721934E+00    1.8604530598047038E+00    2.6363604339780329E+00
N    6.5104174809590809E+00   -2.5307689866414521E-02    3.2281198507091453E+00
Ga    6.5109607084715142E+00   -2.4403817803059277E-02    5.2399891876075193E+00
N    6.5160397657380695E+00    1.8461788635429135E+00    5.8464452510254130E+00
Ga    6.5138629858705341E+00    1.8464681093197828E+00    7.8453587359813692E+00
N    6.5095453793885634E+00   -2.2950245288407528E-02    8.4500121347865687E+00
Ga    6.5108294930769857E+00   -1.9341710315986683E-02    1.0446663609694477E+01
N    6.5131309485625621E+00    1.8526343927833191E+00    1.1056137979086838E+01
Ga    6.5159173415391320E+00    1.8575275496707295E+00    1.3055118153288600E+01
N    6.5055864795017442E+00   -1.6202917888723516E-02    1.3628833237330880E+01
Ga    6.5207099325665911E+00   -1.2650160368665403E-02    1.5627958439403649E+01
N    6.5283717949576534E+00    1.8521096673726625E+00    1.6248168199371655E+01
Ga    6.6008355319041874E+00    1.8210844843060265E+00    1.8296925356197601E+01
N    6.6001038997980626E+00   -8.9600156188283028E-02    1.8660043399178701E+01
Ga    4.8917668354984780E+00    2.7808152339867984E+00   -5.4538377587249054E-01
N    4.8942264463273126E+00    4.6550481482000077E+00    6.0646990293470937E-01
Ga    4.8934249018918097E+00    4.6232797155449505E+00    2.6366286234274137E+00
N    4.8906823245128948E+00    2.7799539503392623E+00    3.2683542821789686E+00
Ga    4.8910560124328981E+00    2.7813032219442189E+00    5.2583523085549997E+00
N    4.8932769175484037E+00    4.6554829010292647E+00    5.8467131526877276E+00
Ga    4.8914905976918295E+00    4.6537785945949794E+00    7.8462032278021621E+00
N    4.8900445402926085E+00    2.7804708238948188E+00    8.4470787023066940E+00
Ga    4.8921000418496989E+00    2.7829959773720683E+00    1.0444595917392098E+01
N    4.8959036044775646E+00    4.6523938967978822E+00    1.1051747968006163E+01
Ga    4.8941943430396488E+00    4.6529618551957324E+00    1.3051676528648969E+01
N    4.8890717299997357E+00    2.7858880122675438E+00    1.3668549579998547E+01
Ga    4.8937981619304578E+00    2.7760109097999268E+00    1.5690670871789242E+01
N    4.8505865538423567E+00    4.6708711766611737E+00    1.6151645099400437E+01
Ga    4.9842909206392703E+00    4.5974819272660010E+00    1.9143863067827091E+01
N    4.9812424482241964E+00    2.7118718767266317E+00    1.8830567797834096E+01
Ga    3.2717165393749652E+00    5.5849284568199629E+00    3.2412140656583943E-01
N    3.2708981572894533E+00    7.4556631026605986E+00    6.0517123735422618E-01
Ga    3.2979428919563252E+00    7.4711883300335327E+00    2.6369314557406076E+00
N    3.2707638613033465E+00    5.5857246928200315E+00    3.2282279021813398E+00
Ga    3.2706414626550133E+00    5.5866112046853766E+00    5.2401453515490486E+00
N    3.2714100475788581E+00    7.4566200825106854E+00    5.8486733526988601E+00
Ga    3.2720197066859460E+00    7.4564261352615500E+00    7.8492432718528384E+00
N    3.2702644353182051E+00    5.5856641721470872E+00    8.4529238176620698E+00
Ga    3.2703630769771377E+00    5.5865097386064368E+00    1.0452221709392479E+01
N    3.2748627258141956E+00    7.4634246349695568E+00    1.1041262787997129E+01
Ga    3.2741100554764011E+00    7.4667755778406590E+00    1.3036188255904793E+01
N    3.2585957004701487E+00    5.5889998926565356E+00    1.3593590022446417E+01
Ga    3.2542895058212564E+00    5.5972765050481454E+00    1.5586822882405416E+01
N    3.2887382823719928E+00    7.4677674681568416E+00    1.6130879560700624E+01
Ga    3.3563416683290632E+00    7.4346209432994312E+00    1.8132841108558889E+01
N    3.4754826009718491E+00    5.4754771554963053E+00    1.8310333194142569E+01
O    1.7458090827021873E+00    5.2544557817993258E+00    2.1319290878244161E+01
H    1.1514527207925715E+00    5.4540223993676493E+00    2.0530137426619142E+01
C    9.5853948965438018E-01    3.4837426859224969E+00    2.1687542231575787E+01
H   -9.9502022628885287E-02    3.7297843679892453E+00    2.1604302902130197E+01
H    1.3849355282249562E+00    2.9013596317004424E+00    2.0863766139312155E+01
H    1.3545473168458169E+00    3.3388946388571115E+00    2.2690241207114070E+01
O    4.2326674574196410E+00    4.8319757216864172E+00    2.1031762939765795E+01
H    3.1792042591642606E+00    4.9963718782765172E+00    2.1068930072642637E+01
C    4.6147203688364451E+00    3.8778505507661247E+00    2.2049228852789074E+01
H    4.3593836951674669E+00    2.8514915900075266E+00    2.1748452006496063E+01
H    5.6996276344853634E+00    3.9502402874039451E+00    2.2193053086598447E+01
H    4.1078468207547303E+00    4.1374274696941029E+00    2.2987519317452872E+01
     &END COORD
     &KIND C
       BASIS_SET DZVP-MOLOPT-SR-GTH-q4
       POTENTIAL GTH-PBE-q4
       &POTENTIAL
 2 2
  0.3384712400000000E+00 2 -0.8803673979999999E+01  0.1339210850000000E+01
 2
  0.3025757500000000E+00 1  0.9622486650000001E+01
  0.2915069400000000E+00 0
         # Potential name:  GTH-PBE-Q4  for symbol:  C
         # Potential read from the potential filename: GTH_POTENTIALS
       &END POTENTIAL
     &END KIND
     &KIND O
       BASIS_SET DZVP-MOLOPT-SR-GTH-q6
       POTENTIAL GTH-PBE-q6
       &POTENTIAL
 2 4
  0.2445543000000000E+00 2 -0.1666721480000000E+02  0.2487311320000000E+01
 2
  0.2209559200000000E+00 1  0.1833745811000000E+02
  0.2113324700000000E+00 0
         # Potential name:  GTH-PBE-Q6  for symbol:  O
         # Potential read from the potential filename: GTH_POTENTIALS
       &END POTENTIAL
     &END KIND
     &KIND H
       BASIS_SET DZVP-MOLOPT-SR-GTH-q1
       POTENTIAL GTH-PBE-q1
       &POTENTIAL
 1
  0.2000000000000000E+00 2 -0.4178900440000000E+01  0.7244633100000000E+00
 0
         # Potential name:  GTH-PBE-Q1  for symbol:  H
         # Potential read from the potential filename: GTH_POTENTIALS
       &END POTENTIAL
     &END KIND
     &KIND N
       BASIS_SET DZVP-MOLOPT-SR-GTH-q5
       POTENTIAL GTH-PBE-q5
       &POTENTIAL
 2 3
  0.2837905100000000E+00 2 -0.1241522559000000E+02  0.1868095920000000E+01
 2
  0.2554050000000000E+00 1  0.1363026257000000E+02
  0.2454945300000000E+00 0
         # Potential name:  GTH-PBE-Q5  for symbol:  N
         # Potential read from the potential filename: GTH_POTENTIALS
       &END POTENTIAL
     &END KIND
     &KIND Ga
       BASIS_SET DZVP-MOLOPT-SR-GTH-q13
       POTENTIAL GTH-PBE-q13
       &POTENTIAL
 2 1 10
  0.4900000000000000E+00 0
 3
  0.4167772300000000E+00 3  0.1047568975000000E+02 -0.4921768140000000E+01  0.8707055900000000E+00
  0.7770178090000000E+01 -0.2248152160000000E+01
  0.1784415450000000E+01
  0.5696265200000000E+00 2  0.1777985340000000E+01  0.1958597600000000E+00
 -0.2317443900000000E+00
  0.2381265000000000E+00 1 -0.1624868022000000E+02
         # Potential name:  GTH-PBE-Q13  for symbol:  GA
         # Potential read from the potential filename: GTH_POTENTIALS
       &END POTENTIAL
     &END KIND
     &TOPOLOGY
       COORD_FILE_NAME ../start-first.xyz
       COORD_FILE_FORMAT  XYZ
       NUMBER_OF_ATOMS  156
       MULTIPLE_UNIT_CELL  1 1 1
     &END TOPOLOGY
     &COLVAR
       &DISTANCE
         ATOMS  145 147
       &END DISTANCE
       &PRINT
       &END PRINT
     &END COLVAR
   &END SUBSYS
 &END FORCE_EVAL
