 # Version information for this restart file 
 # current date 2019-05-28 05:25:22.465
 # current working dir /lustre03/project/6004141/rzk/GaN-carbene/334-native/08-2Methanol-Htransfer/03-CO-constraint/2.14
 # Program compiled at                              Sun Apr  7 00:48:11 EDT 2019
 # Program compiled on                          beluga2.int.ets1.calculquebec.ca
 # Program compiled for                        Beluga-Linux-x86-64-intel-openmpi
 # Source code revision number                                         svn:18619
 &GLOBAL
   PRINT_LEVEL  MEDIUM
   PROJECT_NAME TEST
   RUN_TYPE  GEO_OPT
 &END GLOBAL
 &MOTION
   &GEO_OPT
     MAX_ITER  500
     STEP_START_VAL  137
   &END GEO_OPT
   &CONSTRAINT
     &COLLECTIVE
       COLVAR  1
       INTERMOLECULAR  T
       TARGET     4.0440139243752764E+00
       &RESTRAINT
         K     1.0000000000000001E-01
       &END RESTRAINT
     &END COLLECTIVE
     &COLVAR_RESTART
           4.0440139243752764E+00
     &END COLVAR_RESTART
   &END CONSTRAINT
 &END MOTION
 &FORCE_EVAL
   METHOD  QS
   STRESS_TENSOR  ANALYTICAL
   &DFT
     BASIS_SET_FILE_NAME BASIS_MOLOPT
     POTENTIAL_FILE_NAME GTH_POTENTIALS
     &SCF
       MAX_SCF  100
       EPS_SCF     5.0000000000000004E-06
       &OT  T
         PRECONDITIONER  FULL_ALL
       &END OT
       &OUTER_SCF  T
         OPTIMIZER  NONE
         EPS_SCF     5.0000000000000004E-06
         MAX_SCF  4
       &END OUTER_SCF
       &PRINT
         &RESTART  OFF
           BACKUP_COPIES  1
           &EACH
             JUST_ENERGY  0
             QS_SCF  0
             MD  20
           &END EACH
         &END RESTART
       &END PRINT
     &END SCF
     &QS
       EPS_DEFAULT     1.0000000000000000E-14
       ALMO_SCF  F
       METHOD  GPW
     &END QS
     &MGRID
       NGRIDS  5
       CUTOFF     1.2000000000000000E+03
     &END MGRID
     &XC
       DENSITY_CUTOFF     1.0000000000000000E-10
       GRADIENT_CUTOFF     1.0000000000000000E-10
       TAU_CUTOFF     1.0000000000000000E-10
       &XC_FUNCTIONAL  NO_SHORTCUT
         &PBE  T
         &END PBE
       &END XC_FUNCTIONAL
       &VDW_POTENTIAL
         POTENTIAL_TYPE  PAIR_POTENTIAL
         &PAIR_POTENTIAL
           R_CUTOFF     1.0000000000000005E+01
           TYPE  DFTD3
           PARAMETER_FILE_NAME dftd3.dat
           REFERENCE_FUNCTIONAL PBE
           EPS_CN     9.9999999999999995E-07
           CALCULATE_C9_TERM  T
           REFERENCE_C9_TERM  T
           LONG_RANGE_CORRECTION  F
           VERBOSE_OUTPUT  F
         &END PAIR_POTENTIAL
       &END VDW_POTENTIAL
     &END XC
   &END DFT
   &SUBSYS
     &CELL
       A     9.7367653356401487E+00    0.0000000000000000E+00    0.0000000000000000E+00
       B    -4.8591341382960209E+00    8.4162672083210595E+00    0.0000000000000000E+00
       C     0.0000000000000000E+00    0.0000000000000000E+00    3.0744000000000000E+01
       MULTIPLE_UNIT_CELL  1 1 1
       &CELL_REF
         A     9.5580000000000052E+00    0.0000000000000000E+00    0.0000000000000000E+00
         B    -4.7790000000000026E+00    8.2774708093716640E+00    0.0000000000000000E+00
         C     0.0000000000000000E+00    0.0000000000000000E+00    3.0744000000000000E+01
         MULTIPLE_UNIT_CELL  1 1 1
       &END CELL_REF
     &END CELL
     &COORD
Ga    1.9599712193944532E-02   -2.4525761158613733E-02   -5.3554834075723379E-01
N    2.2497503117449000E-02    1.8482098666520530E+00    6.0605658063062107E-01
Ga    2.2039071050853398E-02    1.8174436110215029E+00    2.6376502840890832E+00
N    1.9003520316067033E-02   -2.6061175300055573E-02    3.2688010660245532E+00
Ga    1.9190381924154693E-02   -2.5198573555430075E-02    5.2594811380942641E+00
N    2.2096067677214733E-02    1.8493278495379120E+00    5.8471773622393508E+00
Ga    2.2418842791527584E-02    1.8468986334285620E+00    7.8467504617127686E+00
N    2.1485402705430923E-02   -2.6197989349280918E-02    8.4472739536398631E+00
Ga    2.3478741596461405E-02   -2.6161049438346268E-02    1.0445182429348662E+01
N    2.1766244763265951E-02    1.8461302010984284E+00    1.1047757682544896E+01
Ga    2.7731083307468110E-02    1.8421462204488306E+00    1.3041270517854230E+01
N    3.6476459090643586E-02   -2.8939028459203927E-02    1.3638536147951440E+01
Ga    5.4439055723252729E-02   -5.2600425909797140E-02    1.5631739620003151E+01
N    4.8294784709825039E-02    1.8299973065266604E+00    1.6214345312152510E+01
Ga    8.5390489200513051E-02    1.8108631965998296E+00    1.8266637740156344E+01
N    6.8481972698138494E-02   -6.6715667134197965E-02    1.8660979950741236E+01
Ga   -1.6001166139038914E+00    2.7794656099851869E+00    3.2397532380497612E-01
N   -1.6010813004393771E+00    4.6492793555866996E+00    6.0644075565230982E-01
Ga   -1.5729155298775475E+00    4.6649694793243999E+00    2.6366707800330942E+00
N   -1.6003421620498528E+00    2.7794153094441150E+00    3.2275431319589307E+00
Ga   -1.5998354114587723E+00    2.7802635557308624E+00    5.2389195045762689E+00
N   -1.6000574424369525E+00    4.6500102522362772E+00    5.8458791172140323E+00
Ga   -1.5998542123031292E+00    4.6503037767887960E+00    7.8445673371448477E+00
N   -1.6004621532306174E+00    2.7800264615439771E+00    8.4510552284838063E+00
Ga   -1.6007595031082311E+00    2.7820108141503539E+00    1.0447230334884978E+01
N   -1.6019510332225697E+00    4.6517282773369022E+00    1.1056238997452573E+01
Ga   -1.6063385619398451E+00    4.6506926598927762E+00    1.3054754343170142E+01
N   -1.5889619992454183E+00    2.7803767973450442E+00    1.3668838151650961E+01
Ga   -1.5858799619535753E+00    2.7898448159646971E+00    1.5676987942952524E+01
N   -1.5775755559317630E+00    4.6555438531859688E+00    1.6301948132490182E+01
Ga   -1.4724395981296494E+00    4.6424651494935825E+00    1.8377495271584262E+01
N   -1.5134489158554618E+00    2.7445973306690821E+00    1.8720281225298937E+01
Ga   -3.2203336451864315E+00    5.5847371533950145E+00    3.2426618635741039E-01
N   -3.2144434186868920E+00    7.4556301142705124E+00    6.0538125239547491E-01
Ga   -3.2419331389150936E+00    7.4706106105878947E+00    2.6371706720776511E+00
N   -3.2201016837813445E+00    5.5848847681333256E+00    3.2272594388270832E+00
Ga   -3.2199502769500357E+00    5.5852476616763909E+00    5.2388148920253270E+00
N   -3.2143611649227233E+00    7.4556223550171525E+00    5.8451698280719873E+00
Ga   -3.2155275973230704E+00    7.4554441989301816E+00    7.8439092561871071E+00
N   -3.2206079130113072E+00    5.5849090907337349E+00    8.4479784302655254E+00
Ga   -3.2206959472676244E+00    5.5835522633630630E+00    1.0443097161543953E+01
N   -3.2128681282573845E+00    7.4524464130034378E+00    1.1053194981770728E+01
Ga   -3.2053326096595889E+00    7.4458565710945859E+00    1.3051433944230903E+01
N   -3.2256216576885071E+00    5.5787488740040230E+00    1.3690677932132445E+01
Ga   -3.2070338216402030E+00    5.5746095909471798E+00    1.5727154072493908E+01
N   -3.1818072824496095E+00    7.4389243302891508E+00    1.6286769815455173E+01
Ga   -3.1617549224085422E+00    7.3942861356513268E+00    1.8347478586022326E+01
N   -3.1093849451146096E+00    5.5345392756014054E+00    1.8884061156735005E+01
Ga    3.2657806415628587E+00   -2.5971384426686936E-02    3.2421967962651038E-01
N    3.2637714060807608E+00    1.8440013901447134E+00    6.0617455742102577E-01
Ga    3.2918521710393041E+00    1.8598423181476293E+00    2.6365838384847846E+00
N    3.2649974710571303E+00   -2.6096859237329389E-02    3.2270328438763713E+00
Ga    3.2656265579774386E+00   -2.5326464600524488E-02    5.2386741672011858E+00
N    3.2658406618592535E+00    1.8449403989357980E+00    5.8456061611233698E+00
Ga    3.2667516690180372E+00    1.8447092984767848E+00    7.8445891508493988E+00
N    3.2639482854525990E+00   -2.5581606742703100E-02    8.4478955186747591E+00
Ga    3.2653797471788053E+00   -2.6248753481751722E-02    1.0442643334638325E+01
N    3.2717974358976805E+00    1.8440931933566207E+00    1.1050540998586913E+01
Ga    3.2788717398727627E+00    1.8367807896133097E+00    1.3047198714896338E+01
N    3.2699633343150047E+00   -3.1122361186347050E-02    1.3666091199879229E+01
Ga    3.2812178407566943E+00   -3.7966109374309817E-02    1.5675595618923488E+01
N    3.3046186368627106E+00    1.8256996566950776E+00    1.6262773832268305E+01
Ga    3.3560832651309189E+00    1.8233924481144941E+00    1.8299616143580874E+01
N    3.3288940320840430E+00   -6.9807089783411477E-02    1.8759816498012484E+01
Ga    1.6449554498813515E+00    2.7801199660195377E+00    3.2415667394943837E-01
N    1.6512702693746348E+00    4.6500472244921784E+00    6.0666555886540530E-01
Ga    1.6231147384510658E+00    4.6652510429615619E+00    2.6370131597666333E+00
N    1.6449739156647563E+00    2.7795644281363603E+00    3.2282151446231167E+00
Ga    1.6452638228236576E+00    2.7806568379184031E+00    5.2400394854156174E+00
N    1.6507375805689133E+00    4.6503543446884130E+00    5.8484135761080616E+00
Ga    1.6493499620924046E+00    4.6504477650276668E+00    7.8489256685199749E+00
N    1.6460428332857955E+00    2.7779546001448394E+00    8.4490329029323998E+00
Ga    1.6466747855794266E+00    2.7772325845100188E+00    1.0444644049151346E+01
N    1.6423693611176946E+00    4.6481348263658173E+00    1.1039712172065110E+01
Ga    1.6375243668760873E+00    4.6468996660242228E+00    1.3033048169241169E+01
N    1.6527871332014652E+00    2.7686303757425370E+00    1.3639889357311757E+01
Ga    1.6821036524012269E+00    2.7584535093016509E+00    1.5631866018790319E+01
N    1.6373537925625101E+00    4.6360540036712292E+00    1.6134957193673650E+01
Ga    1.7165998013579262E+00    4.5927756753076165E+00    1.8117657825672229E+01
N    1.7153433615232232E+00    2.7506134799514137E+00    1.8645456032763111E+01
Ga    2.5641488068442096E-02    5.5840874856163802E+00   -5.4588658082265706E-01
N    2.8812167918468471E-02    7.4590317711163570E+00    6.0595229308267562E-01
Ga    2.8500718845393371E-02    7.4275794191841902E+00    2.6366007234694333E+00
N    2.5315610727734136E-02    5.5846910480929939E+00    3.2693348426143860E+00
Ga    2.6010037643025275E-02    5.5853222838936274E+00    5.2597854740848504E+00
N    2.8796449481116142E-02    7.4601589292647406E+00    5.8469892647710138E+00
Ga    2.8319119271505072E-02    7.4589631461609791E+00    7.8467099289197737E+00
N    2.3274841941491861E-02    5.5850417111848696E+00    8.4462149176616652E+00
Ga    2.1027969629440917E-02    5.5843034532135372E+00    1.0443622266169761E+01
N    2.8615458568697051E-02    7.4578356171273796E+00    1.1041612147762851E+01
Ga    2.7876183599554703E-02    7.4604313818162202E+00    1.3033548728287235E+01
N    1.6163656036825885E-02    5.5898670060513629E+00    1.3631886875223071E+01
Ga    1.6307949771054008E-02    5.5781039209444696E+00    1.5627287104645822E+01
N    5.7729682456635220E-02    7.4457100568276644E+00    1.6256697291162208E+01
Ga    8.3557869786794525E-02    7.4012304652256109E+00    1.8342932593168765E+01
N    1.9916744432915195E-01    5.5406483868641239E+00    1.8869368627333465E+01
Ga    6.5096891995606416E+00   -2.5258724008096336E-02    3.2351019111247964E-01
N    6.5170038396640129E+00    1.8445495128754403E+00    6.0621098840014009E-01
Ga    6.4888846204067967E+00    1.8598735311446923E+00    2.6365108157508859E+00
N    6.5104291792364624E+00   -2.5894702110342876E-02    3.2279864063098977E+00
Ga    6.5112392881092358E+00   -2.5058223231397544E-02    5.2400124188280364E+00
N    6.5162938739441207E+00    1.8455548584990518E+00    5.8463078532635953E+00
Ga    6.5142431820499898E+00    1.8459652097098880E+00    7.8454466398674585E+00
N    6.5099147461280209E+00   -2.3485550553063356E-02    8.4500541847826973E+00
Ga    6.5111408405502393E+00   -1.9747487948272698E-02    1.0446710274289851E+01
N    6.5135306726200861E+00    1.8522941687512156E+00    1.1056145029092662E+01
Ga    6.5158732254492095E+00    1.8573127849181559E+00    1.3055126897870929E+01
N    6.5054866417465504E+00   -1.6259434132690903E-02    1.3629465004141830E+01
Ga    6.5203861678030250E+00   -1.2716236534055441E-02    1.5628754320200397E+01
N    6.5283990359762907E+00    1.8522388574884592E+00    1.6248654575210384E+01
Ga    6.6013026161848787E+00    1.8209136017970173E+00    1.8298050968495193E+01
N    6.6001537868954401E+00   -8.9267171304508494E-02    1.8660421051826376E+01
Ga    4.8913753637485451E+00    2.7804135910177257E+00   -5.4575100782512698E-01
N    4.8938718865963038E+00    4.6545642742845530E+00    6.0643832883376736E-01
Ga    4.8933904318944101E+00    4.6227144709918013E+00    2.6366944303013660E+00
N    4.8906672662321391E+00    2.7794002140788461E+00    3.2682254986312107E+00
Ga    4.8912859441221448E+00    2.7806914298631948E+00    5.2583398625483015E+00
N    4.8935789267110259E+00    4.6548918598663418E+00    5.8466449663050657E+00
Ga    4.8918502966177346E+00    4.6532339809540328E+00    7.8463318299027307E+00
N    4.8903863610017968E+00    2.7799341259504837E+00    8.4471502003125121E+00
Ga    4.8923806486350001E+00    2.7825598566296015E+00    1.0444800502576461E+01
N    4.8961583509166555E+00    4.6519667749045457E+00    1.1051873577256691E+01
Ga    4.8942497677359658E+00    4.6528546603569341E+00    1.3051853399857759E+01
N    4.8891875906574347E+00    2.7856043049269079E+00    1.3669001992490424E+01
Ga    4.8936671918215460E+00    2.7763673569944629E+00    1.5691233238208927E+01
N    4.8501742319637904E+00    4.6712406471004790E+00    1.6152679199811214E+01
Ga    4.9848657114857780E+00    4.5979350344277377E+00    1.9143269291957040E+01
N    4.9815182587195945E+00    2.7120296614954542E+00    1.8830851434916230E+01
Ga    3.2713913616420216E+00    5.5844834365355585E+00    3.2408028854089282E-01
N    3.2705946380635718E+00    7.4552723701633168E+00    6.0520971941641633E-01
Ga    3.2979559596221280E+00    7.4706729356732318E+00    2.6371074456155439E+00
N    3.2707714726423145E+00    5.5851687536125274E+00    3.2280938534078012E+00
Ga    3.2709051745035471E+00    5.5859628774262502E+00    5.2401502515199132E+00
N    3.2716969666116995E+00    7.4559625638026024E+00    5.8486124679162881E+00
Ga    3.2724105903761740E+00    7.4558643198712877E+00    7.8493639414227987E+00
N    3.2705899381596426E+00    5.5851145417754005E+00    8.4530550160176468E+00
Ga    3.2706670064248442E+00    5.5861468535822905E+00    1.0452430434564180E+01
N    3.2751825506867562E+00    7.4631050324003327E+00    1.1041439188927688E+01
Ga    3.2740532353146614E+00    7.4667250839942891E+00    1.3036350784313033E+01
N    3.2586160150267869E+00    5.5888403265328943E+00    1.3593819626735065E+01
Ga    3.2536565103609725E+00    5.5976231389331543E+00    1.5587171021914095E+01
N    3.2887372081026731E+00    7.4680478153145540E+00    1.6131010707155326E+01
Ga    3.3560434861557424E+00    7.4349087925468460E+00    1.8132715253469524E+01
N    3.4755781031417334E+00    5.4758480755145280E+00    1.8310347411424612E+01
O    1.7469928460272046E+00    5.2558140190796969E+00    2.1319209516764179E+01
H    1.1526715169513677E+00    5.4560925651904739E+00    2.0530358303878831E+01
C    9.5684492231661755E-01    3.4862615946491466E+00    2.1687051404814596E+01
H   -1.0102456548731563E-01    3.7336139182622374E+00    2.1601760320730655E+01
H    1.3839371456882181E+00    2.9029958187693188E+00    2.0863903738485504E+01
H    1.3511870609613255E+00    3.3409995417566751E+00    2.2690565179089749E+01
O    4.2338216207954105E+00    4.8324021815030838E+00    2.1031604638412748E+01
H    3.1807495183497574E+00    4.9972811375249471E+00    2.1068446848565557E+01
C    4.6146565938508166E+00    3.8787570567944920E+00    2.2049900296113794E+01
H    4.3575164861224396E+00    2.8524539995912561E+00    2.1750426281865298E+01
H    5.6997287614531507E+00    3.9495469052251582E+00    2.2193296614926343E+01
H    4.1085632166896167E+00    4.1403294555306402E+00    2.2987990170041918E+01
     &END COORD
     &KIND C
       BASIS_SET DZVP-MOLOPT-SR-GTH-q4
       POTENTIAL GTH-PBE-q4
       &POTENTIAL
 2 2
  0.3384712400000000E+00 2 -0.8803673979999999E+01  0.1339210850000000E+01
 2
  0.3025757500000000E+00 1  0.9622486650000001E+01
  0.2915069400000000E+00 0
         # Potential name:  GTH-PBE-Q4  for symbol:  C
         # Potential read from the potential filename: GTH_POTENTIALS
       &END POTENTIAL
     &END KIND
     &KIND O
       BASIS_SET DZVP-MOLOPT-SR-GTH-q6
       POTENTIAL GTH-PBE-q6
       &POTENTIAL
 2 4
  0.2445543000000000E+00 2 -0.1666721480000000E+02  0.2487311320000000E+01
 2
  0.2209559200000000E+00 1  0.1833745811000000E+02
  0.2113324700000000E+00 0
         # Potential name:  GTH-PBE-Q6  for symbol:  O
         # Potential read from the potential filename: GTH_POTENTIALS
       &END POTENTIAL
     &END KIND
     &KIND H
       BASIS_SET DZVP-MOLOPT-SR-GTH-q1
       POTENTIAL GTH-PBE-q1
       &POTENTIAL
 1
  0.2000000000000000E+00 2 -0.4178900440000000E+01  0.7244633100000000E+00
 0
         # Potential name:  GTH-PBE-Q1  for symbol:  H
         # Potential read from the potential filename: GTH_POTENTIALS
       &END POTENTIAL
     &END KIND
     &KIND N
       BASIS_SET DZVP-MOLOPT-SR-GTH-q5
       POTENTIAL GTH-PBE-q5
       &POTENTIAL
 2 3
  0.2837905100000000E+00 2 -0.1241522559000000E+02  0.1868095920000000E+01
 2
  0.2554050000000000E+00 1  0.1363026257000000E+02
  0.2454945300000000E+00 0
         # Potential name:  GTH-PBE-Q5  for symbol:  N
         # Potential read from the potential filename: GTH_POTENTIALS
       &END POTENTIAL
     &END KIND
     &KIND Ga
       BASIS_SET DZVP-MOLOPT-SR-GTH-q13
       POTENTIAL GTH-PBE-q13
       &POTENTIAL
 2 1 10
  0.4900000000000000E+00 0
 3
  0.4167772300000000E+00 3  0.1047568975000000E+02 -0.4921768140000000E+01  0.8707055900000000E+00
  0.7770178090000000E+01 -0.2248152160000000E+01
  0.1784415450000000E+01
  0.5696265200000000E+00 2  0.1777985340000000E+01  0.1958597600000000E+00
 -0.2317443900000000E+00
  0.2381265000000000E+00 1 -0.1624868022000000E+02
         # Potential name:  GTH-PBE-Q13  for symbol:  GA
         # Potential read from the potential filename: GTH_POTENTIALS
       &END POTENTIAL
     &END KIND
     &TOPOLOGY
       COORD_FILE_NAME ../start-first.xyz
       COORD_FILE_FORMAT  XYZ
       NUMBER_OF_ATOMS  156
       MULTIPLE_UNIT_CELL  1 1 1
     &END TOPOLOGY
     &COLVAR
       &DISTANCE
         ATOMS  145 147
       &END DISTANCE
       &PRINT
       &END PRINT
     &END COLVAR
   &END SUBSYS
 &END FORCE_EVAL
