 # Version information for this restart file 
 # current date 2019-05-28 05:26:06.406
 # current working dir /lustre03/project/6004141/rzk/GaN-carbene/334-native/08-2Methanol-Htransfer/03-CO-constraint/2.14
 # Program compiled at                              Sun Apr  7 00:48:11 EDT 2019
 # Program compiled on                          beluga2.int.ets1.calculquebec.ca
 # Program compiled for                        Beluga-Linux-x86-64-intel-openmpi
 # Source code revision number                                         svn:18619
 &GLOBAL
   PRINT_LEVEL  MEDIUM
   PROJECT_NAME TEST
   RUN_TYPE  GEO_OPT
 &END GLOBAL
 &MOTION
   &GEO_OPT
     MAX_ITER  500
     STEP_START_VAL  138
   &END GEO_OPT
   &CONSTRAINT
     &COLLECTIVE
       COLVAR  1
       INTERMOLECULAR  T
       TARGET     4.0440139243752764E+00
       &RESTRAINT
         K     1.0000000000000001E-01
       &END RESTRAINT
     &END COLLECTIVE
     &COLVAR_RESTART
           4.0440139243752764E+00
     &END COLVAR_RESTART
   &END CONSTRAINT
 &END MOTION
 &FORCE_EVAL
   METHOD  QS
   STRESS_TENSOR  ANALYTICAL
   &DFT
     BASIS_SET_FILE_NAME BASIS_MOLOPT
     POTENTIAL_FILE_NAME GTH_POTENTIALS
     &SCF
       MAX_SCF  100
       EPS_SCF     5.0000000000000004E-06
       &OT  T
         PRECONDITIONER  FULL_ALL
       &END OT
       &OUTER_SCF  T
         OPTIMIZER  NONE
         EPS_SCF     5.0000000000000004E-06
         MAX_SCF  4
       &END OUTER_SCF
       &PRINT
         &RESTART  OFF
           BACKUP_COPIES  1
           &EACH
             JUST_ENERGY  0
             QS_SCF  0
             MD  20
           &END EACH
         &END RESTART
       &END PRINT
     &END SCF
     &QS
       EPS_DEFAULT     1.0000000000000000E-14
       ALMO_SCF  F
       METHOD  GPW
     &END QS
     &MGRID
       NGRIDS  5
       CUTOFF     1.2000000000000000E+03
     &END MGRID
     &XC
       DENSITY_CUTOFF     1.0000000000000000E-10
       GRADIENT_CUTOFF     1.0000000000000000E-10
       TAU_CUTOFF     1.0000000000000000E-10
       &XC_FUNCTIONAL  NO_SHORTCUT
         &PBE  T
         &END PBE
       &END XC_FUNCTIONAL
       &VDW_POTENTIAL
         POTENTIAL_TYPE  PAIR_POTENTIAL
         &PAIR_POTENTIAL
           R_CUTOFF     1.0000000000000005E+01
           TYPE  DFTD3
           PARAMETER_FILE_NAME dftd3.dat
           REFERENCE_FUNCTIONAL PBE
           EPS_CN     9.9999999999999995E-07
           CALCULATE_C9_TERM  T
           REFERENCE_C9_TERM  T
           LONG_RANGE_CORRECTION  F
           VERBOSE_OUTPUT  F
         &END PAIR_POTENTIAL
       &END VDW_POTENTIAL
     &END XC
   &END DFT
   &SUBSYS
     &CELL
       A     9.7367653356401487E+00    0.0000000000000000E+00    0.0000000000000000E+00
       B    -4.8591341382960209E+00    8.4162672083210595E+00    0.0000000000000000E+00
       C     0.0000000000000000E+00    0.0000000000000000E+00    3.0744000000000000E+01
       MULTIPLE_UNIT_CELL  1 1 1
       &CELL_REF
         A     9.5580000000000052E+00    0.0000000000000000E+00    0.0000000000000000E+00
         B    -4.7790000000000026E+00    8.2774708093716640E+00    0.0000000000000000E+00
         C     0.0000000000000000E+00    0.0000000000000000E+00    3.0744000000000000E+01
         MULTIPLE_UNIT_CELL  1 1 1
       &END CELL_REF
     &END CELL
     &COORD
Ga    1.9741402242272270E-02   -2.4348402725178298E-02   -5.3606314536788979E-01
N    2.2555034426400188E-02    1.8483819771172332E+00    6.0610310779474952E-01
Ga    2.2027114760827950E-02    1.8176472688564433E+00    2.6376197080497974E+00
N    1.8986309214666031E-02   -2.5899159561020301E-02    3.2687794331312521E+00
Ga    1.9132644339062414E-02   -2.4982855468865743E-02    5.2594341482129563E+00
N    2.2042703803648755E-02    1.8495435371064155E+00    5.8471381379498393E+00
Ga    2.2377295421840058E-02    1.8470854140532578E+00    7.8466385549421611E+00
N    2.1439069272203740E-02   -2.6041702373208894E-02    8.4472085374006127E+00
Ga    2.3416003775102390E-02   -2.6079128929381114E-02    1.0445070379017890E+01
N    2.1727428427704244E-02    1.8462094623822982E+00    1.1047657741255973E+01
Ga    2.7654844251644484E-02    1.8420986447078194E+00    1.3041134540444443E+01
N    3.6469013980924586E-02   -2.9016785597767603E-02    1.3638499828340468E+01
Ga    5.4521910574389633E-02   -5.2664209953258108E-02    1.5631744097502972E+01
N    4.8284788470138916E-02    1.8298968034458956E+00    1.6214582104058984E+01
Ga    8.5220866719098176E-02    1.8108264855052150E+00    1.8267019548589378E+01
N    6.8516354657483680E-02   -6.6647294467150245E-02    1.8660961610557138E+01
Ga   -1.6000354712908584E+00    2.7796467705412473E+00    3.2386799272938033E-01
N   -1.6010424760892967E+00    4.6494302117781947E+00    6.0643825273251351E-01
Ga   -1.5729446033625374E+00    4.6651299357476237E+00    2.6366319095164519E+00
N   -1.6003798097574302E+00    2.7795912523702393E+00    3.2275989167617691E+00
Ga   -1.5999082434845326E+00    2.7804569484700781E+00    5.2389025773637101E+00
N   -1.6001008996711459E+00    4.6502104079432183E+00    5.8458308159878154E+00
Ga   -1.5999241886072924E+00    4.6505070446106789E+00    7.8444207164276873E+00
N   -1.6005424443537495E+00    2.7802242837097255E+00    8.4509589974806278E+00
Ga   -1.6008414336073549E+00    2.7820947791761337E+00    1.0447113686973809E+01
N   -1.6020002047560580E+00    4.6518437392118717E+00    1.1056219085254682E+01
Ga   -1.6063652999587117E+00    4.6507023686286990E+00    1.3054721766542059E+01
N   -1.5889664622717172E+00    2.7804165672887637E+00    1.3668788262592567E+01
Ga   -1.5859078521957957E+00    2.7898113602221168E+00    1.5676911993203920E+01
N   -1.5775991498521142E+00    4.6554228724264419E+00    1.6302033420171426E+01
Ga   -1.4726508490976284E+00    4.6425272490794738E+00    1.8377626428625874E+01
N   -1.5136003160704663E+00    2.7446732491345931E+00    1.8720192697892930E+01
Ga   -3.2202444978371489E+00    5.5849104686084363E+00    3.2415656293099793E-01
N   -3.2143533484305604E+00    7.4557951848236588E+00    6.0543007287809403E-01
Ga   -3.2419029556619532E+00    7.4707641324196636E+00    2.6371206606835700E+00
N   -3.2201254862971611E+00    5.5850368983717056E+00    3.2273242087497214E+00
Ga   -3.2200248318853375E+00    5.5854305680603735E+00    5.2388143877527620E+00
N   -3.2144196332768455E+00    7.4558180736569541E+00    5.8451230661718609E+00
Ga   -3.2155815035415984E+00    7.4556172666353513E+00    7.8437896528394866E+00
N   -3.2206512655400918E+00    5.5850887543603163E+00    8.4479285331797254E+00
Ga   -3.2207450700025797E+00    5.5836426472967480E+00    1.0442990184580818E+01
N   -3.2129348750936755E+00    7.4525034192744828E+00    1.1053123721844257E+01
Ga   -3.2053686905457166E+00    7.4458638580021965E+00    1.3051286102518915E+01
N   -3.2256704908277407E+00    5.5787858925741993E+00    1.3690578607221218E+01
Ga   -3.2069627143486121E+00    5.5744514339542457E+00    1.5726916348761229E+01
N   -3.1815590783762748E+00    7.4387907877094328E+00    1.6286680998866427E+01
Ga   -3.1620565586819498E+00    7.3941774750644926E+00    1.8347395107280690E+01
N   -3.1096624423539190E+00    5.5345216642788646E+00    1.8884032234278024E+01
Ga    3.2658594672112202E+00   -2.5801702420172806E-02    3.2409753763951193E-01
N    3.2638440608996162E+00    1.8441732286368622E+00    6.0617140369493383E-01
Ga    3.2918323977128257E+00    1.8600080137457375E+00    2.6365552520251008E+00
N    3.2650104130965136E+00   -2.5920303665899563E-02    3.2270942095911788E+00
Ga    3.2655784608318683E+00   -2.5111389080639812E-02    5.2386764280443341E+00
N    3.2657793449302415E+00    1.8451529254321826E+00    5.8455778452332767E+00
Ga    3.2667227000144314E+00    1.8448779087028120E+00    7.8444863427820106E+00
N    3.2638688224647052E+00   -2.5424686317947896E-02    8.4478442493856001E+00
Ga    3.2653303835373682E+00   -2.6153692767919155E-02    1.0442553214695806E+01
N    3.2718008609774856E+00    1.8441624152928295E+00    1.1050481894212037E+01
Ga    3.2788666729235927E+00    1.8368070372286414E+00    1.3047102349662369E+01
N    3.2699837343123868E+00   -3.1169170116349457E-02    1.3665923632387944E+01
Ga    3.2813116718363542E+00   -3.7875071899718789E-02    1.5675315276411148E+01
N    3.3045867886926468E+00    1.8256176469423353E+00    1.6262625619309162E+01
Ga    3.3559435866068537E+00    1.8235310886226477E+00    1.8299387437036216E+01
N    3.3286740987555410E+00   -6.9764809401574257E-02    1.8759621500275962E+01
Ga    1.6450164875217201E+00    2.7802658666078752E+00    3.2404952723226749E-01
N    1.6513639300377230E+00    4.6501763961867288E+00    6.0666211148365068E-01
Ga    1.6231054723860328E+00    4.6654066036568969E+00    2.6369592362111498E+00
N    1.6449683569473696E+00    2.7797434947492681E+00    3.2282675184533760E+00
Ga    1.6452150968224386E+00    2.7808665521090021E+00    5.2400251658369061E+00
N    1.6506603431904232E+00    4.6505531704313352E+00    5.8483999616097986E+00
Ga    1.6493250735974210E+00    4.6506505411272112E+00    7.8488345198951253E+00
N    1.6460268768747288E+00    2.7781386428843540E+00    8.4489251210728824E+00
Ga    1.6466695915977161E+00    2.7773200101676090E+00    1.0444532605413562E+01
N    1.6423458669866844E+00    4.6482634985660081E+00    1.1039619323336330E+01
Ga    1.6374752345981256E+00    4.6468741302890777E+00    1.3032908432497450E+01
N    1.6527639421942173E+00    2.7685961259777190E+00    1.3639727869580863E+01
Ga    1.6821888308619504E+00    2.7583258027808517E+00    1.5631675486548849E+01
N    1.6373763639495136E+00    4.6359439888486413E+00    1.6134845493477965E+01
Ga    1.7163991854643408E+00    4.5926976380670066E+00    1.8117748773318350E+01
N    1.7152267773199970E+00    2.7505323254729594E+00    1.8645661537168007E+01
Ga    2.5692895687632878E-02    5.5842214487654962E+00   -5.4612309081020782E-01
N    2.8882060161951058E-02    7.4592310788860550E+00    6.0592713330152514E-01
Ga    2.8494751260500061E-02    7.4277696919019744E+00    2.6365185797149864E+00
N    2.5302023413867294E-02    5.5848788946998811E+00    3.2693414241859649E+00
Ga    2.5958363403042976E-02    5.5855293137937929E+00    5.2597460552248707E+00
N    2.8745130646409361E-02    7.4603463712110996E+00    5.8469786864466666E+00
Ga    2.8244699316091051E-02    7.4591436789953578E+00    7.8466138929911580E+00
N    2.3200831304845435E-02    5.5852062915018363E+00    8.4461125869435865E+00
Ga    2.0989276027174760E-02    5.5843671392470924E+00    1.0443448006812941E+01
N    2.8539415248487344E-02    7.4578573045671179E+00    1.1041522791366729E+01
Ga    2.7823403519647176E-02    7.4603993502285650E+00    1.3033391246780125E+01
N    1.6159184030434214E-02    5.5899119578586349E+00    1.3631920709703445E+01
Ga    1.6335950092683675E-02    5.5780304107671785E+00    1.5627345223992055E+01
N    5.7662685001662904E-02    7.4458403583088417E+00    1.6256703347565352E+01
Ga    8.3413084750455280E-02    7.4011858846472327E+00    1.8343188448056861E+01
N    1.9905592453838566E-01    5.5406364463233242E+00    1.8869443263862362E+01
Ga    6.5097664996937397E+00   -2.5090757298849929E-02    3.2341175143706447E-01
N    6.5170754127571167E+00    1.8447246883115405E+00    6.0620196615973121E-01
Ga    6.4888785200271402E+00    1.8600545965881801E+00    2.6364711277532762E+00
N    6.5104067991811041E+00   -2.5710793798088310E-02    3.2280318925324170E+00
Ga    6.5111676033243899E+00   -2.4842917868773157E-02    5.2399937415617854E+00
N    6.5162193562375714E+00    1.8457644637364101E+00    5.8462818456531966E+00
Ga    6.5141515039069553E+00    1.8461453827008334E+00    7.8453316204820620E+00
N    6.5098418111258161E+00   -2.3308169865460807E-02    8.4500183899159325E+00
Ga    6.5110657644293495E+00   -1.9632356158083335E-02    1.0446643167002810E+01
N    6.5134309099731267E+00    1.8523883504419754E+00    1.1056161157055765E+01
Ga    6.5158231609919879E+00    1.8573032950305077E+00    1.3055154694705163E+01
N    6.5053726758637413E+00   -1.6374321466856689E-02    1.3629332775523780E+01
Ga    6.5204305318168370E+00   -1.2622111466155161E-02    1.5628601116009891E+01
N    6.5283799403315221E+00    1.8522934679347012E+00    1.6248779343898587E+01
Ga    6.6011776707822936E+00    1.8208932230443009E+00    1.8298097282743079E+01
N    6.5999751519968735E+00   -8.9293191658762774E-02    1.8660337880827118E+01
Ga    4.8914650126233870E+00    2.7806269054695534E+00   -5.4581519873581708E-01
N    4.8939561673456895E+00    4.6547439060486848E+00    6.0646800058783523E-01
Ga    4.8933911443820453E+00    4.6228794962852691E+00    2.6366751843819625E+00
N    4.8906523510428581E+00    2.7795629335718308E+00    3.2682567714246589E+00
Ga    4.8912168216382481E+00    2.7808820816941147E+00    5.2582937541470649E+00
N    4.8935090415316287E+00    4.6550637127800645E+00    5.8466411738553914E+00
Ga    4.8918096526067787E+00    4.6534094609602823E+00    7.8462531899134236E+00
N    4.8903402700454990E+00    2.7801175099945077E+00    8.4470702824002153E+00
Ga    4.8923288439055534E+00    2.7826561125213631E+00    1.0444695092879353E+01
N    4.8961210571412197E+00    4.6520695228741635E+00    1.1051818326076930E+01
Ga    4.8942373915324513E+00    4.6528737703718663E+00    1.3051728957076680E+01
N    4.8891018355611280E+00    2.7857005342321361E+00    1.3668968161448062E+01
Ga    4.8936292515360380E+00    2.7761752904082266E+00    1.5691110791895458E+01
N    4.8502184677593352E+00    4.6711330924611909E+00    1.6152723664951719E+01
Ga    4.9845084083211066E+00    4.5977481254992876E+00    1.9143432994502081E+01
N    4.9813778698702231E+00    2.7118850012118481E+00    1.8831107792546682E+01
Ga    3.2714611609146327E+00    5.5846399461169760E+00    3.2400327209704649E-01
N    3.2706809809726165E+00    7.4554410364711305E+00    6.0522928444550139E-01
Ga    3.2979210090116697E+00    7.4708243151106668E+00    2.6370577892446603E+00
N    3.2707613233201767E+00    5.5853254693175902E+00    3.2281501989477763E+00
Ga    3.2708428444755975E+00    5.5861493860411784E+00    5.2401528703011158E+00
N    3.2716345877332906E+00    7.4561708359416681E+00    5.8485666196210113E+00
Ga    3.2723434496007520E+00    7.4560631933920316E+00    7.8492422570546960E+00
N    3.2705825102286621E+00    5.5853207318677711E+00    8.4529852219011481E+00
Ga    3.2706429030494819E+00    5.5862517270299463E+00    1.0452316593729330E+01
N    3.2751130299568754E+00    7.4631803674176922E+00    1.1041407514560989E+01
Ga    3.2740014188742479E+00    7.4667754273130464E+00    1.3036275166993883E+01
N    3.2585509057160587E+00    5.5888586137420475E+00    1.3593647660908134E+01
Ga    3.2537885673158917E+00    5.5975608525428662E+00    1.5586971058640003E+01
N    3.2886818028874298E+00    7.4680017488871444E+00    1.6130935337496904E+01
Ga    3.3559419145680285E+00    7.4349850651378846E+00    1.8132751645188133E+01
N    3.4755057006095349E+00    5.4759336973784070E+00    1.8310101873579676E+01
O    1.7467762437020096E+00    5.2552115029965911E+00    2.1319432089736281E+01
H    1.1524445228494260E+00    5.4554492103788172E+00    2.0530548369516712E+01
C    9.5734125755811428E-01    3.4852406604877055E+00    2.1687023719231657E+01
H   -1.0064418759255164E-01    3.7325450141430743E+00    2.1602218250404004E+01
H    1.3842756213068128E+00    2.9023502190920811E+00    2.0863490723251360E+01
H    1.3520328277357363E+00    3.3397010356223911E+00    2.2690409978376710E+01
O    4.2335607283259096E+00    4.8326014064602507E+00    2.1031618284978233E+01
H    3.1802843737397688E+00    4.9971429898039306E+00    2.1068707285867099E+01
C    4.6148453723889613E+00    3.8786655501526437E+00    2.2049548839506951E+01
H    4.3584490026088663E+00    2.8523998194412497E+00    2.1749441561768798E+01
H    5.6998439407454251E+00    3.9500645335729043E+00    2.2193360649013744E+01
H    4.1082530157295105E+00    4.1392694765861267E+00    2.2987625961881800E+01
     &END COORD
     &KIND C
       BASIS_SET DZVP-MOLOPT-SR-GTH-q4
       POTENTIAL GTH-PBE-q4
       &POTENTIAL
 2 2
  0.3384712400000000E+00 2 -0.8803673979999999E+01  0.1339210850000000E+01
 2
  0.3025757500000000E+00 1  0.9622486650000001E+01
  0.2915069400000000E+00 0
         # Potential name:  GTH-PBE-Q4  for symbol:  C
         # Potential read from the potential filename: GTH_POTENTIALS
       &END POTENTIAL
     &END KIND
     &KIND O
       BASIS_SET DZVP-MOLOPT-SR-GTH-q6
       POTENTIAL GTH-PBE-q6
       &POTENTIAL
 2 4
  0.2445543000000000E+00 2 -0.1666721480000000E+02  0.2487311320000000E+01
 2
  0.2209559200000000E+00 1  0.1833745811000000E+02
  0.2113324700000000E+00 0
         # Potential name:  GTH-PBE-Q6  for symbol:  O
         # Potential read from the potential filename: GTH_POTENTIALS
       &END POTENTIAL
     &END KIND
     &KIND H
       BASIS_SET DZVP-MOLOPT-SR-GTH-q1
       POTENTIAL GTH-PBE-q1
       &POTENTIAL
 1
  0.2000000000000000E+00 2 -0.4178900440000000E+01  0.7244633100000000E+00
 0
         # Potential name:  GTH-PBE-Q1  for symbol:  H
         # Potential read from the potential filename: GTH_POTENTIALS
       &END POTENTIAL
     &END KIND
     &KIND N
       BASIS_SET DZVP-MOLOPT-SR-GTH-q5
       POTENTIAL GTH-PBE-q5
       &POTENTIAL
 2 3
  0.2837905100000000E+00 2 -0.1241522559000000E+02  0.1868095920000000E+01
 2
  0.2554050000000000E+00 1  0.1363026257000000E+02
  0.2454945300000000E+00 0
         # Potential name:  GTH-PBE-Q5  for symbol:  N
         # Potential read from the potential filename: GTH_POTENTIALS
       &END POTENTIAL
     &END KIND
     &KIND Ga
       BASIS_SET DZVP-MOLOPT-SR-GTH-q13
       POTENTIAL GTH-PBE-q13
       &POTENTIAL
 2 1 10
  0.4900000000000000E+00 0
 3
  0.4167772300000000E+00 3  0.1047568975000000E+02 -0.4921768140000000E+01  0.8707055900000000E+00
  0.7770178090000000E+01 -0.2248152160000000E+01
  0.1784415450000000E+01
  0.5696265200000000E+00 2  0.1777985340000000E+01  0.1958597600000000E+00
 -0.2317443900000000E+00
  0.2381265000000000E+00 1 -0.1624868022000000E+02
         # Potential name:  GTH-PBE-Q13  for symbol:  GA
         # Potential read from the potential filename: GTH_POTENTIALS
       &END POTENTIAL
     &END KIND
     &TOPOLOGY
       COORD_FILE_NAME ../start-first.xyz
       COORD_FILE_FORMAT  XYZ
       NUMBER_OF_ATOMS  156
       MULTIPLE_UNIT_CELL  1 1 1
     &END TOPOLOGY
     &COLVAR
       &DISTANCE
         ATOMS  145 147
       &END DISTANCE
       &PRINT
       &END PRINT
     &END COLVAR
   &END SUBSYS
 &END FORCE_EVAL
