 # Version information for this restart file 
 # current date 2019-05-27 22:07:34.837
 # current working dir /lustre03/project/6004141/rzk/GaN-carbene/334-native/08-2Methanol-Htransfer/02-NH-constraint/2.04
 # Program compiled at                              Sun Apr  7 00:48:11 EDT 2019
 # Program compiled on                          beluga2.int.ets1.calculquebec.ca
 # Program compiled for                        Beluga-Linux-x86-64-intel-openmpi
 # Source code revision number                                         svn:18619
 &GLOBAL
   PRINT_LEVEL  MEDIUM
   PROJECT_NAME TEST
   RUN_TYPE  GEO_OPT
 &END GLOBAL
 &MOTION
   &GEO_OPT
     MAX_ITER  500
     STEP_START_VAL  45
   &END GEO_OPT
   &CONSTRAINT
     &COLLECTIVE
       COLVAR  1
       INTERMOLECULAR  T
       TARGET     3.8550413110867119E+00
       &RESTRAINT
         K     1.0000000000000001E-01
       &END RESTRAINT
     &END COLLECTIVE
     &COLVAR_RESTART
           3.8550413110867119E+00
     &END COLVAR_RESTART
   &END CONSTRAINT
 &END MOTION
 &FORCE_EVAL
   METHOD  QS
   STRESS_TENSOR  ANALYTICAL
   &DFT
     BASIS_SET_FILE_NAME BASIS_MOLOPT
     POTENTIAL_FILE_NAME GTH_POTENTIALS
     &SCF
       MAX_SCF  100
       EPS_SCF     5.0000000000000004E-06
       &OT  T
         PRECONDITIONER  FULL_ALL
       &END OT
       &OUTER_SCF  T
         OPTIMIZER  NONE
         EPS_SCF     5.0000000000000004E-06
         MAX_SCF  4
       &END OUTER_SCF
       &PRINT
         &RESTART  OFF
           BACKUP_COPIES  1
           &EACH
             JUST_ENERGY  0
             QS_SCF  0
             MD  20
           &END EACH
         &END RESTART
       &END PRINT
     &END SCF
     &QS
       EPS_DEFAULT     1.0000000000000000E-14
       ALMO_SCF  F
       METHOD  GPW
     &END QS
     &MGRID
       NGRIDS  5
       CUTOFF     1.2000000000000000E+03
     &END MGRID
     &XC
       DENSITY_CUTOFF     1.0000000000000000E-10
       GRADIENT_CUTOFF     1.0000000000000000E-10
       TAU_CUTOFF     1.0000000000000000E-10
       &XC_FUNCTIONAL  NO_SHORTCUT
         &PBE  T
         &END PBE
       &END XC_FUNCTIONAL
       &VDW_POTENTIAL
         POTENTIAL_TYPE  PAIR_POTENTIAL
         &PAIR_POTENTIAL
           R_CUTOFF     1.0000000000000005E+01
           TYPE  DFTD3
           PARAMETER_FILE_NAME dftd3.dat
           REFERENCE_FUNCTIONAL PBE
           EPS_CN     9.9999999999999995E-07
           CALCULATE_C9_TERM  T
           REFERENCE_C9_TERM  T
           LONG_RANGE_CORRECTION  F
           VERBOSE_OUTPUT  F
         &END PAIR_POTENTIAL
       &END VDW_POTENTIAL
     &END XC
   &END DFT
   &SUBSYS
     &CELL
       A     9.7367653356401487E+00    0.0000000000000000E+00    0.0000000000000000E+00
       B    -4.8591341382960209E+00    8.4162672083210595E+00    0.0000000000000000E+00
       C     0.0000000000000000E+00    0.0000000000000000E+00    3.0744000000000000E+01
       MULTIPLE_UNIT_CELL  1 1 1
       &CELL_REF
         A     9.5580000000000052E+00    0.0000000000000000E+00    0.0000000000000000E+00
         B    -4.7790000000000026E+00    8.2774708093716640E+00    0.0000000000000000E+00
         C     0.0000000000000000E+00    0.0000000000000000E+00    3.0744000000000000E+01
         MULTIPLE_UNIT_CELL  1 1 1
       &END CELL_REF
     &END CELL
     &COORD
Ga    3.0670358038368161E-02    1.0822689544478830E-02   -5.2763580078964312E-01
N    3.3690281828675485E-02    1.8840730901785696E+00    6.1192568678352588E-01
Ga    3.2510489408285007E-02    1.8528350130119569E+00    2.6430689284101265E+00
N    2.9498317543358091E-02    9.2058966110973618E-03    3.2747362590454587E+00
Ga    2.8981727530283954E-02    9.4657434506050641E-03    5.2653054450056134E+00
N    3.1840135485603577E-02    1.8841363651819176E+00    5.8524963878978733E+00
Ga    3.1437905257334080E-02    1.8796913837933620E+00    7.8509844101419306E+00
N    2.9618444073963857E-02    6.8451834970486647E-03    8.4530915036366814E+00
Ga    3.0179976191786279E-02    6.2215774107344697E-03    1.0449745875677388E+01
N    2.9671737345666957E-02    1.8777220675115729E+00    1.1055832020378546E+01
Ga    3.6464350090332547E-02    1.8721149599829516E+00    1.3048400450917329E+01
N    4.4807697496998013E-02    9.0032318356100503E-03    1.3665997923741095E+01
Ga    7.4110695016982656E-02   -8.9539106079338637E-03    1.5664744024691730E+01
N    4.2215094847372424E-02    1.8723775356159629E+00    1.6268552839305702E+01
Ga    9.1636172962621248E-02    1.8326046625354686E+00    1.8335495002506779E+01
N    6.9151605857537865E-02   -4.2274839583195022E-02    1.8690313856126092E+01
Ga   -1.5893047582510944E+00    2.8151862581222504E+00    3.2918302522001652E-01
N   -1.5902521523417095E+00    4.6848006526862074E+00    6.1269509361138152E-01
Ga   -1.5627591544260380E+00    4.7005333393854256E+00    2.6419506149153791E+00
N   -1.5900875781883190E+00    2.8148025610948948E+00    3.2335705355691378E+00
Ga   -1.5907298128516576E+00    2.8150597732055256E+00    5.2441988963471449E+00
N   -1.5907310669086434E+00    4.6849065840707613E+00    5.8531713093369309E+00
Ga   -1.5915273012535240E+00    4.6832389756089761E+00    7.8516291585759612E+00
N   -1.5916637966563822E+00    2.8119815432842663E+00    8.4562506234942045E+00
Ga   -1.5933455440139062E+00    2.8110265018900074E+00    1.0450845586718957E+01
N   -1.5950313493338151E+00    4.6803741768970406E+00    1.1059445324846692E+01
Ga   -1.6024668109266562E+00    4.6740640465637036E+00    1.3054392164218578E+01
N   -1.5857626146085886E+00    2.8028812726220047E+00    1.3675901460556938E+01
Ga   -1.5772059079509686E+00    2.8104437248243990E+00    1.5679410979234461E+01
N   -1.5847402315459640E+00    4.6768663031233908E+00    1.6282080701785791E+01
Ga   -1.5222299982224605E+00    4.6554129762443077E+00    1.8336091382579013E+01
N   -1.4820273379446114E+00    2.7962225428938843E+00    1.8869850394976144E+01
Ga   -3.2092147587672946E+00    5.6201948342775383E+00    3.2906975565724206E-01
N   -3.2028085612776791E+00    7.4912434828933590E+00    6.1135444872585665E-01
Ga   -3.2312316856080829E+00    7.5060571511296539E+00    2.6424378707346978E+00
N   -3.2099862402721668E+00    5.6203926026929105E+00    3.2335079502464472E+00
Ga   -3.2106200148967603E+00    5.6201480464396747E+00    5.2442643644562352E+00
N   -3.2045275105555282E+00    7.4903348556050178E+00    5.8523152461264960E+00
Ga   -3.2068829729227186E+00    7.4880693033392616E+00    7.8507348863303799E+00
N   -3.2125624633113046E+00    5.6177504574897066E+00    8.4567124952890129E+00
Ga   -3.2150675828007143E+00    5.6150046033846923E+00    1.0452123269078747E+01
N   -3.2077003433420539E+00    7.4855965203079604E+00    1.1060243450138262E+01
Ga   -3.2008955744503274E+00    7.4792313478770147E+00    1.3057167506405049E+01
N   -3.2178915438700506E+00    5.6114655159061293E+00    1.3682348288142553E+01
Ga   -3.2071490047826137E+00    5.6107696709557073E+00    1.5711529653378305E+01
N   -3.1722970472192080E+00    7.4613869291496684E+00    1.6305926314283560E+01
Ga   -3.1684880955040149E+00    7.4142267162252953E+00    1.8372865862161269E+01
N   -3.1511204208786374E+00    5.5579816644306774E+00    1.8906431429412930E+01
Ga    3.2775281197265889E+00    9.8157059161318103E-03    3.2889883422632921E-01
N    3.2751000485948962E+00    1.8794234818895379E+00    6.1125751261658634E-01
Ga    3.3029019314436119E+00    1.8953039238622895E+00    2.6410465532814906E+00
N    3.2753337808170939E+00    9.5122957232054873E-03    3.2334250025023019E+00
Ga    3.2754782703248351E+00    9.7584185037759355E-03    5.2441673381084861E+00
N    3.2754686957380810E+00    1.8794581178574601E+00    5.8526327163766352E+00
Ga    3.2752888116128309E+00    1.8772945472933114E+00    7.8511580879559499E+00
N    3.2726524937214703E+00    6.9682187860311880E-03    8.4572314745672372E+00
Ga    3.2742572376375683E+00    5.7890876700420904E-03    1.0453032404692578E+01
N    3.2792894184989443E+00    1.8764287546043272E+00    1.1060434659414719E+01
Ga    3.2869665687721059E+00    1.8670924200502184E+00    1.3059202293839355E+01
N    3.2754914611950361E+00   -3.4936791298188752E-03    1.3667617480768294E+01
Ga    3.2849779193799860E+00   -1.6963428056919170E-02    1.5673401140400776E+01
N    3.3104891206954488E+00    1.8471205849497085E+00    1.6271690294233853E+01
Ga    3.3715941845768951E+00    1.8459576044233825E+00    1.8310005484097818E+01
N    3.3296445026490238E+00   -3.8698320530490452E-02    1.8730831254319838E+01
Ga    1.6566803704047603E+00    2.8156902124726932E+00    3.2892776332625856E-01
N    1.6629028246534838E+00    4.6854605751164895E+00    6.1258434544506979E-01
Ga    1.6337170536645698E+00    4.7007941471508996E+00    2.6419608359046891E+00
N    1.6556328449333499E+00    2.8149442011415973E+00    3.2339920845673711E+00
Ga    1.6555043758431640E+00    2.8155301264269643E+00    5.2450435379796296E+00
N    1.6604927228748740E+00    4.6851985263262703E+00    5.8554726646404740E+00
Ga    1.6584152403907952E+00    4.6835502635380601E+00    7.8555715700637512E+00
N    1.6544974965570682E+00    2.8106699123691707E+00    8.4556641418527665E+00
Ga    1.6557970601445231E+00    2.8084950398653858E+00    1.0451104913882839E+01
N    1.6525241851901071E+00    4.6784308709379241E+00    1.1048721692381463E+01
Ga    1.6505577646470486E+00    4.6727163484069587E+00    1.3042856180776450E+01
N    1.6592168750701373E+00    2.7954904170615227E+00    1.3654809287932970E+01
Ga    1.6844173386606522E+00    2.7814966472612461E+00    1.5650633894020530E+01
N    1.6471255995332412E+00    4.6668906664151173E+00    1.6123921176675672E+01
Ga    1.6954705590312971E+00    4.6276100163672398E+00    1.8104691283173118E+01
N    1.7249444522723931E+00    2.7784253395716436E+00    1.8615335602586050E+01
Ga    3.7034429871026384E-02    5.6210855760830842E+00   -5.4244646468670743E-01
N    4.0174765334003319E-02    7.4953337017755111E+00    6.1284384463682795E-01
Ga    3.9015976026343151E-02    7.4634986953245246E+00    2.6422381952681717E+00
N    3.5683108825793938E-02    5.6202173637354802E+00    3.2758231659101340E+00
Ga    3.5619272252491653E-02    5.6205175634067706E+00    5.2661795982090069E+00
N    3.8311548835040600E-02    7.4951495419470540E+00    5.8544910562084400E+00
Ga    3.6816630168965178E-02    7.4912511395764954E+00    7.8537962218554132E+00
N    3.2071654266894900E-02    5.6174835957140994E+00    8.4550298433540760E+00
Ga    3.0582185404732683E-02    5.6156589772751957E+00    1.0453277123007956E+01
N    3.8055978147164785E-02    7.4891881068856865E+00    1.1052883609357002E+01
Ga    3.7817374694199629E-02    7.4884065866819132E+00    1.3047246219006199E+01
N    2.1114873463872256E-02    5.6099414972447121E+00    1.3625542048973529E+01
Ga    1.6093269397625173E-02    5.6040282397147889E+00    1.5613735270360793E+01
N    5.3613210394174882E-02    7.4607234652710046E+00    1.6227786891423332E+01
Ga    8.3297941074318621E-02    7.4383876872417396E+00    1.8280217305242836E+01
N    1.4852058997379175E-01    5.5773525253604843E+00    1.8802664381539309E+01
Ga    6.5207130198683236E+00    1.0552738882056149E-02    3.2845819128169740E-01
N    6.5283649731914508E+00    1.8798715689540055E+00    6.1183386042929533E-01
Ga    6.4989341902319797E+00    1.8952389213879153E+00    2.6412099794635338E+00
N    6.5209252927140007E+00    9.6397753958261650E-03    3.2343649046953220E+00
Ga    6.5205669679562526E+00    9.9195861108570607E-03    5.2453077387352431E+00
N    6.5256233883974009E+00    1.8799461731008800E+00    5.8529044321959294E+00
Ga    6.5229772437144602E+00    1.8782103784260695E+00    7.8512077003264951E+00
N    6.5191904688052107E+00    8.3841085999734437E-03    8.4577740995719246E+00
Ga    6.5201972376633304E+00    1.0034256834729052E-02    1.0454189606992196E+01
N    6.5214449292753196E+00    1.8817211412236869E+00    1.1062754475730303E+01
Ga    6.5205060791484177E+00    1.8806713140222020E+00    1.3060029202516912E+01
N    6.5168958566438269E+00    1.1618203572265748E-02    1.3651109546689714E+01
Ga    6.5251455282760089E+00    9.7292457984758923E-03    1.5655328798840753E+01
N    6.5505361350693372E+00    1.8768165048447842E+00    1.6300860501555274E+01
Ga    6.6176135334140804E+00    1.8685862531228472E+00    1.8391702582917009E+01
N    6.5932068822863918E+00   -5.2355918580673469E-02    1.8612401678673610E+01
Ga    4.9032353623988776E+00    2.8153109486657395E+00   -5.4459869386129467E-01
N    4.9050874909957800E+00    4.6902267100468071E+00    6.1160247493182962E-01
Ga    4.9038366816975412E+00    4.6579604106357975E+00    2.6411056363956096E+00
N    4.9010902757290316E+00    2.8149697814336943E+00    3.2744393013776101E+00
Ga    4.9008127770914083E+00    2.8153323072729490E+00    5.2645098903095411E+00
N    4.9029695500299688E+00    4.6895444110325917E+00    5.8536881763768021E+00
Ga    4.9003968850759883E+00    4.6865479732761370E+00    7.8528506603363057E+00
N    4.8992172852393434E+00    2.8125890220762724E+00    8.4541503673901417E+00
Ga    4.8996531148877418E+00    2.8125366829047835E+00    1.0451919009630686E+01
N    4.9029416020290908E+00    4.6804766621775817E+00    1.1062319611128643E+01
Ga    4.9008213721254030E+00    4.6755628486640717E+00    1.3064310159666389E+01
N    4.9000607954912363E+00    2.8061434666905916E+00    1.3681937426393059E+01
Ga    4.9111607189883069E+00    2.7961546724578965E+00    1.5713414975231290E+01
N    4.8740979358728680E+00    4.6878074955078342E+00    1.6150994975467597E+01
Ga    4.9377490658205536E+00    4.6233877348167729E+00    1.9113105444455030E+01
N    4.9817551463316390E+00    2.7444619504568606E+00    1.8859179214440797E+01
Ga    3.2827667448135371E+00    5.6199146720318636E+00    3.2887501689508186E-01
N    3.2815161976557685E+00    7.4908009206061612E+00    6.1137431960486255E-01
Ga    3.3082540496271480E+00    7.5060920346755031E+00    2.6426645971116067E+00
N    3.2813240700894171E+00    5.6205791118413684E+00    3.2340585040090604E+00
Ga    3.2806502502785282E+00    5.6206537976773747E+00    5.2451439789691081E+00
N    3.2810821202879081E+00    7.4905435290834328E+00    5.8545984512615314E+00
Ga    3.2814364972306103E+00    7.4881857945255028E+00    7.8542606140761091E+00
N    3.2796091183218783E+00    5.6185148620445000E+00    8.4618988334133949E+00
Ga    3.2798334084088507E+00    5.6181673617796095E+00    1.0461808819834104E+01
N    3.2849462869889701E+00    7.4954751200869500E+00    1.1055269074392024E+01
Ga    3.2855423748218531E+00    7.4984370981350912E+00    1.3052422662148503E+01
N    3.2683706261077732E+00    5.6213323958336945E+00    1.3605669728327282E+01
Ga    3.2724848021273187E+00    5.6194635488785938E+00    1.5601964909893837E+01
N    3.3116486590562322E+00    7.4984035332090704E+00    1.6144651399174037E+01
Ga    3.3636043620420457E+00    7.4645902152793706E+00    1.8151023666130676E+01
N    3.4152228613958302E+00    5.5276394307813819E+00    1.8365501787447929E+01
O    1.1726323291789813E+00    4.7239148639469022E+00    2.1122050350511969E+01
H    7.0859678532834047E-01    5.2359789839735109E+00    2.0361688004467972E+01
C    3.6763775779801805E-01    3.5570321104608689E+00    2.1363190526273176E+01
H   -3.1259077886520098E-01    3.3133328739651078E+00    2.0496692187680349E+01
H    1.0185108571437129E+00    2.6925810322290991E+00    2.1543243109734512E+01
H   -2.7776410805425250E-01    3.7179038964375168E+00    2.2241291267725892E+01
O    3.9732716436099822E+00    4.6705301459365201E+00    2.1052393289973686E+01
H    2.9673838809253437E+00    4.6984003216183394E+00    2.0983881521988661E+01
C    4.3238809008883106E+00    3.6355493864161312E+00    2.2008793902720356E+01
H    4.0872214359033343E+00    2.6378020913306348E+00    2.1613663692805432E+01
H    5.4035895224902557E+00    3.7068052699233038E+00    2.2183371881175166E+01
H    3.7848449469591272E+00    3.8164963428275294E+00    2.2947552796086601E+01
     &END COORD
     &KIND C
       BASIS_SET DZVP-MOLOPT-SR-GTH-q4
       POTENTIAL GTH-PBE-q4
       &POTENTIAL
 2 2
  0.3384712400000000E+00 2 -0.8803673979999999E+01  0.1339210850000000E+01
 2
  0.3025757500000000E+00 1  0.9622486650000001E+01
  0.2915069400000000E+00 0
         # Potential name:  GTH-PBE-Q4  for symbol:  C
         # Potential read from the potential filename: GTH_POTENTIALS
       &END POTENTIAL
     &END KIND
     &KIND O
       BASIS_SET DZVP-MOLOPT-SR-GTH-q6
       POTENTIAL GTH-PBE-q6
       &POTENTIAL
 2 4
  0.2445543000000000E+00 2 -0.1666721480000000E+02  0.2487311320000000E+01
 2
  0.2209559200000000E+00 1  0.1833745811000000E+02
  0.2113324700000000E+00 0
         # Potential name:  GTH-PBE-Q6  for symbol:  O
         # Potential read from the potential filename: GTH_POTENTIALS
       &END POTENTIAL
     &END KIND
     &KIND H
       BASIS_SET DZVP-MOLOPT-SR-GTH-q1
       POTENTIAL GTH-PBE-q1
       &POTENTIAL
 1
  0.2000000000000000E+00 2 -0.4178900440000000E+01  0.7244633100000000E+00
 0
         # Potential name:  GTH-PBE-Q1  for symbol:  H
         # Potential read from the potential filename: GTH_POTENTIALS
       &END POTENTIAL
     &END KIND
     &KIND N
       BASIS_SET DZVP-MOLOPT-SR-GTH-q5
       POTENTIAL GTH-PBE-q5
       &POTENTIAL
 2 3
  0.2837905100000000E+00 2 -0.1241522559000000E+02  0.1868095920000000E+01
 2
  0.2554050000000000E+00 1  0.1363026257000000E+02
  0.2454945300000000E+00 0
         # Potential name:  GTH-PBE-Q5  for symbol:  N
         # Potential read from the potential filename: GTH_POTENTIALS
       &END POTENTIAL
     &END KIND
     &KIND Ga
       BASIS_SET DZVP-MOLOPT-SR-GTH-q13
       POTENTIAL GTH-PBE-q13
       &POTENTIAL
 2 1 10
  0.4900000000000000E+00 0
 3
  0.4167772300000000E+00 3  0.1047568975000000E+02 -0.4921768140000000E+01  0.8707055900000000E+00
  0.7770178090000000E+01 -0.2248152160000000E+01
  0.1784415450000000E+01
  0.5696265200000000E+00 2  0.1777985340000000E+01  0.1958597600000000E+00
 -0.2317443900000000E+00
  0.2381265000000000E+00 1 -0.1624868022000000E+02
         # Potential name:  GTH-PBE-Q13  for symbol:  GA
         # Potential read from the potential filename: GTH_POTENTIALS
       &END POTENTIAL
     &END KIND
     &TOPOLOGY
       COORD_FILE_NAME ../start-first.xyz
       COORD_FILE_FORMAT  XYZ
       NUMBER_OF_ATOMS  156
       MULTIPLE_UNIT_CELL  1 1 1
     &END TOPOLOGY
     &COLVAR
       &DISTANCE
         ATOMS  32 148
       &END DISTANCE
       &PRINT
       &END PRINT
     &END COLVAR
   &END SUBSYS
 &END FORCE_EVAL
