 # Version information for this restart file 
 # current date 2019-05-27 22:08:30.839
 # current working dir /lustre03/project/6004141/rzk/GaN-carbene/334-native/08-2Methanol-Htransfer/02-NH-constraint/2.04
 # Program compiled at                              Sun Apr  7 00:48:11 EDT 2019
 # Program compiled on                          beluga2.int.ets1.calculquebec.ca
 # Program compiled for                        Beluga-Linux-x86-64-intel-openmpi
 # Source code revision number                                         svn:18619
 &GLOBAL
   PRINT_LEVEL  MEDIUM
   PROJECT_NAME TEST
   RUN_TYPE  GEO_OPT
 &END GLOBAL
 &MOTION
   &GEO_OPT
     MAX_ITER  500
     STEP_START_VAL  46
   &END GEO_OPT
   &CONSTRAINT
     &COLLECTIVE
       COLVAR  1
       INTERMOLECULAR  T
       TARGET     3.8550413110867119E+00
       &RESTRAINT
         K     1.0000000000000001E-01
       &END RESTRAINT
     &END COLLECTIVE
     &COLVAR_RESTART
           3.8550413110867119E+00
     &END COLVAR_RESTART
   &END CONSTRAINT
 &END MOTION
 &FORCE_EVAL
   METHOD  QS
   STRESS_TENSOR  ANALYTICAL
   &DFT
     BASIS_SET_FILE_NAME BASIS_MOLOPT
     POTENTIAL_FILE_NAME GTH_POTENTIALS
     &SCF
       MAX_SCF  100
       EPS_SCF     5.0000000000000004E-06
       &OT  T
         PRECONDITIONER  FULL_ALL
       &END OT
       &OUTER_SCF  T
         OPTIMIZER  NONE
         EPS_SCF     5.0000000000000004E-06
         MAX_SCF  4
       &END OUTER_SCF
       &PRINT
         &RESTART  OFF
           BACKUP_COPIES  1
           &EACH
             JUST_ENERGY  0
             QS_SCF  0
             MD  20
           &END EACH
         &END RESTART
       &END PRINT
     &END SCF
     &QS
       EPS_DEFAULT     1.0000000000000000E-14
       ALMO_SCF  F
       METHOD  GPW
     &END QS
     &MGRID
       NGRIDS  5
       CUTOFF     1.2000000000000000E+03
     &END MGRID
     &XC
       DENSITY_CUTOFF     1.0000000000000000E-10
       GRADIENT_CUTOFF     1.0000000000000000E-10
       TAU_CUTOFF     1.0000000000000000E-10
       &XC_FUNCTIONAL  NO_SHORTCUT
         &PBE  T
         &END PBE
       &END XC_FUNCTIONAL
       &VDW_POTENTIAL
         POTENTIAL_TYPE  PAIR_POTENTIAL
         &PAIR_POTENTIAL
           R_CUTOFF     1.0000000000000005E+01
           TYPE  DFTD3
           PARAMETER_FILE_NAME dftd3.dat
           REFERENCE_FUNCTIONAL PBE
           EPS_CN     9.9999999999999995E-07
           CALCULATE_C9_TERM  T
           REFERENCE_C9_TERM  T
           LONG_RANGE_CORRECTION  F
           VERBOSE_OUTPUT  F
         &END PAIR_POTENTIAL
       &END VDW_POTENTIAL
     &END XC
   &END DFT
   &SUBSYS
     &CELL
       A     9.7367653356401487E+00    0.0000000000000000E+00    0.0000000000000000E+00
       B    -4.8591341382960209E+00    8.4162672083210595E+00    0.0000000000000000E+00
       C     0.0000000000000000E+00    0.0000000000000000E+00    3.0744000000000000E+01
       MULTIPLE_UNIT_CELL  1 1 1
       &CELL_REF
         A     9.5580000000000052E+00    0.0000000000000000E+00    0.0000000000000000E+00
         B    -4.7790000000000026E+00    8.2774708093716640E+00    0.0000000000000000E+00
         C     0.0000000000000000E+00    0.0000000000000000E+00    3.0744000000000000E+01
         MULTIPLE_UNIT_CELL  1 1 1
       &END CELL_REF
     &END CELL
     &COORD
Ga    3.0437454898574589E-02    1.0811385234652297E-02   -5.2673390821410504E-01
N    3.3491356687224645E-02    1.8841075864567025E+00    6.1204575514675919E-01
Ga    3.2324932859808503E-02    1.8526257659122023E+00    2.6431819716025680E+00
N    2.9331500869787440E-02    9.0119643362096113E-03    3.2748457339646602E+00
Ga    2.8849184589926573E-02    9.2275224856201866E-03    5.2654479338371978E+00
N    3.1711770215589200E-02    1.8839240510549935E+00    5.8524115561386836E+00
Ga    3.1324279781151730E-02    1.8796066238335680E+00    7.8509470194940372E+00
N    2.9529253634195618E-02    6.7465868492025934E-03    8.4530031701323214E+00
Ga    3.0156234331560960E-02    6.2938850254822213E-03    1.0449750064798826E+01
N    2.9641752160116875E-02    1.8777825161809845E+00    1.1055527147533450E+01
Ga    3.6382592008533179E-02    1.8722666185483543E+00    1.3048095754867505E+01
N    4.4880285559072516E-02    9.1857022457422187E-03    1.3665776654217943E+01
Ga    7.4318354019509522E-02   -8.5964137510126243E-03    1.5664569535419311E+01
N    4.2322128192162536E-02    1.8725736847941701E+00    1.6268588722225477E+01
Ga    9.1727624325184526E-02    1.8330172922354302E+00    1.8335731679417410E+01
N    6.9473600652337417E-02   -4.2064521838962948E-02    1.8689977233607689E+01
Ga   -1.5895325650530900E+00    2.8152092882590529E+00    3.2956446248949556E-01
N   -1.5904429162046940E+00    4.6847637353544140E+00    6.1269012990682170E-01
Ga   -1.5628759770589717E+00    4.7003886342112500E+00    2.6419649870811779E+00
N   -1.5902405877878150E+00    2.8146360590724973E+00    3.2336138454250030E+00
Ga   -1.5908864243273111E+00    2.8148360694953585E+00    5.2442870474209187E+00
N   -1.5908460131458722E+00    4.6846725641659681E+00    5.8530634383157869E+00
Ga   -1.5915982068435732E+00    4.6831337215553654E+00    7.8515789602121613E+00
N   -1.5917463593036942E+00    2.8118946767407142E+00    8.4561921337211281E+00
Ga   -1.5933802643486208E+00    2.8111348078354141E+00    1.0450892423100774E+01
N   -1.5950422460220504E+00    4.6805003961913370E+00    1.1059181673619621E+01
Ga   -1.6024415522851370E+00    4.6742382322212581E+00    1.3054156189652138E+01
N   -1.5857365055643164E+00    2.8030772469291172E+00    1.3675491322723415E+01
Ga   -1.5770154330286377E+00    2.8104772290855067E+00    1.5678938099261929E+01
N   -1.5843859101461730E+00    4.6767907322064275E+00    1.6281925366435903E+01
Ga   -1.5222501749668964E+00    4.6549549129022134E+00    1.8335882390410280E+01
N   -1.4820315291804798E+00    2.7961221105324281E+00    1.8870863108444926E+01
Ga   -3.2093845580073705E+00    5.6200826175156253E+00    3.2938665312023718E-01
N   -3.2029824704321133E+00    7.4911463003132255E+00    6.1142982493717046E-01
Ga   -3.2314545458300556E+00    7.5058629028367845E+00    2.6425432744459836E+00
N   -3.2101298564845413E+00    5.6202020159861998E+00    3.2335526620324408E+00
Ga   -3.2107280157746314E+00    5.6198879586524590E+00    5.2443603368545997E+00
N   -3.2046418754034440E+00    7.4900940682530770E+00    5.8522552244518620E+00
Ga   -3.2069490384512744E+00    7.4879461893511614E+00    7.8507343258759272E+00
N   -3.2126289022893242E+00    5.6176528332405926E+00    8.4566415472803822E+00
Ga   -3.2150731103943007E+00    5.6150717824513956E+00    1.0452138448480039E+01
N   -3.2076956357331445E+00    7.4856766703071624E+00    1.1060051426618164E+01
Ga   -3.2008736177180843E+00    7.4794159041612573E+00    1.3057008580075678E+01
N   -3.2178225006485923E+00    5.6116356848452718E+00    1.3682092961159759E+01
Ga   -3.2070179496758242E+00    5.6108510708770254E+00    1.5711302500237856E+01
N   -3.1720332642883848E+00    7.4614900756163403E+00    1.6305639500726404E+01
Ga   -3.1681225208516048E+00    7.4142865091791252E+00    1.8372655831554223E+01
N   -3.1515486825937531E+00    5.5576193148709985E+00    1.8905524169299387E+01
Ga    3.2773705327933236E+00    9.7885349468588255E-03    3.2936021228758589E-01
N    3.2748658725135336E+00    1.8793649713588472E+00    6.1148121536262812E-01
Ga    3.3027450399295422E+00    1.8951273574558238E+00    2.6412377226247128E+00
N    3.2751536477614485E+00    9.2614117277276149E-03    3.2334818996216081E+00
Ga    3.2753815960813646E+00    9.4976144814297083E-03    5.2442662780089915E+00
N    3.2753435102128949E+00    1.8792110698747080E+00    5.8525442726741836E+00
Ga    3.2752018365991624E+00    1.8771716199300048E+00    7.8510971664165838E+00
N    3.2725998220196408E+00    6.8642439503660696E-03    8.4571299673145592E+00
Ga    3.2742251373718263E+00    5.8662310365790275E-03    1.0452967476430231E+01
N    3.2792178205757323E+00    1.8765028207469734E+00    1.1060189191227359E+01
Ga    3.2869499999670819E+00    1.8673210482175224E+00    1.3058948194177676E+01
N    3.2755780098949927E+00   -3.3118907582263065E-03    1.3667338391190576E+01
Ga    3.2852443725938127E+00   -1.6936945946947692E-02    1.5673083355087405E+01
N    3.3106092732974828E+00    1.8473465019826321E+00    1.6271446213932126E+01
Ga    3.3715984991297949E+00    1.8457137827545649E+00    1.8309371127129978E+01
N    3.3296611457372109E+00   -3.8626638151462590E-02    1.8731498177109188E+01
Ga    1.6565273992066121E+00    2.8157169775237434E+00    3.2940875608245873E-01
N    1.6627716327499662E+00    4.6854147067575393E+00    6.1265875371939660E-01
Ga    1.6335426019533665E+00    4.7006382167434557E+00    2.6419845869037939E+00
N    1.6554426608966171E+00    2.8147633241560026E+00    3.2340570640561781E+00
Ga    1.6553903325390713E+00    2.8153007324493169E+00    5.2451408910536141E+00
N    1.6603831792543706E+00    4.6849556388131157E+00    5.8553672498172018E+00
Ga    1.6583135711800026E+00    4.6834268132055428E+00    7.8555066158414864E+00
N    1.6544122176050700E+00    2.8105635131649960E+00    8.4555722408777356E+00
Ga    1.6557302362083155E+00    2.8085187160383183E+00    1.0451052730220479E+01
N    1.6524279539358151E+00    4.6784958439762221E+00    1.1048399757195945E+01
Ga    1.6504873030199660E+00    4.6729323279719273E+00    1.3042462479127474E+01
N    1.6591429288404422E+00    2.7956853077716421E+00    1.3654474951370339E+01
Ga    1.6844803004844302E+00    2.7815127921884724E+00    1.5650185363225384E+01
N    1.6472277749290332E+00    4.6670016641472536E+00    1.6123889800460862E+01
Ga    1.6956233548165758E+00    4.6273407601534169E+00    1.8104736185294588E+01
N    1.7250982216122652E+00    2.7783445177898689E+00    1.8615770652005160E+01
Ga    3.6886085387788946E-02    5.6210610487203008E+00   -5.4300155199753286E-01
N    3.9995721217183727E-02    7.4953231135055045E+00    6.1287459362445185E-01
Ga    3.8850424304221268E-02    7.4632597857565210E+00    2.6422060652826049E+00
N    3.5545669086065358E-02    5.6200324265517150E+00    3.2758522223230635E+00
Ga    3.5502835834105621E-02    5.6202679905792481E+00    5.2662118926058721E+00
N    3.8201303128874049E-02    7.4948946596866932E+00    5.8543911013919940E+00
Ga    3.6744977484263017E-02    7.4911118932449350E+00    7.8537211765877473E+00
N    3.1994053261037721E-02    5.6173867888459057E+00    8.4549077227755127E+00
Ga    3.0504607606118748E-02    5.6157335681569478E+00    1.0453200148283814E+01
N    3.8015647299352529E-02    7.4892777051820660E+00    1.1052603017574341E+01
Ga    3.7878417601653627E-02    7.4886527373755474E+00    1.3046962166072589E+01
N    2.1160384941923589E-02    5.6102407734746462E+00    1.3625313529968038E+01
Ga    1.6226594716969626E-02    5.6043029484194404E+00    1.5613474663046329E+01
N    5.3876054043255926E-02    7.4610485456331102E+00    1.6227967197533740E+01
Ga    8.3323698082253414E-02    7.4385622273213921E+00    1.8280540640957401E+01
N    1.4830337880474687E-01    5.5770952109223169E+00    1.8802413681204275E+01
Ga    6.5205027237222080E+00    1.0547481002787918E-02    3.2891831195980953E-01
N    6.5282302551470384E+00    1.8798417548983228E+00    6.1201062280865426E-01
Ga    6.4987470310855580E+00    1.8950939392508233E+00    2.6413661088089144E+00
N    6.5207698378990200E+00    9.4168011737923649E-03    3.2343797371185095E+00
Ga    6.5204008795783279E+00    9.6681645746684031E-03    5.2453513406823893E+00
N    6.5254963105737263E+00    1.8796916759693336E+00    5.8528182464496830E+00
Ga    6.5228935151391410E+00    1.8780998518866607E+00    7.8511705636082318E+00
N    6.5191049075058514E+00    8.2814578951136125E-03    8.4576660248668905E+00
Ga    6.5201837909066116E+00    1.0129414006597861E-02    1.0454169000685775E+01
N    6.5214154213653623E+00    1.8818214220122442E+00    1.1062510766454670E+01
Ga    6.5205543655064657E+00    1.8809041237120336E+00    1.3059838841901280E+01
N    6.5169092998790807E+00    1.1809457779474019E-02    1.3650897127102585E+01
Ga    6.5253266261009957E+00    1.0079108268892164E-02    1.5655117060770998E+01
N    6.5506526059208738E+00    1.8771138614147509E+00    1.6300476077189295E+01
Ga    6.6180329856176723E+00    1.8685088374377268E+00    1.8391240938047172E+01
N    6.5935138857319791E+00   -5.2258501775185151E-02    1.8612196812218126E+01
Ga    4.9030812313622514E+00    2.8153503545395346E+00   -5.4419834324916572E-01
N    4.9049264642110302E+00    4.6902389091719998E+00    6.1177463003694843E-01
Ga    4.9036891196220562E+00    4.6577112504651925E+00    2.6412538756149950E+00
N    4.9009224854611340E+00    2.8147531136985449E+00    3.2745968088310722E+00
Ga    4.9006890207471603E+00    2.8150775550120941E+00    5.2646495854192228E+00
N    4.9028499414430629E+00    4.6893081167144004E+00    5.8536173623822174E+00
Ga    4.9003304067737448E+00    4.6864358647979945E+00    7.8528364069128127E+00
N    4.8991304751680564E+00    2.8124904611154258E+00    8.4540576130889242E+00
Ga    4.8996106370615449E+00    2.8126121980079257E+00    1.0451916020929380E+01
N    4.9029241652272821E+00    4.6805855725929790E+00    1.1062066166085783E+01
Ga    4.9008430103755041E+00    4.6757852647735474E+00    1.3064079499345526E+01
N    4.9000362655692982E+00    2.8063553693917882E+00    1.3681613534735156E+01
Ga    4.9113356521880887E+00    2.7963158830915291E+00    1.5712914095712518E+01
N    4.8743037628971093E+00    4.6877872740412307E+00    1.6150896760413552E+01
Ga    4.9374354714463839E+00    4.6229042442456638E+00    1.9113040003409218E+01
N    4.9818455481897690E+00    2.7441557243191639E+00    1.8858425463528242E+01
Ga    3.2825935494705472E+00    5.6198337952494466E+00    3.2928567002971576E-01
N    3.2813163117776085E+00    7.4907322243301682E+00    6.1146776511033651E-01
Ga    3.3081289551790207E+00    7.5059191888666188E+00    2.6427722884105833E+00
N    3.2811706687532949E+00    5.6203962093812843E+00    3.2341000042690098E+00
Ga    3.2805268366436282E+00    5.6203863784181456E+00    5.2452158372520152E+00
N    3.2809320568584264E+00    7.4902940733054564E+00    5.8545090047509616E+00
Ga    3.2813218880240349E+00    7.4880716599052315E+00    7.8542185107885256E+00
N    3.2795122157275571E+00    5.6184167805446128E+00    8.4618188802435022E+00
Ga    3.2797893161232476E+00    5.6182231980789092E+00    1.0461819706963851E+01
N    3.2849276576333168E+00    7.4955527972332066E+00    1.1055057532009425E+01
Ga    3.2855872309792042E+00    7.4986259456573459E+00    1.3052284296138495E+01
N    3.2683315532733483E+00    5.6214723188653126E+00    1.3605497755038270E+01
Ga    3.2726636278344166E+00    5.6195812668842473E+00    1.5601814130895573E+01
N    3.3118299750566029E+00    7.4986506972234883E+00    1.6144689134225843E+01
Ga    3.3640527038759434E+00    7.4644280636073645E+00    1.8151029515739012E+01
N    3.4152303234183861E+00    5.5277091794265472E+00    1.8365807260866923E+01
O    1.1728575101423113E+00    4.7249455848230602E+00    2.1122155176855884E+01
H    7.0858461324443867E-01    5.2365125004067101E+00    2.0361631384909565E+01
C    3.6845195370298528E-01    3.5574807470177978E+00    2.1363401616788213E+01
H   -3.1157349034693410E-01    3.3130606951439137E+00    2.0496989429477143E+01
H    1.0198317968358408E+00    2.6936075358215876E+00    2.1544121038780304E+01
H   -2.7715804572201447E-01    3.7184634164143353E+00    2.2241281572569843E+01
O    3.9737476736700947E+00    4.6704019431928181E+00    2.1052164092477209E+01
H    2.9678353387732610E+00    4.6985324952567948E+00    2.0983630186674606E+01
C    4.3242386288174401E+00    3.6353994675427357E+00    2.2008593800806693E+01
H    4.0878809071003879E+00    2.6377641982181839E+00    2.1613149928498032E+01
H    5.4037532885812567E+00    3.7067015903506024E+00    2.2183231168417542E+01
H    3.7850535590318395E+00    3.8159965547190935E+00    2.2947161163264589E+01
     &END COORD
     &KIND C
       BASIS_SET DZVP-MOLOPT-SR-GTH-q4
       POTENTIAL GTH-PBE-q4
       &POTENTIAL
 2 2
  0.3384712400000000E+00 2 -0.8803673979999999E+01  0.1339210850000000E+01
 2
  0.3025757500000000E+00 1  0.9622486650000001E+01
  0.2915069400000000E+00 0
         # Potential name:  GTH-PBE-Q4  for symbol:  C
         # Potential read from the potential filename: GTH_POTENTIALS
       &END POTENTIAL
     &END KIND
     &KIND O
       BASIS_SET DZVP-MOLOPT-SR-GTH-q6
       POTENTIAL GTH-PBE-q6
       &POTENTIAL
 2 4
  0.2445543000000000E+00 2 -0.1666721480000000E+02  0.2487311320000000E+01
 2
  0.2209559200000000E+00 1  0.1833745811000000E+02
  0.2113324700000000E+00 0
         # Potential name:  GTH-PBE-Q6  for symbol:  O
         # Potential read from the potential filename: GTH_POTENTIALS
       &END POTENTIAL
     &END KIND
     &KIND H
       BASIS_SET DZVP-MOLOPT-SR-GTH-q1
       POTENTIAL GTH-PBE-q1
       &POTENTIAL
 1
  0.2000000000000000E+00 2 -0.4178900440000000E+01  0.7244633100000000E+00
 0
         # Potential name:  GTH-PBE-Q1  for symbol:  H
         # Potential read from the potential filename: GTH_POTENTIALS
       &END POTENTIAL
     &END KIND
     &KIND N
       BASIS_SET DZVP-MOLOPT-SR-GTH-q5
       POTENTIAL GTH-PBE-q5
       &POTENTIAL
 2 3
  0.2837905100000000E+00 2 -0.1241522559000000E+02  0.1868095920000000E+01
 2
  0.2554050000000000E+00 1  0.1363026257000000E+02
  0.2454945300000000E+00 0
         # Potential name:  GTH-PBE-Q5  for symbol:  N
         # Potential read from the potential filename: GTH_POTENTIALS
       &END POTENTIAL
     &END KIND
     &KIND Ga
       BASIS_SET DZVP-MOLOPT-SR-GTH-q13
       POTENTIAL GTH-PBE-q13
       &POTENTIAL
 2 1 10
  0.4900000000000000E+00 0
 3
  0.4167772300000000E+00 3  0.1047568975000000E+02 -0.4921768140000000E+01  0.8707055900000000E+00
  0.7770178090000000E+01 -0.2248152160000000E+01
  0.1784415450000000E+01
  0.5696265200000000E+00 2  0.1777985340000000E+01  0.1958597600000000E+00
 -0.2317443900000000E+00
  0.2381265000000000E+00 1 -0.1624868022000000E+02
         # Potential name:  GTH-PBE-Q13  for symbol:  GA
         # Potential read from the potential filename: GTH_POTENTIALS
       &END POTENTIAL
     &END KIND
     &TOPOLOGY
       COORD_FILE_NAME ../start-first.xyz
       COORD_FILE_FORMAT  XYZ
       NUMBER_OF_ATOMS  156
       MULTIPLE_UNIT_CELL  1 1 1
     &END TOPOLOGY
     &COLVAR
       &DISTANCE
         ATOMS  32 148
       &END DISTANCE
       &PRINT
       &END PRINT
     &END COLVAR
   &END SUBSYS
 &END FORCE_EVAL
