 # Version information for this restart file 
 # current date 2019-05-27 22:06:33.403
 # current working dir /lustre03/project/6004141/rzk/GaN-carbene/334-native/08-2Methanol-Htransfer/02-NH-constraint/2.04
 # Program compiled at                              Sun Apr  7 00:48:11 EDT 2019
 # Program compiled on                          beluga2.int.ets1.calculquebec.ca
 # Program compiled for                        Beluga-Linux-x86-64-intel-openmpi
 # Source code revision number                                         svn:18619
 &GLOBAL
   PRINT_LEVEL  MEDIUM
   PROJECT_NAME TEST
   RUN_TYPE  GEO_OPT
 &END GLOBAL
 &MOTION
   &GEO_OPT
     MAX_ITER  500
     STEP_START_VAL  44
   &END GEO_OPT
   &CONSTRAINT
     &COLLECTIVE
       COLVAR  1
       INTERMOLECULAR  T
       TARGET     3.8550413110867119E+00
       &RESTRAINT
         K     1.0000000000000001E-01
       &END RESTRAINT
     &END COLLECTIVE
     &COLVAR_RESTART
           3.8550413110867119E+00
     &END COLVAR_RESTART
   &END CONSTRAINT
 &END MOTION
 &FORCE_EVAL
   METHOD  QS
   STRESS_TENSOR  ANALYTICAL
   &DFT
     BASIS_SET_FILE_NAME BASIS_MOLOPT
     POTENTIAL_FILE_NAME GTH_POTENTIALS
     &SCF
       MAX_SCF  100
       EPS_SCF     5.0000000000000004E-06
       &OT  T
         PRECONDITIONER  FULL_ALL
       &END OT
       &OUTER_SCF  T
         OPTIMIZER  NONE
         EPS_SCF     5.0000000000000004E-06
         MAX_SCF  4
       &END OUTER_SCF
       &PRINT
         &RESTART  OFF
           BACKUP_COPIES  1
           &EACH
             JUST_ENERGY  0
             QS_SCF  0
             MD  20
           &END EACH
         &END RESTART
       &END PRINT
     &END SCF
     &QS
       EPS_DEFAULT     1.0000000000000000E-14
       ALMO_SCF  F
       METHOD  GPW
     &END QS
     &MGRID
       NGRIDS  5
       CUTOFF     1.2000000000000000E+03
     &END MGRID
     &XC
       DENSITY_CUTOFF     1.0000000000000000E-10
       GRADIENT_CUTOFF     1.0000000000000000E-10
       TAU_CUTOFF     1.0000000000000000E-10
       &XC_FUNCTIONAL  NO_SHORTCUT
         &PBE  T
         &END PBE
       &END XC_FUNCTIONAL
       &VDW_POTENTIAL
         POTENTIAL_TYPE  PAIR_POTENTIAL
         &PAIR_POTENTIAL
           R_CUTOFF     1.0000000000000005E+01
           TYPE  DFTD3
           PARAMETER_FILE_NAME dftd3.dat
           REFERENCE_FUNCTIONAL PBE
           EPS_CN     9.9999999999999995E-07
           CALCULATE_C9_TERM  T
           REFERENCE_C9_TERM  T
           LONG_RANGE_CORRECTION  F
           VERBOSE_OUTPUT  F
         &END PAIR_POTENTIAL
       &END VDW_POTENTIAL
     &END XC
   &END DFT
   &SUBSYS
     &CELL
       A     9.7367653356401487E+00    0.0000000000000000E+00    0.0000000000000000E+00
       B    -4.8591341382960209E+00    8.4162672083210595E+00    0.0000000000000000E+00
       C     0.0000000000000000E+00    0.0000000000000000E+00    3.0744000000000000E+01
       MULTIPLE_UNIT_CELL  1 1 1
       &CELL_REF
         A     9.5580000000000052E+00    0.0000000000000000E+00    0.0000000000000000E+00
         B    -4.7790000000000026E+00    8.2774708093716640E+00    0.0000000000000000E+00
         C     0.0000000000000000E+00    0.0000000000000000E+00    3.0744000000000000E+01
         MULTIPLE_UNIT_CELL  1 1 1
       &END CELL_REF
     &END CELL
     &COORD
Ga    3.0725081455788849E-02    1.1256323793162878E-02   -5.2609550033517816E-01
N    3.3868141824806089E-02    1.8843848400524863E+00    6.1193061589219588E-01
Ga    3.2562845266625812E-02    1.8528105282367808E+00    2.6432101336122993E+00
N    2.9579778800826972E-02    9.0894131718830280E-03    3.2747957423797058E+00
Ga    2.8862094624258337E-02    9.0596347714630588E-03    5.2656265357114709E+00
N    3.1670671517287238E-02    1.8837639277154079E+00    5.8524895836361690E+00
Ga    3.1106297639932900E-02    1.8793925421889828E+00    7.8513333103566803E+00
N    2.9292986095935246E-02    6.5224111477841379E-03    8.4532104163890569E+00
Ga    2.9943106525040956E-02    6.2151228197243310E-03    1.0450197922790164E+01
N    2.9376389111840991E-02    1.8776471917410846E+00    1.1056226139329548E+01
Ga    3.6343236474129473E-02    1.8725190522629989E+00    1.3049068031661520E+01
N    4.4843094962270590E-02    9.4220435402425431E-03    1.3667054304775133E+01
Ga    7.4284713382697848E-02   -7.8803514389406467E-03    1.5666346626281033E+01
N    4.2221053298953690E-02    1.8732519303151629E+00    1.6269078448498178E+01
Ga    9.2071846159119022E-02    1.8331906509177356E+00    1.8336227146408167E+01
N    6.9728500416470565E-02   -4.1868844327343620E-02    1.8691074296870990E+01
Ga   -1.5892264689218696E+00    2.8153612887011938E+00    3.2883131042410974E-01
N   -1.5899038797574248E+00    4.6852407776387475E+00    6.1205236457246959E-01
Ga   -1.5627137041668002E+00    4.7003960226916250E+00    2.6420005744247055E+00
N   -1.5900847290881190E+00    2.8147093590299366E+00    3.2335612362129229E+00
Ga   -1.5909050142082886E+00    2.8146561484111854E+00    5.2444750247101437E+00
N   -1.5908432003735551E+00    4.6844696614835986E+00    5.8531419088818133E+00
Ga   -1.5918309616437381E+00    4.6828433515545607E+00    7.8519433449637015E+00
N   -1.5920284662240478E+00    2.8116368306188875E+00    8.4566150757455887E+00
Ga   -1.5936923201354456E+00    2.8109456045662915E+00    1.0451564914140334E+01
N   -1.5953604494736455E+00    4.6804748121857136E+00    1.1059710930082018E+01
Ga   -1.6026201280845165E+00    4.6741830234993484E+00    1.3054770792458111E+01
N   -1.5857585967512020E+00    2.8033752270345631E+00    1.3675990202512699E+01
Ga   -1.5774836686551763E+00    2.8105259293058023E+00    1.5679438707460154E+01
N   -1.5849475490782554E+00    4.6767989272595596E+00    1.6282553088743960E+01
Ga   -1.5221481721045009E+00    4.6553405037314786E+00    1.8336697525059826E+01
N   -1.4826303473843894E+00    2.7963417915406619E+00    1.8870103531620817E+01
Ga   -3.2092197047515443E+00    5.6206225589273657E+00    3.2879508186620887E-01
N   -3.2026895574488425E+00    7.4916615891575278E+00    6.1127614472567071E-01
Ga   -3.2310928199840063E+00    7.5059355134312913E+00    2.6426072041526414E+00
N   -3.2098837465025736E+00    5.6201870487143193E+00    3.2334969900612553E+00
Ga   -3.2107400278289178E+00    5.6196962898489229E+00    5.2445671592896161E+00
N   -3.2046314255355588E+00    7.4899074026400703E+00    5.8522435510384572E+00
Ga   -3.2071411876172382E+00    7.4877222242905992E+00    7.8510110603400429E+00
N   -3.2129262242864969E+00    5.6173827496108579E+00    8.4568746983235599E+00
Ga   -3.2154492071941023E+00    5.6149650395711275E+00    1.0452581826177930E+01
N   -3.2080439804000194E+00    7.4855314719485877E+00    1.1060555850275657E+01
Ga   -3.2011800157577448E+00    7.4793514808786030E+00    1.3057737818873235E+01
N   -3.2179633491565478E+00    5.6116516527088116E+00    1.3683122426064262E+01
Ga   -3.2072957992886191E+00    5.6111280178540692E+00    1.5712726798608040E+01
N   -3.1723818450462895E+00    7.4615121157668876E+00    1.6307639137339361E+01
Ga   -3.1673370187638685E+00    7.4140101978420461E+00    1.8375517679269684E+01
N   -3.1501917600520022E+00    5.5584958428152191E+00    1.8909998791388386E+01
Ga    3.2775844333181192E+00    1.0390910484957607E-02    3.2860745782239820E-01
N    3.2753641851631303E+00    1.8798454836390717E+00    6.1112302702088972E-01
Ga    3.3030506664317123E+00    1.8952939321487878E+00    2.6409904496298537E+00
N    3.2754939021148584E+00    9.4289964043096468E-03    3.2333121125421878E+00
Ga    3.2754282605184812E+00    9.3628763301974519E-03    5.2443933127564080E+00
N    3.2752748335918231E+00    1.8789993015979372E+00    5.8526523535115631E+00
Ga    3.2749130227318655E+00    1.8769105871000025E+00    7.8514943791843947E+00
N    3.2722981637618331E+00    6.6004940234804443E-03    8.4575063865565649E+00
Ga    3.2739010188273499E+00    5.7180585929540936E-03    1.0453615900834054E+01
N    3.2789404348081623E+00    1.8763195792839131E+00    1.1060540591963296E+01
Ga    3.2869345810367281E+00    1.8674234840980299E+00    1.3059512177816885E+01
N    3.2752696281347755E+00   -3.1778127374891122E-03    1.3667563119394794E+01
Ga    3.2848270699638826E+00   -1.6834565958516852E-02    1.5673415350231522E+01
N    3.3103753922445742E+00    1.8468669352733633E+00    1.6272125896756190E+01
Ga    3.3716661228277367E+00    1.8461967801049914E+00    1.8310592189451050E+01
N    3.3304298001335608E+00   -3.8372776093277224E-02    1.8731667164356669E+01
Ga    1.6569417855402624E+00    2.8158951597596062E+00    3.2869340056529056E-01
N    1.6628362156528318E+00    4.6858891821228630E+00    6.1203592950229613E-01
Ga    1.6338395671556745E+00    4.7006943812156718E+00    2.6420435857176652E+00
N    1.6557650412897171E+00    2.8148676841780724E+00    3.2339213630082635E+00
Ga    1.6554282184382505E+00    2.8151335099200145E+00    5.2452880244052507E+00
N    1.6603271545483940E+00    4.6847678667223631E+00    5.8554387353668620E+00
Ga    1.6580801929562177E+00    4.6831493424466037E+00    7.8558734397177625E+00
N    1.6541204128731279E+00    2.8103266482719733E+00    8.4560026890066293E+00
Ga    1.6554695879701669E+00    2.8084540966969351E+00    1.0451818006609860E+01
N    1.6521953009075534E+00    4.6784871665713412E+00    1.1049036772955942E+01
Ga    1.6507129771278142E+00    4.6730541278052069E+00    1.3043404942768786E+01
N    1.6593632805047831E+00    2.7960258886536740E+00    1.3655145931786985E+01
Ga    1.6842265061124910E+00    2.7818763280298282E+00    1.5651126372192872E+01
N    1.6472528313834069E+00    4.6674199466439319E+00    1.6124330193913405E+01
Ga    1.6964016324689914E+00    4.6277297186149200E+00    1.8105209005836013E+01
N    1.7249415184734709E+00    2.7789315666635415E+00    1.8616140739201654E+01
Ga    3.7266573239627419E-02    5.6215798980792160E+00   -5.3999609928219960E-01
N    4.0294321294792101E-02    7.4955173795071746E+00    6.1221651072938343E-01
Ga    3.9113740751030468E-02    7.4634303273849572E+00    2.6421595630343999E+00
N    3.5751155878216943E-02    5.6200957942108021E+00    3.2757320888336103E+00
Ga    3.5519743233916719E-02    5.6201587274900318E+00    5.2665234778211953E+00
N    3.8145299595121120E-02    7.4947196685336106E+00    5.8544795594861538E+00
Ga    3.6459027095101786E-02    7.4909052215835139E+00    7.8541366194243922E+00
N    3.1749185253702988E-02    5.6171257375583501E+00    8.4552230132183048E+00
Ga    3.0274420455279206E-02    5.6156672587408556E+00    1.0453751008034581E+01
N    3.7694509020569464E-02    7.4891240688495841E+00    1.1053188800416761E+01
Ga    3.7809720623170708E-02    7.4886451918231209E+00    1.3047793613431837E+01
N    2.0994241381730283E-02    5.6100903051638333E+00    1.3625885176756116E+01
Ga    1.5626942722687116E-02    5.6043838143434650E+00    1.5614230892696735E+01
N    5.3686833222314760E-02    7.4609411543080517E+00    1.6226878436886572E+01
Ga    8.4194743259807150E-02    7.4387549253015779E+00    1.8278706221393968E+01
N    1.4844197480631227E-01    5.5775842656376762E+00    1.8802548171167555E+01
Ga    6.5209222342466333E+00    1.1083192700824626E-02    3.2815670375076872E-01
N    6.5284165202768953E+00    1.8802665944057024E+00    6.1175474643363525E-01
Ga    6.4989681375950932E+00    1.8952326729356797E+00    2.6412156679096483E+00
N    6.5208945910514293E+00    9.5512129166194139E-03    3.2342925186903231E+00
Ga    6.5203526174755417E+00    9.5259326281740830E-03    5.2455632856708840E+00
N    6.5254754975067675E+00    1.8795121468721003E+00    5.8529256248727544E+00
Ga    6.5226405821769422E+00    1.8778458908064481E+00    7.8515481180345992E+00
N    6.5188405298786689E+00    8.0326821692817928E-03    8.4580475784782685E+00
Ga    6.5197924647661765E+00    9.9913797809789168E-03    1.0454807309115612E+01
N    6.5210614565782246E+00    1.8817022187996839E+00    1.1063096050604717E+01
Ga    6.5204723591867406E+00    1.8810495156409051E+00    1.3060648632806842E+01
N    6.5170312925698601E+00    1.1858573978843977E-02    1.3651131193732402E+01
Ga    6.5249022719988066E+00    1.0286716235765912E-02    1.5655386881686882E+01
N    6.5512208395430003E+00    1.8766569254093397E+00    1.6300975425319269E+01
Ga    6.6181358934271142E+00    1.8691694275490860E+00    1.8391646797066329E+01
N    6.5930905898263195E+00   -5.1654958836148589E-02    1.8612891804354732E+01
Ga    4.9034358867043499E+00    2.8159241369751862E+00   -5.4504490375931403E-01
N    4.9052052927276355E+00    4.6905413937522109E+00    6.1160838033975862E-01
Ga    4.9039281343797665E+00    4.6577769151059041E+00    2.6411274899376593E+00
N    4.9011441033003349E+00    2.8148306965124013E+00    3.2746033366501131E+00
Ga    4.9006488953776923E+00    2.8148601595155056E+00    5.2648316217152349E+00
N    4.9028179720574139E+00    4.6890914207843934E+00    5.8536550191310797E+00
Ga    4.9000183955196395E+00    4.6861304052435599E+00    7.8531059953838582E+00
N    4.8988421868517342E+00    2.8122027926454241E+00    8.4544204792454938E+00
Ga    4.8992561653043616E+00    2.8124238700470396E+00    1.0452500063642894E+01
N    4.9026556772172611E+00    4.6804375552361810E+00    1.1062729737384084E+01
Ga    4.9007779055396261E+00    4.6756254770036039E+00    1.3064996109667925E+01
N    4.8998495195916725E+00    2.8063743911679921E+00    1.3682519102728817E+01
Ga    4.9111819485759884E+00    2.7960759976702363E+00    1.5714511282459645E+01
N    4.8743197091400701E+00    4.6879253888327561E+00    1.6152314143949241E+01
Ga    4.9388495843272775E+00    4.6244018211745077E+00    1.9112554147029925E+01
N    4.9817814368687090E+00    2.7459695985937196E+00    1.8855723526372788E+01
Ga    3.2830054048384869E+00    5.6203274734553252E+00    3.2865889383642349E-01
N    3.2816642794945534E+00    7.4911983270954670E+00    6.1142365047746849E-01
Ga    3.3082722457126263E+00    7.5059996047150426E+00    2.6429276928372976E+00
N    3.2813662083097994E+00    5.6203707584551008E+00    3.2340278448953019E+00
Ga    3.2805085371323623E+00    5.6201998936893141E+00    5.2454142676933948E+00
N    3.2808939430388020E+00    7.4901173992224077E+00    5.8545356884515201E+00
Ga    3.2810615880498353E+00    7.4877952365007365E+00    7.8545676660211345E+00
N    3.2792645238680977E+00    5.6181430696510501E+00    8.4621269841075986E+00
Ga    3.2795425419524791E+00    5.6180812735154833E+00    1.0462375530760248E+01
N    3.2847476324801295E+00    7.4954557260532386E+00    1.1055567182396862E+01
Ga    3.2856698219034901E+00    7.4988422616261055E+00    1.3052957923677939E+01
N    3.2685074591504111E+00    5.6218150948569550E+00    1.3606758358479711E+01
Ga    3.2726704182285351E+00    5.6200320507030304E+00    1.5603445252878069E+01
N    3.3117405075386621E+00    7.4991609348983106E+00    1.6146821806099776E+01
Ga    3.3642185445474020E+00    7.4646855166913770E+00    1.8153758599027640E+01
N    3.4148262700151606E+00    5.5282987376703074E+00    1.8367058147209871E+01
O    1.1718873011905317E+00    4.7235930846335323E+00    2.1123098300909728E+01
H    7.0856897778551187E-01    5.2362145059114731E+00    2.0363225223515240E+01
C    3.6558608555321270E-01    3.5575313043595402E+00    2.1364134995375665E+01
H   -3.1403705408445104E-01    3.3139390968108735E+00    2.0497517618950358E+01
H    1.0157965616461304E+00    2.6927634717659363E+00    2.1544517427508008E+01
H   -2.7985983463178454E-01    3.7191580000339330E+00    2.2241952056388339E+01
O    3.9747099913563124E+00    4.6696508615492700E+00    2.1052391557490676E+01
H    2.9690145141390420E+00    4.6973297702562222E+00    2.0984544296308993E+01
C    4.3264510250753796E+00    3.6361098895852892E+00    2.2009802593186734E+01
H    4.0845090871574570E+00    2.6381678509127902E+00    2.1618640390061824E+01
H    5.4070368254077756E+00    3.7036884768992153E+00    2.2178623167636214E+01
H    3.7930766498104593E+00    3.8209793814644066E+00    2.2950783968598873E+01
     &END COORD
     &KIND C
       BASIS_SET DZVP-MOLOPT-SR-GTH-q4
       POTENTIAL GTH-PBE-q4
       &POTENTIAL
 2 2
  0.3384712400000000E+00 2 -0.8803673979999999E+01  0.1339210850000000E+01
 2
  0.3025757500000000E+00 1  0.9622486650000001E+01
  0.2915069400000000E+00 0
         # Potential name:  GTH-PBE-Q4  for symbol:  C
         # Potential read from the potential filename: GTH_POTENTIALS
       &END POTENTIAL
     &END KIND
     &KIND O
       BASIS_SET DZVP-MOLOPT-SR-GTH-q6
       POTENTIAL GTH-PBE-q6
       &POTENTIAL
 2 4
  0.2445543000000000E+00 2 -0.1666721480000000E+02  0.2487311320000000E+01
 2
  0.2209559200000000E+00 1  0.1833745811000000E+02
  0.2113324700000000E+00 0
         # Potential name:  GTH-PBE-Q6  for symbol:  O
         # Potential read from the potential filename: GTH_POTENTIALS
       &END POTENTIAL
     &END KIND
     &KIND H
       BASIS_SET DZVP-MOLOPT-SR-GTH-q1
       POTENTIAL GTH-PBE-q1
       &POTENTIAL
 1
  0.2000000000000000E+00 2 -0.4178900440000000E+01  0.7244633100000000E+00
 0
         # Potential name:  GTH-PBE-Q1  for symbol:  H
         # Potential read from the potential filename: GTH_POTENTIALS
       &END POTENTIAL
     &END KIND
     &KIND N
       BASIS_SET DZVP-MOLOPT-SR-GTH-q5
       POTENTIAL GTH-PBE-q5
       &POTENTIAL
 2 3
  0.2837905100000000E+00 2 -0.1241522559000000E+02  0.1868095920000000E+01
 2
  0.2554050000000000E+00 1  0.1363026257000000E+02
  0.2454945300000000E+00 0
         # Potential name:  GTH-PBE-Q5  for symbol:  N
         # Potential read from the potential filename: GTH_POTENTIALS
       &END POTENTIAL
     &END KIND
     &KIND Ga
       BASIS_SET DZVP-MOLOPT-SR-GTH-q13
       POTENTIAL GTH-PBE-q13
       &POTENTIAL
 2 1 10
  0.4900000000000000E+00 0
 3
  0.4167772300000000E+00 3  0.1047568975000000E+02 -0.4921768140000000E+01  0.8707055900000000E+00
  0.7770178090000000E+01 -0.2248152160000000E+01
  0.1784415450000000E+01
  0.5696265200000000E+00 2  0.1777985340000000E+01  0.1958597600000000E+00
 -0.2317443900000000E+00
  0.2381265000000000E+00 1 -0.1624868022000000E+02
         # Potential name:  GTH-PBE-Q13  for symbol:  GA
         # Potential read from the potential filename: GTH_POTENTIALS
       &END POTENTIAL
     &END KIND
     &TOPOLOGY
       COORD_FILE_NAME ../start-first.xyz
       COORD_FILE_FORMAT  XYZ
       NUMBER_OF_ATOMS  156
       MULTIPLE_UNIT_CELL  1 1 1
     &END TOPOLOGY
     &COLVAR
       &DISTANCE
         ATOMS  32 148
       &END DISTANCE
       &PRINT
       &END PRINT
     &END COLVAR
   &END SUBSYS
 &END FORCE_EVAL
