 # Version information for this restart file 
 # current date 2019-05-28 13:22:33.258
 # current working dir /lustre03/project/6004141/rzk/GaN-carbene/334-native/08-2Methanol-Htransfer/03-CO-constraint/2.44
 # Program compiled at                              Sun Apr  7 00:48:11 EDT 2019
 # Program compiled on                          beluga2.int.ets1.calculquebec.ca
 # Program compiled for                        Beluga-Linux-x86-64-intel-openmpi
 # Source code revision number                                         svn:18619
 &GLOBAL
   PRINT_LEVEL  MEDIUM
   PROJECT_NAME TEST
   RUN_TYPE  GEO_OPT
 &END GLOBAL
 &MOTION
   &GEO_OPT
     MAX_ITER  500
     STEP_START_VAL  285
   &END GEO_OPT
   &CONSTRAINT
     &COLLECTIVE
       COLVAR  1
       INTERMOLECULAR  T
       TARGET     4.6109317642409691E+00
       &RESTRAINT
         K     1.0000000000000001E-01
       &END RESTRAINT
     &END COLLECTIVE
     &COLVAR_RESTART
           4.6109317642409691E+00
     &END COLVAR_RESTART
   &END CONSTRAINT
 &END MOTION
 &FORCE_EVAL
   METHOD  QS
   STRESS_TENSOR  ANALYTICAL
   &DFT
     BASIS_SET_FILE_NAME BASIS_MOLOPT
     POTENTIAL_FILE_NAME GTH_POTENTIALS
     &SCF
       MAX_SCF  100
       EPS_SCF     5.0000000000000004E-06
       &OT  T
         PRECONDITIONER  FULL_ALL
       &END OT
       &OUTER_SCF  T
         OPTIMIZER  NONE
         EPS_SCF     5.0000000000000004E-06
         MAX_SCF  4
       &END OUTER_SCF
       &PRINT
         &RESTART  OFF
           BACKUP_COPIES  1
           &EACH
             JUST_ENERGY  0
             QS_SCF  0
             MD  20
           &END EACH
         &END RESTART
       &END PRINT
     &END SCF
     &QS
       EPS_DEFAULT     1.0000000000000000E-14
       ALMO_SCF  F
       METHOD  GPW
     &END QS
     &MGRID
       NGRIDS  5
       CUTOFF     1.2000000000000000E+03
     &END MGRID
     &XC
       DENSITY_CUTOFF     1.0000000000000000E-10
       GRADIENT_CUTOFF     1.0000000000000000E-10
       TAU_CUTOFF     1.0000000000000000E-10
       &XC_FUNCTIONAL  NO_SHORTCUT
         &PBE  T
         &END PBE
       &END XC_FUNCTIONAL
       &VDW_POTENTIAL
         POTENTIAL_TYPE  PAIR_POTENTIAL
         &PAIR_POTENTIAL
           R_CUTOFF     1.0000000000000005E+01
           TYPE  DFTD3
           PARAMETER_FILE_NAME dftd3.dat
           REFERENCE_FUNCTIONAL PBE
           EPS_CN     9.9999999999999995E-07
           CALCULATE_C9_TERM  T
           REFERENCE_C9_TERM  T
           LONG_RANGE_CORRECTION  F
           VERBOSE_OUTPUT  F
         &END PAIR_POTENTIAL
       &END VDW_POTENTIAL
     &END XC
   &END DFT
   &SUBSYS
     &CELL
       A     9.7367653356401487E+00    0.0000000000000000E+00    0.0000000000000000E+00
       B    -4.8591341382960209E+00    8.4162672083210595E+00    0.0000000000000000E+00
       C     0.0000000000000000E+00    0.0000000000000000E+00    3.0744000000000000E+01
       MULTIPLE_UNIT_CELL  1 1 1
       &CELL_REF
         A     9.5580000000000052E+00    0.0000000000000000E+00    0.0000000000000000E+00
         B    -4.7790000000000026E+00    8.2774708093716640E+00    0.0000000000000000E+00
         C     0.0000000000000000E+00    0.0000000000000000E+00    3.0744000000000000E+01
         MULTIPLE_UNIT_CELL  1 1 1
       &END CELL_REF
     &END CELL
     &COORD
Ga    1.7805362257670243E-01   -8.6314604242454768E-02   -6.0416469407290807E-01
N    1.8139872385388559E-01    1.7886357773569785E+00    5.5028891754737397E-01
Ga    1.8048377759503340E-01    1.7557986861555430E+00    2.5782060361827410E+00
N    1.7782876753646013E-01   -8.8156372464533186E-02    3.2106363916248379E+00
Ga    1.7831679003058035E-01   -8.6232879804443260E-02    5.1980441067531329E+00
N    1.8153323300971480E-01    1.7880904507306921E+00    5.7888263652965852E+00
Ga    1.8233842541516329E-01    1.7877722761065049E+00    7.7836527428538691E+00
N    1.8007014159002788E-01   -8.5611348309606664E-02    8.3892038854445214E+00
Ga    1.8221110320205214E-01   -8.4256420664504034E-02    1.0382117840307892E+01
N    1.8288139105018392E-01    1.7845161014282223E+00    1.0996244231594071E+01
Ga    1.8394166959245187E-01    1.7842464762223995E+00    1.2994055872099235E+01
N    1.7668360117119242E-01   -7.7396302205074860E-02    1.3638638755691797E+01
Ga    1.9603051698068269E-01   -6.2433661776448025E-02    1.5675963832416260E+01
N    1.7568911193213549E-01    1.8362024849331173E+00    1.6214312560725940E+01
Ga    2.2252796512823286E-01    1.8536131348915850E+00    1.8289186036319180E+01
N    1.9920484400377234E-01    2.3470638822838778E-02    1.8777752442649128E+01
Ga   -1.4412186762079402E+00    2.7176604071752357E+00    2.6381554754309294E-01
N   -1.4431774620595139E+00    4.5870846702132049E+00    5.4911202423369798E-01
Ga   -1.4146785587087767E+00    4.6028404331485939E+00    2.5773130908965594E+00
N   -1.4420757203620207E+00    2.7176509821913615E+00    3.1723454715713038E+00
Ga   -1.4414717782461890E+00    2.7191551486084524E+00    5.1799248566821507E+00
N   -1.4403362240909878E+00    4.5901769031882287E+00    5.7890912818241294E+00
Ga   -1.4390111241407348E+00    4.5915308222367699E+00    7.7841905927523536E+00
N   -1.4388752641501061E+00    2.7213070854467083E+00    8.3910345586757487E+00
Ga   -1.4351483595630279E+00    2.7217062884175269E+00    1.0382056758623534E+01
N   -1.4398643061057290E+00    4.5974262155102252E+00    1.0990190432726932E+01
Ga   -1.4330272669753370E+00    4.5993804361865314E+00    1.2977843521495858E+01
N   -1.4354803382771806E+00    2.7362644396509355E+00    1.3576475698482710E+01
Ga   -1.4111870049896578E+00    2.7642389822222073E+00    1.5565646783180306E+01
N   -1.4660974106536020E+00    4.6030209236750270E+00    1.6286219775453315E+01
Ga   -1.4310349911526781E+00    4.7572043845191825E+00    1.8386147040354821E+01
N   -1.4833378002813975E+00    2.8272398770823290E+00    1.8888935583760631E+01
Ga   -3.0613635314800489E+00    5.5236187524084936E+00    2.6349938888111052E-01
N   -3.0533184774537752E+00    7.3930834558219143E+00    5.4928218718057842E-01
Ga   -3.0825924393177271E+00    7.4084506983941232E+00    2.5773430146404777E+00
N   -3.0613815359774699E+00    5.5229325005517458E+00    3.1712459780548259E+00
Ga   -3.0609323677551390E+00    5.5245455366376772E+00    5.1784328955286876E+00
N   -3.0555538689984023E+00    7.3950405212419099E+00    5.7883060252403560E+00
Ga   -3.0560053358855810E+00    7.3957448999804143E+00    7.7827737330108011E+00
N   -3.0613634589165537E+00    5.5255446356578330E+00    8.3908559543214896E+00
Ga   -3.0606545729862340E+00    5.5301223368174668E+00    1.0380290800352423E+01
N   -3.0623210539944061E+00    7.3942141925969196E+00    1.1007414994527629E+01
Ga   -3.0701593276159995E+00    7.4082729963352820E+00    1.3007163071959654E+01
N   -3.0711143713655358E+00    5.5179248419190312E+00    1.3623726387399413E+01
Ga   -2.9530841244346782E+00    5.6117684909549777E+00    1.5594698898274686E+01
N   -3.0641331816770934E+00    7.3965205459267027E+00    1.6267863248449668E+01
Ga   -2.9943681139078615E+00    7.5941416546383094E+00    1.8425935060902422E+01
N   -2.8434261915214587E+00    5.8148638460359896E+00    1.9173105662093807E+01
Ga    3.4248456554561542E+00   -8.7920755777331050E-02    2.6323338958623471E-01
N    3.4216501541875166E+00    1.7813852882444259E+00    5.4961001751331739E-01
Ga    3.4504752869376567E+00    1.7972526587436282E+00    2.5776427783040128E+00
N    3.4238421681637718E+00   -8.8029225283904527E-02    3.1718803844683077E+00
Ga    3.4247226341690222E+00   -8.6125326658898715E-02    5.1790991546445984E+00
N    3.4242997786873532E+00    1.7831594194611444E+00    5.7927783512092823E+00
Ga    3.4250464501609090E+00    1.7829349940423074E+00    7.7897595058687523E+00
N    3.4234573132036816E+00   -8.9295003351235691E-02    8.3972974653953703E+00
Ga    3.4238838920911219E+00   -9.2573297298224444E-02    1.0392744468441029E+01
N    3.4231724559633490E+00    1.7835122141304960E+00    1.0980458739427498E+01
Ga    3.4073644120531057E+00    1.7695982104868837E+00    1.2967320506014417E+01
N    3.4151831381820594E+00   -8.7484196253546032E-02    1.3605459388868379E+01
Ga    3.4187346253832049E+00   -9.9457667508122738E-02    1.5632906321464636E+01
N    3.4208420281880718E+00    1.7998514412165840E+00    1.6141279596184525E+01
Ga    3.2629567692522414E+00    1.8067419114803189E+00    1.8149460592114448E+01
N    3.5078058989835421E+00    7.8806728348733091E-02    1.8738985702896070E+01
Ga    1.8038445384988551E+00    2.7181582123942580E+00    2.6353697882950966E-01
N    1.8120915544812295E+00    4.5875963364877723E+00    5.4935063192667932E-01
Ga    1.7828576238734506E+00    4.6030275969647896E+00    2.5774475044776506E+00
N    1.8040601025946197E+00    2.7174264112748956E+00    3.1723236992013737E+00
Ga    1.8051179231987222E+00    2.7191391688455222E+00    5.1798634703961968E+00
N    1.8097950686104787E+00    4.5899527582772004E+00    5.7893750545650411E+00
Ga    1.8082589995011373E+00    4.5910760677039084E+00    7.7845865304293502E+00
N    1.8036837031513182E+00    2.7214066188933272E+00    8.3927126162363059E+00
Ga    1.8021357554219399E+00    2.7222099626494654E+00    1.0384874622946761E+01
N    1.8081280526198122E+00    4.5968243020316475E+00    1.0995448891743418E+01
Ga    1.7948225006142455E+00    4.5963159300717695E+00    1.2986202269300733E+01
N    1.8047181613246843E+00    2.7292636806421160E+00    1.3582093128544367E+01
Ga    1.7953789562975315E+00    2.7396197356360514E+00    1.5576284356058153E+01
N    1.8255910646248235E+00    4.6226719550641810E+00    1.6183712520875336E+01
Ga    1.5764780539606120E+00    4.5453848311841769E+00    1.8167383403174931E+01
N    1.8196343445491461E+00    2.8204827691455199E+00    1.8788061229283056E+01
Ga    1.8591991037944794E-01    5.5246792336257293E+00   -6.0527357149494143E-01
N    1.8818746826699442E-01    7.3995546936800825E+00    5.4990080075860004E-01
Ga    1.8761902197798805E-01    7.3667592836529501E+00    2.5774714674866597E+00
N    1.8441607594402468E-01    5.5229708691692529E+00    3.2104880002463063E+00
Ga    1.8514316959086083E-01    5.5251725011997044E+00    5.1980120367301499E+00
N    1.8766725460263586E-01    7.3992099128922257E+00    5.7900225210350555E+00
Ga    1.8710824648393221E-01    7.3977778207046851E+00    7.7856238016440269E+00
N    1.8503351373817273E-01    5.5255789054557622E+00    8.3917309965948910E+00
Ga    1.8582757245659609E-01    5.5323980794997851E+00    1.0385816435159516E+01
N    1.8962039502770872E-01    7.3977129391562988E+00    1.1007297845722951E+01
Ga    1.8535146503586233E-01    7.3978275046037956E+00    1.3012773418749429E+01
N    1.7724488342052114E-01    5.5223857847247935E+00    1.3619944608877471E+01
Ga    1.6536773163787941E-01    5.5657117254071320E+00    1.5641989764592743E+01
N    1.9795863845019568E-01    7.4260495828149855E+00    1.6169009676480290E+01
Ga    2.0954655479051529E-01    7.5259836159897837E+00    1.8266561235014244E+01
N    2.2868551005371790E-01    5.6636373261166595E+00    1.8745249857729043E+01
Ga    6.6693606031182631E+00   -8.6998052045063015E-02    2.6312767197852543E-01
N    6.6767569372660205E+00    1.7821203238159535E+00    5.5026454405456160E-01
Ga    6.6476139138410142E+00    1.7972837365563241E+00    2.5782004830386143E+00
N    6.6693009987555403E+00   -8.7735248005867711E-02    3.1727684188205942E+00
Ga    6.6699704176507790E+00   -8.6118193715868541E-02    5.1803141959735646E+00
N    6.6753199864919406E+00    1.7837174351490503E+00    5.7917476623911242E+00
Ga    6.6751557049456522E+00    1.7837851091738499E+00    7.7882177172847502E+00
N    6.6703326300974002E+00   -8.8598212043184937E-02    8.3939424303259909E+00
Ga    6.6710392457350780E+00   -9.1764759867394394E-02    1.0387380411704214E+01
N    6.6805210500813184E+00    1.7831014285893982E+00    1.0978408947898533E+01
Ga    6.6988536545437887E+00    1.7718073697863217E+00    1.2963077486027544E+01
N    6.6860914278581065E+00   -9.0784649194639244E-02    1.3594660801570219E+01
Ga    6.6889343442374072E+00   -1.1120852539553416E-01    1.5605313667477162E+01
N    6.7175030326801179E+00    1.7907714866071147E+00    1.6111676115950402E+01
Ga    6.7260502082885152E+00    1.8537337922066619E+00    1.8081560746769775E+01
N    6.6440802398107834E+00    9.7132127349745787E-02    1.8737190428781826E+01
Ga    5.0501948734811881E+00    2.7176419321382665E+00   -6.0521373927925604E-01
N    5.0530096140541492E+00    4.5937797812510519E+00    5.4961909625200112E-01
Ga    5.0521380008339900E+00    4.5608550048791860E+00    2.5777717944710994E+00
N    5.0490423760774208E+00    2.7171641804091111E+00    3.2121521875014891E+00
Ga    5.0498011490488572E+00    2.7179830166274690E+00    5.2003709541776191E+00
N    5.0527840475603618E+00    4.5933918801315112E+00    5.7890966144267058E+00
Ga    5.0530290231999722E+00    4.5915891363587535E+00    7.7838005886374422E+00
N    5.0507374879333788E+00    2.7191300911724676E+00    8.3904332741281600E+00
Ga    5.0515887209210009E+00    2.7151099561296617E+00    1.0383318924115494E+01
N    5.0550826347915612E+00    4.5913004676262323E+00    1.0989260343476696E+01
Ga    5.0573882448170746E+00    4.5860428479026849E+00    1.2969126597736453E+01
N    5.0545488755090089E+00    2.7002171484118045E+00    1.3524401318916565E+01
Ga    5.0640379486166642E+00    2.5580182407846372E+00    1.5462541238716296E+01
N    5.0016706841491994E+00    4.4256124899729059E+00    1.6161315316231416E+01
Ga    5.2134654244469703E+00    5.1563378441485659E+00    1.9279210421300256E+01
N    5.0701204538124651E+00    3.3094707485832942E+00    1.8249702824498542E+01
Ga    3.4308481682722607E+00    5.5233698419403838E+00    2.6337331246596724E-01
N    3.4281394940580512E+00    7.3927418575321404E+00    5.4935418061355490E-01
Ga    3.4561824729323107E+00    7.4085265244817542E+00    2.5776334214628820E+00
N    3.4298645842682705E+00    5.5232016059333953E+00    3.1715352745885199E+00
Ga    3.4302507112835823E+00    5.5250063354660615E+00    5.1788966753674979E+00
N    3.4310756207459656E+00    7.3949121371643045E+00    5.7896906844437499E+00
Ga    3.4328238541341083E+00    7.3954081529771978E+00    7.7850455755989616E+00
N    3.4311795229039155E+00    5.5244540121560846E+00    8.3924253531641728E+00
Ga    3.4311403252099741E+00    5.5273239397775633E+00    1.0382935043891434E+01
N    3.4404442366549408E+00    7.3964148198331046E+00    1.0994112476218186E+01
Ga    3.4502694208764395E+00    7.4110620718349187E+00    1.2984663813362952E+01
N    3.4415578766402524E+00    5.5251692835785304E+00    1.3593313079478181E+01
Ga    3.3638394902381834E+00    5.5955024427579074E+00    1.5551752132060223E+01
N    3.4539701956968845E+00    7.3750017616418386E+00    1.6272262291424820E+01
Ga    3.4316611492016453E+00    7.7361765411949142E+00    1.8285670547639526E+01
N    4.8838521691187911E+00    4.3701907516066045E+00    1.7482222129572701E+01
O   -7.0744468236552682E-01    4.8320644184179020E+00    2.1200547899782048E+01
H   -1.6081105754710243E-01    5.2286240637651762E+00    2.0458424274214583E+01
C   -1.5443952220375579E+00    2.6059762364461680E+00    2.0384429587559389E+01
H   -2.2696728702783697E+00    3.2698244635875460E+00    2.0859235204613650E+01
H   -5.7029306302123661E-01    2.7572932647245212E+00    2.0847538005854485E+01
H   -1.8555566440026854E+00    1.5613828859647294E+00    2.0556265492992896E+01
O    3.4416646879602442E+00    5.8419263399447896E+00    1.9433889103235160E+01
H   -1.3343713259948740E+00    5.5558945497637158E+00    2.1374940843627279E+01
C    2.9007850170913909E+00    6.0621652219062447E+00    2.0783690477262184E+01
H    2.7094131124294876E+00    5.0898690770090091E+00    2.1253917058025156E+01
H    3.6070370029496730E+00    6.6605653082702565E+00    2.1373839637782144E+01
H    1.9577744312937122E+00    6.6105611092937862E+00    2.0674356260808260E+01
     &END COORD
     &KIND C
       BASIS_SET DZVP-MOLOPT-SR-GTH-q4
       POTENTIAL GTH-PBE-q4
       &POTENTIAL
 2 2
  0.3384712400000000E+00 2 -0.8803673979999999E+01  0.1339210850000000E+01
 2
  0.3025757500000000E+00 1  0.9622486650000001E+01
  0.2915069400000000E+00 0
         # Potential name:  GTH-PBE-Q4  for symbol:  C
         # Potential read from the potential filename: GTH_POTENTIALS
       &END POTENTIAL
     &END KIND
     &KIND O
       BASIS_SET DZVP-MOLOPT-SR-GTH-q6
       POTENTIAL GTH-PBE-q6
       &POTENTIAL
 2 4
  0.2445543000000000E+00 2 -0.1666721480000000E+02  0.2487311320000000E+01
 2
  0.2209559200000000E+00 1  0.1833745811000000E+02
  0.2113324700000000E+00 0
         # Potential name:  GTH-PBE-Q6  for symbol:  O
         # Potential read from the potential filename: GTH_POTENTIALS
       &END POTENTIAL
     &END KIND
     &KIND H
       BASIS_SET DZVP-MOLOPT-SR-GTH-q1
       POTENTIAL GTH-PBE-q1
       &POTENTIAL
 1
  0.2000000000000000E+00 2 -0.4178900440000000E+01  0.7244633100000000E+00
 0
         # Potential name:  GTH-PBE-Q1  for symbol:  H
         # Potential read from the potential filename: GTH_POTENTIALS
       &END POTENTIAL
     &END KIND
     &KIND N
       BASIS_SET DZVP-MOLOPT-SR-GTH-q5
       POTENTIAL GTH-PBE-q5
       &POTENTIAL
 2 3
  0.2837905100000000E+00 2 -0.1241522559000000E+02  0.1868095920000000E+01
 2
  0.2554050000000000E+00 1  0.1363026257000000E+02
  0.2454945300000000E+00 0
         # Potential name:  GTH-PBE-Q5  for symbol:  N
         # Potential read from the potential filename: GTH_POTENTIALS
       &END POTENTIAL
     &END KIND
     &KIND Ga
       BASIS_SET DZVP-MOLOPT-SR-GTH-q13
       POTENTIAL GTH-PBE-q13
       &POTENTIAL
 2 1 10
  0.4900000000000000E+00 0
 3
  0.4167772300000000E+00 3  0.1047568975000000E+02 -0.4921768140000000E+01  0.8707055900000000E+00
  0.7770178090000000E+01 -0.2248152160000000E+01
  0.1784415450000000E+01
  0.5696265200000000E+00 2  0.1777985340000000E+01  0.1958597600000000E+00
 -0.2317443900000000E+00
  0.2381265000000000E+00 1 -0.1624868022000000E+02
         # Potential name:  GTH-PBE-Q13  for symbol:  GA
         # Potential read from the potential filename: GTH_POTENTIALS
       &END POTENTIAL
     &END KIND
     &TOPOLOGY
       COORD_FILE_NAME ../start-first.xyz
       COORD_FILE_FORMAT  XYZ
       NUMBER_OF_ATOMS  156
       MULTIPLE_UNIT_CELL  1 1 1
     &END TOPOLOGY
     &COLVAR
       &DISTANCE
         ATOMS  145 147
       &END DISTANCE
       &PRINT
       &END PRINT
     &END COLVAR
   &END SUBSYS
 &END FORCE_EVAL
