 # Version information for this restart file 
 # current date 2019-05-28 13:24:14.917
 # current working dir /lustre03/project/6004141/rzk/GaN-carbene/334-native/08-2Methanol-Htransfer/03-CO-constraint/2.44
 # Program compiled at                              Sun Apr  7 00:48:11 EDT 2019
 # Program compiled on                          beluga2.int.ets1.calculquebec.ca
 # Program compiled for                        Beluga-Linux-x86-64-intel-openmpi
 # Source code revision number                                         svn:18619
 &GLOBAL
   PRINT_LEVEL  MEDIUM
   PROJECT_NAME TEST
   RUN_TYPE  GEO_OPT
 &END GLOBAL
 &MOTION
   &GEO_OPT
     MAX_ITER  500
     STEP_START_VAL  287
   &END GEO_OPT
   &CONSTRAINT
     &COLLECTIVE
       COLVAR  1
       INTERMOLECULAR  T
       TARGET     4.6109317642409691E+00
       &RESTRAINT
         K     1.0000000000000001E-01
       &END RESTRAINT
     &END COLLECTIVE
     &COLVAR_RESTART
           4.6109317642409691E+00
     &END COLVAR_RESTART
   &END CONSTRAINT
 &END MOTION
 &FORCE_EVAL
   METHOD  QS
   STRESS_TENSOR  ANALYTICAL
   &DFT
     BASIS_SET_FILE_NAME BASIS_MOLOPT
     POTENTIAL_FILE_NAME GTH_POTENTIALS
     &SCF
       MAX_SCF  100
       EPS_SCF     5.0000000000000004E-06
       &OT  T
         PRECONDITIONER  FULL_ALL
       &END OT
       &OUTER_SCF  T
         OPTIMIZER  NONE
         EPS_SCF     5.0000000000000004E-06
         MAX_SCF  4
       &END OUTER_SCF
       &PRINT
         &RESTART  OFF
           BACKUP_COPIES  1
           &EACH
             JUST_ENERGY  0
             QS_SCF  0
             MD  20
           &END EACH
         &END RESTART
       &END PRINT
     &END SCF
     &QS
       EPS_DEFAULT     1.0000000000000000E-14
       ALMO_SCF  F
       METHOD  GPW
     &END QS
     &MGRID
       NGRIDS  5
       CUTOFF     1.2000000000000000E+03
     &END MGRID
     &XC
       DENSITY_CUTOFF     1.0000000000000000E-10
       GRADIENT_CUTOFF     1.0000000000000000E-10
       TAU_CUTOFF     1.0000000000000000E-10
       &XC_FUNCTIONAL  NO_SHORTCUT
         &PBE  T
         &END PBE
       &END XC_FUNCTIONAL
       &VDW_POTENTIAL
         POTENTIAL_TYPE  PAIR_POTENTIAL
         &PAIR_POTENTIAL
           R_CUTOFF     1.0000000000000005E+01
           TYPE  DFTD3
           PARAMETER_FILE_NAME dftd3.dat
           REFERENCE_FUNCTIONAL PBE
           EPS_CN     9.9999999999999995E-07
           CALCULATE_C9_TERM  T
           REFERENCE_C9_TERM  T
           LONG_RANGE_CORRECTION  F
           VERBOSE_OUTPUT  F
         &END PAIR_POTENTIAL
       &END VDW_POTENTIAL
     &END XC
   &END DFT
   &SUBSYS
     &CELL
       A     9.7367653356401487E+00    0.0000000000000000E+00    0.0000000000000000E+00
       B    -4.8591341382960209E+00    8.4162672083210595E+00    0.0000000000000000E+00
       C     0.0000000000000000E+00    0.0000000000000000E+00    3.0744000000000000E+01
       MULTIPLE_UNIT_CELL  1 1 1
       &CELL_REF
         A     9.5580000000000052E+00    0.0000000000000000E+00    0.0000000000000000E+00
         B    -4.7790000000000026E+00    8.2774708093716640E+00    0.0000000000000000E+00
         C     0.0000000000000000E+00    0.0000000000000000E+00    3.0744000000000000E+01
         MULTIPLE_UNIT_CELL  1 1 1
       &END CELL_REF
     &END CELL
     &COORD
Ga    1.7748256299744472E-01   -8.6147961112460147E-02   -6.0391330030020784E-01
N    1.8094495775509914E-01    1.7889332815584271E+00    5.5110909519573825E-01
Ga    1.8039576689917938E-01    1.7562590176318287E+00    2.5786114240765632E+00
N    1.7770356943769836E-01   -8.7826467938876038E-02    3.2111227172302859E+00
Ga    1.7830641315722059E-01   -8.6609477348920369E-02    5.1984502677559172E+00
N    1.8155912177765238E-01    1.7877013051710180E+00    5.7891240218873339E+00
Ga    1.8234316636043418E-01    1.7872134841436507E+00    7.7838243087766061E+00
N    1.8019967527787650E-01   -8.6224732901172385E-02    8.3887330910075146E+00
Ga    1.8234838655353755E-01   -8.4537185177030016E-02    1.0381613823578069E+01
N    1.8298761972379346E-01    1.7842076759215648E+00    1.0995840614724926E+01
Ga    1.8366973885803542E-01    1.7838778066471515E+00    1.2993860556372994E+01
N    1.7632610398436580E-01   -7.7977116282787681E-02    1.3637837058820837E+01
Ga    1.9589218761132043E-01   -6.2981103033265040E-02    1.5674893719905832E+01
N    1.7570913898777682E-01    1.8357050275471938E+00    1.6213314598835307E+01
Ga    2.2292495937638845E-01    1.8530388086617131E+00    1.8288244079956005E+01
N    2.0004693318016289E-01    2.3142525503347239E-02    1.8777376612895878E+01
Ga   -1.4415094699060289E+00    2.7179445086768488E+00    2.6412515547653459E-01
N   -1.4435646813968690E+00    4.5873538974845278E+00    5.4986951495567271E-01
Ga   -1.4150690736494864E+00    4.6031345619060637E+00    2.5778025301030989E+00
N   -1.4422151730408663E+00    2.7179922737158124E+00    3.1730635537483871E+00
Ga   -1.4415998776253711E+00    2.7187469658653192E+00    5.1804218770820922E+00
N   -1.4405493579251167E+00    4.5896497245367565E+00    5.7895781665669164E+00
Ga   -1.4390557628101210E+00    4.5909041152733367E+00    7.7845620214882993E+00
N   -1.4388279992494533E+00    2.7206479277948334E+00    8.3908319303814487E+00
Ga   -1.4351217955716971E+00    2.7212621878771794E+00    1.0382029924333859E+01
N   -1.4400371967069823E+00    4.5969492147470907E+00    1.0989727731767395E+01
Ga   -1.4332114158226907E+00    4.5989227908331207E+00    1.2977656082959392E+01
N   -1.4359664957591471E+00    2.7357170638505672E+00    1.3575781092283243E+01
Ga   -1.4112525751128737E+00    2.7635939650926122E+00    1.5564991223506160E+01
N   -1.4658696495629604E+00    4.6022081086569528E+00    1.6286225983403892E+01
Ga   -1.4291328252174347E+00    4.7557148194566903E+00    1.8386619904074376E+01
N   -1.4830077167267530E+00    2.8256212084919681E+00    1.8888694237962142E+01
Ga   -3.0617825079604448E+00    5.5237963513482002E+00    2.6392245205661846E-01
N   -3.0538604446799349E+00    7.3933695554862560E+00    5.4981385578010344E-01
Ga   -3.0828543806500104E+00    7.4087450932578518E+00    2.5775545311362409E+00
N   -3.0617241860558786E+00    5.5231417300444585E+00    3.1718737966928043E+00
Ga   -3.0610278112472900E+00    5.5240301953069855E+00    5.1788622306045955E+00
N   -3.0556096867729159E+00    7.3944632389705385E+00    5.7886061690972470E+00
Ga   -3.0559183638347012E+00    7.3950271761744171E+00    7.7828461672748439E+00
N   -3.0614094716350380E+00    5.5249608427060979E+00    8.3906605817130711E+00
Ga   -3.0606392479541955E+00    5.5297981168583688E+00    1.0380229912257814E+01
N   -3.0622628178323108E+00    7.3940338913376511E+00    1.1006907358944064E+01
Ga   -3.0700886665276088E+00    7.4080645790353659E+00    1.3006953240281796E+01
N   -3.0711056660230054E+00    5.5177851850761055E+00    1.3623475271708484E+01
Ga   -2.9518420771232794E+00    5.6116186591281298E+00    1.5594230289077446E+01
N   -3.0642410454268449E+00    7.3963328420735941E+00    1.6267406833934061E+01
Ga   -2.9936844907688256E+00    7.5935736713272046E+00    1.8424666646878325E+01
N   -2.8422998571892295E+00    5.8139856626326312E+00    1.9172601738591375E+01
Ga    3.4244216049354339E+00   -8.7806344925691809E-02    2.6346227384609960E-01
N    3.4213585187329594E+00    1.7815839568775746E+00    5.4995279608210523E-01
Ga    3.4502721392007252E+00    1.7974343278043525E+00    2.5778881261425450E+00
N    3.4235828792841745E+00   -8.7763925788268721E-02    3.1723339713611218E+00
Ga    3.4245645016724553E+00   -8.6527148376003962E-02    5.1794418831250386E+00
N    3.4242377095055532E+00    1.7826654791074279E+00    5.7931434099992645E+00
Ga    3.4250955683910802E+00    1.7824600635339229E+00    7.7901651677971211E+00
N    3.4235610399216787E+00   -8.9802596933255707E-02    8.3971934358601725E+00
Ga    3.4239164820799939E+00   -9.2805410350830994E-02    1.0392506941142214E+01
N    3.4231823162634045E+00    1.7833165194129390E+00    1.0979929738717933E+01
Ga    3.4072005289281844E+00    1.7692068676230361E+00    1.2966885339842396E+01
N    3.4150050707613575E+00   -8.7663274341008235E-02    1.3605142478045861E+01
Ga    3.4189910825592191E+00   -9.9420189747977797E-02    1.5632547409690732E+01
N    3.4211835778234301E+00    1.7999028999047644E+00    1.6140732418164436E+01
Ga    3.2633444562627201E+00    1.8067445821950336E+00    1.8148799751371996E+01
N    3.5084508245535511E+00    7.8514375539651904E-02    1.8737890824177967E+01
Ga    1.8033899844654684E+00    2.7183628105905395E+00    2.6394102469418745E-01
N    1.8116553402147249E+00    4.5877558596485768E+00    5.5003457830139324E-01
Ga    1.7826211153989280E+00    4.6033707101998074E+00    2.5778867780647867E+00
N    1.8040236721060641E+00    2.7177884135908368E+00    3.1728981538363525E+00
Ga    1.8050784510781932E+00    2.7187415677641047E+00    5.1803405756425640E+00
N    1.8096123914942632E+00    4.5895366729902465E+00    5.7897617564544328E+00
Ga    1.8081531644085342E+00    4.5905003768351778E+00    7.7849022126460259E+00
N    1.8036047484330500E+00    2.7208380656043354E+00    8.3925525065870019E+00
Ga    1.8020232305551585E+00    2.7219663683261439E+00    1.0384806877168224E+01
N    1.8079061264854677E+00    4.5965706171362601E+00    1.0994773712141257E+01
Ga    1.7945681826022537E+00    4.5959354793782667E+00    1.2985665288474992E+01
N    1.8045536869080594E+00    2.7289699604420892E+00    1.3581329139841884E+01
Ga    1.7956549126209982E+00    2.7389651754415829E+00    1.5575395898214868E+01
N    1.8264394407650362E+00    4.6220048054822955E+00    1.6182679158315736E+01
Ga    1.5788265487883388E+00    4.5450188075983382E+00    1.8165816493618756E+01
N    1.8202692008036010E+00    2.8203410532330282E+00    1.8787713765872837E+01
Ga    1.8534884908766514E-01    5.5247475900718044E+00   -6.0497369901868414E-01
N    1.8781505980475791E-01    7.3997524687164598E+00    5.5025046180536619E-01
Ga    1.8731873430523513E-01    7.3671565988190455E+00    2.5778093748847812E+00
N    1.8405205791075202E-01    5.5233088613455523E+00    3.2110513875124158E+00
Ga    1.8493775989922290E-01    5.5247487042746100E+00    5.1984183442527119E+00
N    1.8751966736622627E-01    7.3986990421266192E+00    5.7903099982773032E+00
Ga    1.8711640009499900E-01    7.3972263874242774E+00    7.7856735472303411E+00
N    1.8497201206287725E-01    5.5251603346099287E+00    8.3915455282442739E+00
Ga    1.8557344561143846E-01    5.5321807393235396E+00    1.0385728787454363E+01
N    1.8941748151040083E-01    7.3975368267512600E+00    1.1007026951052142E+01
Ga    1.8510747418271803E-01    7.3974163583083055E+00    1.3012667440888418E+01
N    1.7704493455949008E-01    5.5217773093439995E+00    1.3619660705276079E+01
Ga    1.6582124975251125E-01    5.5649920703640205E+00    1.5642023617476111E+01
N    1.9839379978815624E-01    7.4255185918886939E+00    1.6168330331953189E+01
Ga    2.1038718060041800E-01    7.5255285570433328E+00    1.8265361193255014E+01
N    2.3050008428779170E-01    5.6631697444624880E+00    1.8743117032789261E+01
Ga    6.6689209827978235E+00   -8.6858954372429839E-02    2.6329465532520774E-01
N    6.6764188867503229E+00    1.7823595850895990E+00    5.5081339831395026E-01
Ga    6.6476345942435096E+00    1.7973763941875751E+00    2.5786149734491137E+00
N    6.6691588473906824E+00   -8.7653966518467769E-02    3.1732625379346828E+00
Ga    6.6699191370263904E+00   -8.6692816243179219E-02    5.1805970825749270E+00
N    6.6752739759392652E+00    1.7830506393213508E+00    5.7920516217880378E+00
Ga    6.6752663537112573E+00    1.7832084325562165E+00    7.7884597109568547E+00
N    6.6704073668380843E+00   -8.9253308467594744E-02    8.3935784014886057E+00
Ga    6.6709587356055700E+00   -9.2178292124802622E-02    1.0386763737324001E+01
N    6.6806507875027705E+00    1.7824782439967850E+00    1.0977898050929143E+01
Ga    6.6987022611970763E+00    1.7710973372799268E+00    1.2962666831337987E+01
N    6.6860246646600201E+00   -9.1522955884823856E-02    1.3594068691868749E+01
Ga    6.6890967992358448E+00   -1.1159643916823191E-01    1.5604722938603183E+01
N    6.7173334046546032E+00    1.7904004666998026E+00    1.6110890552876967E+01
Ga    6.7260831622488286E+00    1.8534549865684267E+00    1.8080565988683517E+01
N    6.6447069625494652E+00    9.6749385525162629E-02    1.8736728119566386E+01
Ga    5.0498683567912890E+00    2.7178787608177997E+00   -6.0412216539458796E-01
N    5.0526073016297302E+00    4.5938276237163498E+00    5.5031687553523456E-01
Ga    5.0518662781115831E+00    4.5608933049869709E+00    2.5782907724626760E+00
N    5.0489997433929199E+00    2.7170560611211947E+00    3.2126130453594959E+00
Ga    5.0497540849737375E+00    2.7173072977742447E+00    5.2007491168170086E+00
N    5.0527055870516424E+00    4.5926168204143574E+00    5.7893807530629768E+00
Ga    5.0530796469068351E+00    4.5908279547202779E+00    7.7840899251879296E+00
N    5.0507898214947922E+00    2.7184869334795776E+00    8.3904386654887375E+00
Ga    5.0517269481333384E+00    2.7147412172289722E+00    1.0383411868238834E+01
N    5.0551454277853836E+00    4.5910277608287293E+00    1.0988829236839376E+01
Ga    5.0574555195441535E+00    4.5857698609781883E+00    1.2968893334218874E+01
N    5.0545233409670089E+00    2.6998988214564488E+00    1.3523715128532871E+01
Ga    5.0640348374560507E+00    2.5576701523678591E+00    1.5461901014401553E+01
N    5.0009418427441013E+00    4.4254020902768412E+00    1.6160467181010791E+01
Ga    5.2151450546643723E+00    5.1542518130494903E+00    1.9279382220367104E+01
N    5.0706985257064963E+00    3.3101851498439867E+00    1.8248862346322220E+01
Ga    3.4303463273145183E+00    5.5235050795713345E+00    2.6373395043935066E-01
N    3.4276420283213058E+00    7.3929016158604774E+00    5.5013212339871220E-01
Ga    3.4561265447113061E+00    7.4087800549457530E+00    2.5778453241667596E+00
N    3.4297089010184756E+00    5.5232900130975242E+00    3.1721612239467571E+00
Ga    3.4302311604393214E+00    5.5243760253110006E+00    5.1792779815013628E+00
N    3.4311495036649160E+00    7.3943264123973922E+00    5.7899302243155102E+00
Ga    3.4328637330200245E+00    7.3946701558338352E+00    7.7849856771574224E+00
N    3.4311679656844758E+00    5.5237636285893403E+00    8.3921389364637999E+00
Ga    3.4310381219602886E+00    5.5269684413641249E+00    1.0382594156298453E+01
N    3.4403775733903146E+00    7.3961679635183364E+00    1.0993156591147818E+01
Ga    3.4500663182006877E+00    7.4105840436192452E+00    1.2983611188004385E+01
N    3.4415859708063792E+00    5.5248705760895103E+00    1.3592134973372080E+01
Ga    3.3638048650254282E+00    5.5956164514209332E+00    1.5550412740823459E+01
N    3.4542296727846025E+00    7.3744937701087778E+00    1.6271885218720499E+01
Ga    3.4323256579893862E+00    7.7356147049555570E+00    1.8285296229236231E+01
N    4.8834051210713394E+00    4.3705764309713571E+00    1.7480739752474907E+01
O   -7.1271228919063101E-01    4.8298579691275068E+00    2.1193247223229676E+01
H   -1.6003273941915597E-01    5.2279258875520229E+00    2.0456795576475912E+01
C   -1.5457750513956103E+00    2.6003433980864843E+00    2.0383412761403303E+01
H   -2.2736486633081823E+00    3.2604900142606392E+00    2.0859539807873411E+01
H   -5.7344250030538912E-01    2.7533055116378238E+00    2.0849596929405443E+01
H   -1.8547258956359116E+00    1.5544974428823013E+00    2.0551589067904018E+01
O    3.4435338880303497E+00    5.8409235970059887E+00    1.9434874105199242E+01
H   -1.3470098784520699E+00    5.5500326590977744E+00    2.1356866060978213E+01
C    2.8994408285902176E+00    6.0588485111937276E+00    2.0783259947093498E+01
H    2.7218099622287455E+00    5.0860237242011346E+00    2.1257795308548832E+01
H    3.5958015406133037E+00    6.6708136216660403E+00    2.1371120641205891E+01
H    1.9485080500636520E+00    6.5923751911383963E+00    2.0670763252026475E+01
     &END COORD
     &KIND C
       BASIS_SET DZVP-MOLOPT-SR-GTH-q4
       POTENTIAL GTH-PBE-q4
       &POTENTIAL
 2 2
  0.3384712400000000E+00 2 -0.8803673979999999E+01  0.1339210850000000E+01
 2
  0.3025757500000000E+00 1  0.9622486650000001E+01
  0.2915069400000000E+00 0
         # Potential name:  GTH-PBE-Q4  for symbol:  C
         # Potential read from the potential filename: GTH_POTENTIALS
       &END POTENTIAL
     &END KIND
     &KIND O
       BASIS_SET DZVP-MOLOPT-SR-GTH-q6
       POTENTIAL GTH-PBE-q6
       &POTENTIAL
 2 4
  0.2445543000000000E+00 2 -0.1666721480000000E+02  0.2487311320000000E+01
 2
  0.2209559200000000E+00 1  0.1833745811000000E+02
  0.2113324700000000E+00 0
         # Potential name:  GTH-PBE-Q6  for symbol:  O
         # Potential read from the potential filename: GTH_POTENTIALS
       &END POTENTIAL
     &END KIND
     &KIND H
       BASIS_SET DZVP-MOLOPT-SR-GTH-q1
       POTENTIAL GTH-PBE-q1
       &POTENTIAL
 1
  0.2000000000000000E+00 2 -0.4178900440000000E+01  0.7244633100000000E+00
 0
         # Potential name:  GTH-PBE-Q1  for symbol:  H
         # Potential read from the potential filename: GTH_POTENTIALS
       &END POTENTIAL
     &END KIND
     &KIND N
       BASIS_SET DZVP-MOLOPT-SR-GTH-q5
       POTENTIAL GTH-PBE-q5
       &POTENTIAL
 2 3
  0.2837905100000000E+00 2 -0.1241522559000000E+02  0.1868095920000000E+01
 2
  0.2554050000000000E+00 1  0.1363026257000000E+02
  0.2454945300000000E+00 0
         # Potential name:  GTH-PBE-Q5  for symbol:  N
         # Potential read from the potential filename: GTH_POTENTIALS
       &END POTENTIAL
     &END KIND
     &KIND Ga
       BASIS_SET DZVP-MOLOPT-SR-GTH-q13
       POTENTIAL GTH-PBE-q13
       &POTENTIAL
 2 1 10
  0.4900000000000000E+00 0
 3
  0.4167772300000000E+00 3  0.1047568975000000E+02 -0.4921768140000000E+01  0.8707055900000000E+00
  0.7770178090000000E+01 -0.2248152160000000E+01
  0.1784415450000000E+01
  0.5696265200000000E+00 2  0.1777985340000000E+01  0.1958597600000000E+00
 -0.2317443900000000E+00
  0.2381265000000000E+00 1 -0.1624868022000000E+02
         # Potential name:  GTH-PBE-Q13  for symbol:  GA
         # Potential read from the potential filename: GTH_POTENTIALS
       &END POTENTIAL
     &END KIND
     &TOPOLOGY
       COORD_FILE_NAME ../start-first.xyz
       COORD_FILE_FORMAT  XYZ
       NUMBER_OF_ATOMS  156
       MULTIPLE_UNIT_CELL  1 1 1
     &END TOPOLOGY
     &COLVAR
       &DISTANCE
         ATOMS  145 147
       &END DISTANCE
       &PRINT
       &END PRINT
     &END COLVAR
   &END SUBSYS
 &END FORCE_EVAL
