 # Version information for this restart file 
 # current date 2019-05-28 13:23:24.985
 # current working dir /lustre03/project/6004141/rzk/GaN-carbene/334-native/08-2Methanol-Htransfer/03-CO-constraint/2.44
 # Program compiled at                              Sun Apr  7 00:48:11 EDT 2019
 # Program compiled on                          beluga2.int.ets1.calculquebec.ca
 # Program compiled for                        Beluga-Linux-x86-64-intel-openmpi
 # Source code revision number                                         svn:18619
 &GLOBAL
   PRINT_LEVEL  MEDIUM
   PROJECT_NAME TEST
   RUN_TYPE  GEO_OPT
 &END GLOBAL
 &MOTION
   &GEO_OPT
     MAX_ITER  500
     STEP_START_VAL  286
   &END GEO_OPT
   &CONSTRAINT
     &COLLECTIVE
       COLVAR  1
       INTERMOLECULAR  T
       TARGET     4.6109317642409691E+00
       &RESTRAINT
         K     1.0000000000000001E-01
       &END RESTRAINT
     &END COLLECTIVE
     &COLVAR_RESTART
           4.6109317642409691E+00
     &END COLVAR_RESTART
   &END CONSTRAINT
 &END MOTION
 &FORCE_EVAL
   METHOD  QS
   STRESS_TENSOR  ANALYTICAL
   &DFT
     BASIS_SET_FILE_NAME BASIS_MOLOPT
     POTENTIAL_FILE_NAME GTH_POTENTIALS
     &SCF
       MAX_SCF  100
       EPS_SCF     5.0000000000000004E-06
       &OT  T
         PRECONDITIONER  FULL_ALL
       &END OT
       &OUTER_SCF  T
         OPTIMIZER  NONE
         EPS_SCF     5.0000000000000004E-06
         MAX_SCF  4
       &END OUTER_SCF
       &PRINT
         &RESTART  OFF
           BACKUP_COPIES  1
           &EACH
             JUST_ENERGY  0
             QS_SCF  0
             MD  20
           &END EACH
         &END RESTART
       &END PRINT
     &END SCF
     &QS
       EPS_DEFAULT     1.0000000000000000E-14
       ALMO_SCF  F
       METHOD  GPW
     &END QS
     &MGRID
       NGRIDS  5
       CUTOFF     1.2000000000000000E+03
     &END MGRID
     &XC
       DENSITY_CUTOFF     1.0000000000000000E-10
       GRADIENT_CUTOFF     1.0000000000000000E-10
       TAU_CUTOFF     1.0000000000000000E-10
       &XC_FUNCTIONAL  NO_SHORTCUT
         &PBE  T
         &END PBE
       &END XC_FUNCTIONAL
       &VDW_POTENTIAL
         POTENTIAL_TYPE  PAIR_POTENTIAL
         &PAIR_POTENTIAL
           R_CUTOFF     1.0000000000000005E+01
           TYPE  DFTD3
           PARAMETER_FILE_NAME dftd3.dat
           REFERENCE_FUNCTIONAL PBE
           EPS_CN     9.9999999999999995E-07
           CALCULATE_C9_TERM  T
           REFERENCE_C9_TERM  T
           LONG_RANGE_CORRECTION  F
           VERBOSE_OUTPUT  F
         &END PAIR_POTENTIAL
       &END VDW_POTENTIAL
     &END XC
   &END DFT
   &SUBSYS
     &CELL
       A     9.7367653356401487E+00    0.0000000000000000E+00    0.0000000000000000E+00
       B    -4.8591341382960209E+00    8.4162672083210595E+00    0.0000000000000000E+00
       C     0.0000000000000000E+00    0.0000000000000000E+00    3.0744000000000000E+01
       MULTIPLE_UNIT_CELL  1 1 1
       &CELL_REF
         A     9.5580000000000052E+00    0.0000000000000000E+00    0.0000000000000000E+00
         B    -4.7790000000000026E+00    8.2774708093716640E+00    0.0000000000000000E+00
         C     0.0000000000000000E+00    0.0000000000000000E+00    3.0744000000000000E+01
         MULTIPLE_UNIT_CELL  1 1 1
       &END CELL_REF
     &END CELL
     &COORD
Ga    1.7743818880560538E-01   -8.5758562160007656E-02   -6.0385976285115939E-01
N    1.8080219844160997E-01    1.7889948220852270E+00    5.5120159705420591E-01
Ga    1.8013881631167061E-01    1.7561253660822331E+00    2.5786125014823127E+00
N    1.7752569862370371E-01   -8.7862740019671398E-02    3.2112419327707737E+00
Ga    1.7808718715596769E-01   -8.6481080372148203E-02    5.1986103392716805E+00
N    1.8134056820820652E-01    1.7878673727245056E+00    5.7891110328127002E+00
Ga    1.8223912719313137E-01    1.7873854031442851E+00    7.7837954526109678E+00
N    1.8009271922323289E-01   -8.6043006212187953E-02    8.3887110956481923E+00
Ga    1.8236542918695373E-01   -8.4414492666553931E-02    1.0381597274023079E+01
N    1.8304673263762011E-01    1.7843326840603682E+00    1.0995567399523850E+01
Ga    1.8372410748588161E-01    1.7839336955819221E+00    1.2993435956873213E+01
N    1.7657556919823367E-01   -7.7968351217257398E-02    1.3637805512919142E+01
Ga    1.9599387781777580E-01   -6.3189281237989336E-02    1.5675172411579007E+01
N    1.7578306528112023E-01    1.8355026366779232E+00    1.6213302152965724E+01
Ga    2.2316358695820274E-01    1.8527751493121873E+00    1.8288375506231819E+01
N    2.0021650219158899E-01    2.2859058044896269E-02    1.8777120878482631E+01
Ga   -1.4416438383382484E+00    2.7180907193974244E+00    2.6402948694433587E-01
N   -1.4436582665894542E+00    4.5875012526227783E+00    5.4983041878382033E-01
Ga   -1.4152524006831855E+00    4.6030501978946647E+00    2.5777352723101901E+00
N   -1.4424825191838835E+00    2.7179069157921569E+00    3.1730315083111300E+00
Ga   -1.4418451863563886E+00    2.7188890642781636E+00    5.1803780646187105E+00
N   -1.4407345717168445E+00    4.5898344390010681E+00    5.7893911698432463E+00
Ga   -1.4390974385197450E+00    4.5911288922190057E+00    7.7843829521767640E+00
N   -1.4389589643609890E+00    2.7208213303010780E+00    8.3906874202282822E+00
Ga   -1.4350893427515061E+00    2.7213790014857682E+00    1.0381787695327722E+01
N   -1.4399295568861896E+00    4.5970118130170974E+00    1.0989538522225001E+01
Ga   -1.4331298680594504E+00    4.5988851351085440E+00    1.2977421663346835E+01
N   -1.4358421117170634E+00    2.7357002600005473E+00    1.3575702996694661E+01
Ga   -1.4110691199819336E+00    2.7635165292636730E+00    1.5564972779613949E+01
N   -1.4655986234336205E+00    4.6021380682659068E+00    1.6286308054198866E+01
Ga   -1.4288394926705792E+00    4.7555922563041610E+00    1.8386857591491072E+01
N   -1.4828653034817849E+00    2.8254513051203825E+00    1.8888725912580259E+01
Ga   -3.0618865316912038E+00    5.5240161049134944E+00    2.6367687245181853E-01
N   -3.0539406649421683E+00    7.3935453304449306E+00    5.4979219086768494E-01
Ga   -3.0830748000269885E+00    7.4087342259105045E+00    2.5775618249484502E+00
N   -3.0618872632996230E+00    5.5231260050073745E+00    3.1717812148659856E+00
Ga   -3.0612506849185741E+00    5.5242006882122636E+00    5.1787578436936599E+00
N   -3.0558234126351715E+00    7.3946162763862411E+00    5.7885560249310073E+00
Ga   -3.0559978685235616E+00    7.3951603469361613E+00    7.7828101904273428E+00
N   -3.0614330597356783E+00    5.5250706338638489E+00    8.3904977320850165E+00
Ga   -3.0605837460600798E+00    5.5298453383169663E+00    1.0380037743689806E+01
N   -3.0622448752710141E+00    7.3940141265870309E+00    1.1006740060853691E+01
Ga   -3.0700350844649984E+00    7.4078213969155966E+00    1.3006710182444152E+01
N   -3.0710545863692729E+00    5.5176013699958748E+00    1.3623380270090543E+01
Ga   -2.9521515311046569E+00    5.6110117273216806E+00    1.5594218061090375E+01
N   -3.0640055528607286E+00    7.3959934042973439E+00    1.6267126674014836E+01
Ga   -2.9933317078885269E+00    7.5934485948786756E+00    1.8424637242401037E+01
N   -2.8418118709944582E+00    5.8140353063759385E+00    1.9172803964381458E+01
Ga    3.4243554667664102E+00   -8.7706804170042993E-02    2.6300047112713365E-01
N    3.4212312625711414E+00    1.7816538633670480E+00    5.4981671732361570E-01
Ga    3.4499709465369035E+00    1.7973358270650528E+00    2.5777824162826435E+00
N    3.4234257315386709E+00   -8.7893444560853434E-02    3.1722713038064247E+00
Ga    3.4244114934219096E+00   -8.6494589379258358E-02    5.1793584744582830E+00
N    3.4240138491316965E+00    1.7827554291468830E+00    5.7930416065271313E+00
Ga    3.4249673172912534E+00    1.7825587232759224E+00    7.7900486219731508E+00
N    3.4234652879184653E+00   -8.9709807031303032E-02    8.3971176054059704E+00
Ga    3.4238733636847170E+00   -9.2711366991554245E-02    1.0392486111348795E+01
N    3.4231566709441830E+00    1.7833748269871903E+00    1.0979763572817095E+01
Ga    3.4072866468532572E+00    1.7692771843119233E+00    1.2966761506271983E+01
N    3.4149640723411201E+00   -8.7734532557042569E-02    1.3604854393355813E+01
Ga    3.4190230761162774E+00   -9.9632694241371708E-02    1.5632082625436407E+01
N    3.4212817908223063E+00    1.7996131927106549E+00    1.6140631648105551E+01
Ga    3.2635398563296563E+00    1.8063749671352018E+00    1.8148519536094494E+01
N    3.5086452085095119E+00    7.8361315605248213E-02    1.8738320241417455E+01
Ga    1.8032727886961273E+00    2.7183864772693354E+00    2.6353495004211552E-01
N    1.8116459679198389E+00    4.5878198183338679E+00    5.4978302107180288E-01
Ga    1.7823985130769016E+00    4.6032788675445131E+00    2.5777012205543479E+00
N    1.8037406854150959E+00    2.7176821554899022E+00    3.1728347163882242E+00
Ga    1.8048521535270232E+00    2.7188937336709498E+00    5.1802477689971766E+00
N    1.8095084349906558E+00    4.5897110545236464E+00    5.7896531320307059E+00
Ga    1.8081600165276130E+00    4.5907135271571002E+00    7.7847957083807673E+00
N    1.8035338208722005E+00    2.7210581772873348E+00    8.3924780062292008E+00
Ga    1.8021239026910711E+00    2.7221267133818157E+00    1.0384685323379674E+01
N    1.8081077980569871E+00    4.5966592923635661E+00    1.0994675783304814E+01
Ga    1.7947752502740855E+00    4.5959618832184450E+00    1.2985583321104336E+01
N    1.8046434928387811E+00    2.7289373371703807E+00    1.3581333834333156E+01
Ga    1.7957663743106027E+00    2.7387741293481298E+00    1.5575510917065452E+01
N    1.8264851570957270E+00    4.6218876174846582E+00    1.6182587085722908E+01
Ga    1.5787895374401562E+00    4.5446143820764480E+00    1.8165733822673285E+01
N    1.8203744063974696E+00    2.8199587279779670E+00    1.8787035579986878E+01
Ga    1.8532149725713615E-01    5.5248918953524271E+00   -6.0534468233487215E-01
N    1.8781268660821407E-01    7.3998431445395676E+00    5.5008032768931903E-01
Ga    1.8714619636333854E-01    7.3670046070259811E+00    2.5775994904214965E+00
N    1.8388515034768194E-01    5.5232185998842258E+00    3.2108987758052074E+00
Ga    1.8480432734609301E-01    5.5248511334619712E+00    5.1983526664101891E+00
N    1.8734557818145978E-01    7.3987951814672597E+00    5.7902446429072327E+00
Ga    1.8707087843168035E-01    7.3973597629221075E+00    7.7856610743210570E+00
N    1.8496483528485336E-01    5.5252550948300403E+00    8.3914695147944354E+00
Ga    1.8575425584686980E-01    5.5321840179796498E+00    1.0385629333625628E+01
N    1.8945200391355005E-01    7.3975785436281223E+00    1.1006854470828365E+01
Ga    1.8516593770069892E-01    7.3973889185109458E+00    1.3012525613279770E+01
N    1.7719967624122462E-01    5.5218232120560540E+00    1.3619515824377446E+01
Ga    1.6581363689318118E-01    5.5649071225934987E+00    1.5641950075468868E+01
N    1.9845890136470468E-01    7.4254396834144938E+00    1.6168167007801529E+01
Ga    2.1049412413728322E-01    7.5255454863989391E+00    1.8265107044268930E+01
N    2.3081127294970938E-01    5.6631157509933301E+00    1.8742942218293678E+01
Ga    6.6690072543108752E+00   -8.6725750427644785E-02    2.6306400286364784E-01
N    6.6762679599684454E+00    1.7824719555524666E+00    5.5084802570457903E-01
Ga    6.6473525290048228E+00    1.7973648288801167E+00    2.5785893807767648E+00
N    6.6689004162070189E+00   -8.7704522210089814E-02    3.1731720560468060E+00
Ga    6.6696615934653272E+00   -8.6512327763281591E-02    5.1805279681248955E+00
N    6.6749848668897567E+00    1.7832561149490447E+00    5.7919148252630501E+00
Ga    6.6750051395722823E+00    1.7834254290126215E+00    7.7883541459121588E+00
N    6.6702869716334927E+00   -8.9013463459317571E-02    8.3935664436069803E+00
Ga    6.6709050810226005E+00   -9.1985978665437923E-02    1.0386885220272244E+01
N    6.6805541979167762E+00    1.7827355033584451E+00    1.0977744839429368E+01
Ga    6.6986804483326585E+00    1.7712777482242370E+00    1.2962519787647716E+01
N    6.6860614278999648E+00   -9.1353700633527893E-02    1.3594088109522700E+01
Ga    6.6891436557757080E+00   -1.1160093765706687E-01    1.5604666580304148E+01
N    6.7174415942572603E+00    1.7903194905640307E+00    1.6110847642623909E+01
Ga    6.7266589923463007E+00    1.8530651297704213E+00    1.8080509563893017E+01
N    6.6448791847664026E+00    9.6510084101867982E-02    1.8736659128869565E+01
Ga    5.0498766254056759E+00    2.7179630696277646E+00   -6.0474936463275375E-01
N    5.0525537403842371E+00    4.5939296960862963E+00    5.5022005804792717E-01
Ga    5.0516441491049404E+00    4.5609275392999074E+00    2.5781921223768194E+00
N    5.0486560805846850E+00    2.7170810614685372E+00    3.2125205380948310E+00
Ga    5.0494456348538606E+00    2.7175599706235101E+00    5.2006993906831589E+00
N    5.0524585522387184E+00    4.5929050517414201E+00    5.7892720201435139E+00
Ga    5.0529409847418920E+00    4.5911003515526589E+00    7.7839559797109308E+00
N    5.0506284477042040E+00    2.7187354640002912E+00    8.3902956764130803E+00
Ga    5.0515830900728096E+00    2.7148966864296629E+00    1.0383279866318084E+01
N    5.0551625343532329E+00    4.5911726533109745E+00    1.0988689987431545E+01
Ga    5.0575860292937236E+00    4.5857809024909377E+00    1.2968729863708381E+01
N    5.0544798242372009E+00    2.6999482199915388E+00    1.3523740058814589E+01
Ga    5.0640403713041069E+00    2.5576804273235054E+00    1.5461956508710772E+01
N    5.0013785525341987E+00    4.4251884050425652E+00    1.6160857657288684E+01
Ga    5.2153934433913420E+00    5.1550185187877737E+00    1.9279138036808938E+01
N    5.0708218603759994E+00    3.3099041473267454E+00    1.8248811717238997E+01
Ga    3.4303615037017896E+00    5.5236584031040969E+00    2.6335952856000233E-01
N    3.4277754744296640E+00    7.3930799231750433E+00    5.5006847663568925E-01
Ga    3.4560087491495044E+00    7.4088070133222717E+00    2.5779331947488093E+00
N    3.4294387361769210E+00    5.5233304559150378E+00    3.1719981037495986E+00
Ga    3.4300012413537031E+00    5.5246706707462971E+00    5.1791805485892040E+00
N    3.4308710113259431E+00    7.3945807534530141E+00    5.7898898605714528E+00
Ga    3.4327263414359441E+00    7.3949449138070316E+00    7.7850308266652162E+00
N    3.4311076407568253E+00    5.5240793970233772E+00    8.3921249813827412E+00
Ga    3.4310813369306814E+00    5.5271431959002157E+00    1.0382629668387139E+01
N    3.4403850670801357E+00    7.3963856415448905E+00    1.0993178375030709E+01
Ga    3.4501754423782698E+00    7.4106470586960809E+00    1.2983701776819364E+01
N    3.4417965403468651E+00    5.5249417424624161E+00    1.3592252997512173E+01
Ga    3.3640548031032935E+00    5.5953553688291935E+00    1.5550617579264461E+01
N    3.4541491881276229E+00    7.3743218279989300E+00    1.6271904130189760E+01
Ga    3.4323876910962996E+00    7.7354594667274448E+00    1.8285450141824551E+01
N    4.8840248530651333E+00    4.3702388094475282E+00    1.7481304451798859E+01
O   -7.1166032267645296E-01    4.8290550107307455E+00    2.1192931172292226E+01
H   -1.5888194033956748E-01    5.2270551001438719E+00    2.0456423445748428E+01
C   -1.5460798612548219E+00    2.5998077643654867E+00    2.0383336171876667E+01
H   -2.2738887365658020E+00    3.2599258690729771E+00    2.0859545014308960E+01
H   -5.7402986416129453E-01    2.7519299905204972E+00    2.0850041466209014E+01
H   -1.8554939508212331E+00    1.5539997976986057E+00    2.0550752105466152E+01
O    3.4437128733373590E+00    5.8403198049831824E+00    1.9434732752901166E+01
H   -1.3458862530857130E+00    5.5491747591258918E+00    2.1356899154286342E+01
C    2.8994605543527050E+00    6.0592428902757058E+00    2.0782968296444729E+01
H    2.7218578413395327E+00    5.0870240439763812E+00    2.1258414908818072E+01
H    3.5959943761874071E+00    6.6714301052536307E+00    2.1370573973743458E+01
H    1.9489333295404498E+00    6.5930835453670307E+00    2.0670526016251898E+01
     &END COORD
     &KIND C
       BASIS_SET DZVP-MOLOPT-SR-GTH-q4
       POTENTIAL GTH-PBE-q4
       &POTENTIAL
 2 2
  0.3384712400000000E+00 2 -0.8803673979999999E+01  0.1339210850000000E+01
 2
  0.3025757500000000E+00 1  0.9622486650000001E+01
  0.2915069400000000E+00 0
         # Potential name:  GTH-PBE-Q4  for symbol:  C
         # Potential read from the potential filename: GTH_POTENTIALS
       &END POTENTIAL
     &END KIND
     &KIND O
       BASIS_SET DZVP-MOLOPT-SR-GTH-q6
       POTENTIAL GTH-PBE-q6
       &POTENTIAL
 2 4
  0.2445543000000000E+00 2 -0.1666721480000000E+02  0.2487311320000000E+01
 2
  0.2209559200000000E+00 1  0.1833745811000000E+02
  0.2113324700000000E+00 0
         # Potential name:  GTH-PBE-Q6  for symbol:  O
         # Potential read from the potential filename: GTH_POTENTIALS
       &END POTENTIAL
     &END KIND
     &KIND H
       BASIS_SET DZVP-MOLOPT-SR-GTH-q1
       POTENTIAL GTH-PBE-q1
       &POTENTIAL
 1
  0.2000000000000000E+00 2 -0.4178900440000000E+01  0.7244633100000000E+00
 0
         # Potential name:  GTH-PBE-Q1  for symbol:  H
         # Potential read from the potential filename: GTH_POTENTIALS
       &END POTENTIAL
     &END KIND
     &KIND N
       BASIS_SET DZVP-MOLOPT-SR-GTH-q5
       POTENTIAL GTH-PBE-q5
       &POTENTIAL
 2 3
  0.2837905100000000E+00 2 -0.1241522559000000E+02  0.1868095920000000E+01
 2
  0.2554050000000000E+00 1  0.1363026257000000E+02
  0.2454945300000000E+00 0
         # Potential name:  GTH-PBE-Q5  for symbol:  N
         # Potential read from the potential filename: GTH_POTENTIALS
       &END POTENTIAL
     &END KIND
     &KIND Ga
       BASIS_SET DZVP-MOLOPT-SR-GTH-q13
       POTENTIAL GTH-PBE-q13
       &POTENTIAL
 2 1 10
  0.4900000000000000E+00 0
 3
  0.4167772300000000E+00 3  0.1047568975000000E+02 -0.4921768140000000E+01  0.8707055900000000E+00
  0.7770178090000000E+01 -0.2248152160000000E+01
  0.1784415450000000E+01
  0.5696265200000000E+00 2  0.1777985340000000E+01  0.1958597600000000E+00
 -0.2317443900000000E+00
  0.2381265000000000E+00 1 -0.1624868022000000E+02
         # Potential name:  GTH-PBE-Q13  for symbol:  GA
         # Potential read from the potential filename: GTH_POTENTIALS
       &END POTENTIAL
     &END KIND
     &TOPOLOGY
       COORD_FILE_NAME ../start-first.xyz
       COORD_FILE_FORMAT  XYZ
       NUMBER_OF_ATOMS  156
       MULTIPLE_UNIT_CELL  1 1 1
     &END TOPOLOGY
     &COLVAR
       &DISTANCE
         ATOMS  145 147
       &END DISTANCE
       &PRINT
       &END PRINT
     &END COLVAR
   &END SUBSYS
 &END FORCE_EVAL
