 # Version information for this restart file 
 # current date 2019-05-27 21:55:46.703
 # current working dir /lustre03/project/6004141/rzk/GaN-carbene/334-native/08-2Methanol-Htransfer/02-NH-constraint/2.44
 # Program compiled at                              Sun Apr  7 00:48:11 EDT 2019
 # Program compiled on                          beluga2.int.ets1.calculquebec.ca
 # Program compiled for                        Beluga-Linux-x86-64-intel-openmpi
 # Source code revision number                                         svn:18619
 &GLOBAL
   PRINT_LEVEL  MEDIUM
   PROJECT_NAME TEST
   RUN_TYPE  GEO_OPT
 &END GLOBAL
 &MOTION
   &GEO_OPT
     MAX_ITER  500
     STEP_START_VAL  69
   &END GEO_OPT
   &CONSTRAINT
     &COLLECTIVE
       COLVAR  1
       INTERMOLECULAR  T
       TARGET     4.6109317642409691E+00
       &RESTRAINT
         K     1.0000000000000001E-01
       &END RESTRAINT
     &END COLLECTIVE
     &COLVAR_RESTART
           4.6109317642409691E+00
     &END COLVAR_RESTART
   &END CONSTRAINT
 &END MOTION
 &FORCE_EVAL
   METHOD  QS
   STRESS_TENSOR  ANALYTICAL
   &DFT
     BASIS_SET_FILE_NAME BASIS_MOLOPT
     POTENTIAL_FILE_NAME GTH_POTENTIALS
     &SCF
       MAX_SCF  100
       EPS_SCF     5.0000000000000004E-06
       &OT  T
         PRECONDITIONER  FULL_ALL
       &END OT
       &OUTER_SCF  T
         OPTIMIZER  NONE
         EPS_SCF     5.0000000000000004E-06
         MAX_SCF  4
       &END OUTER_SCF
       &PRINT
         &RESTART  OFF
           BACKUP_COPIES  1
           &EACH
             JUST_ENERGY  0
             QS_SCF  0
             MD  20
           &END EACH
         &END RESTART
       &END PRINT
     &END SCF
     &QS
       EPS_DEFAULT     1.0000000000000000E-14
       ALMO_SCF  F
       METHOD  GPW
     &END QS
     &MGRID
       NGRIDS  5
       CUTOFF     1.2000000000000000E+03
     &END MGRID
     &XC
       DENSITY_CUTOFF     1.0000000000000000E-10
       GRADIENT_CUTOFF     1.0000000000000000E-10
       TAU_CUTOFF     1.0000000000000000E-10
       &XC_FUNCTIONAL  NO_SHORTCUT
         &PBE  T
         &END PBE
       &END XC_FUNCTIONAL
       &VDW_POTENTIAL
         POTENTIAL_TYPE  PAIR_POTENTIAL
         &PAIR_POTENTIAL
           R_CUTOFF     1.0000000000000005E+01
           TYPE  DFTD3
           PARAMETER_FILE_NAME dftd3.dat
           REFERENCE_FUNCTIONAL PBE
           EPS_CN     9.9999999999999995E-07
           CALCULATE_C9_TERM  T
           REFERENCE_C9_TERM  T
           LONG_RANGE_CORRECTION  F
           VERBOSE_OUTPUT  F
         &END PAIR_POTENTIAL
       &END VDW_POTENTIAL
     &END XC
   &END DFT
   &SUBSYS
     &CELL
       A     9.7367653356401487E+00    0.0000000000000000E+00    0.0000000000000000E+00
       B    -4.8591341382960209E+00    8.4162672083210595E+00    0.0000000000000000E+00
       C     0.0000000000000000E+00    0.0000000000000000E+00    3.0744000000000000E+01
       MULTIPLE_UNIT_CELL  1 1 1
       &CELL_REF
         A     9.5580000000000052E+00    0.0000000000000000E+00    0.0000000000000000E+00
         B    -4.7790000000000026E+00    8.2774708093716640E+00    0.0000000000000000E+00
         C     0.0000000000000000E+00    0.0000000000000000E+00    3.0744000000000000E+01
         MULTIPLE_UNIT_CELL  1 1 1
       &END CELL_REF
     &END CELL
     &COORD
Ga    1.9724475519000563E-02   -6.2195537411802388E-03   -5.2677512699589690E-01
N    2.2086431163588077E-02    1.8668714667011521E+00    6.0373743033786909E-01
Ga    2.1669121911847684E-02    1.8362139493546992E+00    2.6364399491878672E+00
N    1.8529905370538235E-02   -7.8111964367559919E-03    3.2663884989497114E+00
Ga    1.9009736216084622E-02   -7.5441224078548995E-03    5.2572188177848256E+00
N    2.1690163823825943E-02    1.8672866991851269E+00    5.8433994768658906E+00
Ga    2.1882293914695185E-02    1.8644510716370060E+00    7.8419033922622230E+00
N    2.0347922063972252E-02   -8.2501259840387798E-03    8.4429553575602281E+00
Ga    2.2264571030829638E-02   -7.9573525596118438E-03    1.0439204923160087E+01
N    2.1324231719989935E-02    1.8638389626729492E+00    1.1044877272626241E+01
Ga    2.8526472704332204E-02    1.8607591981784632E+00    1.3037885154358580E+01
N    3.6613335481825986E-02   -3.5477993161429225E-03    1.3651611732787170E+01
Ga    6.7267853730935093E-02   -1.6349836902134197E-02    1.5649252964110532E+01
N    3.7827602023569773E-02    1.8589572188386487E+00    1.6260651246856376E+01
Ga    7.8526972350485391E-02    1.8332478209127154E+00    1.8339998730965533E+01
N    6.7120789886935678E-02   -4.8409666585597921E-02    1.8686344923527841E+01
Ga   -1.6011940567568850E+00    2.7990474948162141E+00    3.2167183227839868E-01
N   -1.6019421723230043E+00    4.6685621536209148E+00    6.0481312245169216E-01
Ga   -1.5736666696561501E+00    4.6841200514378851E+00    2.6345645793244588E+00
N   -1.6010593608236419E+00    2.7981029303632203E+00    3.2255596852613526E+00
Ga   -1.6007783328090821E+00    2.7986232886837623E+00    5.2369075801198459E+00
N   -1.6005550974350300E+00    4.6683931365392359E+00    5.8444619497169947E+00
Ga   -1.6004243933049183E+00    4.6677327072853680E+00    7.8431161796109601E+00
N   -1.6009787552308814E+00    2.7965774133214372E+00    8.4458697391349151E+00
Ga   -1.6015428016894200E+00    2.7972198684577001E+00    1.0440124374891949E+01
N   -1.6035198994082658E+00    4.6663888965932294E+00    1.1047807707581409E+01
Ga   -1.6096345509012160E+00    4.6611550300797200E+00    1.3042685427145665E+01
N   -1.5921010923277064E+00    2.7921620971500318E+00    1.3666226546117901E+01
Ga   -1.5803154176214060E+00    2.8005336180128304E+00    1.5673298111551262E+01
N   -1.5836345868986006E+00    4.6692710904396009E+00    1.6276611055799215E+01
Ga   -1.5112750459765218E+00    4.6460870648595778E+00    1.8341603046808451E+01
N   -1.5107866492445483E+00    2.7821642059591873E+00    1.8830351580256522E+01
Ga   -3.2208853710293597E+00    5.6035680195270023E+00    3.2121227533030927E-01
N   -3.2149387654202233E+00    7.4749987585419086E+00    6.0362971336649829E-01
Ga   -3.2417117865999687E+00    7.4888588976153585E+00    2.6363021430468141E+00
N   -3.2207884016359798E+00    5.6033909167932086E+00    3.2260264831431789E+00
Ga   -3.2203927645734849E+00    5.6035763528813360E+00    5.2374243715619198E+00
N   -3.2147590544756670E+00    7.4736499238974075E+00    5.8436635960364711E+00
Ga   -3.2163233759793681E+00    7.4725759999483188E+00    7.8421755841760445E+00
N   -3.2218996091415035E+00    5.6021528283088182E+00    8.4464838099218831E+00
Ga   -3.2235549642428811E+00    5.6006534877737550E+00    1.0441680673055389E+01
N   -3.2160596554617769E+00    7.4711255282508029E+00    1.1048866990035307E+01
Ga   -3.2086154285637640E+00    7.4660711955748482E+00    1.3045663537530924E+01
N   -3.2246023815520597E+00    5.5984907980523460E+00    1.3672231126254921E+01
Ga   -3.2083816202862976E+00    5.5983512338869206E+00    1.5703433923259034E+01
N   -3.1800832916162269E+00    7.4521487924461143E+00    1.6290125712185027E+01
Ga   -3.1698477916473058E+00    7.4079932069757826E+00    1.8352872100475203E+01
N   -3.1453751627069990E+00    5.5520304935373250E+00    1.8885949495893438E+01
Ga    3.2659828892560343E+00   -6.7727571336604203E-03    3.2115386223872000E-01
N    3.2631019420302811E+00    1.8624823648487352E+00    6.0461824573090794E-01
Ga    3.2913602615579283E+00    1.8778342595609421E+00    2.6346600991029714E+00
N    3.2644709758054784E+00   -7.7027891945823535E-03    3.2262615197320974E+00
Ga    3.2654387204547461E+00   -7.6450971271460220E-03    5.2376677556013123E+00
N    3.2654089106013311E+00    1.8626009778642156E+00    5.8437590536858020E+00
Ga    3.2663332690399209E+00    1.8621597321375902E+00    7.8424628806873766E+00
N    3.2634797773019320E+00   -8.5000801829846900E-03    8.4462052764139290E+00
Ga    3.2653137069217975E+00   -9.4813646286370304E-03    1.0441389134632191E+01
N    3.2699318252928400E+00    1.8616191633688575E+00    1.1046761147259430E+01
Ga    3.2783280820725285E+00    1.8541695957050817E+00    1.3043893064942093E+01
N    3.2685333589201839E+00   -1.5373503372764592E-02    1.3652188753290215E+01
Ga    3.2808598931415496E+00   -2.8881501490496637E-02    1.5657221902340096E+01
N    3.3058496892238804E+00    1.8335610739876866E+00    1.6266204153500134E+01
Ga    3.3627994150348477E+00    1.8376869387535408E+00    1.8306050063103338E+01
N    3.3275341197562716E+00   -5.1108875706894479E-02    1.8714087728131496E+01
Ga    1.6453082925632827E+00    2.7993851619556702E+00    3.2145364544115657E-01
N    1.6509587342421592E+00    4.6690307504987603E+00    6.0480746434881194E-01
Ga    1.6225690071501242E+00    4.6840372590897843E+00    2.6346631849330855E+00
N    1.6446027388228153E+00    2.7982072545232257E+00    3.2262968633410272E+00
Ga    1.6453219459976893E+00    2.7988187943416016E+00    5.2379970033087924E+00
N    1.6502583372892083E+00    4.6685796343963100E+00    5.8464774544586309E+00
Ga    1.6493808944987347E+00    4.6679849669792715E+00    7.8467115411472932E+00
N    1.6450846829266008E+00    2.7952156906371850E+00    8.4448161948585287E+00
Ga    1.6466972075466002E+00    2.7942875898563502E+00    1.0439457797635326E+01
N    1.6447780415293869E+00    4.6636500801664331E+00    1.1037960460203411E+01
Ga    1.6448525784327652E+00    4.6586394828172928E+00    1.3032041377816933E+01
N    1.6526817780855874E+00    2.7824084959041979E+00    1.3647441767991698E+01
Ga    1.6773098987364330E+00    2.7674706601312895E+00    1.5644399772919256E+01
N    1.6423194581260270E+00    4.6533431986837845E+00    1.6118459371127095E+01
Ga    1.6964421091816488E+00    4.6143010356976104E+00    1.8100321794982587E+01
N    1.7182321865682226E+00    2.7720920038460926E+00    1.8626046222177951E+01
Ga    2.4813245828533524E-02    5.6053943730616229E+00   -5.5124521351033295E-01
N    2.8279465730130009E-02    7.4787640181098638E+00    6.0534079573282895E-01
Ga    2.7670108850058852E-02    7.4462653631028894E+00    2.6349437864626322E+00
N    2.4771600491925984E-02    5.6032363775703651E+00    3.2677442979189655E+00
Ga    2.5449249204949159E-02    5.6038174847306248E+00    5.2579364415281153E+00
N    2.8268604592866738E-02    7.4779631379577731E+00    5.8460652466347476E+00
Ga    2.8023103568907463E-02    7.4753206790511761E+00    7.8457399813037929E+00
N    2.3304772062371228E-02    5.6015940655248686E+00    8.4452302837940021E+00
Ga    2.2210722486115626E-02    5.6005634016291053E+00    1.0443178870075569E+01
N    2.9295865292065799E-02    7.4745239405669617E+00    1.1039555157599127E+01
Ga    3.0936711667686061E-02    7.4753289276072046E+00    1.3033272266467288E+01
N    1.5792413540269029E-02    5.5967475155055961E+00    1.3610661607672847E+01
Ga    1.2110635775702825E-02    5.5908916930377357E+00    1.5597100278648446E+01
N    4.9208182885805980E-02    7.4473208811021774E+00    1.6203825638065503E+01
Ga    7.7811721313067628E-02    7.4171238518084497E+00    1.8249599740578237E+01
N    1.5783693886334257E-01    5.5657786316096205E+00    1.8820012340390722E+01
Ga    6.5086759933693212E+00   -6.1104931042929491E-03    3.2098264533558868E-01
N    6.5167685438316036E+00    1.8631682651021506E+00    6.0450470350268093E-01
Ga    6.4879944011377289E+00    1.8780448251345818E+00    2.6344918743857195E+00
N    6.5098035514189991E+00   -7.6069516962081786E-03    3.2266109667953242E+00
Ga    6.5101745665695709E+00   -7.4654213450294060E-03    5.2383503068812312E+00
N    6.5154209834308787E+00    1.8631687683646632E+00    5.8439422894677415E+00
Ga    6.5132329219420013E+00    1.8629413325180526E+00    7.8425795433901149E+00
N    6.5100322152944035E+00   -6.7712534743414815E-03    8.4477214334287272E+00
Ga    6.5116553451454013E+00   -4.3539799628010741E-03    1.0444159995965455E+01
N    6.5134456600250443E+00    1.8680457535795350E+00    1.1050935720236946E+01
Ga    6.5142305193694376E+00    1.8699093649108491E+00    1.3048455469682855E+01
N    6.5107904604150439E+00   -1.2738095759704516E-03    1.3631183813212523E+01
Ga    6.5180754196111490E+00   -2.6497434536769168E-03    1.5632739087023124E+01
N    6.5406902353175544E+00    1.8635664316410310E+00    1.6268700979643359E+01
Ga    6.6072694106822043E+00    1.8577719647942654E+00    1.8345237131787400E+01
N    6.5827211672560910E+00   -6.3360506011244919E-02    1.8596557321828332E+01
Ga    4.8905492632232699E+00    2.7988164248314611E+00   -5.4928910175378109E-01
N    4.8935019789117797E+00    4.6738919494658955E+00    6.0461697890097243E-01
Ga    4.8928364007131755E+00    4.6414508012491815E+00    2.6345111340253680E+00
N    4.8899836425062420E+00    2.7979429641699380E+00    3.2662926651017790E+00
Ga    4.8905039353512185E+00    2.7984200118878362E+00    5.2561270698411269E+00
N    4.8930151357596445E+00    4.6726984019108517E+00    5.8446725017101517E+00
Ga    4.8909121115900343E+00    4.6706341634167963E+00    7.8440415237998016E+00
N    4.8898864063158571E+00    2.7973396349171287E+00    8.4446981437986679E+00
Ga    4.8911076280814756E+00    2.7988331434827938E+00    1.0442405905992141E+01
N    4.8945217192760353E+00    4.6671380038254267E+00    1.1052063473818830E+01
Ga    4.8933034916246383E+00    4.6638764656501337E+00    1.3054174528108263E+01
N    4.8902950986393954E+00    2.7938028916239781E+00    1.3665685413918689E+01
Ga    4.9017587431851046E+00    2.7838691905686512E+00    1.5693191624787390E+01
N    4.8703374896900282E+00    4.6748004589055201E+00    1.6139617802680245E+01
Ga    4.9441396104188824E+00    4.6217949015296798E+00    1.9109082663321910E+01
N    4.9752091958435933E+00    2.7426535939098273E+00    1.8830328525745351E+01
Ga    3.2709758350556197E+00    5.6029418090782341E+00    3.2116929926499405E-01
N    3.2705093320898451E+00    7.4744615326973411E+00    6.0322718682685283E-01
Ga    3.2969547071730232E+00    7.4887464777445665E+00    2.6360839416698392E+00
N    3.2702020002957473E+00    5.6035507971326748E+00    3.2264192514772714E+00
Ga    3.2703975866096022E+00    5.6039403396229570E+00    5.2381832720169621E+00
N    3.2711961937524854E+00    7.4738596579312668E+00    5.8460187669108583E+00
Ga    3.2718931000082767E+00    7.4725951185343531E+00    7.8461013896025467E+00
N    3.2704325779529064E+00    5.6027979243015258E+00    8.4516110788765051E+00
Ga    3.2715682119430110E+00    5.6033788686320767E+00    1.0451395323607972E+01
N    3.2770637383297916E+00    7.4805712805762550E+00    1.1042286831786738E+01
Ga    3.2790739514780136E+00    7.4839369136753024E+00    1.3038321578219847E+01
N    3.2606759180989355E+00    5.6086281757209813E+00    1.3599266258494765E+01
Ga    3.2667214503072377E+00    5.6098718337763245E+00    1.5597563215994448E+01
N    3.3061803268349990E+00    7.4904824852110572E+00    1.6135214337526826E+01
Ga    3.3619956230612233E+00    7.4597070344131300E+00    1.8142399231866442E+01
N    3.4210503673662522E+00    5.5180078110971440E+00    1.8340376727805420E+01
O    1.3910069843851984E+00    4.8772453502743423E+00    2.1147505018752724E+01
H    8.6488481978571896E-01    5.3090342103238983E+00    2.0384908635508577E+01
C    6.5665350721474636E-01    3.6844754275429894E+00    2.1501591177245814E+01
H   -9.9176899392763251E-02    3.4321259507132562E+00    2.0729340122075609E+01
H    1.3492934344165770E+00    2.8380591227516048E+00    2.1589717876876421E+01
H    1.4045808043751482E-01    3.8375284076104723E+00    2.2460738017458503E+01
O    4.0726038250261070E+00    4.7358641597523699E+00    2.1032636302935405E+01
H    3.0540529126948663E+00    4.8016899547761724E+00    2.0995377782210390E+01
C    4.4281728626299719E+00    3.7156501558905601E+00    2.2002472327146833E+01
H    4.2421807364717656E+00    2.7101698780165551E+00    2.1599648618951566E+01
H    5.4964511070202713E+00    3.8267149678271219E+00    2.2219830887045752E+01
H    3.8464580426669555E+00    3.8764080640420144E+00    2.2918401463773943E+01
     &END COORD
     &KIND C
       BASIS_SET DZVP-MOLOPT-SR-GTH-q4
       POTENTIAL GTH-PBE-q4
       &POTENTIAL
 2 2
  0.3384712400000000E+00 2 -0.8803673979999999E+01  0.1339210850000000E+01
 2
  0.3025757500000000E+00 1  0.9622486650000001E+01
  0.2915069400000000E+00 0
         # Potential name:  GTH-PBE-Q4  for symbol:  C
         # Potential read from the potential filename: GTH_POTENTIALS
       &END POTENTIAL
     &END KIND
     &KIND O
       BASIS_SET DZVP-MOLOPT-SR-GTH-q6
       POTENTIAL GTH-PBE-q6
       &POTENTIAL
 2 4
  0.2445543000000000E+00 2 -0.1666721480000000E+02  0.2487311320000000E+01
 2
  0.2209559200000000E+00 1  0.1833745811000000E+02
  0.2113324700000000E+00 0
         # Potential name:  GTH-PBE-Q6  for symbol:  O
         # Potential read from the potential filename: GTH_POTENTIALS
       &END POTENTIAL
     &END KIND
     &KIND H
       BASIS_SET DZVP-MOLOPT-SR-GTH-q1
       POTENTIAL GTH-PBE-q1
       &POTENTIAL
 1
  0.2000000000000000E+00 2 -0.4178900440000000E+01  0.7244633100000000E+00
 0
         # Potential name:  GTH-PBE-Q1  for symbol:  H
         # Potential read from the potential filename: GTH_POTENTIALS
       &END POTENTIAL
     &END KIND
     &KIND N
       BASIS_SET DZVP-MOLOPT-SR-GTH-q5
       POTENTIAL GTH-PBE-q5
       &POTENTIAL
 2 3
  0.2837905100000000E+00 2 -0.1241522559000000E+02  0.1868095920000000E+01
 2
  0.2554050000000000E+00 1  0.1363026257000000E+02
  0.2454945300000000E+00 0
         # Potential name:  GTH-PBE-Q5  for symbol:  N
         # Potential read from the potential filename: GTH_POTENTIALS
       &END POTENTIAL
     &END KIND
     &KIND Ga
       BASIS_SET DZVP-MOLOPT-SR-GTH-q13
       POTENTIAL GTH-PBE-q13
       &POTENTIAL
 2 1 10
  0.4900000000000000E+00 0
 3
  0.4167772300000000E+00 3  0.1047568975000000E+02 -0.4921768140000000E+01  0.8707055900000000E+00
  0.7770178090000000E+01 -0.2248152160000000E+01
  0.1784415450000000E+01
  0.5696265200000000E+00 2  0.1777985340000000E+01  0.1958597600000000E+00
 -0.2317443900000000E+00
  0.2381265000000000E+00 1 -0.1624868022000000E+02
         # Potential name:  GTH-PBE-Q13  for symbol:  GA
         # Potential read from the potential filename: GTH_POTENTIALS
       &END POTENTIAL
     &END KIND
     &TOPOLOGY
       COORD_FILE_NAME ../start-first.xyz
       COORD_FILE_FORMAT  XYZ
       NUMBER_OF_ATOMS  156
       MULTIPLE_UNIT_CELL  1 1 1
     &END TOPOLOGY
     &COLVAR
       &DISTANCE
         ATOMS  32 148
       &END DISTANCE
       &PRINT
       &END PRINT
     &END COLVAR
   &END SUBSYS
 &END FORCE_EVAL
