 # Version information for this restart file 
 # current date 2019-05-27 21:54:57.521
 # current working dir /lustre03/project/6004141/rzk/GaN-carbene/334-native/08-2Methanol-Htransfer/02-NH-constraint/2.44
 # Program compiled at                              Sun Apr  7 00:48:11 EDT 2019
 # Program compiled on                          beluga2.int.ets1.calculquebec.ca
 # Program compiled for                        Beluga-Linux-x86-64-intel-openmpi
 # Source code revision number                                         svn:18619
 &GLOBAL
   PRINT_LEVEL  MEDIUM
   PROJECT_NAME TEST
   RUN_TYPE  GEO_OPT
 &END GLOBAL
 &MOTION
   &GEO_OPT
     MAX_ITER  500
     STEP_START_VAL  68
   &END GEO_OPT
   &CONSTRAINT
     &COLLECTIVE
       COLVAR  1
       INTERMOLECULAR  T
       TARGET     4.6109317642409691E+00
       &RESTRAINT
         K     1.0000000000000001E-01
       &END RESTRAINT
     &END COLLECTIVE
     &COLVAR_RESTART
           4.6109317642409691E+00
     &END COLVAR_RESTART
   &END CONSTRAINT
 &END MOTION
 &FORCE_EVAL
   METHOD  QS
   STRESS_TENSOR  ANALYTICAL
   &DFT
     BASIS_SET_FILE_NAME BASIS_MOLOPT
     POTENTIAL_FILE_NAME GTH_POTENTIALS
     &SCF
       MAX_SCF  100
       EPS_SCF     5.0000000000000004E-06
       &OT  T
         PRECONDITIONER  FULL_ALL
       &END OT
       &OUTER_SCF  T
         OPTIMIZER  NONE
         EPS_SCF     5.0000000000000004E-06
         MAX_SCF  4
       &END OUTER_SCF
       &PRINT
         &RESTART  OFF
           BACKUP_COPIES  1
           &EACH
             JUST_ENERGY  0
             QS_SCF  0
             MD  20
           &END EACH
         &END RESTART
       &END PRINT
     &END SCF
     &QS
       EPS_DEFAULT     1.0000000000000000E-14
       ALMO_SCF  F
       METHOD  GPW
     &END QS
     &MGRID
       NGRIDS  5
       CUTOFF     1.2000000000000000E+03
     &END MGRID
     &XC
       DENSITY_CUTOFF     1.0000000000000000E-10
       GRADIENT_CUTOFF     1.0000000000000000E-10
       TAU_CUTOFF     1.0000000000000000E-10
       &XC_FUNCTIONAL  NO_SHORTCUT
         &PBE  T
         &END PBE
       &END XC_FUNCTIONAL
       &VDW_POTENTIAL
         POTENTIAL_TYPE  PAIR_POTENTIAL
         &PAIR_POTENTIAL
           R_CUTOFF     1.0000000000000005E+01
           TYPE  DFTD3
           PARAMETER_FILE_NAME dftd3.dat
           REFERENCE_FUNCTIONAL PBE
           EPS_CN     9.9999999999999995E-07
           CALCULATE_C9_TERM  T
           REFERENCE_C9_TERM  T
           LONG_RANGE_CORRECTION  F
           VERBOSE_OUTPUT  F
         &END PAIR_POTENTIAL
       &END VDW_POTENTIAL
     &END XC
   &END DFT
   &SUBSYS
     &CELL
       A     9.7367653356401487E+00    0.0000000000000000E+00    0.0000000000000000E+00
       B    -4.8591341382960209E+00    8.4162672083210595E+00    0.0000000000000000E+00
       C     0.0000000000000000E+00    0.0000000000000000E+00    3.0744000000000000E+01
       MULTIPLE_UNIT_CELL  1 1 1
       &CELL_REF
         A     9.5580000000000052E+00    0.0000000000000000E+00    0.0000000000000000E+00
         B    -4.7790000000000026E+00    8.2774708093716640E+00    0.0000000000000000E+00
         C     0.0000000000000000E+00    0.0000000000000000E+00    3.0744000000000000E+01
         MULTIPLE_UNIT_CELL  1 1 1
       &END CELL_REF
     &END CELL
     &COORD
Ga    1.9671315496675758E-02   -6.2589424982447623E-03   -5.2666890394006050E-01
N    2.2054998799946469E-02    1.8668616606803830E+00    6.0370931889540080E-01
Ga    2.1672304955609671E-02    1.8362278190022456E+00    2.6364461224041187E+00
N    1.8543368469609797E-02   -7.7911456693782926E-03    3.2665377546150283E+00
Ga    1.9076701244557584E-02   -7.4960602540753785E-03    5.2574656814004346E+00
N    2.1745921845189260E-02    1.8673246719994323E+00    5.8434716897687702E+00
Ga    2.1959344950602495E-02    1.8645484440304174E+00    7.8419747257829862E+00
N    2.0417389268159863E-02   -8.1552973153191828E-03    8.4428027974906268E+00
Ga    2.2328255372301126E-02   -7.9017572221886639E-03    1.0439068455331034E+01
N    2.1385021342813247E-02    1.8639744679537469E+00    1.1044860160902960E+01
Ga    2.8574401016718480E-02    1.8607467980553034E+00    1.3037878255859718E+01
N    3.6697280827030207E-02   -3.4794382478086357E-03    1.3651655363466871E+01
Ga    6.7236196218436239E-02   -1.6512135783481405E-02    1.5649292065844918E+01
N    3.7757797531979727E-02    1.8588801289813637E+00    1.6260617564822525E+01
Ga    7.8638423468919999E-02    1.8330932989907065E+00    1.8339666249524573E+01
N    6.7040423390437684E-02   -4.8392399228350924E-02    1.8686120476453841E+01
Ga   -1.6012883588258866E+00    2.7990400929827133E+00    3.2167905575733974E-01
N   -1.6020388322221080E+00    4.6685151430333756E+00    6.0500066856883394E-01
Ga   -1.5736439103237634E+00    4.6841633603080162E+00    2.6345584752142055E+00
N   -1.6010345289874506E+00    2.7981140719679440E+00    3.2258039926911795E+00
Ga   -1.6006860652916890E+00    2.7986754811073191E+00    5.2371723578648428E+00
N   -1.6005122467551305E+00    4.6684410711319808E+00    5.8445292248020717E+00
Ga   -1.6003729345633440E+00    4.6678772819842367E+00    7.8431883106367488E+00
N   -1.6009408405066350E+00    2.7966890230075752E+00    8.4456925434163814E+00
Ga   -1.6015188042804653E+00    2.7973755651830561E+00    1.0439953292094229E+01
N   -1.6034562649291901E+00    4.6665594752754398E+00    1.1047850883664534E+01
Ga   -1.6094693310800823E+00    4.6611889919956511E+00    1.3042714041748745E+01
N   -1.5920494895393054E+00    2.7921742739869853E+00    1.3666228743975273E+01
Ga   -1.5803962773366802E+00    2.8004675358016766E+00    1.5673347268358365E+01
N   -1.5834448757610060E+00    4.6691994963331709E+00    1.6276562591077962E+01
Ga   -1.5114159497952084E+00    4.6461258391717850E+00    1.8341618605384909E+01
N   -1.5105282223734704E+00    2.7820725699794715E+00    1.8830090733870904E+01
Ga   -3.2209470626617587E+00    5.6035012754021283E+00    3.2122032786321919E-01
N   -3.2149830159778876E+00    7.4749815470081540E+00    6.0361390493002076E-01
Ga   -3.2417045256707206E+00    7.4888534729711784E+00    2.6363300988453044E+00
N   -3.2207818015873229E+00    5.6034123196741996E+00    3.2263074201434288E+00
Ga   -3.2203475480145971E+00    5.6036630086039745E+00    5.2377277451731317E+00
N   -3.2147231224715891E+00    7.4737178514995062E+00    5.8437417522016641E+00
Ga   -3.2162525108868221E+00    7.4726695375876870E+00    7.8422252720300456E+00
N   -3.2218447399389700E+00    5.6022843147712296E+00    8.4463305396459880E+00
Ga   -3.2235145549862638E+00    5.6007601327492766E+00    1.0441458051889636E+01
N   -3.2159300288571258E+00    7.4712220054909189E+00    1.1048875461386727E+01
Ga   -3.2085487199884728E+00    7.4662068549008138E+00    1.3045664355071233E+01
N   -3.2243992819395442E+00    5.5986194187250540E+00    1.3672275274168499E+01
Ga   -3.2083028121162545E+00    5.5984201038339343E+00    1.5703533350830245E+01
N   -3.1800496071432276E+00    7.4522940886235469E+00    1.6290128801897104E+01
Ga   -3.1698215446547406E+00    7.4080513476934104E+00    1.8352893412709175E+01
N   -3.1454338941898268E+00    5.5521011418643225E+00    1.8885546343056767E+01
Ga    3.2659774580263767E+00   -6.7573846600268266E-03    3.2115662598528555E-01
N    3.2631243825982312E+00    1.8624834801466847E+00    6.0475841454282342E-01
Ga    3.2913646961839533E+00    1.8778483172349851E+00    2.6347076675064716E+00
N    3.2644564117497956E+00   -7.6795078028511852E-03    3.2265338706347713E+00
Ga    3.2654478983997870E+00   -7.6021291485744505E-03    5.2379660471051519E+00
N    3.2654563163811154E+00    1.8626625518495961E+00    5.8438091445171212E+00
Ga    3.2663955986599027E+00    1.8622816624935952E+00    7.8425196351327733E+00
N    3.2635095583878400E+00   -8.3664088086923584E-03    8.4460539928518337E+00
Ga    3.2653902837715503E+00   -9.3722564109463436E-03    1.0441208988462614E+01
N    3.2700116448223566E+00    1.8616942431045023E+00    1.1046690355449631E+01
Ga    3.2782583296105430E+00    1.8540481179097801E+00    1.3043753980522490E+01
N    3.2686599740306068E+00   -1.5429346409568516E-02    1.3652171343771760E+01
Ga    3.2810097446815569E+00   -2.9009408831736378E-02    1.5657216015354280E+01
N    3.3057110825743536E+00    1.8334693419115280E+00    1.6266077894673526E+01
Ga    3.3627337381295330E+00    1.8375803967870543E+00    1.8306101306127569E+01
N    3.3275100594605469E+00   -5.1208394462327257E-02    1.8713818179213547E+01
Ga    1.6453427899422102E+00    2.7993681482595991E+00    3.2146732913357690E-01
N    1.6509788906937399E+00    4.6689824262584656E+00    6.0500392869974651E-01
Ga    1.6225176268129911E+00    4.6840813690186849E+00    2.6346889783846756E+00
N    1.6445996136735490E+00    2.7982170169404750E+00    3.2265656221305981E+00
Ga    1.6453552193038468E+00    2.7988763256927496E+00    5.2383017928277553E+00
N    1.6503092379492026E+00    4.6686584593393770E+00    5.8465658732356935E+00
Ga    1.6494558002022699E+00    4.6681526590431766E+00    7.8468120753181552E+00
N    1.6451563554252870E+00    2.7953515517686585E+00    8.4446612244983168E+00
Ga    1.6468247169855563E+00    2.7945099734975960E+00    1.0439285096451293E+01
N    1.6448809837903760E+00    4.6638206813351450E+00    1.1037965097039013E+01
Ga    1.6450187510270351E+00    4.6586828589430613E+00    1.3031958062498298E+01
N    1.6527012234115985E+00    2.7824393683447792E+00    1.3647405825178685E+01
Ga    1.6772871892395784E+00    2.7674493219296865E+00    1.5644302202506713E+01
N    1.6423530789691907E+00    4.6532699033543956E+00    1.6118547803036702E+01
Ga    1.6962848303042473E+00    4.6141632687095724E+00    1.8100424733388596E+01
N    1.7181843236654113E+00    2.7720132347099593E+00    1.8625740445860302E+01
Ga    2.4767538602803951E-02    5.6053867921776233E+00   -5.5169807495415457E-01
N    2.8246427172127643E-02    7.4788260880099218E+00    6.0554016669868094E-01
Ga    2.7646635936979230E-02    7.4462288186129930E+00    2.6349610246900141E+00
N    2.4749815572413320E-02    5.6032508886069934E+00    3.2680667976493516E+00
Ga    2.5488187279975087E-02    5.6038837338642384E+00    5.2582638348835955E+00
N    2.8295485335124090E-02    7.4780362829818641E+00    5.8461501897934287E+00
Ga    2.8053460144155190E-02    7.4754100435815722E+00    7.8458400982909673E+00
N    2.3354813446946402E-02    5.6016924070510905E+00    8.4451418555105153E+00
Ga    2.2338564414614234E-02    5.6006344682781251E+00    1.0443041074504942E+01
N    2.9274958387271215E-02    7.4745405418447080E+00    1.1039540370259466E+01
Ga    3.1018636658487475E-02    7.4753461188819514E+00    1.3033216104185898E+01
N    1.5970782896998551E-02    5.5967323559515121E+00    1.3610676581967629E+01
Ga    1.2265827142359267E-02    5.5910015141840237E+00    1.5597159966275985E+01
N    4.9310341635665167E-02    7.4473505243295293E+00    1.6203983983762249E+01
Ga    7.7809152340286847E-02    7.4169291905547015E+00    1.8249818343698710E+01
N    1.5774183850908913E-01    5.5656767677323700E+00    1.8819764948038969E+01
Ga    6.5085968793732922E+00   -6.0797428676864010E-03    3.2098618617920699E-01
N    6.5166934869907980E+00    1.8631711452473321E+00    6.0465497959415393E-01
Ga    6.4879901950724488E+00    1.8780670419385170E+00    2.6345419747784717E+00
N    6.5098090034123519E+00   -7.5956332973112790E-03    3.2268683798045794E+00
Ga    6.5102341805218931E+00   -7.4403467146354129E-03    5.2386451768097366E+00
N    6.5154745880953389E+00    1.8632365456084741E+00    5.8439578924148661E+00
Ga    6.5132521058270294E+00    1.8630255668959235E+00    7.8426291983712648E+00
N    6.5100693097211320E+00   -6.6734056410611888E-03    8.4476186397349888E+00
Ga    6.5116691000779534E+00   -4.3455154959903507E-03    1.0444086231813777E+01
N    6.5134346502268690E+00    1.8681473549878231E+00    1.1050887289826365E+01
Ga    6.5143106532640411E+00    1.8698207570547472E+00    1.3048433268960915E+01
N    6.5109006358441235E+00   -1.3306219929542400E-03    1.3631067834784515E+01
Ga    6.5181998955792464E+00   -2.8404837162485305E-03    1.5632646981172226E+01
N    6.5408091610378456E+00    1.8633083718634922E+00    1.6268695037892350E+01
Ga    6.6071453779563729E+00    1.8579005811400215E+00    1.8345304459068306E+01
N    6.5827392522947292E+00   -6.3387183510758449E-02    1.8596135347625822E+01
Ga    4.8905053549059483E+00    2.7987995525087772E+00   -5.4933743013734537E-01
N    4.8934629257337559E+00    4.6738283283147348E+00    6.0476784493315472E-01
Ga    4.8928411209077955E+00    4.6414686540009775E+00    2.6345742943299486E+00
N    4.8899829371212213E+00    2.7979640108168802E+00    3.2665597178702779E+00
Ga    4.8905298271168789E+00    2.7985039060094494E+00    5.2564274283930228E+00
N    4.8930813548450702E+00    4.6727726095449320E+00    5.8447447077719410E+00
Ga    4.8909723462212531E+00    4.6707758356883238E+00    7.8441220923965584E+00
N    4.8899256988691695E+00    2.7974806017772829E+00    8.4445150641612194E+00
Ga    4.8911099704261094E+00    2.7990453717475345E+00    1.0442162955685948E+01
N    4.8946531448807944E+00    4.6672810926791897E+00    1.1052109023236472E+01
Ga    4.8933488385866273E+00    4.6640515076772351E+00    1.3054163068525822E+01
N    4.8903094454783140E+00    2.7937463422039608E+00    1.3665591124057025E+01
Ga    4.9019348388442250E+00    2.7836887107878030E+00    1.5693206401560015E+01
N    4.8704918605705183E+00    4.6747159860183736E+00    1.6139775924941205E+01
Ga    4.9441413391690956E+00    4.6217709825480124E+00    1.9108718401880928E+01
N    4.9750226290313808E+00    2.7425658019090977E+00    1.8830316352447230E+01
Ga    3.2709593894886644E+00    5.6028731534131389E+00    3.2118283754751831E-01
N    3.2704529265633537E+00    7.4744447472440081E+00    6.0321607304721359E-01
Ga    3.2969563189617110E+00    7.4887582896937959E+00    2.6361016053402810E+00
N    3.2702064563466062E+00    5.6035834491933638E+00    3.2267100572906724E+00
Ga    3.2704515575327564E+00    5.6040348838436627E+00    5.2385180464265790E+00
N    3.2712742005131195E+00    7.4739591660977034E+00    5.8461079335167483E+00
Ga    3.2719313850981502E+00    7.4726787941361721E+00    7.8461871988472929E+00
N    3.2705260175363624E+00    5.6029176188376812E+00    8.4515113475972043E+00
Ga    3.2716726065325359E+00    5.6034429953024389E+00    1.0451244097450902E+01
N    3.2771329951626917E+00    7.4806123875583159E+00    1.1042353672321182E+01
Ga    3.2792426128092442E+00    7.4838759790342975E+00    1.3038431581230240E+01
N    3.2607201347294605E+00    5.6086124684736109E+00    1.3599328927952310E+01
Ga    3.2668606391641100E+00    5.6098955434461706E+00    1.5597639711958799E+01
N    3.3062299374854249E+00    7.4904529083776819E+00    1.6135050518320938E+01
Ga    3.3620210405484703E+00    7.4596803649558803E+00    1.8142053861989073E+01
N    3.4208455038435299E+00    5.5179690478034553E+00    1.8340351727657115E+01
O    1.3906796917508963E+00    4.8769116638718346E+00    2.1147353291423840E+01
H    8.6470224706119092E-01    5.3086764573195673E+00    2.0384641272925915E+01
C    6.5655526949499454E-01    3.6840500850566271E+00    2.1501597555414236E+01
H   -9.9547181073329730E-02    3.4316358184997244E+00    2.0729689808977309E+01
H    1.3491539307167164E+00    2.8375544486388327E+00    2.1589434207413902E+01
H    1.4084332607636438E-01    3.8370975352375352E+00    2.2460901629920439E+01
O    4.0722749784196548E+00    4.7354538313715508E+00    2.1032109728081590E+01
H    3.0537703499619564E+00    4.8013103221748157E+00    2.0994913890345948E+01
C    4.4277089397210965E+00    3.7157627229295662E+00    2.2002669924691251E+01
H    4.2421159209667847E+00    2.7099612568987124E+00    2.1600053993552034E+01
H    5.4959695562228372E+00    3.8269978877441275E+00    2.2220483553344369E+01
H    3.8453730872226504E+00    3.8766553354212792E+00    2.2918365870479079E+01
     &END COORD
     &KIND C
       BASIS_SET DZVP-MOLOPT-SR-GTH-q4
       POTENTIAL GTH-PBE-q4
       &POTENTIAL
 2 2
  0.3384712400000000E+00 2 -0.8803673979999999E+01  0.1339210850000000E+01
 2
  0.3025757500000000E+00 1  0.9622486650000001E+01
  0.2915069400000000E+00 0
         # Potential name:  GTH-PBE-Q4  for symbol:  C
         # Potential read from the potential filename: GTH_POTENTIALS
       &END POTENTIAL
     &END KIND
     &KIND O
       BASIS_SET DZVP-MOLOPT-SR-GTH-q6
       POTENTIAL GTH-PBE-q6
       &POTENTIAL
 2 4
  0.2445543000000000E+00 2 -0.1666721480000000E+02  0.2487311320000000E+01
 2
  0.2209559200000000E+00 1  0.1833745811000000E+02
  0.2113324700000000E+00 0
         # Potential name:  GTH-PBE-Q6  for symbol:  O
         # Potential read from the potential filename: GTH_POTENTIALS
       &END POTENTIAL
     &END KIND
     &KIND H
       BASIS_SET DZVP-MOLOPT-SR-GTH-q1
       POTENTIAL GTH-PBE-q1
       &POTENTIAL
 1
  0.2000000000000000E+00 2 -0.4178900440000000E+01  0.7244633100000000E+00
 0
         # Potential name:  GTH-PBE-Q1  for symbol:  H
         # Potential read from the potential filename: GTH_POTENTIALS
       &END POTENTIAL
     &END KIND
     &KIND N
       BASIS_SET DZVP-MOLOPT-SR-GTH-q5
       POTENTIAL GTH-PBE-q5
       &POTENTIAL
 2 3
  0.2837905100000000E+00 2 -0.1241522559000000E+02  0.1868095920000000E+01
 2
  0.2554050000000000E+00 1  0.1363026257000000E+02
  0.2454945300000000E+00 0
         # Potential name:  GTH-PBE-Q5  for symbol:  N
         # Potential read from the potential filename: GTH_POTENTIALS
       &END POTENTIAL
     &END KIND
     &KIND Ga
       BASIS_SET DZVP-MOLOPT-SR-GTH-q13
       POTENTIAL GTH-PBE-q13
       &POTENTIAL
 2 1 10
  0.4900000000000000E+00 0
 3
  0.4167772300000000E+00 3  0.1047568975000000E+02 -0.4921768140000000E+01  0.8707055900000000E+00
  0.7770178090000000E+01 -0.2248152160000000E+01
  0.1784415450000000E+01
  0.5696265200000000E+00 2  0.1777985340000000E+01  0.1958597600000000E+00
 -0.2317443900000000E+00
  0.2381265000000000E+00 1 -0.1624868022000000E+02
         # Potential name:  GTH-PBE-Q13  for symbol:  GA
         # Potential read from the potential filename: GTH_POTENTIALS
       &END POTENTIAL
     &END KIND
     &TOPOLOGY
       COORD_FILE_NAME ../start-first.xyz
       COORD_FILE_FORMAT  XYZ
       NUMBER_OF_ATOMS  156
       MULTIPLE_UNIT_CELL  1 1 1
     &END TOPOLOGY
     &COLVAR
       &DISTANCE
         ATOMS  32 148
       &END DISTANCE
       &PRINT
       &END PRINT
     &END COLVAR
   &END SUBSYS
 &END FORCE_EVAL
