 # Version information for this restart file 
 # current date 2019-05-27 21:54:08.921
 # current working dir /lustre03/project/6004141/rzk/GaN-carbene/334-native/08-2Methanol-Htransfer/02-NH-constraint/2.44
 # Program compiled at                              Sun Apr  7 00:48:11 EDT 2019
 # Program compiled on                          beluga2.int.ets1.calculquebec.ca
 # Program compiled for                        Beluga-Linux-x86-64-intel-openmpi
 # Source code revision number                                         svn:18619
 &GLOBAL
   PRINT_LEVEL  MEDIUM
   PROJECT_NAME TEST
   RUN_TYPE  GEO_OPT
 &END GLOBAL
 &MOTION
   &GEO_OPT
     MAX_ITER  500
     STEP_START_VAL  67
   &END GEO_OPT
   &CONSTRAINT
     &COLLECTIVE
       COLVAR  1
       INTERMOLECULAR  T
       TARGET     4.6109317642409691E+00
       &RESTRAINT
         K     1.0000000000000001E-01
       &END RESTRAINT
     &END COLLECTIVE
     &COLVAR_RESTART
           4.6109317642409691E+00
     &END COLVAR_RESTART
   &END CONSTRAINT
 &END MOTION
 &FORCE_EVAL
   METHOD  QS
   STRESS_TENSOR  ANALYTICAL
   &DFT
     BASIS_SET_FILE_NAME BASIS_MOLOPT
     POTENTIAL_FILE_NAME GTH_POTENTIALS
     &SCF
       MAX_SCF  100
       EPS_SCF     5.0000000000000004E-06
       &OT  T
         PRECONDITIONER  FULL_ALL
       &END OT
       &OUTER_SCF  T
         OPTIMIZER  NONE
         EPS_SCF     5.0000000000000004E-06
         MAX_SCF  4
       &END OUTER_SCF
       &PRINT
         &RESTART  OFF
           BACKUP_COPIES  1
           &EACH
             JUST_ENERGY  0
             QS_SCF  0
             MD  20
           &END EACH
         &END RESTART
       &END PRINT
     &END SCF
     &QS
       EPS_DEFAULT     1.0000000000000000E-14
       ALMO_SCF  F
       METHOD  GPW
     &END QS
     &MGRID
       NGRIDS  5
       CUTOFF     1.2000000000000000E+03
     &END MGRID
     &XC
       DENSITY_CUTOFF     1.0000000000000000E-10
       GRADIENT_CUTOFF     1.0000000000000000E-10
       TAU_CUTOFF     1.0000000000000000E-10
       &XC_FUNCTIONAL  NO_SHORTCUT
         &PBE  T
         &END PBE
       &END XC_FUNCTIONAL
       &VDW_POTENTIAL
         POTENTIAL_TYPE  PAIR_POTENTIAL
         &PAIR_POTENTIAL
           R_CUTOFF     1.0000000000000005E+01
           TYPE  DFTD3
           PARAMETER_FILE_NAME dftd3.dat
           REFERENCE_FUNCTIONAL PBE
           EPS_CN     9.9999999999999995E-07
           CALCULATE_C9_TERM  T
           REFERENCE_C9_TERM  T
           LONG_RANGE_CORRECTION  F
           VERBOSE_OUTPUT  F
         &END PAIR_POTENTIAL
       &END VDW_POTENTIAL
     &END XC
   &END DFT
   &SUBSYS
     &CELL
       A     9.7367653356401487E+00    0.0000000000000000E+00    0.0000000000000000E+00
       B    -4.8591341382960209E+00    8.4162672083210595E+00    0.0000000000000000E+00
       C     0.0000000000000000E+00    0.0000000000000000E+00    3.0744000000000000E+01
       MULTIPLE_UNIT_CELL  1 1 1
       &CELL_REF
         A     9.5580000000000052E+00    0.0000000000000000E+00    0.0000000000000000E+00
         B    -4.7790000000000026E+00    8.2774708093716640E+00    0.0000000000000000E+00
         C     0.0000000000000000E+00    0.0000000000000000E+00    3.0744000000000000E+01
         MULTIPLE_UNIT_CELL  1 1 1
       &END CELL_REF
     &END CELL
     &COORD
Ga    1.9716635040129975E-02   -5.8244764229950490E-03   -5.2499157919294592E-01
N    2.2114681197483187E-02    1.8674038297802702E+00    6.0429004817424881E-01
Ga    2.1719337203317212E-02    1.8367031518906325E+00    2.6370022674476159E+00
N    1.8582823127151111E-02   -7.3225105232261663E-03    3.2670553344481945E+00
Ga    1.9128853538880528E-02   -6.9560163216041372E-03    5.2578837630988193E+00
N    2.1792283248628391E-02    1.8678569715206370E+00    5.8439316418317233E+00
Ga    2.1948782608615262E-02    1.8650416483859487E+00    7.8425144551064587E+00
N    2.0402214241508024E-02   -7.6436791053464239E-03    8.4434184399526107E+00
Ga    2.2243211780231999E-02   -7.4606031533643842E-03    1.0439755186536628E+01
N    2.1321732778524463E-02    1.8643602816352105E+00    1.1045468194801835E+01
Ga    2.8472408698199489E-02    1.8608700268008911E+00    1.3038375906958590E+01
N    3.6464510996304121E-02   -3.3122527244895876E-03    1.3652135040066723E+01
Ga    6.6830918650758367E-02   -1.6379529315727434E-02    1.5649862715061852E+01
N    3.7393967968201741E-02    1.8589395933163497E+00    1.6261080214996763E+01
Ga    7.8313474566639674E-02    1.8331512532202114E+00    1.8340604025883824E+01
N    6.6709193317020646E-02   -4.8637905961858692E-02    1.8686570269837848E+01
Ga   -1.6012399774487720E+00    2.7994737951260604E+00    3.2219997647784160E-01
N   -1.6020374931466532E+00    4.6689061829926173E+00    6.0545772980480184E-01
Ga   -1.5736156518890900E+00    4.6846074930203097E+00    2.6350122490275636E+00
N   -1.6009719931916206E+00    2.7985814138233498E+00    3.2262271226221255E+00
Ga   -1.6006740562086172E+00    2.7991818082945450E+00    5.2375347162180752E+00
N   -1.6004866864171237E+00    4.6689272229397663E+00    5.8450325238463199E+00
Ga   -1.6003688075497837E+00    4.6683327572262217E+00    7.8437599404920482E+00
N   -1.6009516807515483E+00    2.7971345967987453E+00    8.4463350518754083E+00
Ga   -1.6016016113071905E+00    2.7976787918512351E+00    1.0440623354393781E+01
N   -1.6035558662996074E+00    4.6668793162254882E+00    1.1048385591889481E+01
Ga   -1.6096373420456673E+00    4.6613055837577120E+00    1.3043126742318909E+01
N   -1.5922813656039245E+00    2.7922316942152632E+00    1.3666738819251741E+01
Ga   -1.5807687816025342E+00    2.8005321914143284E+00    1.5673803232672805E+01
N   -1.5837231183827616E+00    4.6691404378507357E+00    1.6276979841077758E+01
Ga   -1.5114798008360411E+00    4.6459637952606325E+00    1.8341904351423029E+01
N   -1.5112300108525947E+00    2.7819974249009616E+00    1.8830278495248550E+01
Ga   -3.2208798883890499E+00    5.6039219363367589E+00    3.2175261364095664E-01
N   -3.2148027498035465E+00    7.4753746849209151E+00    6.0418951369759977E-01
Ga   -3.2416529099243583E+00    7.4893401960340045E+00    2.6368665923238601E+00
N   -3.2207455141253374E+00    5.6039060749981475E+00    3.2267059871431774E+00
Ga   -3.2203133611122730E+00    5.6041537180294823E+00    5.2380881521639981E+00
N   -3.2146717895727486E+00    7.4742463309330329E+00    5.8442068652512447E+00
Ga   -3.2162526167206975E+00    7.4731699486060821E+00    7.8427991203923746E+00
N   -3.2218145037750627E+00    5.6027856714819464E+00    8.4469000802303835E+00
Ga   -3.2235379219288709E+00    5.6012539036384732E+00    1.0442115277540463E+01
N   -3.2160534514347514E+00    7.4716616966560592E+00    1.1049468411533727E+01
Ga   -3.2086383090921995E+00    7.4664089956759128E+00    1.3046187117620326E+01
N   -3.2245790166259001E+00    5.5987844925060477E+00    1.3672486795021079E+01
Ga   -3.2087151990719081E+00    5.5983053071444706E+00    1.5703606011748272E+01
N   -3.1802250886717056E+00    7.4522147384013389E+00    1.6290301962617960E+01
Ga   -3.1700325397076590E+00    7.4079084181111519E+00    1.8353057006663160E+01
N   -3.1458652681734618E+00    5.5517436955563717E+00    1.8885730600520478E+01
Ga    3.2660934365005039E+00   -6.3250058871788624E-03    3.2166873988397027E-01
N    3.2630921947675211E+00    1.8628577095296159E+00    6.0515823901982246E-01
Ga    3.2914240356351212E+00    1.8783298265156636E+00    2.6350439298062502E+00
N    3.2644887000855514E+00   -7.2047133562075068E-03    3.2269252349245106E+00
Ga    3.2655069549025701E+00   -7.0307008712807168E-03    5.2382933538300946E+00
N    3.2654934486763731E+00    1.8631936423087283E+00    5.8442982687952565E+00
Ga    3.2663860141240018E+00    1.8627743063739981E+00    7.8430868267598166E+00
N    3.2635079238772589E+00   -7.8718771356061472E-03    8.4467614766291543E+00
Ga    3.2653058222055069E+00   -8.9520360737470796E-03    1.0442007323027608E+01
N    3.2699085730829469E+00    1.8621453423065208E+00    1.1047305548189415E+01
Ga    3.2781988986698285E+00    1.8542982628597520E+00    1.3044319547878176E+01
N    3.2684877468466818E+00   -1.5198680906769490E-02    1.3652631450192347E+01
Ga    3.2808697947399188E+00   -2.8909686231317847E-02    1.5657664813391863E+01
N    3.3055083133317202E+00    1.8333442090735990E+00    1.6266902583964509E+01
Ga    3.3624990726622226E+00    1.8378709760535006E+00    1.8306982901809878E+01
N    3.3272701825469464E+00   -5.1254631633194429E-02    1.8714231098363403E+01
Ga    1.6454093949636257E+00    2.7998035452327730E+00    3.2198248319494149E-01
N    1.6510680503143413E+00    4.6693706621715432E+00    6.0543351967651504E-01
Ga    1.6225731818860354E+00    4.6845372606044666E+00    2.6351272590355213E+00
N    1.6446298660272567E+00    2.7986948240061809E+00    3.2269665830244616E+00
Ga    1.6454223306560232E+00    2.7993865941311675E+00    5.2386385522114702E+00
N    1.6503429330339865E+00    4.6691771844653918E+00    5.8470163566809843E+00
Ga    1.6494263398259257E+00    4.6686607448154405E+00    7.8472888816890114E+00
N    1.6451171563523248E+00    2.7958756764695245E+00    8.4452590261702607E+00
Ga    1.6467261576735552E+00    2.7948620046098571E+00    1.0439933582480270E+01
N    1.6447880849414576E+00    4.6641552055043025E+00    1.1038516627866432E+01
Ga    1.6447863123326709E+00    4.6587633838704559E+00    1.3032438869661970E+01
N    1.6525704408650346E+00    2.7824735751499987E+00    1.3647914828755741E+01
Ga    1.6770330855799558E+00    2.7673190016711606E+00    1.5644815036859713E+01
N    1.6421188933771891E+00    4.6531011737685990E+00    1.6118964599394726E+01
Ga    1.6959127887590617E+00    4.6141834813551119E+00    1.8100906703613170E+01
N    1.7178341713492895E+00    2.7719980943319826E+00    1.8627138169363228E+01
Ga    2.4846320877703134E-02    5.6058081056262639E+00   -5.5107824127873672E-01
N    2.8312449714364727E-02    7.4793004346919041E+00    6.0597424833792490E-01
Ga    2.7697846068962608E-02    7.4467623453308871E+00    2.6353990697477414E+00
N    2.4790927291419379E-02    5.6037499672346165E+00    3.2684600738155662E+00
Ga    2.5498227939991062E-02    5.6044270552750701E+00    5.2586400190296407E+00
N    2.8319866418613934E-02    7.4786020958144954E+00    5.8466279595156037E+00
Ga    2.8035496039635538E-02    7.4759316829629121E+00    7.8463608348805627E+00
N    2.3344600269433167E-02    5.6021999726157192E+00    8.4457607151080332E+00
Ga    2.2239402129158852E-02    5.6010836182641288E+00    1.0443713766244024E+01
N    2.9184380355923897E-02    7.4749318436191423E+00    1.1040280193470956E+01
Ga    3.0899294400497958E-02    7.4754014618273237E+00    1.3033981783244277E+01
N    1.5762010858710485E-02    5.5966833654211845E+00    1.3611127571224642E+01
Ga    1.1990397882145558E-02    5.5910845363234927E+00    1.5597643678211966E+01
N    4.9051456311450185E-02    7.4472658332157353E+00    1.6204128126776158E+01
Ga    7.7477655591469283E-02    7.4169043438154336E+00    1.8249720322164453E+01
N    1.5726009884916076E-01    5.5656743539620290E+00    1.8820065067921380E+01
Ga    6.5086214165887606E+00   -5.6548173686467628E-03    3.2151186072822491E-01
N    6.5168335189967497E+00    1.8635507069331958E+00    6.0506162393948948E-01
Ga    6.4880252883156500E+00    1.8785343182182415E+00    2.6348944655437103E+00
N    6.5098643488030632E+00   -7.1308780574387606E-03    3.2272714828123061E+00
Ga    6.5102342861558773E+00   -6.8655140211289463E-03    5.2389664296370047E+00
N    6.5155029670544655E+00    1.8637647439299880E+00    5.8444124035415932E+00
Ga    6.5132885939196896E+00    1.8635269723838244E+00    7.8431317738453901E+00
N    6.5100597859917286E+00   -6.1592554131150055E-03    8.4482223989222192E+00
Ga    6.5115135161025650E+00   -3.9272591181596468E-03    1.0444733534962138E+01
N    6.5133244781879700E+00    1.8684796721342998E+00    1.1051496387055769E+01
Ga    6.5140752644715878E+00    1.8699979458271647E+00    1.3048974786033170E+01
N    6.5106939321891062E+00   -1.1182002114636590E-03    1.3631619030907526E+01
Ga    6.5174534188927602E+00   -2.8712010599570483E-03    1.5633090677089781E+01
N    6.5403463870324403E+00    1.8633408992431539E+00    1.6269094304305625E+01
Ga    6.6067817138423699E+00    1.8575769230142019E+00    1.8345916612996760E+01
N    6.5820852351866757E+00   -6.3452432873139050E-02    1.8596362852192453E+01
Ga    4.8905806832528667E+00    2.7991611811300392E+00   -5.4932513149044337E-01
N    4.8935019644046438E+00    4.6743541684731769E+00    6.0514695722301637E-01
Ga    4.8928636892324739E+00    4.6419136985832798E+00    2.6349137381324566E+00
N    4.8900286620452897E+00    2.7984349136780358E+00    3.2668934176524491E+00
Ga    4.8905640987554353E+00    2.7990044495539115E+00    5.2567480106470166E+00
N    4.8930971370226191E+00    4.6732788612291758E+00    5.8452244407808287E+00
Ga    4.8909942511858491E+00    4.6712806765699479E+00    7.8446977587368387E+00
N    4.8899578944965247E+00    2.7979359346587209E+00    8.4450680883729081E+00
Ga    4.8910362890576895E+00    2.7993090104430598E+00    1.0442756013441898E+01
N    4.8945590371898398E+00    4.6676274293260560E+00    1.1052584226229206E+01
Ga    4.8932955455371703E+00    4.6641588590936287E+00    1.3054561761761633E+01
N    4.8901433352899630E+00    2.7939358511695405E+00    1.3666287566845973E+01
Ga    4.9013355726957224E+00    2.7835068225604340E+00    1.5693797462295864E+01
N    4.8701289363345639E+00    4.6745188851627857E+00    1.6139945518599944E+01
Ga    4.9440439462085255E+00    4.6212700139535281E+00    1.9110265224653983E+01
N    4.9749185569284649E+00    2.7421804659002689E+00    1.8831906329038713E+01
Ga    3.2709733600448621E+00    5.6032877820984082E+00    3.2167710283116058E-01
N    3.2704098797702796E+00    7.4748286434260942E+00    6.0377480684696416E-01
Ga    3.2969876276033436E+00    7.4892377727761401E+00    2.6366472706581154E+00
N    3.2702283946993158E+00    5.6040799099730698E+00    3.2271023617349210E+00
Ga    3.2704852139840885E+00    5.6045404592523846E+00    5.2388457030861995E+00
N    3.2712959662503507E+00    7.4745040204096291E+00    5.8465322707598562E+00
Ga    3.2719324139766051E+00    7.4732158935479651E+00    7.8466810779819909E+00
N    3.2704802938283790E+00    5.6034528886562489E+00    8.4520659854334834E+00
Ga    3.2715235350427894E+00    5.6039296618712084E+00    1.0451807970099470E+01
N    3.2770073762300753E+00    7.4810732190375369E+00    1.1042890775889184E+01
Ga    3.2790545233765078E+00    7.4842092320392393E+00    1.3038897513254664E+01
N    3.2605194091106462E+00    5.6088293159290608E+00    1.3599598568309638E+01
Ga    3.2664847759366449E+00    5.6097104374951243E+00    1.5597884718738941E+01
N    3.3056070422289952E+00    7.4904651788120082E+00    1.6135630947582889E+01
Ga    3.3614910732149119E+00    7.4594408080780452E+00    1.8142914597117340E+01
N    3.4211058621523516E+00    5.5175065576494600E+00    1.8340627554578933E+01
O    1.3896503852365418E+00    4.8777524655193680E+00    2.1148082643071199E+01
H    8.6391061979199713E-01    5.3093965999754174E+00    2.0385043113255623E+01
C    6.5457456871473785E-01    3.6855620386336398E+00    2.1502408501679120E+01
H   -1.0069578516573878E-01    3.4327450785673213E+00    2.0729899196201554E+01
H    1.3466601048003801E+00    2.8389213700233000E+00    2.1592046183665918E+01
H    1.3762538507864541E-01    3.8395986237054345E+00    2.2460784521141161E+01
O    4.0718197045172060E+00    4.7346712553162176E+00    2.1033905933934744E+01
H    3.0533713135734626E+00    4.8013820042403301E+00    2.0996102102181641E+01
C    4.4255262867951313E+00    3.7132843774856128E+00    2.2003257055245005E+01
H    4.2352529045457166E+00    2.7084354284484951E+00    2.1601171121410552E+01
H    5.4945411363261769E+00    3.8205673161519464E+00    2.2218779488618811E+01
H    3.8460545013864720E+00    3.8763832195993175E+00    2.2920174541747752E+01
     &END COORD
     &KIND C
       BASIS_SET DZVP-MOLOPT-SR-GTH-q4
       POTENTIAL GTH-PBE-q4
       &POTENTIAL
 2 2
  0.3384712400000000E+00 2 -0.8803673979999999E+01  0.1339210850000000E+01
 2
  0.3025757500000000E+00 1  0.9622486650000001E+01
  0.2915069400000000E+00 0
         # Potential name:  GTH-PBE-Q4  for symbol:  C
         # Potential read from the potential filename: GTH_POTENTIALS
       &END POTENTIAL
     &END KIND
     &KIND O
       BASIS_SET DZVP-MOLOPT-SR-GTH-q6
       POTENTIAL GTH-PBE-q6
       &POTENTIAL
 2 4
  0.2445543000000000E+00 2 -0.1666721480000000E+02  0.2487311320000000E+01
 2
  0.2209559200000000E+00 1  0.1833745811000000E+02
  0.2113324700000000E+00 0
         # Potential name:  GTH-PBE-Q6  for symbol:  O
         # Potential read from the potential filename: GTH_POTENTIALS
       &END POTENTIAL
     &END KIND
     &KIND H
       BASIS_SET DZVP-MOLOPT-SR-GTH-q1
       POTENTIAL GTH-PBE-q1
       &POTENTIAL
 1
  0.2000000000000000E+00 2 -0.4178900440000000E+01  0.7244633100000000E+00
 0
         # Potential name:  GTH-PBE-Q1  for symbol:  H
         # Potential read from the potential filename: GTH_POTENTIALS
       &END POTENTIAL
     &END KIND
     &KIND N
       BASIS_SET DZVP-MOLOPT-SR-GTH-q5
       POTENTIAL GTH-PBE-q5
       &POTENTIAL
 2 3
  0.2837905100000000E+00 2 -0.1241522559000000E+02  0.1868095920000000E+01
 2
  0.2554050000000000E+00 1  0.1363026257000000E+02
  0.2454945300000000E+00 0
         # Potential name:  GTH-PBE-Q5  for symbol:  N
         # Potential read from the potential filename: GTH_POTENTIALS
       &END POTENTIAL
     &END KIND
     &KIND Ga
       BASIS_SET DZVP-MOLOPT-SR-GTH-q13
       POTENTIAL GTH-PBE-q13
       &POTENTIAL
 2 1 10
  0.4900000000000000E+00 0
 3
  0.4167772300000000E+00 3  0.1047568975000000E+02 -0.4921768140000000E+01  0.8707055900000000E+00
  0.7770178090000000E+01 -0.2248152160000000E+01
  0.1784415450000000E+01
  0.5696265200000000E+00 2  0.1777985340000000E+01  0.1958597600000000E+00
 -0.2317443900000000E+00
  0.2381265000000000E+00 1 -0.1624868022000000E+02
         # Potential name:  GTH-PBE-Q13  for symbol:  GA
         # Potential read from the potential filename: GTH_POTENTIALS
       &END POTENTIAL
     &END KIND
     &TOPOLOGY
       COORD_FILE_NAME ../start-first.xyz
       COORD_FILE_FORMAT  XYZ
       NUMBER_OF_ATOMS  156
       MULTIPLE_UNIT_CELL  1 1 1
     &END TOPOLOGY
     &COLVAR
       &DISTANCE
         ATOMS  32 148
       &END DISTANCE
       &PRINT
       &END PRINT
     &END COLVAR
   &END SUBSYS
 &END FORCE_EVAL
