 # Version information for this restart file 
 # current date 2019-06-29 07:13:35.157
 # current working dir /scratch/rzk/rzk/GaN-carbene/443-adatoms-both-2x2/06-CH3O-HO-H-H3C/01-UseUnoptimized-0501
 # Program compiled at                              Sun Apr  7 00:48:11 EDT 2019
 # Program compiled on                          beluga2.int.ets1.calculquebec.ca
 # Program compiled for                        Beluga-Linux-x86-64-intel-openmpi
 # Source code revision number                                         svn:18619
 &GLOBAL
   PRINT_LEVEL  MEDIUM
   PROJECT_NAME TEST
   RUN_TYPE  GEO_OPT
 &END GLOBAL
 &MOTION
   &GEO_OPT
     MAX_ITER  500
     STEP_START_VAL  120
   &END GEO_OPT
 &END MOTION
 &FORCE_EVAL
   METHOD  QS
   STRESS_TENSOR  ANALYTICAL
   &DFT
     BASIS_SET_FILE_NAME BASIS_MOLOPT
     POTENTIAL_FILE_NAME GTH_POTENTIALS
     UKS  T
     SURFACE_DIPOLE_CORRECTION  T
     SURF_DIP_DIR  Z
     &SCF
       MAX_SCF  80
       EPS_SCF     5.0000000000000004E-06
       &OT  T
         PRECONDITIONER  FULL_ALL
       &END OT
       &OUTER_SCF  T
         OPTIMIZER  NONE
         EPS_SCF     5.0000000000000004E-06
         MAX_SCF  4
       &END OUTER_SCF
       &PRINT
         &RESTART  OFF
           BACKUP_COPIES  1
           &EACH
             JUST_ENERGY  0
             QS_SCF  0
             MD  20
           &END EACH
         &END RESTART
       &END PRINT
     &END SCF
     &QS
       EPS_DEFAULT     1.0000000000000000E-14
       METHOD  GPW
     &END QS
     &MGRID
       NGRIDS  5
       CUTOFF     1.2000000000000000E+03
     &END MGRID
     &XC
       DENSITY_CUTOFF     1.0000000000000000E-10
       GRADIENT_CUTOFF     1.0000000000000000E-10
       TAU_CUTOFF     1.0000000000000000E-10
       &XC_FUNCTIONAL  NO_SHORTCUT
         &PBE  T
         &END PBE
       &END XC_FUNCTIONAL
       &VDW_POTENTIAL
         POTENTIAL_TYPE  PAIR_POTENTIAL
         &PAIR_POTENTIAL
           R_CUTOFF     1.0000000000000004E+01
           TYPE  DFTD3
           PARAMETER_FILE_NAME dftd3.dat
           REFERENCE_FUNCTIONAL PBE
           EPS_CN     9.9999999999999995E-07
           CALCULATE_C9_TERM  T
           REFERENCE_C9_TERM  T
           LONG_RANGE_CORRECTION  F
           VERBOSE_OUTPUT  F
         &END PAIR_POTENTIAL
       &END VDW_POTENTIAL
     &END XC
   &END DFT
   &SUBSYS
     &CELL
       A     1.2864472766435110E+01    0.0000000000000000E+00    0.0000000000000000E+00
       B    -6.4322363581020028E+00    1.1140960178524473E+01    0.0000000000000000E+00
       C     0.0000000000000000E+00    0.0000000000000000E+00    3.2000000000000000E+01
       MULTIPLE_UNIT_CELL  1 1 1
       &CELL_REF
         A     1.2982353780853531E+01    0.0000000000000000E+00    0.0000000000000000E+00
         B    -6.4911768904267628E+00    1.1243048175136114E+01    0.0000000000000000E+00
         C     0.0000000000000000E+00    0.0000000000000000E+00    3.2000000000000000E+01
         MULTIPLE_UNIT_CELL  1 1 1
       &END CELL_REF
     &END CELL
     &COORD
N   -2.4253047199462663E-03    2.0421382108133779E+00    2.4673480080350654E+00
Ga    2.1821755377106618E-02    9.9734596124938124E-02    2.8103708530493807E+00
N   -2.5472621681582931E-03    5.2723535348074425E-02    4.9781949548568027E+00
Ga    8.4537352938836331E-03    1.8935501725510999E+00    5.7393188722082273E+00
N    2.2886072058375135E-03    1.8964371854399162E+00    7.7476051159557127E+00
Ga    2.9355275231307135E-03    5.5588854330613238E-02    8.3943098220247041E+00
N    7.4836205863967095E-04    5.2813533934096248E-02    1.0371850996537763E+01
Ga   -1.5072463843746899E-04    1.8915768554048800E+00    1.1027686490840852E+01
N   -7.8689989705653905E-04    1.8729217266342510E+00    1.3023142555089526E+01
Ga    7.4828565262243418E-04    5.4224421957755745E-02    1.3836462661516249E+01
N    3.2622897078900617E-04    5.3936704671922069E-02    1.6027403884158812E+01
Ga    3.6534674587804174E-04    2.1022393915094781E+00    1.6451745757091661E+01
Ga   -3.4687402884461482E-02    3.7151681009559940E+00    1.2458757607741473E+00
N   -1.4829117955569873E+00    4.6285954722309288E+00    2.4498164624829859E+00
Ga   -1.6682766319327651E+00    2.7960085696507448E+00    3.2196263156464733E+00
N   -1.6108813024018209E+00    2.8377164851144450E+00    5.2052466564236148E+00
Ga   -1.6245458086014075E+00    4.7044669345884502E+00    5.7498680027847611E+00
N   -1.6159789487522942E+00    4.7034744159774400E+00    7.7504670555102049E+00
Ga   -1.5933211900669011E+00    2.8429865649763846E+00    8.3855384840123737E+00
N   -1.5959671773519390E+00    2.8444379461328029E+00    1.0384033543982907E+01
Ga   -1.6231708282214667E+00    4.7020237734104446E+00    1.1025399060094742E+01
N   -1.6391338856746955E+00    4.7131905648333667E+00    1.3018626920962298E+01
Ga   -1.5970122436252556E+00    2.8454324341287749E+00    1.3579582167544725E+01
N   -1.6311943833598288E+00    2.8338047905423434E+00    1.5539508493799675E+01
Ga   -1.4284751837464393E+00    4.5953040856291407E+00    1.6452593245270211E+01
N    1.5127305207709204E-04    3.7582061272832719E+00    1.7595112073062868E+01
N   -3.2190946113589716E+00    7.5821896035334539E+00    2.4568432774299733E+00
Ga   -3.1781306135905738E+00    5.6058445612219208E+00    2.8125587562607182E+00
N   -3.2143173698992538E+00    5.6171284669939441E+00    4.9803179344541020E+00
Ga   -3.2148525946987405E+00    7.4400638326801554E+00    5.7496248814368096E+00
N   -3.2160696850942574E+00    7.4714953619651050E+00    7.7433576108276965E+00
Ga   -3.2133710237854696E+00    5.6229212806145084E+00    8.3952096710918500E+00
N   -3.2156096157672645E+00    5.6243848772364284E+00    1.0371673750963726E+01
Ga   -3.2150143000794738E+00    7.4642943778951949E+00    1.1022749195485821E+01
N   -3.2150871803889429E+00    7.4458843583397165E+00    1.3015784543629385E+01
Ga   -3.2059814145803358E+00    5.6297534104550921E+00    1.3817746272857987E+01
N   -3.2053531585804471E+00    5.6317921601865404E+00    1.6025575499722926E+01
Ga   -3.2139497604840574E+00    7.6877595523352156E+00    1.6453755013393369E+01
Ga   -3.2178260471329585E+00    9.3921144692397061E+00    1.2104405883876284E+00
N   -4.7311630662726021E+00    1.0202583760377612E+01    2.4627827725493598E+00
Ga   -4.8287853342990221E+00    8.4021349945540553E+00    3.2429376679374080E+00
N   -4.8380443879249260E+00    8.3966549500136303E+00    5.1879243776380957E+00
Ga   -4.8492716452579918E+00    1.0286810656191752E+01    5.7429509536355692E+00
N   -4.8326116580687346E+00    1.0267307301582200E+01    7.7423889350207187E+00
Ga   -4.8117827354317173E+00    8.4171888940205584E+00    8.3934583310333952E+00
N   -4.8122039894501674E+00    8.4160046836653901E+00    1.0385779080902610E+01
Ga   -4.8382150911949999E+00    1.0276464062987142E+01    1.1024512486013908E+01
N   -4.8555638612871554E+00    1.0284951913131810E+01    1.3020069677607170E+01
Ga   -4.8098019291868068E+00    8.4173008119359825E+00    1.3580853892114106E+01
N   -4.8393137373457762E+00    8.3935617342915858E+00    1.5539972541532237E+01
Ga   -4.6592667975923714E+00    1.0172209690641283E+01    1.6452434550987203E+01
N   -3.2246853169052705E+00    9.3444010088247715E+00    1.7596699615084528E+01
N    3.2027369502645344E+00    1.9153525418829136E+00    2.5655084196627755E+00
Ga    3.2089395973437829E+00    1.5351763581696182E-01    3.2015145177379076E+00
N    3.2168099092289575E+00    5.1851781284315251E-02    5.1869177656981451E+00
Ga    3.2080745379811266E+00    1.9193006529184040E+00    5.8020370545775686E+00
N    3.2177294221273134E+00    1.9114622541520867E+00    7.7912840619921875E+00
Ga    3.2164834865581580E+00    4.5889655477711649E-02    8.3790616733969561E+00
N    3.2160409101927510E+00    4.0042077132336387E-02    1.0378883558494795E+01
Ga    3.2153296333290791E+00    1.9061957748986056E+00    1.0984951504773267E+01
N    3.2182284166696911E+00    1.9099553239146352E+00    1.2959238971975894E+01
Ga    3.2169987184731075E+00    3.9420815340553722E-02    1.3579670852632260E+01
N    3.2229520572354460E+00    7.5715484556773544E-02    1.5538879708957525E+01
Ga    3.2142488710808053E+00    1.9098343520490106E+00    1.5817114777296464E+01
N    1.4653089099153620E+00    4.6174684319870636E+00    2.3293202229751984E+00
Ga    1.6825541538836630E+00    2.8299168800661554E+00    3.1940402206912020E+00
N    1.6084875532036913E+00    2.8515459709858817E+00    5.1855699061772551E+00
Ga    1.6554862620457920E+00    4.7123768978929279E+00    5.7830381136843911E+00
N    1.6009964035387061E+00    4.6921036130650506E+00    7.7929949104537606E+00
Ga    1.5979000444377038E+00    2.8380208153412649E+00    8.3981929228080059E+00
N    1.5981787194048123E+00    2.8389182864427078E+00    1.0395256319907791E+01
Ga    1.6239726752444943E+00    4.7027208880953841E+00    1.1020607327281954E+01
N    1.6382442915288913E+00    4.7135800652660453E+00    1.3017137062701934E+01
Ga    1.5960561738230932E+00    2.8465301946699371E+00    1.3578227693285713E+01
N    1.6305351148432701E+00    2.8339711814509680E+00    1.5538698972685227E+01
Ga    1.4291288748013791E+00    4.5953954386408817E+00    1.6452019833630743E+01
N   -2.4426226204768598E-03    7.4651576965304640E+00    2.6320272880587656E+00
Ga    4.0796718778943794E-02    5.5957536744442891E+00    3.2448365515800277E+00
N    1.0188935233213434E-02    5.6307584224338791E+00    5.1904180390608303E+00
Ga    3.0126048610264926E-03    7.4665905993716377E+00    5.8415372099701965E+00
N    2.8164165824055721E-03    7.4796987996779727E+00    7.8065350166334992E+00
Ga   -2.2499433480646651E-03    5.6086434496262214E+00    8.4083146428784481E+00
N   -3.7154602287622070E-03    5.6143507695590964E+00    1.0398486024430495E+01
Ga   -3.0715006976425405E-03    7.4817575535978298E+00    1.0988732500130482E+01
N   -1.3917120304237644E-03    7.4820312261922926E+00    1.2957527082610415E+01
Ga    4.5834670332614265E-04    5.6113901376114717E+00    1.3577474712734650E+01
N   -2.8532276810440952E-04    5.6444839955769828E+00    1.5536301872111292E+01
Ga   -2.2750077632633365E-04    7.4817562858354449E+00    1.5813689680044414E+01
N   -1.7038343606713249E+00    1.0204070075836665E+01    2.4681640804324041E+00
Ga   -1.6119493439729016E+00    8.3996636849926709E+00    3.2424277019666543E+00
N   -1.5946280450381316E+00    8.3980100363333108E+00    5.1890395637225151E+00
Ga   -1.5863130764682218E+00    1.0283620580584907E+01    5.7438096421482951E+00
N   -1.5974432996636003E+00    1.0268516430824295E+01    7.7416508400353559E+00
Ga   -1.6169647147982242E+00    8.4155869982849314E+00    8.3892359016744713E+00
N   -1.6193407091763206E+00    8.4155735888929915E+00    1.0381920364296313E+01
Ga   -1.5949243046605637E+00    1.0274703109585246E+01    1.1019765405010219E+01
N   -1.5774936930236372E+00    1.0283299141432899E+01    1.3014118006047333E+01
Ga   -1.6190998358888966E+00    8.4163807814781499E+00    1.3578952140677334E+01
N   -1.5918698092359995E+00    8.4006033001092302E+00    1.5536647651731291E+01
Ga   -1.7850233240369260E+00    1.0162400336686634E+01    1.6452807937548950E+01
N    6.4310843929163015E+00    2.0316060092595936E+00    2.4935691282278420E+00
Ga    6.4125556615549986E+00    5.4069042789475767E-02    2.8311620815201688E+00
N    6.4376713744566008E+00    5.4014328557371219E-02    4.9768730416869138E+00
Ga    6.4249516286117183E+00    1.8891601822321082E+00    5.7500657590202406E+00
N    6.4317228780184443E+00    1.8968419205745639E+00    7.7493574138412891E+00
Ga    6.4314137624742793E+00    5.3144629979072912E-02    8.3944660387070300E+00
N    6.4328070595945555E+00    5.2857971329100091E-02    1.0371106195811084E+01
Ga    6.4335974058431713E+00    1.8910884993010100E+00    1.1024106577619561E+01
N    6.4336782459147681E+00    1.8715776684758580E+00    1.3024741657197128E+01
Ga    6.4319008359879337E+00    4.2744500963464709E-02    1.3816787515022714E+01
N    6.4314499060837562E+00    4.1116576782299803E-02    1.6024351916520214E+01
Ga    6.4319084689205717E+00    2.0427204526518397E+00    1.6388762899832638E+01
Ga    6.4488453621429151E+00    3.7186031003971887E+00    1.4469094935550122E+00
N    4.9316982805859775E+00    4.6377885326995978E+00    2.3522913054549597E+00
Ga    4.6883552455430975E+00    2.8215663005462650E+00    3.2287886603033922E+00
N    4.8278030559694036E+00    2.8526408990461412E+00    5.1925779630947764E+00
Ga    4.7765564811437331E+00    4.7163369940034245E+00    5.7954695590265999E+00
N    4.8369009102424236E+00    4.6914797279175966E+00    7.7968031369420387E+00
Ga    4.8338207958262123E+00    2.8365874812296883E+00    8.4017429613068551E+00
N    4.8353349930299272E+00    2.8396757118356417E+00    1.0397762148056994E+01
Ga    4.8068563014504493E+00    4.7038996604858028E+00    1.1021682180339587E+01
N    4.7911916754859867E+00    4.7148265581882933E+00    1.3024644599790195E+01
Ga    4.8351458628095481E+00    2.8450644021475449E+00    1.3568276852156332E+01
N    4.8180055737915328E+00    2.8356277319894607E+00    1.5547182072068766E+01
Ga    4.9372339428088532E+00    4.6308534656972844E+00    1.6388581116128691E+01
N    6.4313048470179695E+00    3.7676954805140030E+00    1.7510424475532055E+01
N    3.2182389400491322E+00    7.6034919730947514E+00    2.3591257151335596E+00
N    3.2211201572617201E+00    5.6283286269642891E+00    5.1997284085815165E+00
Ga    3.2188130061130007E+00    7.4216608937461688E+00    5.8055951510155834E+00
N    3.2185544606655654E+00    7.4950058160453938E+00    7.7984478091466034E+00
Ga    3.2158891694543703E+00    5.6220207131496922E+00    8.3880578324826391E+00
N    3.2170380676152592E+00    5.6246532338248656E+00    1.0376096053239309E+01
Ga    3.2161822258246779E+00    7.4623368103893464E+00    1.1024274432694600E+01
N    3.2157014461260371E+00    7.4461877825040101E+00    1.3018678690753903E+01
Ga    3.2063861998101495E+00    5.6291519915674746E+00    1.3815174743766864E+01
N    3.2046743657271781E+00    5.6311251429377132E+00    1.6025919835073683E+01
Ga    3.2140738093539056E+00    7.6875016743686508E+00    1.6453385619646216E+01
Ga    3.2154846947062983E+00    9.3821700122859948E+00    1.4367193701365015E+00
N    1.7099682566082697E+00    1.0190212412370371E+01    2.4820069566426306E+00
Ga    1.6032688149625569E+00    8.3407372884333935E+00    3.2715624684223710E+00
N    1.6093544062135900E+00    8.3971217673047978E+00    5.1975669649635083E+00
Ga    1.5823996970295076E+00    1.0279207044255131E+01    5.7569600180219966E+00
N    1.5976981087683091E+00    1.0269050653718004E+01    7.7493416742309185E+00
Ga    1.6155847504614236E+00    8.4199565161316396E+00    8.4118779874786167E+00
N    1.6147095772394116E+00    8.4178544029247231E+00    1.0399078742566534E+01
Ga    1.5939254032904144E+00    1.0276625994940197E+01    1.1026828601222636E+01
N    1.5779454584302093E+00    1.0284615219982312E+01    1.3018922660802779E+01
Ga    1.6188694065564162E+00    8.4155651531902844E+00    1.3578612711744221E+01
N    1.5910994065701263E+00    8.4003374494006771E+00    1.5536923873253643E+01
Ga    1.7854409566459346E+00    1.0161891986969779E+01    1.6453083139399002E+01
N    3.2237826992558438E+00    9.3434687818589737E+00    1.7598778066149812E+01
N    9.6571252458432415E+00    1.9141247834009361E+00    2.5775483528767786E+00
Ga    9.6567273721340818E+00    1.7736826896436958E-01    3.2508453398177752E+00
N    9.6501661228904716E+00    4.6868138175236447E-02    5.2090514625231066E+00
Ga    9.6572526540817609E+00    1.9139480175488066E+00    5.8279916189107999E+00
N    9.6485588384343650E+00    1.9086881101819821E+00    7.8041054635119380E+00
Ga    9.6500741315943799E+00    4.1156407460187706E-02    8.3896897254115981E+00
N    9.6498072537102537E+00    3.9649928422155235E-02    1.0384888770877129E+01
Ga    9.6499967429989582E+00    1.9103931813376900E+00    1.0977268566020051E+01
N    9.6466010591384208E+00    1.9117642289873673E+00    1.2952958293867116E+01
Ga    9.6482856676498301E+00    4.1905491434449257E-02    1.3580622886690438E+01
N    9.6417635075841730E+00    7.6899117808400030E-02    1.5539634115534096E+01
Ga    9.6501525469114480E+00    1.9098819520205845E+00    1.5821628215039484E+01
N    7.9225449557545193E+00    4.6374798677051388E+00    2.4764941625036330E+00
Ga    8.1487528602768915E+00    2.7803199369499088E+00    3.2533006137977019E+00
N    8.0415485921542196E+00    2.8394592740511193E+00    5.2125336636465311E+00
Ga    8.0678038700616721E+00    4.7114418401663318E+00    5.7541916383171730E+00
N    8.0490859778930162E+00    4.7041829917315843E+00    7.7499240056353376E+00
Ga    8.0298545453600045E+00    2.8431308525602148E+00    8.3872640963714282E+00
N    8.0291556724800479E+00    2.8457818828506922E+00    1.0385382329501912E+01
Ga    8.0597522350560542E+00    4.7033336206408203E+00    1.1027139431752346E+01
N    8.0754893627833475E+00    4.7144097955055990E+00    1.3026370569243669E+01
Ga    8.0312028834172704E+00    2.8442911100387080E+00    1.3570046939978431E+01
N    8.0470602885895630E+00    2.8356466857149356E+00    1.5547990258646912E+01
Ga    7.9258506656687091E+00    4.6304757145673339E+00    1.6389518668324456E+01
N    6.4336714411967320E+00    7.4781507318603326E+00    2.5481231454008735E+00
Ga    6.3832376723346425E+00    5.6563891285850474E+00    3.2619707105400062E+00
N    6.4255618062692088E+00    5.6349023542582604E+00    5.1906244256380214E+00
Ga    6.4311627264248141E+00    7.4771761813826672E+00    5.8496306693636173E+00
N    6.4314054144667194E+00    7.4792301721257513E+00    7.8107718195027536E+00
Ga    6.4381580888552525E+00    5.6094843428559207E+00    8.4143397959021176E+00
N    6.4377204047862575E+00    5.6140487311286771E+00    1.0404110771528229E+01
Ga    6.4365625116565077E+00    7.4830715314348151E+00    1.0992359850141641E+01
N    6.4341278648077891E+00    7.4797330648676308E+00    1.2963647339710857E+01
Ga    6.4325417061067771E+00    5.6103351832316539E+00    1.3569643098628626E+01
N    6.4325397287369199E+00    5.6320790415002246E+00    1.5547946267080418E+01
Ga    6.4323134230065246E+00    7.4838991754829447E+00    1.5816955280670426E+01
N    4.7232401898545016E+00    1.0191992738192004E+01    2.4727729742040814E+00
Ga    4.8408206347092282E+00    8.3495235045137743E+00    3.2651931633618827E+00
N    4.8292540029418953E+00    8.3973194168469529E+00    5.1921982257424695E+00
Ga    4.8582733761557924E+00    1.0282660003350630E+01    5.7559639299471117E+00
N    4.8367133041925880E+00    1.0268006608705150E+01    7.7497658245066088E+00
Ga    4.8176392489781756E+00    8.4219613071814479E+00    8.4159127763189723E+00
N    4.8194718702519168E+00    8.4185440429686142E+00    1.0403092487870195E+01
Ga    4.8417379600901373E+00    1.0278671540707400E+01    1.1032098241723135E+01
N    4.8565279665987351E+00    1.0286381473766836E+01    1.3025061153093858E+01
Ga    4.8110264274476577E+00    8.4168387196193457E+00    1.3580284475746131E+01
N    4.8400550875746280E+00    8.3934224009123710E+00    1.5539732323070064E+01
Ga    4.6581722628050066E+00    1.0170940294290203E+01    1.6453015363678563E+01
O    5.3932855317299772E-02    3.6854094439290597E+00   -5.7262542281979401E-01
H    7.1964587586139462E-03    7.4605158228087811E+00    1.6052127240600991E+00
C    6.0488788345600664E-01    2.4848205873855673E+00   -1.1412609191065826E+00
H    1.6122765177397291E+00    2.2570917179532808E+00   -7.5429593833102326E-01
H   -3.7202036551833267E-02    1.6081496487222176E+00   -9.5894139166720882E-01
H    6.7732759616780269E-01    2.6396623722655397E+00   -2.2275019067359065E+00
Ga    3.1570992052401716E+00    5.5703636864362123E+00    1.8147007545969318E+00
O    3.2630229566035491E+00    5.7376660457026869E+00   -2.7498144310170419E-02
H    2.5404936896762811E+00    5.2319714838873930E+00   -4.3754003179810697E-01
C    6.4378138162414400E+00    7.4816720454655030E+00    1.0523530973112791E+00
H    6.4514247530740496E+00    8.5121013180818306E+00    6.7052839587017965E-01
H    7.3319739309853533E+00    6.9704033512826653E+00    6.7056079048887196E-01
H    5.5529731718035116E+00    6.9751827575910736E+00    6.3958838499590920E-01
     &END COORD
     &KIND C
       BASIS_SET DZVP-MOLOPT-SR-GTH-q4
       POTENTIAL GTH-PBE-q4
       &POTENTIAL
 2 2
  0.3384712400000000E+00 2 -0.8803673979999999E+01  0.1339210850000000E+01
 2
  0.3025757500000000E+00 1  0.9622486650000001E+01
  0.2915069400000000E+00 0
         # Potential name:  GTH-PBE-Q4  for symbol:  C
         # Potential read from the potential filename: GTH_POTENTIALS
       &END POTENTIAL
     &END KIND
     &KIND O
       BASIS_SET DZVP-MOLOPT-SR-GTH-q6
       POTENTIAL GTH-PBE-q6
       &POTENTIAL
 2 4
  0.2445543000000000E+00 2 -0.1666721480000000E+02  0.2487311320000000E+01
 2
  0.2209559200000000E+00 1  0.1833745811000000E+02
  0.2113324700000000E+00 0
         # Potential name:  GTH-PBE-Q6  for symbol:  O
         # Potential read from the potential filename: GTH_POTENTIALS
       &END POTENTIAL
     &END KIND
     &KIND H
       BASIS_SET DZVP-MOLOPT-SR-GTH-q1
       POTENTIAL GTH-PBE-q1
       &POTENTIAL
 1
  0.2000000000000000E+00 2 -0.4178900440000000E+01  0.7244633100000000E+00
 0
         # Potential name:  GTH-PBE-Q1  for symbol:  H
         # Potential read from the potential filename: GTH_POTENTIALS
       &END POTENTIAL
     &END KIND
     &KIND N
       BASIS_SET DZVP-MOLOPT-SR-GTH
       POTENTIAL GTH-PBE-q5
       &POTENTIAL
 2 3
  0.2837905100000000E+00 2 -0.1241522559000000E+02  0.1868095920000000E+01
 2
  0.2554050000000000E+00 1  0.1363026257000000E+02
  0.2454945300000000E+00 0
         # Potential name:  GTH-PBE-Q5  for symbol:  N
         # Potential read from the potential filename: GTH_POTENTIALS
       &END POTENTIAL
     &END KIND
     &KIND Ga
       BASIS_SET DZVP-MOLOPT-SR-GTH
       POTENTIAL GTH-PBE-q13
       &POTENTIAL
 2 1 10
  0.4900000000000000E+00 0
 3
  0.4167772300000000E+00 3  0.1047568975000000E+02 -0.4921768140000000E+01  0.8707055900000000E+00
  0.7770178090000000E+01 -0.2248152160000000E+01
  0.1784415450000000E+01
  0.5696265200000000E+00 2  0.1777985340000000E+01  0.1958597600000000E+00
 -0.2317443900000000E+00
  0.2381265000000000E+00 1 -0.1624868022000000E+02
         # Potential name:  GTH-PBE-Q13  for symbol:  GA
         # Potential read from the potential filename: GTH_POTENTIALS
       &END POTENTIAL
     &END KIND
     &TOPOLOGY
       NUMBER_OF_ATOMS  212
       MULTIPLE_UNIT_CELL  1 1 1
     &END TOPOLOGY
   &END SUBSYS
 &END FORCE_EVAL
