 # Version information for this restart file 
 # current date 2019-06-29 09:19:16.033
 # current working dir /scratch/rzk/rzk/GaN-carbene/443-adatoms-both-2x2/06-CH3O-HO-H-H3C/01-UseUnoptimized-0501
 # Program compiled at                              Sun Apr  7 00:48:11 EDT 2019
 # Program compiled on                          beluga2.int.ets1.calculquebec.ca
 # Program compiled for                        Beluga-Linux-x86-64-intel-openmpi
 # Source code revision number                                         svn:18619
 &GLOBAL
   PRINT_LEVEL  MEDIUM
   PROJECT_NAME TEST
   RUN_TYPE  GEO_OPT
 &END GLOBAL
 &MOTION
   &GEO_OPT
     MAX_ITER  500
     STEP_START_VAL  158
   &END GEO_OPT
 &END MOTION
 &FORCE_EVAL
   METHOD  QS
   STRESS_TENSOR  ANALYTICAL
   &DFT
     BASIS_SET_FILE_NAME BASIS_MOLOPT
     POTENTIAL_FILE_NAME GTH_POTENTIALS
     UKS  T
     SURFACE_DIPOLE_CORRECTION  T
     SURF_DIP_DIR  Z
     &SCF
       MAX_SCF  80
       EPS_SCF     5.0000000000000004E-06
       &OT  T
         PRECONDITIONER  FULL_ALL
       &END OT
       &OUTER_SCF  T
         OPTIMIZER  NONE
         EPS_SCF     5.0000000000000004E-06
         MAX_SCF  4
       &END OUTER_SCF
       &PRINT
         &RESTART  OFF
           BACKUP_COPIES  1
           &EACH
             JUST_ENERGY  0
             QS_SCF  0
             MD  20
           &END EACH
         &END RESTART
       &END PRINT
     &END SCF
     &QS
       EPS_DEFAULT     1.0000000000000000E-14
       METHOD  GPW
     &END QS
     &MGRID
       NGRIDS  5
       CUTOFF     1.2000000000000000E+03
     &END MGRID
     &XC
       DENSITY_CUTOFF     1.0000000000000000E-10
       GRADIENT_CUTOFF     1.0000000000000000E-10
       TAU_CUTOFF     1.0000000000000000E-10
       &XC_FUNCTIONAL  NO_SHORTCUT
         &PBE  T
         &END PBE
       &END XC_FUNCTIONAL
       &VDW_POTENTIAL
         POTENTIAL_TYPE  PAIR_POTENTIAL
         &PAIR_POTENTIAL
           R_CUTOFF     1.0000000000000004E+01
           TYPE  DFTD3
           PARAMETER_FILE_NAME dftd3.dat
           REFERENCE_FUNCTIONAL PBE
           EPS_CN     9.9999999999999995E-07
           CALCULATE_C9_TERM  T
           REFERENCE_C9_TERM  T
           LONG_RANGE_CORRECTION  F
           VERBOSE_OUTPUT  F
         &END PAIR_POTENTIAL
       &END VDW_POTENTIAL
     &END XC
   &END DFT
   &SUBSYS
     &CELL
       A     1.2864472766435110E+01    0.0000000000000000E+00    0.0000000000000000E+00
       B    -6.4322363581020028E+00    1.1140960178524473E+01    0.0000000000000000E+00
       C     0.0000000000000000E+00    0.0000000000000000E+00    3.2000000000000000E+01
       MULTIPLE_UNIT_CELL  1 1 1
       &CELL_REF
         A     1.2982353780853531E+01    0.0000000000000000E+00    0.0000000000000000E+00
         B    -6.4911768904267628E+00    1.1243048175136114E+01    0.0000000000000000E+00
         C     0.0000000000000000E+00    0.0000000000000000E+00    3.2000000000000000E+01
         MULTIPLE_UNIT_CELL  1 1 1
       &END CELL_REF
     &END CELL
     &COORD
N   -1.5237970059902603E-03    2.0415601570968209E+00    2.4736576456293657E+00
Ga    2.2423401544900912E-02    9.9318938257728334E-02    2.8160601399789607E+00
N   -2.0596412113799583E-03    5.1757613914936322E-02    4.9846599101185456E+00
Ga    9.0622826309472004E-03    1.8923654860667094E+00    5.7465888717256135E+00
N    2.5541124925644713E-03    1.8951106741145189E+00    7.7548638601458508E+00
Ga    2.9853297224264664E-03    5.4156289485028999E-02    8.4013466220944242E+00
N    9.9059992056642950E-04    5.0959326464052240E-02    1.0378745676366334E+01
Ga    1.9658715281950414E-04    1.8895734714881722E+00    1.1034297098150322E+01
N   -6.7382349130417924E-04    1.8704471929289761E+00    1.3029881552413681E+01
Ga    9.9237103964848450E-04    5.2307945405138626E-02    1.3845547881374078E+01
N    4.2860057957140244E-04    5.1744373355271003E-02    1.6035992348858287E+01
Ga    6.1627814487664188E-04    2.1003377062479736E+00    1.6459894292857371E+01
Ga   -3.4088423007430410E-02    3.7135547663164226E+00    1.2516545893549529E+00
N   -1.4819449998586351E+00    4.6272587956206204E+00    2.4565611332028303E+00
Ga   -1.6675560321348666E+00    2.7948624009860148E+00    3.2269259817293627E+00
N   -1.6104639016464892E+00    2.8363084355615751E+00    5.2123312820673018E+00
Ga   -1.6243633873237620E+00    4.7032107321021996E+00    5.7562953058462645E+00
N   -1.6160028405389493E+00    4.7018192781482027E+00    7.7572823806156173E+00
Ga   -1.5932937190702066E+00    2.8415562619676540E+00    8.3926975498838967E+00
N   -1.5957907472870754E+00    2.8426068495336687E+00    1.0391046424057061E+01
Ga   -1.6229606946523532E+00    4.7004427508872055E+00    1.1031426390985802E+01
N   -1.6389854433744686E+00    4.7108945393858077E+00    1.3024960455407602E+01
Ga   -1.5967542846217018E+00    2.8431728656811508E+00    1.3586078153019903E+01
N   -1.6309821058848089E+00    2.8314632316351371E+00    1.5546030375835064E+01
Ga   -1.4270922743347594E+00    4.5922791681909372E+00    1.6460483626315085E+01
N    2.8192340823046251E-04    3.7556547028427607E+00    1.7603794786845768E+01
N   -3.2180287184286014E+00    7.5818398565074379E+00    2.4616720544645800E+00
Ga   -3.1771407793514199E+00    5.6043736759740179E+00    2.8177401492757146E+00
N   -3.2138987030680171E+00    5.6157772935434762E+00    4.9862728721484473E+00
Ga   -3.2143463871596110E+00    7.4386398960102431E+00    5.7562292271282853E+00
N   -3.2159312074805757E+00    7.4699361802996744E+00    7.7505711823613552E+00
Ga   -3.2133051876147003E+00    5.6212453033479441E+00    8.4018836280279512E+00
N   -3.2155630065343153E+00    5.6226702086415372E+00    1.0378358953232169E+01
Ga   -3.2148875217308253E+00    7.4625888070467585E+00    1.1029336475276772E+01
N   -3.2150137245985668E+00    7.4440560524913018E+00    1.3022944180643284E+01
Ga   -3.2053208466188576E+00    5.6277861091312236E+00    1.3823515454263122E+01
N   -3.2038574727867215E+00    5.6295049770508152E+00    1.6032392893573057E+01
Ga   -3.2134880868484150E+00    7.6854758505038134E+00    1.6461029901274060E+01
Ga   -3.2165596286482598E+00    9.3914786770273349E+00    1.2156754181264722E+00
N   -4.7298838660536573E+00    1.0201815669611239E+01    2.4677647604915882E+00
Ga   -4.8280156603321354E+00    8.4012465984159714E+00    3.2496465976438786E+00
N   -4.8375851689546989E+00    8.3956630657404006E+00    5.1949025317657220E+00
Ga   -4.8488505838499973E+00    1.0286003183243487E+01    5.7501506079494664E+00
N   -4.8324173279097025E+00    1.0266046400486735E+01    7.7499237272217369E+00
Ga   -4.8116045468857314E+00    8.4157352607925109E+00    8.4007460163888634E+00
N   -4.8122257832921873E+00    8.4143633100640116E+00    1.0393126626162410E+01
Ga   -4.8380989115206008E+00    1.0274791355864007E+01    1.1031711926920629E+01
N   -4.8556989881092170E+00    1.0283024325549544E+01    1.3027625814101297E+01
Ga   -4.8095300874991160E+00    8.4155573201633516E+00    1.3588320745051343E+01
N   -4.8390694780085317E+00    8.3910714558427717E+00    1.5547566630374508E+01
Ga   -4.6590325406863355E+00    1.0169771841093715E+01    1.6460342678237161E+01
N   -3.2241228710873395E+00    9.3416605870365750E+00    1.7603945831502180E+01
N    3.2036865014669114E+00    1.9152598110419918E+00    2.5717379913874936E+00
Ga    3.2101123131354159E+00    1.5316326157516275E-01    3.2075977808372991E+00
N    3.2173547284061401E+00    5.1293597752993345E-02    5.1936456598552274E+00
Ga    3.2086571357895584E+00    1.9188281788656534E+00    5.8086785434731638E+00
N    3.2180633618598380E+00    1.9102506442416962E+00    7.7983986279922988E+00
Ga    3.2166516761530293E+00    4.4668675931459255E-02    8.3861827671100908E+00
N    3.2160722059221309E+00    3.8412205550859946E-02    1.0385952366655044E+01
Ga    3.2155345160385633E+00    1.9043380162505881E+00    1.0992256015060253E+01
N    3.2188499972187299E+00    1.9078025385055566E+00    1.2966719422169458E+01
Ga    3.2170024170301339E+00    3.6839563522385710E-02    1.3586737870523953E+01
N    3.2232504191768014E+00    7.3531220979153572E-02    1.5546325067937547E+01
Ga    3.2146785585055917E+00    1.9078169308288717E+00    1.5822601035146475E+01
N    1.4661292678163558E+00    4.6161676590396077E+00    2.3352217095539047E+00
Ga    1.6830935529286619E+00    2.8296589650516584E+00    3.2003636146960348E+00
N    1.6087862381277944E+00    2.8506721391608423E+00    5.1922950538424999E+00
Ga    1.6561141988429138E+00    4.7111579866538351E+00    5.7905965777285378E+00
N    1.6012112207518667E+00    4.6904872630392802E+00    7.8003643991127714E+00
Ga    1.5982993856215535E+00    2.8364475422738615E+00    8.4051570230219959E+00
N    1.5985499331714981E+00    2.8369706549088560E+00    1.0402298206642584E+01
Ga    1.6239102411033024E+00    4.7009834663949057E+00    1.1026375765549830E+01
N    1.6383704707668127E+00    4.7113986394666769E+00    1.3023263096197278E+01
Ga    1.5959153660615657E+00    2.8442306910592410E+00    1.3584717835290117E+01
N    1.6309232359430446E+00    2.8314522521267977E+00    1.5545181453808807E+01
Ga    1.4282001510605062E+00    4.5923518172656230E+00    1.6459934191550889E+01
N   -1.0964094186855494E-03    7.4640776642706808E+00    2.6392369703151823E+00
Ga    4.1760884545155974E-02    5.5941850973054157E+00    3.2511277020827620E+00
N    1.0717688849001599E-02    5.6290555379347698E+00    5.1971916909348934E+00
Ga    3.4840255485762174E-03    7.4649175473381311E+00    5.8486749964742382E+00
N    2.7252030413735281E-03    7.4780678444267359E+00    7.8136538233991439E+00
Ga   -2.3632353041089117E-03    5.6070887235676130E+00    8.4145701256792815E+00
N   -3.6661228213572148E-03    5.6127195883525829E+00    1.0404914813976907E+01
Ga   -3.0719181645754239E-03    7.4800855332102758E+00    1.0995774293970532E+01
N   -1.3280590951030796E-03    7.4800559557247963E+00    1.2964290614927380E+01
Ga    4.3240827566057673E-04    5.6092249932915523E+00    1.3584016668930298E+01
N   -1.4813663136592237E-04    5.6418015895436646E+00    1.5542799417442737E+01
Ga    2.6771433002712011E-04    7.4790659239936943E+00    1.5819487197480841E+01
N   -1.7028383263933833E+00    1.0203145268853524E+01    2.4735262457776783E+00
Ga   -1.6106027805971104E+00    8.3985913418292704E+00    3.2490129834668013E+00
N   -1.5938717578260582E+00    8.3968442208289087E+00    5.1960096440397869E+00
Ga   -1.5858104801395396E+00    1.0282661986619901E+01    5.7512176891111224E+00
N   -1.5972340940716119E+00    1.0267107796823600E+01    7.7494250508298688E+00
Ga   -1.6168728731244644E+00    8.4139663916479179E+00    8.3965979564024700E+00
N   -1.6193344179812195E+00    8.4138861427941745E+00    1.0388885833188152E+01
Ga   -1.5950432897787485E+00    1.0272831015520902E+01    1.1026411968775134E+01
N   -1.5774069653050709E+00    1.0281270985584655E+01    1.3021104086000456E+01
Ga   -1.6189301652210155E+00    8.4144093816361281E+00    1.3586076658905245E+01
N   -1.5916034306881952E+00    8.3983080938379153E+00    1.5544060375146852E+01
Ga   -1.7849075903761251E+00    1.0159862323141214E+01    1.6460372951515193E+01
N    6.4317778663298188E+00    2.0315301443948934E+00    2.4997406900015338E+00
Ga    6.4139112084437029E+00    5.3570992141085121E-02    2.8376937157660520E+00
N    6.4383168056237974E+00    5.3186944990132434E-02    4.9838024986454483E+00
Ga    6.4255255205493249E+00    1.8885169683241110E+00    5.7566089218254826E+00
N    6.4319615000724903E+00    1.8956234169155008E+00    7.7564632863374126E+00
Ga    6.4317272279096418E+00    5.1889565104340618E-02    8.4013859666874477E+00
N    6.4327955529020446E+00    5.1128876966361460E-02    1.0378077970476248E+01
Ga    6.4335886330144767E+00    1.8892128664547605E+00    1.1030719313789682E+01
N    6.4339753695779978E+00    1.8694238534304748E+00    1.3031563109963232E+01
Ga    6.4322074664854991E+00    4.0353059138753630E-02    1.3822635047965568E+01
N    6.4323293713370120E+00    3.7800896200580594E-02    1.6031707767865807E+01
Ga    6.4322890737951672E+00    2.0369976161071346E+00    1.6393316279553169E+01
Ga    6.4499357052704820E+00    3.7179995793958174E+00    1.4515711306050199E+00
N    4.9314115463530772E+00    4.6380238496563937E+00    2.3553481003105921E+00
Ga    4.6890931610113915E+00    2.8226048250438192E+00    3.2345729578336266E+00
N    4.8284776762686912E+00    2.8524053515589767E+00    5.1988741158555518E+00
Ga    4.7768339156420616E+00    4.7156836792416570E+00    5.8025828454341930E+00
N    4.8371315809292268E+00    4.6900679320510150E+00    7.8041832961619226E+00
Ga    4.8340969334343793E+00    2.8351495582634860E+00    8.4084640031466957E+00
N    4.8354405308428277E+00    2.8379374397342962E+00    1.0404871801342676E+01
Ga    4.8070792582323518E+00    4.7022173583142655E+00    1.1028074254892321E+01
N    4.7916149619964497E+00    4.7126803997862678E+00    1.3031487148955991E+01
Ga    4.8358513568303643E+00    2.8429397800911520E+00    1.3574992657452018E+01
N    4.8195103732380460E+00    2.8338163302141743E+00    1.5554372226379927E+01
Ga    4.9349030532990064E+00    4.6298665972181050E+00    1.6393225744635924E+01
N    6.4314233749625069E+00    3.7647597734134659E+00    1.7517424151347068E+01
N    3.2193910763146758E+00    7.6026912944393317E+00    2.3695969606501830E+00
N    3.2214138501095886E+00    5.6269428248515760E+00    5.2067051298843259E+00
Ga    3.2194853720296668E+00    7.4200692638042467E+00    5.8125500764735456E+00
N    3.2188586612386247E+00    7.4933991119878094E+00    7.8057496733072025E+00
Ga    3.2160865805032226E+00    5.6205313278286422E+00    8.3954043367953073E+00
N    3.2172839235965265E+00    5.6229855934089237E+00    1.0383015639477259E+01
Ga    3.2163483290106134E+00    7.4609320039053593E+00    1.1030517146282159E+01
N    3.2160334553019605E+00    7.4446277843789312E+00    1.3025267349652507E+01
Ga    3.2063145711712870E+00    5.6274987427278562E+00    1.3821022684856588E+01
N    3.2040961898986771E+00    5.6295389012303945E+00    1.6032437248912284E+01
Ga    3.2140639253617929E+00    7.6872211247363946E+00    1.6462571501928647E+01
Ga    3.2158995522016025E+00    9.3791154787414293E+00    1.4425556110528757E+00
N    1.7107633001380760E+00    1.0188898904528726E+01    2.4890994624516378E+00
Ga    1.6043184938851121E+00    8.3400428914672879E+00    3.2798116478783510E+00
N    1.6099032642231008E+00    8.3959806253838920E+00    5.2055787784486931E+00
Ga    1.5831543434487660E+00    1.0278348507517565E+01    5.7638180071860390E+00
N    1.5979164056887027E+00    1.0267862885677955E+01    7.7565928028854598E+00
Ga    1.6155620345916999E+00    8.4185339478588048E+00    8.4180757371496373E+00
N    1.6147093487191622E+00    8.4161894372427373E+00    1.0405723597747404E+01
Ga    1.5939354716050504E+00    1.0274724510584839E+01    1.1033528980710365E+01
N    1.5781402178685631E+00    1.0282848416041766E+01    1.3025645267489629E+01
Ga    1.6189496014416997E+00    8.4139164703397782E+00    1.3585642708356346E+01
N    1.5910018673428101E+00    8.3980575077676622E+00    1.5543696679699996E+01
Ga    1.7873958677853465E+00    1.0158443402555436E+01    1.6462469529095856E+01
N    3.2238227539384336E+00    9.3410566577346348E+00    1.7608101393419005E+01
N    9.6583052074680413E+00    1.9131987225253977E+00    2.5833369208496695E+00
Ga    9.6577326739905587E+00    1.7626840568279048E-01    3.2561568364642364E+00
N    9.6507822546506059E+00    4.5840126485667647E-02    5.2150604486752927E+00
Ga    9.6575210779188261E+00    1.9125787359765587E+00    5.8355242801069069E+00
N    9.6486316177625042E+00    1.9071686925891636E+00    7.8116172340734780E+00
Ga    9.6503028756182268E+00    3.9544570813316547E-02    8.3971006135945814E+00
N    9.6499857149230817E+00    3.7810045766152781E-02    1.0392298099071290E+01
Ga    9.6499974176794652E+00    1.9086485787126417E+00    1.0983823025344664E+01
N    9.6464219483881752E+00    1.9098423514298357E+00    1.2959664258345121E+01
Ga    9.6484958784655372E+00    3.9900823195051296E-02    1.3587719206416542E+01
N    9.6420316390073229E+00    7.5110382400428069E-02    1.5546757220713904E+01
Ga    9.6504376594412307E+00    1.9077727175847141E+00    1.5827378068249278E+01
N    7.9231359715711820E+00    4.6367817245813061E+00    2.4822963658797357E+00
Ga    8.1499607929774740E+00    2.7794521710022617E+00    3.2589189370956451E+00
N    8.0423147166555928E+00    2.8382845145662277E+00    5.2186866051557166E+00
Ga    8.0681520129023241E+00    4.7102010935041285E+00    5.7601492915737813E+00
N    8.0492877921391059E+00    4.7026092080696893E+00    7.7566122393611723E+00
Ga    8.0299897227415222E+00    2.8418112999210687E+00    8.3944150285179813E+00
N    8.0290661550915576E+00    2.8440473469504148E+00    1.0392593221518258E+01
Ga    8.0599393281164726E+00    4.7017001915740870E+00    1.1033602983180215E+01
N    8.0756684264206200E+00    4.7121380426466999E+00    1.3033266604017594E+01
Ga    8.0313440847883655E+00    2.8420145147247311E+00    1.3576664071943515E+01
N    8.0463187909147855E+00    2.8338738539235737E+00    1.5555233372426139E+01
Ga    7.9287509241133112E+00    4.6292917469376977E+00    1.6394057708032559E+01
N    6.4345575721194397E+00    7.4778321852958589E+00    2.5552507797079320E+00
Ga    6.3834138127464186E+00    5.6555978510261413E+00    3.2673941628907723E+00
N    6.4257756581273036E+00    5.6335321329375256E+00    5.1965336213471609E+00
Ga    6.4316827464187565E+00    7.4756659296321546E+00    5.8563471633381843E+00
N    6.4318837308689192E+00    7.4776760526254131E+00    7.8177832270039254E+00
Ga    6.4386058548064442E+00    5.6080351102143542E+00    8.4209865954885963E+00
N    6.4378817849381118E+00    5.6125248658114302E+00    1.0411284040684658E+01
Ga    6.4367334768221953E+00    7.4814780864325163E+00    1.1000255600788750E+01
N    6.4345266719526943E+00    7.4773787420936779E+00    1.2971596069145509E+01
Ga    6.4329230033644054E+00    5.6080666365079024E+00    1.3576629481893979E+01
N    6.4330215305050862E+00    5.6281432734325616E+00    1.5555402509534371E+01
Ga    6.4325469170995655E+00    7.4811018746748159E+00    1.5823080245716730E+01
N    4.7243158493257589E+00    1.0190601002871075E+01    2.4791040351024347E+00
Ga    4.8416471942583144E+00    8.3489110111159253E+00    3.2729372943582655E+00
N    4.8299031201121236E+00    8.3961848170656506E+00    5.1997837669891593E+00
Ga    4.8586991863380593E+00    1.0281698945082681E+01    5.7624556618228935E+00
N    4.8369266620842959E+00    1.0266746183822038E+01    7.7567919593961481E+00
Ga    4.8181460922675647E+00    8.4205842173107648E+00    8.4225762911090349E+00
N    4.8199348599217728E+00    8.4169179647374612E+00    1.0410331415871756E+01
Ga    4.8421778791714711E+00    1.0276917873263887E+01    1.1039455585842472E+01
N    4.8570701442854824E+00    1.0284703126898552E+01    1.3032372397167753E+01
Ga    4.8114648839291432E+00    8.4151761702731758E+00    1.3587776101179992E+01
N    4.8408656169920894E+00    8.3909860313231945E+00    1.5547015391699308E+01
Ga    4.6571070574262263E+00    1.0167877890485704E+01    1.6462567506328313E+01
O    4.9681966822460594E-02    3.6865791855096348E+00   -5.6730976819537349E-01
H    9.7820168734789499E-03    7.4598794223994993E+00    1.6122385739198890E+00
C    5.9309081552599652E-01    2.4863281590814545E+00   -1.1438471807032400E+00
H    1.5989007768974279E+00    2.2487572236147932E+00   -7.5757818489899054E-01
H   -5.5784313206122503E-02    1.6125086850398800E+00   -9.6860658055346738E-01
H    6.6831698187997723E-01    2.6488264305810563E+00   -2.2290874136083465E+00
Ga    3.1552718422489581E+00    5.5730876562020635E+00    1.8215894076673367E+00
O    3.2487551002766089E+00    5.7600440722118895E+00   -1.9605312711023264E-02
H    2.5402709937990906E+00    5.2369392509695647E+00   -4.3302306425153669E-01
C    6.4404540169271636E+00    7.4824715076483379E+00    1.0594348123978969E+00
H    6.4461972219270320E+00    8.5141672951324914E+00    6.7803531166297359E-01
H    7.3402496758391536E+00    6.9776556841369661E+00    6.7830700896731844E-01
H    5.5595113425699578E+00    6.9684809248131163E+00    6.4532884099667387E-01
     &END COORD
     &KIND C
       BASIS_SET DZVP-MOLOPT-SR-GTH-q4
       POTENTIAL GTH-PBE-q4
       &POTENTIAL
 2 2
  0.3384712400000000E+00 2 -0.8803673979999999E+01  0.1339210850000000E+01
 2
  0.3025757500000000E+00 1  0.9622486650000001E+01
  0.2915069400000000E+00 0
         # Potential name:  GTH-PBE-Q4  for symbol:  C
         # Potential read from the potential filename: GTH_POTENTIALS
       &END POTENTIAL
     &END KIND
     &KIND O
       BASIS_SET DZVP-MOLOPT-SR-GTH-q6
       POTENTIAL GTH-PBE-q6
       &POTENTIAL
 2 4
  0.2445543000000000E+00 2 -0.1666721480000000E+02  0.2487311320000000E+01
 2
  0.2209559200000000E+00 1  0.1833745811000000E+02
  0.2113324700000000E+00 0
         # Potential name:  GTH-PBE-Q6  for symbol:  O
         # Potential read from the potential filename: GTH_POTENTIALS
       &END POTENTIAL
     &END KIND
     &KIND H
       BASIS_SET DZVP-MOLOPT-SR-GTH-q1
       POTENTIAL GTH-PBE-q1
       &POTENTIAL
 1
  0.2000000000000000E+00 2 -0.4178900440000000E+01  0.7244633100000000E+00
 0
         # Potential name:  GTH-PBE-Q1  for symbol:  H
         # Potential read from the potential filename: GTH_POTENTIALS
       &END POTENTIAL
     &END KIND
     &KIND N
       BASIS_SET DZVP-MOLOPT-SR-GTH
       POTENTIAL GTH-PBE-q5
       &POTENTIAL
 2 3
  0.2837905100000000E+00 2 -0.1241522559000000E+02  0.1868095920000000E+01
 2
  0.2554050000000000E+00 1  0.1363026257000000E+02
  0.2454945300000000E+00 0
         # Potential name:  GTH-PBE-Q5  for symbol:  N
         # Potential read from the potential filename: GTH_POTENTIALS
       &END POTENTIAL
     &END KIND
     &KIND Ga
       BASIS_SET DZVP-MOLOPT-SR-GTH
       POTENTIAL GTH-PBE-q13
       &POTENTIAL
 2 1 10
  0.4900000000000000E+00 0
 3
  0.4167772300000000E+00 3  0.1047568975000000E+02 -0.4921768140000000E+01  0.8707055900000000E+00
  0.7770178090000000E+01 -0.2248152160000000E+01
  0.1784415450000000E+01
  0.5696265200000000E+00 2  0.1777985340000000E+01  0.1958597600000000E+00
 -0.2317443900000000E+00
  0.2381265000000000E+00 1 -0.1624868022000000E+02
         # Potential name:  GTH-PBE-Q13  for symbol:  GA
         # Potential read from the potential filename: GTH_POTENTIALS
       &END POTENTIAL
     &END KIND
     &TOPOLOGY
       NUMBER_OF_ATOMS  212
       MULTIPLE_UNIT_CELL  1 1 1
     &END TOPOLOGY
   &END SUBSYS
 &END FORCE_EVAL
