 # Version information for this restart file 
 # current date 2019-06-29 07:01:24.029
 # current working dir /scratch/rzk/rzk/GaN-carbene/443-adatoms-both-2x2/06-CH3O-HO-H-H3C/01-UseUnoptimized-0501
 # Program compiled at                              Sun Apr  7 00:48:11 EDT 2019
 # Program compiled on                          beluga2.int.ets1.calculquebec.ca
 # Program compiled for                        Beluga-Linux-x86-64-intel-openmpi
 # Source code revision number                                         svn:18619
 &GLOBAL
   PRINT_LEVEL  MEDIUM
   PROJECT_NAME TEST
   RUN_TYPE  GEO_OPT
 &END GLOBAL
 &MOTION
   &GEO_OPT
     MAX_ITER  500
     STEP_START_VAL  117
   &END GEO_OPT
 &END MOTION
 &FORCE_EVAL
   METHOD  QS
   STRESS_TENSOR  ANALYTICAL
   &DFT
     BASIS_SET_FILE_NAME BASIS_MOLOPT
     POTENTIAL_FILE_NAME GTH_POTENTIALS
     UKS  T
     SURFACE_DIPOLE_CORRECTION  T
     SURF_DIP_DIR  Z
     &SCF
       MAX_SCF  80
       EPS_SCF     5.0000000000000004E-06
       &OT  T
         PRECONDITIONER  FULL_ALL
       &END OT
       &OUTER_SCF  T
         OPTIMIZER  NONE
         EPS_SCF     5.0000000000000004E-06
         MAX_SCF  4
       &END OUTER_SCF
       &PRINT
         &RESTART  OFF
           BACKUP_COPIES  1
           &EACH
             JUST_ENERGY  0
             QS_SCF  0
             MD  20
           &END EACH
         &END RESTART
       &END PRINT
     &END SCF
     &QS
       EPS_DEFAULT     1.0000000000000000E-14
       METHOD  GPW
     &END QS
     &MGRID
       NGRIDS  5
       CUTOFF     1.2000000000000000E+03
     &END MGRID
     &XC
       DENSITY_CUTOFF     1.0000000000000000E-10
       GRADIENT_CUTOFF     1.0000000000000000E-10
       TAU_CUTOFF     1.0000000000000000E-10
       &XC_FUNCTIONAL  NO_SHORTCUT
         &PBE  T
         &END PBE
       &END XC_FUNCTIONAL
       &VDW_POTENTIAL
         POTENTIAL_TYPE  PAIR_POTENTIAL
         &PAIR_POTENTIAL
           R_CUTOFF     1.0000000000000004E+01
           TYPE  DFTD3
           PARAMETER_FILE_NAME dftd3.dat
           REFERENCE_FUNCTIONAL PBE
           EPS_CN     9.9999999999999995E-07
           CALCULATE_C9_TERM  T
           REFERENCE_C9_TERM  T
           LONG_RANGE_CORRECTION  F
           VERBOSE_OUTPUT  F
         &END PAIR_POTENTIAL
       &END VDW_POTENTIAL
     &END XC
   &END DFT
   &SUBSYS
     &CELL
       A     1.2864472766435110E+01    0.0000000000000000E+00    0.0000000000000000E+00
       B    -6.4322363581020028E+00    1.1140960178524473E+01    0.0000000000000000E+00
       C     0.0000000000000000E+00    0.0000000000000000E+00    3.2000000000000000E+01
       MULTIPLE_UNIT_CELL  1 1 1
       &CELL_REF
         A     1.2982353780853531E+01    0.0000000000000000E+00    0.0000000000000000E+00
         B    -6.4911768904267628E+00    1.1243048175136114E+01    0.0000000000000000E+00
         C     0.0000000000000000E+00    0.0000000000000000E+00    3.2000000000000000E+01
         MULTIPLE_UNIT_CELL  1 1 1
       &END CELL_REF
     &END CELL
     &COORD
N   -3.5409008245507276E-03    2.0430052525786757E+00    2.4661355999491734E+00
Ga    2.0745329985249212E-02    1.0073743833652926E-01    2.8096438136621944E+00
N   -2.7065879746434570E-03    5.3052830148527838E-02    4.9778888327321145E+00
Ga    8.6206349593155613E-03    1.8935702086333792E+00    5.7390236268382324E+00
N    3.0596017618281547E-03    1.8963781351437852E+00    7.7475459426163651E+00
Ga    4.0272729350939677E-03    5.5395474815538991E-02    8.3948564506827914E+00
N    1.5949118049955471E-03    5.1988516745324335E-02    1.0372416290671945E+01
Ga    8.3338117177649646E-04    1.8907670327918105E+00    1.1027492288361817E+01
N   -1.1522655019460953E-03    1.8715615662145997E+00    1.3022985924847443E+01
Ga    5.7338604346801830E-04    5.3527969728623018E-02    1.3839215937885269E+01
N   -7.2936358131203141E-04    5.3778606011786627E-02    1.6028372639989254E+01
Ga   -2.3365142925018548E-04    2.1014558418819922E+00    1.6452187941559185E+01
Ga   -3.5436050778530195E-02    3.7176287356143476E+00    1.2467349195079698E+00
N   -1.4837171950761368E+00    4.6293454289043190E+00    2.4495507932059501E+00
Ga   -1.6695286050231439E+00    2.7965059151524767E+00    3.2196081627438820E+00
N   -1.6109360615471056E+00    2.8378189065719424E+00    5.2053086491729532E+00
Ga   -1.6247159029137912E+00    4.7046811339620156E+00    5.7497399831976335E+00
N   -1.6153869515655102E+00    4.7032836303711454E+00    7.7506120139697767E+00
Ga   -1.5925000055380352E+00    2.8430637333708568E+00    8.3861388022007155E+00
N   -1.5954293128452961E+00    2.8439701987304726E+00    1.0384950085401211E+01
Ga   -1.6224593755549395E+00    4.7019182720943720E+00    1.1024976003007239E+01
N   -1.6391021320989221E+00    4.7120306284243023E+00    1.3018176945804589E+01
Ga   -1.5971331283862142E+00    2.8444664092205061E+00    1.3579695603530920E+01
N   -1.6321030958054885E+00    2.8330096164323875E+00    1.5539177754657555E+01
Ga   -1.4274299830485939E+00    4.5934856883904409E+00    1.6453636473046732E+01
N   -1.2192862551088551E-04    3.7563275605165676E+00    1.7597712288040590E+01
N   -3.2195112386857869E+00    7.5837782066375166E+00    2.4550998949668403E+00
Ga   -3.1789248302908177E+00    5.6066173963635944E+00    2.8121614869955658E+00
N   -3.2143434356625593E+00    5.6174708330699170E+00    4.9795636900305462E+00
Ga   -3.2146202464227049E+00    7.4406115187408695E+00    5.7492664196572596E+00
N   -3.2153213893570540E+00    7.4712737796577340E+00    7.7435450128969867E+00
Ga   -3.2123234992904761E+00    5.6228629956544278E+00    8.3957610309940929E+00
N   -3.2150127224992393E+00    5.6242393778876725E+00    1.0372462308092269E+01
Ga   -3.2140581145822811E+00    7.4641673447579526E+00    1.1023136529894071E+01
N   -3.2151737890294170E+00    7.4457147176041412E+00    1.3016871125451921E+01
Ga   -3.2048789010155700E+00    5.6291364783658802E+00    1.3818030968233812E+01
N   -3.2038928065021830E+00    5.6310583405173640E+00    1.6026236819313606E+01
Ga   -3.2146260938765785E+00    7.6877111410349306E+00    1.6455033111569037E+01
Ga   -3.2179250250735763E+00    9.3933634411536229E+00    1.2077158032823003E+00
N   -4.7316446926907192E+00    1.0203777167611170E+01    2.4608949918711804E+00
Ga   -4.8292494990064094E+00    8.4033514634597779E+00    3.2427325349864211E+00
N   -4.8382768689126285E+00    8.3973147430174038E+00    5.1883046085335911E+00
Ga   -4.8490682949348214E+00    1.0287618372808758E+01    5.7427982367142567E+00
N   -4.8317144345973562E+00    1.0267418754424815E+01    7.7425757163703306E+00
Ga   -4.8106790809962963E+00    8.4173408230230429E+00    8.3943553428910516E+00
N   -4.8115368765872013E+00    8.4154798057189151E+00    1.0387118946426593E+01
Ga   -4.8373708137132079E+00    1.0275967961583598E+01    1.1025533591410026E+01
N   -4.8557682333016432E+00    1.0284124897026450E+01    1.3021207609531372E+01
Ga   -4.8101443328045370E+00    8.4167420469263305E+00    1.3582624801717104E+01
N   -4.8408431875283950E+00    8.3923762652784504E+00    1.5541630559393118E+01
Ga   -4.6596753244287061E+00    1.0170995793560030E+01    1.6453876421594572E+01
N   -3.2254415300386117E+00    9.3430814954558219E+00    1.7596458984041291E+01
N    3.2020348070757079E+00    1.9170393151528999E+00    2.5655346259144225E+00
Ga    3.2089776487010013E+00    1.5397297332395735E-01    3.2003966040424787E+00
N    3.2171437518199548E+00    5.3251838191374294E-02    5.1869577407049183E+00
Ga    3.2084874903639422E+00    1.9203649573977533E+00    5.8026762910800036E+00
N    3.2188301794222203E+00    1.9115567866291279E+00    7.7921808314244059E+00
Ga    3.2171799234436249E+00    4.5669448388899525E-02    8.3794750440548054E+00
N    3.2169318823219131E+00    3.9209721608345689E-02    1.0379508007933856E+01
Ga    3.2160061291193829E+00    1.9052628942835110E+00    1.0984526597813209E+01
N    3.2189238546378238E+00    1.9090537078756293E+00    1.2959437751617584E+01
Ga    3.2168362043736773E+00    3.8152177982379409E-02    1.3580411924865951E+01
N    3.2223077185033948E+00    7.5632144301727405E-02    1.5540046050461486E+01
Ga    3.2136178956386980E+00    1.9097563890067268E+00    1.5816874466015502E+01
N    1.4642124864792303E+00    4.6182027439433408E+00    2.3306051115984903E+00
Ga    1.6806909233776532E+00    2.8312985223394773E+00    3.1941586017081223E+00
N    1.6083898158717826E+00    2.8517834932649131E+00    5.1856315020902288E+00
Ga    1.6562930138335150E+00    4.7128513316276468E+00    5.7818484724932366E+00
N    1.6018301158819526E+00    4.6919438611412501E+00    7.7925559215101421E+00
Ga    1.5987700266824028E+00    2.8379036278741032E+00    8.3981368847011399E+00
N    1.5990010461863835E+00    2.8385380032256773E+00    1.0395567223095327E+01
Ga    1.6244431248441795E+00    4.7022457549242045E+00    1.1020212460659113E+01
N    1.6380080871998606E+00    4.7127969488770658E+00    1.3017034561825303E+01
Ga    1.5956102295023764E+00    2.8451905626854184E+00    1.3578072511341825E+01
N    1.6300503060792386E+00    2.8331063832933059E+00    1.5537960984316717E+01
Ga    1.4271279251047029E+00    4.5936368921617419E+00    1.6452593661969246E+01
N   -2.9349997056591281E-03    7.4662091751418194E+00    2.6316144255809570E+00
Ga    3.9761369315659677E-02    5.5967321643315291E+00    3.2448366135832858E+00
N    9.9901215743050942E-03    5.6309022546245728E+00    5.1905412686072587E+00
Ga    3.7737515307298595E-03    7.4667343623643951E+00    5.8424197203127308E+00
N    3.3065340718832635E-03    7.4794183415499598E+00    7.8072813015777447E+00
Ga   -1.6990838559445057E-03    5.6083751896919125E+00    8.4082037304825104E+00
N   -3.0117067622479061E-03    5.6140428877132704E+00    1.0398578770396750E+01
Ga   -2.8379985420006800E-03    7.4816268838165536E+00    1.0988552314737948E+01
N   -1.3106821431236135E-03    7.4815540024559999E+00    1.2957396326103066E+01
Ga   -1.8174074658167710E-04    5.6109434283552151E+00    1.3577947036573688E+01
N   -1.0094746809292112E-03    5.6427692756733432E+00    1.5536142519005052E+01
Ga   -8.3895264364462318E-04    7.4796739607627512E+00    1.5814025816265938E+01
N   -1.7038940150226169E+00    1.0205129379961370E+01    2.4666699451506351E+00
Ga   -1.6123517514046131E+00    8.4008349371706927E+00    3.2417735191733295E+00
N   -1.5936589865691775E+00    8.3982233536830790E+00    5.1891145575535118E+00
Ga   -1.5858120484792362E+00    1.0284265380886993E+01    5.7439803158548672E+00
N   -1.5965307964892848E+00    1.0268507164415691E+01    7.7422910034015828E+00
Ga   -1.6163759620126181E+00    8.4153322497313923E+00    8.3897421229821667E+00
N   -1.6187842645996628E+00    8.4153161049821250E+00    1.0382424790485050E+01
Ga   -1.5943620546386901E+00    1.0273914578927080E+01    1.1020401124226876E+01
N   -1.5773054662785497E+00    1.0282550012069027E+01    1.3014985482260409E+01
Ga   -1.6186722396191684E+00    8.4156033129389467E+00    1.3580489010461877E+01
N   -1.5920316976561568E+00    8.3995247108303630E+00    1.5538491726421729E+01
Ga   -1.7869022865294659E+00    1.0160725436861174E+01    1.6454489673138198E+01
N    6.4304530509706730E+00    2.0333620980900839E+00    2.4937585377019311E+00
Ga    6.4131250900542751E+00    5.5026197191758178E-02    2.8318343914625563E+00
N    6.4389058291232759E+00    5.4711127279683379E-02    4.9772929545933300E+00
Ga    6.4254878511873699E+00    1.8899849572475558E+00    5.7512151195521124E+00
N    6.4327177951838994E+00    1.8969367649461655E+00    7.7507184515744552E+00
Ga    6.4323581046610627E+00    5.2912411741285685E-02    8.3952153298987575E+00
N    6.4333524904091126E+00    5.2304522267955400E-02    1.0371959766722053E+01
Ga    6.4342490959349741E+00    1.8902802525395292E+00    1.1024649946363777E+01
N    6.4338348493555833E+00    1.8701213626721003E+00    1.3025313793080288E+01
Ga    6.4325007202319622E+00    4.1363391791214996E-02    1.3817080539036100E+01
N    6.4314875697277998E+00    3.8834650209259740E-02    1.6026046467738578E+01
Ga    6.4310380701150693E+00    2.0366667289284668E+00    1.6386724270427223E+01
Ga    6.4483849366535688E+00    3.7199093838971677E+00    1.4468851129517268E+00
N    4.9303835213755915E+00    4.6401926957702360E+00    2.3494597415682095E+00
Ga    4.6878545174009556E+00    2.8245157828442382E+00    3.2289507969891784E+00
N    4.8284422445008142E+00    2.8540250015080315E+00    5.1930429855574678E+00
Ga    4.7771141194812188E+00    4.7173568505066568E+00    5.7974373166883266E+00
N    4.8380515079438835E+00    4.6915349047194557E+00    7.7985612459640823E+00
Ga    4.8347971719579972E+00    2.8365115964186352E+00    8.4027644788983018E+00
N    4.8363395477009599E+00    2.8393226609957951E+00    1.0399027979375409E+01
Ga    4.8075098345911860E+00    4.7034746939154344E+00    1.1022580896059898E+01
N    4.7912970578718017E+00    4.7140715282700532E+00    1.3025879578263067E+01
Ga    4.8358672612881781E+00    2.8440155683134676E+00    1.3568484156489106E+01
N    4.8188453431066351E+00    2.8357594861786835E+00    1.5548465700487789E+01
Ga    4.9322102305414948E+00    4.6321735169933058E+00    1.6386589209004562E+01
N    6.4304163579467470E+00    3.7662511144872948E+00    1.7512024117500879E+01
N    3.2178360421202856E+00    7.6039725875045860E+00    2.3596685230103036E+00
N    3.2221025212536651E+00    5.6287129037746686E+00    5.1983542497599551E+00
Ga    3.2198454750826726E+00    7.4216197098477901E+00    5.8066360909454389E+00
N    3.2197493569711981E+00    7.4946428689134992E+00    7.7996972094998140E+00
Ga    3.2165581225059143E+00    5.6215657213807706E+00    8.3893695496268261E+00
N    3.2178746725203919E+00    5.6244176578274079E+00    1.0377053361039733E+01
Ga    3.2167887627400322E+00    7.4621592450729146E+00    1.1025058840476945E+01
N    3.2154704495593474E+00    7.4464541279300738E+00    1.3019927882337546E+01
Ga    3.2057635076054121E+00    5.6291707257720560E+00    1.3815273585334982E+01
N    3.2023366075525757E+00    5.6312016907696325E+00    1.6026578252788994E+01
Ga    3.2123994746320710E+00    7.6886865954587158E+00    1.6457503655870077E+01
Ga    3.2144573054058330E+00    9.3815013458257521E+00    1.4380081860599030E+00
N    1.7093516510022224E+00    1.0190327905834668E+01    2.4828786048403440E+00
Ga    1.6034757995508135E+00    8.3405378753781090E+00    3.2724737699286823E+00
N    1.6102309896692806E+00    8.3971736916519486E+00    5.1984670562776492E+00
Ga    1.5833720446515527E+00    1.0279147804950000E+01    5.7582580984852818E+00
N    1.5986192851971579E+00    1.0268961995511233E+01    7.7506567871015779E+00
Ga    1.6161671028982547E+00    8.4197353308996270E+00    8.4125058898955736E+00
N    1.6154597543882969E+00    8.4174976884983170E+00    1.0399850769390000E+01
Ga    1.5942075339872690E+00    1.0275981492343147E+01    1.1027651314005217E+01
N    1.5779325030487847E+00    1.0283911649900345E+01    1.3019519310634069E+01
Ga    1.6181549338686945E+00    8.4155037413161384E+00    1.3580537807636912E+01
N    1.5897136702883372E+00    8.3994177343063345E+00    1.5538703507877509E+01
Ga    1.7861864409601733E+00    1.0159153590613030E+01    1.6457622536074581E+01
N    3.2230153920566700E+00    9.3424155324494755E+00    1.7602042633627953E+01
N    9.6562677779410961E+00    1.9142287540326006E+00    2.5767778808237365E+00
Ga    9.6563265688243654E+00    1.7748624524747614E-01    3.2510233486036140E+00
N    9.6507915716945014E+00    4.7139453663259508E-02    5.2095180524589999E+00
Ga    9.6577084170242227E+00    1.9138959456193425E+00    5.8294597803225185E+00
N    9.6493334638420887E+00    1.9085458881774733E+00    7.8056571786847053E+00
Ga    9.6511124313618186E+00    4.0738520223532380E-02    8.3907035001221448E+00
N    9.6503245189743119E+00    3.8839186727696706E-02    1.0386138183209226E+01
Ga    9.6502335468315561E+00    1.9096948271188685E+00    1.0977341862189977E+01
N    9.6458492566042935E+00    1.9107149235860708E+00    1.2953588376217301E+01
Ga    9.6477083079777799E+00    4.0695997000616803E-02    1.3582184764249254E+01
N    9.6402773592781852E+00    7.6195337859166573E-02    1.5541837205915940E+01
Ga    9.6492449601861381E+00    1.9093080461576717E+00    1.5821148784175856E+01
N    7.9210203207617180E+00    4.6387105149601453E+00    2.4757017882273682E+00
Ga    8.1487384081947152E+00    2.7814348587827902E+00    3.2538574906127331E+00
N    8.0423640930721945E+00    2.8399588692799718E+00    5.2136170083965849E+00
Ga    8.0682297293449725E+00    4.7120641414555839E+00    5.7550427339776480E+00
N    8.0499929104692711E+00    4.7042091623740827E+00    7.7511999301214294E+00
Ga    8.0308634076851657E+00    2.8432545010045334E+00    8.3884229060870918E+00
N    8.0295735924881679E+00    2.8453284402876058E+00    1.0386888520873828E+01
Ga    8.0606807751818668E+00    4.7029182408345722E+00    1.1027485600736840E+01
N    8.0756672092950268E+00    4.7135593626761798E+00    1.3027412069729611E+01
Ga    8.0306388689900814E+00    2.8432035797345825E+00    1.3570617602000340E+01
N    8.0447130678582965E+00    2.8355240499971592E+00    1.5550046792396612E+01
Ga    7.9293928894535934E+00    4.6319498118438975E+00    1.6387017668169307E+01
N    6.4333435648782764E+00    7.4798601316566158E+00    2.5486665810830664E+00
Ga    6.3821231409811494E+00    5.6582025519657098E+00    3.2624534580773239E+00
N    6.4259481179684768E+00    5.6352335321150226E+00    5.1914291120747800E+00
Ga    6.4313744032065925E+00    7.4775781996670592E+00    5.8507137423555218E+00
N    6.4327480926231537E+00    7.4791003521838366E+00    7.8119686391582777E+00
Ga    6.4394711887041733E+00    5.6096943102498376E+00    8.4161432938847920E+00
N    6.4384484541138542E+00    5.6138831415244024E+00    1.0406112253414282E+01
Ga    6.4373309642246728E+00    7.4830572206445014E+00    1.0993567387032273E+01
N    6.4338795218006810E+00    7.4787012379654403E+00    1.2965481755496853E+01
Ga    6.4326237159802186E+00    5.6095982853268023E+00    1.3571123475550019E+01
N    6.4314978293288672E+00    5.6292089866523485E+00    1.5550410312896462E+01
Ga    6.4308501936747913E+00    7.4825173011155641E+00    1.5818308627079194E+01
N    4.7228145822570164E+00    1.0192037895378403E+01    2.4722933017412640E+00
Ga    4.8398489190161849E+00    8.3494003795687082E+00    3.2656222210772121E+00
N    4.8297565967193039E+00    8.3976335905227266E+00    5.1926469985709467E+00
Ga    4.8588831799112508E+00    1.0282672833395848E+01    5.7562847618139603E+00
N    4.8377708354867703E+00    1.0267753139992584E+01    7.7504643725209963E+00
Ga    4.8191834191359257E+00    8.4218377157941084E+00    8.4176019205284796E+00
N    4.8202455264402539E+00    8.4180054719925472E+00    1.0404851546842822E+01
Ga    4.8427149997287913E+00    1.0278124107037197E+01    1.1033044454352449E+01
N    4.8564013171283946E+00    1.0285961180566341E+01    1.3026213605203532E+01
Ga    4.8109702081160650E+00    8.4166385711966498E+00    1.3582726719025377E+01
N    4.8389880331274515E+00    8.3924311288089424E+00    1.5542394853986428E+01
Ga    4.6558681440627678E+00    1.0169355894883202E+01    1.6456848911100014E+01
O    6.0922189825684661E-02    3.6916118857374993E+00   -5.7170834109644098E-01
H    9.4292049250438749E-03    7.4621980915039501E+00    1.6047725597100455E+00
C    6.0448413776212773E-01    2.4864961832414889E+00   -1.1401658686296874E+00
H    1.6121225802604491E+00    2.2570018062030894E+00   -7.5345949674244528E-01
H   -4.1493083255548284E-02    1.6122655752455275E+00   -9.5475279390953682E-01
H    6.7811801623388013E-01    2.6408865783374118E+00   -2.2264318514505583E+00
Ga    3.1538274138754598E+00    5.5706164964118301E+00    1.8151785857947522E+00
O    3.2495599556438259E+00    5.7398999953200667E+00   -2.7421692208179606E-02
H    2.5240315972874363E+00    5.2344114143380054E+00   -4.3342217210090656E-01
C    6.4386230622784737E+00    7.4795015273302274E+00    1.0531052631480373E+00
H    6.4547181220915748E+00    8.5093617603665770E+00    6.6854495567067040E-01
H    7.3333779773289853E+00    6.9630897594499404E+00    6.7318463694340991E-01
H    5.5528837896158407E+00    6.9725143465219581E+00    6.4205193276865946E-01
     &END COORD
     &KIND C
       BASIS_SET DZVP-MOLOPT-SR-GTH-q4
       POTENTIAL GTH-PBE-q4
       &POTENTIAL
 2 2
  0.3384712400000000E+00 2 -0.8803673979999999E+01  0.1339210850000000E+01
 2
  0.3025757500000000E+00 1  0.9622486650000001E+01
  0.2915069400000000E+00 0
         # Potential name:  GTH-PBE-Q4  for symbol:  C
         # Potential read from the potential filename: GTH_POTENTIALS
       &END POTENTIAL
     &END KIND
     &KIND O
       BASIS_SET DZVP-MOLOPT-SR-GTH-q6
       POTENTIAL GTH-PBE-q6
       &POTENTIAL
 2 4
  0.2445543000000000E+00 2 -0.1666721480000000E+02  0.2487311320000000E+01
 2
  0.2209559200000000E+00 1  0.1833745811000000E+02
  0.2113324700000000E+00 0
         # Potential name:  GTH-PBE-Q6  for symbol:  O
         # Potential read from the potential filename: GTH_POTENTIALS
       &END POTENTIAL
     &END KIND
     &KIND H
       BASIS_SET DZVP-MOLOPT-SR-GTH-q1
       POTENTIAL GTH-PBE-q1
       &POTENTIAL
 1
  0.2000000000000000E+00 2 -0.4178900440000000E+01  0.7244633100000000E+00
 0
         # Potential name:  GTH-PBE-Q1  for symbol:  H
         # Potential read from the potential filename: GTH_POTENTIALS
       &END POTENTIAL
     &END KIND
     &KIND N
       BASIS_SET DZVP-MOLOPT-SR-GTH
       POTENTIAL GTH-PBE-q5
       &POTENTIAL
 2 3
  0.2837905100000000E+00 2 -0.1241522559000000E+02  0.1868095920000000E+01
 2
  0.2554050000000000E+00 1  0.1363026257000000E+02
  0.2454945300000000E+00 0
         # Potential name:  GTH-PBE-Q5  for symbol:  N
         # Potential read from the potential filename: GTH_POTENTIALS
       &END POTENTIAL
     &END KIND
     &KIND Ga
       BASIS_SET DZVP-MOLOPT-SR-GTH
       POTENTIAL GTH-PBE-q13
       &POTENTIAL
 2 1 10
  0.4900000000000000E+00 0
 3
  0.4167772300000000E+00 3  0.1047568975000000E+02 -0.4921768140000000E+01  0.8707055900000000E+00
  0.7770178090000000E+01 -0.2248152160000000E+01
  0.1784415450000000E+01
  0.5696265200000000E+00 2  0.1777985340000000E+01  0.1958597600000000E+00
 -0.2317443900000000E+00
  0.2381265000000000E+00 1 -0.1624868022000000E+02
         # Potential name:  GTH-PBE-Q13  for symbol:  GA
         # Potential read from the potential filename: GTH_POTENTIALS
       &END POTENTIAL
     &END KIND
     &TOPOLOGY
       NUMBER_OF_ATOMS  212
       MULTIPLE_UNIT_CELL  1 1 1
     &END TOPOLOGY
   &END SUBSYS
 &END FORCE_EVAL
