 # Version information for this restart file 
 # current date 2019-06-28 23:12:09.837
 # current working dir /scratch/rzk/rzk/GaN-carbene/443-adatoms-both-2x2/06-CH3O-HO-H-H3C/01-UseUnoptimized-0501
 # Program compiled at                              Sun Apr  7 00:48:11 EDT 2019
 # Program compiled on                          beluga2.int.ets1.calculquebec.ca
 # Program compiled for                        Beluga-Linux-x86-64-intel-openmpi
 # Source code revision number                                         svn:18619
 &GLOBAL
   PRINT_LEVEL  MEDIUM
   PROJECT_NAME TEST
   RUN_TYPE  GEO_OPT
 &END GLOBAL
 &MOTION
   &GEO_OPT
     MAX_ITER  500
     STEP_START_VAL  15
   &END GEO_OPT
 &END MOTION
 &FORCE_EVAL
   METHOD  QS
   STRESS_TENSOR  ANALYTICAL
   &DFT
     BASIS_SET_FILE_NAME BASIS_MOLOPT
     POTENTIAL_FILE_NAME GTH_POTENTIALS
     UKS  T
     SURFACE_DIPOLE_CORRECTION  T
     SURF_DIP_DIR  Z
     &SCF
       MAX_SCF  80
       EPS_SCF     5.0000000000000004E-06
       &OT  T
         PRECONDITIONER  FULL_ALL
       &END OT
       &OUTER_SCF  T
         OPTIMIZER  NONE
         EPS_SCF     5.0000000000000004E-06
         MAX_SCF  4
       &END OUTER_SCF
       &PRINT
         &RESTART  OFF
           BACKUP_COPIES  1
           &EACH
             JUST_ENERGY  0
             QS_SCF  0
             MD  20
           &END EACH
         &END RESTART
       &END PRINT
     &END SCF
     &QS
       EPS_DEFAULT     1.0000000000000000E-14
       METHOD  GPW
     &END QS
     &MGRID
       NGRIDS  5
       CUTOFF     1.2000000000000000E+03
     &END MGRID
     &XC
       DENSITY_CUTOFF     1.0000000000000000E-10
       GRADIENT_CUTOFF     1.0000000000000000E-10
       TAU_CUTOFF     1.0000000000000000E-10
       &XC_FUNCTIONAL  NO_SHORTCUT
         &PBE  T
         &END PBE
       &END XC_FUNCTIONAL
       &VDW_POTENTIAL
         POTENTIAL_TYPE  PAIR_POTENTIAL
         &PAIR_POTENTIAL
           R_CUTOFF     1.0000000000000004E+01
           TYPE  DFTD3
           PARAMETER_FILE_NAME dftd3.dat
           REFERENCE_FUNCTIONAL PBE
           EPS_CN     9.9999999999999995E-07
           CALCULATE_C9_TERM  T
           REFERENCE_C9_TERM  T
           LONG_RANGE_CORRECTION  F
           VERBOSE_OUTPUT  F
         &END PAIR_POTENTIAL
       &END VDW_POTENTIAL
     &END XC
   &END DFT
   &SUBSYS
     &CELL
       A     1.2864472766435110E+01    0.0000000000000000E+00    0.0000000000000000E+00
       B    -6.4322363581020028E+00    1.1140960178524473E+01    0.0000000000000000E+00
       C     0.0000000000000000E+00    0.0000000000000000E+00    3.2000000000000000E+01
       MULTIPLE_UNIT_CELL  1 1 1
       &CELL_REF
         A     1.2982353780853531E+01    0.0000000000000000E+00    0.0000000000000000E+00
         B    -6.4911768904267628E+00    1.1243048175136114E+01    0.0000000000000000E+00
         C     0.0000000000000000E+00    0.0000000000000000E+00    3.2000000000000000E+01
         MULTIPLE_UNIT_CELL  1 1 1
       &END CELL_REF
     &END CELL
     &COORD
N   -4.9813823880139937E-03    2.0365064015145427E+00    2.5101487431304781E+00
Ga    1.5970174132118973E-03    9.8722882363952671E-02    2.8626282918142567E+00
N   -3.0744979152895402E-03    4.5910985791186527E-02    5.0203444352470701E+00
Ga    8.6989139482976374E-03    1.8906333226758316E+00    5.7869936887985540E+00
N    1.0486662778627131E-03    1.8915788418750654E+00    7.7904755816436708E+00
Ga   -5.7550729510186097E-04    5.1052076282261757E-02    8.4442513020352763E+00
N   -1.7584071684066313E-03    4.7595203843955207E-02    1.0416731705735257E+01
Ga   -2.0457684288488522E-03    1.8872527857826313E+00    1.1076760828158177E+01
N   -2.3734504107042779E-03    1.8673772828936697E+00    1.3067555645516466E+01
Ga   -1.2093291152249260E-03    4.9146599704488626E-02    1.3882932234509919E+01
N   -1.8094556018193593E-03    4.7935014990395708E-02    1.6072675820748497E+01
Ga   -1.8008273260563231E-03    2.0955140944715067E+00    1.6490277785815820E+01
Ga   -5.7672266548691731E-02    3.7107273549898441E+00    1.2817441052646836E+00
N   -1.4850938241758467E+00    4.6230678809001793E+00    2.4959933888841630E+00
Ga   -1.6704975524864571E+00    2.7879274354515409E+00    3.2704290713801933E+00
N   -1.6123908158463625E+00    2.8326423326208241E+00    5.2513992903084175E+00
Ga   -1.6232703234704164E+00    4.6997375064416387E+00    5.7969729576424331E+00
N   -1.6178268523387600E+00    4.6996316243749492E+00    7.7930828315530878E+00
Ga   -1.5950447975932638E+00    2.8389197043592840E+00    8.4359724483688083E+00
N   -1.5982688693901059E+00    2.8404286411496269E+00    1.0429243925950944E+01
Ga   -1.6263577112391889E+00    4.6978141153289004E+00    1.1079773474899863E+01
N   -1.6431502494403416E+00    4.7086600832130685E+00    1.3069404445781840E+01
Ga   -1.5996473514825125E+00    2.8389865205805251E+00    1.3627468507486807E+01
N   -1.6301618358065988E+00    2.8214692921911335E+00    1.5585373455014224E+01
Ga   -1.4444694956254958E+00    4.5942529055197525E+00    1.6490933073256134E+01
N   -7.8857844390018313E-03    3.7575320696262375E+00    1.7621121213527896E+01
N   -3.2203240211056112E+00    7.5882715764361031E+00    2.5066129147201268E+00
Ga   -3.1835638847112238E+00    5.5859532745781850E+00    2.8647417100527690E+00
N   -3.2158046191671779E+00    5.6154412974263215E+00    5.0204427346527849E+00
Ga   -3.2174228123484201E+00    7.4320639710428020E+00    5.8058855709679538E+00
N   -3.2187375114090973E+00    7.4665818466314393E+00    7.7908980941308057E+00
Ga   -3.2152527848517560E+00    5.6167212027906075E+00    8.4478506742190032E+00
N   -3.2178428230115537E+00    5.6191747469783904E+00    1.0418331457826250E+01
Ga   -3.2174036235867085E+00    7.4570655369338104E+00    1.1078613780400001E+01
N   -3.2174470239413391E+00    7.4382576038485606E+00    1.3067711492879681E+01
Ga   -3.2174259192015842E+00    5.6184140355995078E+00    1.3884961613254122E+01
N   -3.2182486836197604E+00    5.6185159444100083E+00    1.6073420565597196E+01
Ga   -3.2180515843413420E+00    7.6663419641681756E+00    1.6492510386006618E+01
Ga   -3.2161058123428035E+00    9.3797910852269339E+00    1.3706973363954209E+00
N   -4.7295487088143311E+00    1.0193663050896964E+01    2.5154206587888148E+00
Ga   -4.8542398813103880E+00    8.3849577909756530E+00    3.3050238688782367E+00
N   -4.8423167171864110E+00    8.3903546781102456E+00    5.2372554135041858E+00
Ga   -4.8544103723854830E+00    1.0282823273489841E+01    5.7989777945016741E+00
N   -4.8345698331647604E+00    1.0261746301720384E+01    7.7893718546042559E+00
Ga   -4.8151399895105413E+00    8.4111793145032241E+00    8.4479663491058368E+00
N   -4.8143194134049656E+00    8.4101780973527251E+00    1.0433350482181991E+01
Ga   -4.8405392852283553E+00    1.0271580937114585E+01    1.1075496816671876E+01
N   -4.8577086886668104E+00    1.0279913423251713E+01    1.3065826115047251E+01
Ga   -4.8132561498289093E+00    8.4117545611414233E+00    1.3630070815001728E+01
N   -4.8453425019390925E+00    8.3928528424310258E+00    1.5587256356906977E+01
Ga   -4.6609307582507542E+00    1.0165573838502931E+01    1.6491940964544821E+01
N   -3.2237808511162735E+00    9.3294525401090134E+00    1.7622842389541809E+01
N    3.2044591600706140E+00    1.9122207627950925E+00    2.5997236049171484E+00
Ga    3.2080575995056559E+00    1.6874768526771078E-01    3.2697495959197553E+00
N    3.2154098020717043E+00    4.5598300136648860E-02    5.2383820873770084E+00
Ga    3.2056153729300072E+00    1.9206165313925745E+00    5.8540761729479893E+00
N    3.2151837073927565E+00    1.9065388615193313E+00    7.8359543767463355E+00
Ga    3.2143330633914706E+00    4.1752167230750578E-02    8.4329240513101329E+00
N    3.2140829149081624E+00    3.4639171771676899E-02    1.0424974065853943E+01
Ga    3.2135505622520455E+00    1.9022500534516062E+00    1.1034993492477771E+01
N    3.2149921694326982E+00    1.9037679540653414E+00    1.3001396482214469E+01
Ga    3.2149146116242875E+00    3.5866695999659991E-02    1.3628544149508219E+01
N    3.2161214394949567E+00    6.9308695108301704E-02    1.5585444405280285E+01
Ga    3.2155740223626177E+00    1.9056903330131905E+00    1.5867832450261160E+01
N    1.4654421216755498E+00    4.6083287252045233E+00    2.3485312402445846E+00
Ga    1.6804385857815638E+00    2.8284136952208518E+00    3.2283715230975201E+00
N    1.6080619367900904E+00    2.8461241171417515E+00    5.2209840868254682E+00
Ga    1.6572255427537312E+00    4.7068416421652932E+00    5.8265042986780191E+00
N    1.6001098717156856E+00    4.6875256840987474E+00    7.8327308960253257E+00
Ga    1.5957436213320453E+00    2.8348255773208724E+00    8.4483038904354579E+00
N    1.5957884721364681E+00    2.8353252809138318E+00    1.0439224589564398E+01
Ga    1.6229776878251034E+00    4.6982670457992626E+00    1.1074489907827385E+01
N    1.6385318873811405E+00    4.7088086797343971E+00    1.3067322420680041E+01
Ga    1.5957703353734665E+00    2.8398820492090593E+00    1.3626867424153893E+01
N    1.6258227421969254E+00    2.8236949912569353E+00    1.5584507594205210E+01
Ga    1.4349832667456655E+00    4.5909328657902231E+00    1.6492759901946027E+01
N   -1.9604567856230763E-04    7.4566682367898585E+00    2.6727998125414989E+00
Ga    4.7913869534014615E-02    5.5845187406389343E+00    3.2836164155624372E+00
N    1.0880113772718275E-02    5.6242991044150834E+00    5.2278155606899421E+00
Ga    8.9614473223061219E-03    7.4565332704067808E+00    5.8919682653381935E+00
N    1.0616143361143668E-03    7.4736744623076428E+00    7.8520430516260973E+00
Ga   -3.1303549695010906E-03    5.6020865443507581E+00    8.4589751684170036E+00
N   -5.6593915842275992E-03    5.6084983420743395E+00    1.0444587649334439E+01
Ga   -4.8077162457186374E-03    7.4761829743192889E+00    1.1040269471299457E+01
N   -2.6100483013560037E-03    7.4769092047452892E+00    1.3004645068901556E+01
Ga   -1.2280097745073840E-03    5.6056102835545145E+00    1.3628095746709125E+01
N   -3.0836473328256807E-04    5.6403195165514033E+00    1.5585534054843626E+01
Ga   -7.7833096845288476E-04    7.4761261194932880E+00    1.5868623313125118E+01
N   -1.7053653877943031E+00    1.0194628786202358E+01    2.5201643506273044E+00
Ga   -1.5937481972592993E+00    8.3829113716741421E+00    3.3100743193769850E+00
N   -1.5955659255808836E+00    8.3917918502017415E+00    5.2430180385852498E+00
Ga   -1.5849174005431315E+00    1.0279428483291973E+01    5.8026163004485172E+00
N   -1.5995608674552777E+00    1.0262988788796296E+01    7.7907912680887330E+00
Ga   -1.6183586212290046E+00    8.4092773632340236E+00    8.4439930907064902E+00
N   -1.6221287237155508E+00    8.4101511519972636E+00    1.0430451917943948E+01
Ga   -1.5962368922030887E+00    1.0270393583620613E+01    1.1074146315994650E+01
N   -1.5779682753698150E+00    1.0279477456739615E+01    1.3064490398034845E+01
Ga   -1.6208747882468690E+00    8.4114917444178090E+00    1.3629761173326742E+01
N   -1.5906925912252183E+00    8.3950720618276335E+00    1.5586350081923042E+01
Ga   -1.7809815263168982E+00    1.0162234686700536E+01    1.6493886876804542E+01
N    6.4323369416786154E+00    2.0214983732414233E+00    2.5428524476650352E+00
Ga    6.4281243328703859E+00    5.3185250701289544E-02    2.8889481297322628E+00
N    6.4346576624486049E+00    4.6343942010204552E-02    5.0212495751289516E+00
Ga    6.4232334526699741E+00    1.8847434079266583E+00    5.8012019255440643E+00
N    6.4295673457704581E+00    1.8910490075913600E+00    7.7944265885775161E+00
Ga    6.4308721549202508E+00    4.8231403687502103E-02    8.4474448837745229E+00
N    6.4305792719053416E+00    4.7516808106711057E-02    1.0417960693647977E+01
Ga    6.4308911856832669E+00    1.8870714181535004E+00    1.1077433223644285E+01
N    6.4313838374626568E+00    1.8675852957812509E+00    1.3067666104413838E+01
Ga    6.4295606038676132E+00    4.8396038834817530E-02    1.3880093906054864E+01
N    6.4283397483302460E+00    4.7017238368840752E-02    1.6073676500368766E+01
Ga    6.4301379591471415E+00    2.0885764549679333E+00    1.6489309874958938E+01
Ga    6.4585345375945664E+00    3.7026540551632943E+00    1.4861204852101588E+00
N    4.9338102885611912E+00    4.6242199016658327E+00    2.3898360559174554E+00
Ga    4.6903935343445902E+00    2.8187088583255231E+00    3.2734052918118941E+00
N    4.8263863595250376E+00    2.8463071067908863E+00    5.2352798584793474E+00
Ga    4.7720118659199455E+00    4.7115157328869373E+00    5.8420381624382189E+00
N    4.8337857556416326E+00    4.6869047555493584E+00    7.8381449288785232E+00
Ga    4.8319030565926218E+00    2.8326003448535118E+00    8.4521253626078021E+00
N    4.8329865770894722E+00    2.8350761969712179E+00    1.0440627142762132E+01
Ga    4.8052417355165149E+00    4.6983293842315357E+00    1.1075961015104317E+01
N    4.7907317848538957E+00    4.7083231795719964E+00    1.3068392394508500E+01
Ga    4.8336278968675579E+00    2.8394721259314779E+00    1.3627506877727374E+01
N    4.8083281016986419E+00    2.8246790694147985E+00    1.5588087723372110E+01
Ga    4.9816198994142296E+00    4.5974996475039545E+00    1.6489702612750779E+01
N    6.4247324983656728E+00    3.7573466601865779E+00    1.7632161301384421E+01
N    3.2146576453919358E+00    7.6011638202722098E+00    2.3827181602494920E+00
N    3.2202073164096086E+00    5.6222360921606249E+00    5.2289966817420943E+00
Ga    3.2163657632151539E+00    7.4121665812308359E+00    5.8510376460522115E+00
N    3.2161552141367564E+00    7.4881538783037334E+00    7.8398060613841771E+00
Ga    3.2138344854029373E+00    5.6164702445442227E+00    8.4403929603730354E+00
N    3.2149033821914110E+00    5.6196037114309183E+00    1.0422166783998817E+01
Ga    3.2140298215072800E+00    7.4556465904230391E+00    1.1079014945764660E+01
N    3.2142588075371563E+00    7.4391281541794196E+00    1.3070130449789962E+01
Ga    3.2138460577277503E+00    5.6178386270755984E+00    1.3879897000568306E+01
N    3.2125450524023567E+00    5.6173111090663550E+00    1.6075050637009589E+01
Ga    3.2141399312122778E+00    7.6593441961012543E+00    1.6490248822915159E+01
Ga    3.2102522941225637E+00    9.3876493536597092E+00    1.4557557013463582E+00
N    1.7066325536189950E+00    1.0184761880886789E+01    2.5262632436163814E+00
Ga    1.6099813275423427E+00    8.3342362066587583E+00    3.3085135931889700E+00
N    1.6088377058225529E+00    8.3900429300644941E+00    5.2354858830486952E+00
Ga    1.5825111455846474E+00    1.0270232980232040E+01    5.8060468427834664E+00
N    1.5951167957470933E+00    1.0262351964409183E+01    7.7940020554218776E+00
Ga    1.6144859549715569E+00    8.4137951592957005E+00    8.4632563736267716E+00
N    1.6132157117149253E+00    8.4125365745478717E+00    1.0446102244974233E+01
Ga    1.5906371875989287E+00    1.0271854885027345E+01    1.1080897636008702E+01
N    1.5742960314119252E+00    1.0280602542155838E+01    1.3069678237037781E+01
Ga    1.6175091077719339E+00    8.4109669230679227E+00    1.3629519400358639E+01
N    1.5917045178359275E+00    8.3958464737855909E+00    1.5589655408440992E+01
Ga    1.7655100242833872E+00    1.0168649574501103E+01    1.6489899292262457E+01
N    3.2084477858714404E+00    9.3295925269127302E+00    1.7632252865067141E+01
N    9.6562063739310400E+00    1.9064064910934726E+00    2.6248901049139670E+00
Ga    9.6542055840946777E+00    1.6813332412850501E-01    3.2972619093180953E+00
N    9.6478227902980187E+00    4.0993287989875116E-02    5.2545570090597113E+00
Ga    9.6565725424867264E+00    1.9075252730236611E+00    5.8807410518110048E+00
N    9.6470755664283860E+00    1.9031247217074874E+00    7.8512769175628767E+00
Ga    9.6476938787457414E+00    3.4934486863693076E-02    8.4398983563943855E+00
N    9.6466174173962074E+00    3.3437860057946425E-02    1.0429874149073751E+01
Ga    9.6465881710494976E+00    1.9052253190382216E+00    1.1027177678995411E+01
N    9.6456643072696107E+00    1.9044472255462128E+00    1.2996488152508093E+01
Ga    9.6469323671916865E+00    3.6981077210438397E-02    1.3628989410425037E+01
N    9.6470131035665112E+00    6.5246043416318650E-02    1.5588116110209917E+01
Ga    9.6451442953680893E+00    1.9042802415671636E+00    1.5867597539895172E+01
N    7.9221597440101785E+00    4.6299147913699557E+00    2.5268975647654162E+00
Ga    8.1495824012987281E+00    2.7715498708522905E+00    3.3056876715659116E+00
N    8.0407412790389046E+00    2.8338200719658309E+00    5.2610137373757535E+00
Ga    8.0653119155542310E+00    4.7061825054167050E+00    5.8032612449194332E+00
N    8.0475601555331373E+00    4.6999619028113058E+00    7.7937187951966749E+00
Ga    8.0279321625804734E+00    2.8384641353109203E+00    8.4385163371571696E+00
N    8.0264616608673656E+00    2.8408872250083013E+00    1.0429426070097779E+01
Ga    8.0565587309146967E+00    4.6978801428129664E+00    1.1081132214612740E+01
N    8.0723703630153256E+00    4.7082225381053986E+00    1.3069655511151014E+01
Ga    8.0284592701315241E+00    2.8391748252602231E+00    1.3628217131620296E+01
N    8.0533157533204793E+00    2.8249839681143900E+00    1.5587491254235987E+01
Ga    7.8747343825231937E+00    4.5952196115846347E+00    1.6489676396498247E+01
N    6.4265269773967963E+00    7.4664110911984487E+00    2.5766483383450942E+00
Ga    6.3764919893427949E+00    5.6430023339903537E+00    3.3079738677167883E+00
N    6.4235479699980269E+00    5.6300481032129346E+00    5.2334038933045770E+00
Ga    6.4224389683995522E+00    7.4690778476830140E+00    5.9005524208506195E+00
N    6.4287380035242965E+00    7.4743897722093715E+00    7.8559285505600549E+00
Ga    6.4353985941314393E+00    5.6035784439710925E+00    8.4646418923477533E+00
N    6.4351139482801907E+00    5.6088746706351653E+00    1.0447393884744463E+01
Ga    6.4329067733447305E+00    7.4767232572360038E+00    1.1043660432701280E+01
N    6.4311984188051383E+00    7.4760001269723952E+00    1.3008144053438928E+01
Ga    6.4310199373981254E+00    5.6039486009058530E+00    1.3629080226077773E+01
N    6.4311302050308150E+00    5.6348855215885294E+00    1.5588461612113456E+01
Ga    6.4291499169883242E+00    7.4744679338800841E+00    1.5864689144142107E+01
N    4.7199058843319186E+00    1.0184311279074864E+01    2.5193565862070577E+00
Ga    4.8287369658184049E+00    8.3396245000741906E+00    3.3030724647395306E+00
N    4.8267867696178417E+00    8.3895790556748970E+00    5.2292816726762892E+00
Ga    4.8546155358746388E+00    1.0274615013836394E+01    5.8025401026092762E+00
N    4.8348154823081231E+00    1.0261696653251102E+01    7.7925572101083622E+00
Ga    4.8139643192720500E+00    8.4160158995573955E+00    8.4660492108967702E+00
N    4.8158356167955718E+00    8.4128061218307888E+00    1.0447909131690334E+01
Ga    4.8388013710245605E+00    1.0273055265950592E+01    1.1081332394582036E+01
N    4.8547539489051852E+00    1.0281106923822003E+01    1.3069657880348089E+01
Ga    4.8104316390547703E+00    8.4119625810667529E+00    1.3629677949771665E+01
N    4.8371056662607943E+00    8.3962640217269708E+00    1.5588871553055581E+01
Ga    4.6589114830036156E+00    1.0166418393663813E+01    1.6489680374746641E+01
O   -5.9416734512472480E-02    3.6602676366728213E+00   -5.3704911930486465E-01
H    2.2989970299415368E-03    7.4556556133301886E+00    1.6457255993758619E+00
C    6.2658776580303843E-01    2.5451959996953688E+00   -1.1264190846143407E+00
H    1.6824345937145420E+00    2.4795811931103033E+00   -8.0960206231489795E-01
H    1.4200784102992867E-01    1.5846282718310962E+00   -8.8439470341522963E-01
H    6.0086561348996737E-01    2.6817407075745812E+00   -2.2176097764384441E+00
Ga    3.1615607484155892E+00    5.5723301966694674E+00    1.8392926195201296E+00
O    3.2878902373591372E+00    5.7687524716678746E+00    1.8165022849802245E-04
H    2.8031424072795623E+00    5.0507208271048807E+00   -4.3853751871378294E-01
C    6.4232069450288840E+00    7.4577921897099380E+00    1.0800049962366396E+00
H    5.5457530043166416E+00    7.9740646070912158E+00    6.6483867815805808E-01
H    7.3171641190714301E+00    7.9494433961263891E+00    6.6825247836988344E-01
H    6.3961093795591326E+00    6.4362892544387655E+00    6.7551240060812356E-01
     &END COORD
     &KIND C
       BASIS_SET DZVP-MOLOPT-SR-GTH-q4
       POTENTIAL GTH-PBE-q4
       &POTENTIAL
 2 2
  0.3384712400000000E+00 2 -0.8803673979999999E+01  0.1339210850000000E+01
 2
  0.3025757500000000E+00 1  0.9622486650000001E+01
  0.2915069400000000E+00 0
         # Potential name:  GTH-PBE-Q4  for symbol:  C
         # Potential read from the potential filename: GTH_POTENTIALS
       &END POTENTIAL
     &END KIND
     &KIND O
       BASIS_SET DZVP-MOLOPT-SR-GTH-q6
       POTENTIAL GTH-PBE-q6
       &POTENTIAL
 2 4
  0.2445543000000000E+00 2 -0.1666721480000000E+02  0.2487311320000000E+01
 2
  0.2209559200000000E+00 1  0.1833745811000000E+02
  0.2113324700000000E+00 0
         # Potential name:  GTH-PBE-Q6  for symbol:  O
         # Potential read from the potential filename: GTH_POTENTIALS
       &END POTENTIAL
     &END KIND
     &KIND H
       BASIS_SET DZVP-MOLOPT-SR-GTH-q1
       POTENTIAL GTH-PBE-q1
       &POTENTIAL
 1
  0.2000000000000000E+00 2 -0.4178900440000000E+01  0.7244633100000000E+00
 0
         # Potential name:  GTH-PBE-Q1  for symbol:  H
         # Potential read from the potential filename: GTH_POTENTIALS
       &END POTENTIAL
     &END KIND
     &KIND N
       BASIS_SET DZVP-MOLOPT-SR-GTH
       POTENTIAL GTH-PBE-q5
       &POTENTIAL
 2 3
  0.2837905100000000E+00 2 -0.1241522559000000E+02  0.1868095920000000E+01
 2
  0.2554050000000000E+00 1  0.1363026257000000E+02
  0.2454945300000000E+00 0
         # Potential name:  GTH-PBE-Q5  for symbol:  N
         # Potential read from the potential filename: GTH_POTENTIALS
       &END POTENTIAL
     &END KIND
     &KIND Ga
       BASIS_SET DZVP-MOLOPT-SR-GTH
       POTENTIAL GTH-PBE-q13
       &POTENTIAL
 2 1 10
  0.4900000000000000E+00 0
 3
  0.4167772300000000E+00 3  0.1047568975000000E+02 -0.4921768140000000E+01  0.8707055900000000E+00
  0.7770178090000000E+01 -0.2248152160000000E+01
  0.1784415450000000E+01
  0.5696265200000000E+00 2  0.1777985340000000E+01  0.1958597600000000E+00
 -0.2317443900000000E+00
  0.2381265000000000E+00 1 -0.1624868022000000E+02
         # Potential name:  GTH-PBE-Q13  for symbol:  GA
         # Potential read from the potential filename: GTH_POTENTIALS
       &END POTENTIAL
     &END KIND
     &TOPOLOGY
       NUMBER_OF_ATOMS  212
       MULTIPLE_UNIT_CELL  1 1 1
     &END TOPOLOGY
   &END SUBSYS
 &END FORCE_EVAL
