 # Version information for this restart file 
 # current date 2019-06-29 07:09:12.519
 # current working dir /scratch/rzk/rzk/GaN-carbene/443-adatoms-both-2x2/06-CH3O-HO-H-H3C/01-UseUnoptimized-0501
 # Program compiled at                              Sun Apr  7 00:48:11 EDT 2019
 # Program compiled on                          beluga2.int.ets1.calculquebec.ca
 # Program compiled for                        Beluga-Linux-x86-64-intel-openmpi
 # Source code revision number                                         svn:18619
 &GLOBAL
   PRINT_LEVEL  MEDIUM
   PROJECT_NAME TEST
   RUN_TYPE  GEO_OPT
 &END GLOBAL
 &MOTION
   &GEO_OPT
     MAX_ITER  500
     STEP_START_VAL  119
   &END GEO_OPT
 &END MOTION
 &FORCE_EVAL
   METHOD  QS
   STRESS_TENSOR  ANALYTICAL
   &DFT
     BASIS_SET_FILE_NAME BASIS_MOLOPT
     POTENTIAL_FILE_NAME GTH_POTENTIALS
     UKS  T
     SURFACE_DIPOLE_CORRECTION  T
     SURF_DIP_DIR  Z
     &SCF
       MAX_SCF  80
       EPS_SCF     5.0000000000000004E-06
       &OT  T
         PRECONDITIONER  FULL_ALL
       &END OT
       &OUTER_SCF  T
         OPTIMIZER  NONE
         EPS_SCF     5.0000000000000004E-06
         MAX_SCF  4
       &END OUTER_SCF
       &PRINT
         &RESTART  OFF
           BACKUP_COPIES  1
           &EACH
             JUST_ENERGY  0
             QS_SCF  0
             MD  20
           &END EACH
         &END RESTART
       &END PRINT
     &END SCF
     &QS
       EPS_DEFAULT     1.0000000000000000E-14
       METHOD  GPW
     &END QS
     &MGRID
       NGRIDS  5
       CUTOFF     1.2000000000000000E+03
     &END MGRID
     &XC
       DENSITY_CUTOFF     1.0000000000000000E-10
       GRADIENT_CUTOFF     1.0000000000000000E-10
       TAU_CUTOFF     1.0000000000000000E-10
       &XC_FUNCTIONAL  NO_SHORTCUT
         &PBE  T
         &END PBE
       &END XC_FUNCTIONAL
       &VDW_POTENTIAL
         POTENTIAL_TYPE  PAIR_POTENTIAL
         &PAIR_POTENTIAL
           R_CUTOFF     1.0000000000000004E+01
           TYPE  DFTD3
           PARAMETER_FILE_NAME dftd3.dat
           REFERENCE_FUNCTIONAL PBE
           EPS_CN     9.9999999999999995E-07
           CALCULATE_C9_TERM  T
           REFERENCE_C9_TERM  T
           LONG_RANGE_CORRECTION  F
           VERBOSE_OUTPUT  F
         &END PAIR_POTENTIAL
       &END VDW_POTENTIAL
     &END XC
   &END DFT
   &SUBSYS
     &CELL
       A     1.2864472766435110E+01    0.0000000000000000E+00    0.0000000000000000E+00
       B    -6.4322363581020028E+00    1.1140960178524473E+01    0.0000000000000000E+00
       C     0.0000000000000000E+00    0.0000000000000000E+00    3.2000000000000000E+01
       MULTIPLE_UNIT_CELL  1 1 1
       &CELL_REF
         A     1.2982353780853531E+01    0.0000000000000000E+00    0.0000000000000000E+00
         B    -6.4911768904267628E+00    1.1243048175136114E+01    0.0000000000000000E+00
         C     0.0000000000000000E+00    0.0000000000000000E+00    3.2000000000000000E+01
         MULTIPLE_UNIT_CELL  1 1 1
       &END CELL_REF
     &END CELL
     &COORD
N   -2.5978677638884614E-03    2.0425576857989798E+00    2.4668600079052951E+00
Ga    2.1411506702515081E-02    1.0015512200540468E-01    2.8100527666147932E+00
N   -2.6386065470658704E-03    5.2743814163233489E-02    4.9780706620744022E+00
Ga    8.4887256988441118E-03    1.8935236083238012E+00    5.7392718130703217E+00
N    2.5468172389777576E-03    1.8963408748356061E+00    7.7476206683759301E+00
Ga    3.2811563710286587E-03    5.5444923082832144E-02    8.3945788246987547E+00
N    9.7616372226082184E-04    5.2514679682862025E-02    1.0372058167664163E+01
Ga    1.1760643758452380E-04    1.8913104593241417E+00    1.1027614638895075E+01
N   -9.3785029039687934E-04    1.8726336450684802E+00    1.3022751300016585E+01
Ga    5.8476064785874639E-04    5.4377625254947971E-02    1.3837088017253420E+01
N   -9.7372409640812525E-05    5.4217695086388309E-02    1.6027707905866521E+01
Ga   -5.6730223293998520E-05    2.1024261864170759E+00    1.6451616969727372E+01
Ga   -3.5174980850891269E-02    3.7167736478672371E+00    1.2462240658274140E+00
N   -1.4829737151931612E+00    4.6289587129759964E+00    2.4501169295494769E+00
Ga   -1.6686343552621503E+00    2.7958937210352039E+00    3.2194671831033461E+00
N   -1.6110067343132377E+00    2.8376277494994313E+00    5.2051806395784528E+00
Ga   -1.6246811406450683E+00    4.7043641250487376E+00    5.7501999673013220E+00
N   -1.6158776962006898E+00    4.7033217617921439E+00    7.7508119571552134E+00
Ga   -1.5931681265343587E+00    2.8428537492429076E+00    8.3858291427569949E+00
N   -1.5958726770076979E+00    2.8442506707408186E+00    1.0384273592231404E+01
Ga   -1.6229829240271665E+00    4.7019610189925043E+00    1.1025564442464393E+01
N   -1.6391797841292359E+00    4.7128250160683463E+00    1.3018566846450707E+01
Ga   -1.5969930863189523E+00    2.8450900498952367E+00    1.3579556903767926E+01
N   -1.6316599133140812E+00    2.8336413255219024E+00    1.5538941360164808E+01
Ga   -1.4281894825117218E+00    4.5945985124167175E+00    1.6452876861073968E+01
N   -2.5010674587575623E-04    3.7577012636035478E+00    1.7595971116141733E+01
N   -3.2191106267994276E+00    7.5828005982894213E+00    2.4558915540979558E+00
Ga   -3.1783286828812241E+00    5.6057856441934231E+00    2.8127744442174016E+00
N   -3.2142923863526551E+00    5.6170724320384240E+00    4.9803548822796397E+00
Ga   -3.2147039954367895E+00    7.4399601688408641E+00    5.7500794337687458E+00
N   -3.2157950419471315E+00    7.4713633802273440E+00    7.7438557008670159E+00
Ga   -3.2131059347586324E+00    5.6228519882581347E+00    8.3958021745813802E+00
N   -3.2154688705634307E+00    5.6243453526246325E+00    1.0372255336061846E+01
Ga   -3.2148797638271458E+00    7.4642580995794203E+00    1.1023399219282849E+01
N   -3.2152875939542844E+00    7.4458447338177880E+00    1.3016601787574876E+01
Ga   -3.2056043833062584E+00    5.6294915826545955E+00    1.3818208587474292E+01
N   -3.2049707027917735E+00    5.6314498243948581E+00    1.6025934311922210E+01
Ga   -3.2142963021425959E+00    7.6875122862419847E+00    1.6454147928957699E+01
Ga   -3.2177408722486383E+00    9.3919833454847907E+00    1.2095615167060740E+00
N   -4.7310490347472145E+00    1.0202793095166102E+01    2.4617292526699002E+00
Ga   -4.8291941730727785E+00    8.4023603287101380E+00    3.2434628786162740E+00
N   -4.8380373277895226E+00    8.3967266868720127E+00    5.1885808505221966E+00
Ga   -4.8491762185013245E+00    1.0287115925445345E+01    5.7432279127900729E+00
N   -4.8322812713957557E+00    1.0267341456813387E+01    7.7427272194897299E+00
Ga   -4.8114141020000742E+00    8.4172099919257803E+00    8.3939630007903716E+00
N   -4.8120887505815926E+00    8.4159032226125685E+00    1.0386438806007771E+01
Ga   -4.8380319902394531E+00    1.0276308904119327E+01    1.1025157075897711E+01
N   -4.8557625267114739E+00    1.0284798689208145E+01    1.3020627620617960E+01
Ga   -4.8100156594205146E+00    8.4173194493051575E+00    1.3581778997108072E+01
N   -4.8399102651027377E+00    8.3932104622737427E+00    1.5540788459049789E+01
Ga   -4.6598221000645266E+00    1.0172165714868370E+01    1.6452609740855838E+01
N   -3.2252006487263731E+00    9.3441718327459409E+00    1.7595969834854738E+01
N    3.2026430168668139E+00    1.9160642440005968E+00    2.5651762031582690E+00
Ga    3.2090682904346570E+00    1.5398200598942086E-01    3.2014806958583559E+00
N    3.2170749578944591E+00    5.2261686037691872E-02    5.1872570088696772E+00
Ga    3.2084165337430246E+00    1.9196354068178176E+00    5.8026604818769014E+00
N    3.2181098505811598E+00    1.9114564169963213E+00    7.7918843820890613E+00
Ga    3.2167460897868092E+00    4.5773599177524438E-02    8.3795441447458767E+00
N    3.2161981711030765E+00    3.9821655109524449E-02    1.0379322145272535E+01
Ga    3.2154353448613002E+00    1.9058804195222803E+00    1.0985290470885692E+01
N    3.2184072290932626E+00    1.9097465617916645E+00    1.2959618297418940E+01
Ga    3.2167528813271287E+00    3.9092620306483972E-02    1.3580140383345890E+01
N    3.2226864101215313E+00    7.5790372606694301E-02    1.5539448711120567E+01
Ga    3.2138879462024978E+00    1.9099985653694045E+00    1.5816979434801443E+01
N    1.4650336368514996E+00    4.6177689710850824E+00    2.3303783080138105E+00
Ga    1.6820134782263290E+00    2.8302275476200256E+00    3.1943752178212774E+00
N    1.6085466943930586E+00    2.8516179109759765E+00    5.1858479572616609E+00
Ga    1.6559921062230969E+00    4.7124481904442321E+00    5.7832248709365333E+00
N    1.6012275773089946E+00    4.6919271457898644E+00    7.7932999210682059E+00
Ga    1.5981826732389208E+00    2.8378725133485130E+00    8.3984248854970414E+00
N    1.5984372264286695E+00    2.8387549652173050E+00    1.0395433405276529E+01
Ga    1.6240440189853862E+00    4.7026099453082590E+00    1.1020580111861269E+01
N    1.6381007204527016E+00    4.7133687170526635E+00    1.3016999289513466E+01
Ga    1.5957060415613089E+00    2.8461879531989220E+00    1.3578100277901372E+01
N    1.6302924362870670E+00    2.8337116936393061E+00    1.5538099595039911E+01
Ga    1.4280080473547445E+00    4.5946583455795738E+00    1.6452232021745015E+01
N   -2.3750744708382035E-03    7.4653295503163486E+00    2.6321212429955874E+00
Ga    4.0617761521163476E-02    5.5960889261716611E+00    3.2457337873801677E+00
N    1.0205222185857257E-02    5.6306117776645976E+00    5.1911679476353276E+00
Ga    3.4268602980833318E-03    7.4665443507061644E+00    5.8423945117133904E+00
N    2.9638752681687272E-03    7.4795527635862316E+00    7.8072154724458720E+00
Ga   -2.1452911270383765E-03    5.6084640347984189E+00    8.4086185598366558E+00
N   -3.5970713637596824E-03    5.6142791819254132E+00    1.0398679701372295E+01
Ga   -3.1167236322427938E-03    7.4817274546119297E+00    1.0989114563298378E+01
N   -1.5369483767079274E-03    7.4820177677574655E+00    1.2957817567618745E+01
Ga    2.4158175799718419E-04    5.6112261411529412E+00    1.3577696539744384E+01
N   -7.1230103304226221E-04    5.6441455257993063E+00    1.5536133309250125E+01
Ga   -4.8387812719840473E-04    7.4811200548591845E+00    1.5813852222327002E+01
N   -1.7037414397347299E+00    1.0204286898782581E+01    2.4673474413331649E+00
Ga   -1.6116810700325577E+00    8.3998778202767515E+00    3.2428506202501124E+00
N   -1.5942147135619267E+00    8.3979763935698184E+00    5.1896700852285989E+00
Ga   -1.5859235328852737E+00    1.0283869698405260E+01    5.7443882635085437E+00
N   -1.5971413617344368E+00    1.0268435570183900E+01    7.7422423605953394E+00
Ga   -1.6168156902025057E+00    8.4154699925128575E+00    8.3898023208847547E+00
N   -1.6193048649815005E+00    8.4154773141485837E+00    1.0382452762666821E+01
Ga   -1.5949010529138459E+00    1.0274456362554053E+01    1.1020366354872031E+01
N   -1.5775581022596603E+00    1.0283224798916674E+01    1.3014771353690497E+01
Ga   -1.6191488291086531E+00    8.4162829206773093E+00    1.3579743360897885E+01
N   -1.5920555524579827E+00    8.4003643964202190E+00    1.5537534881165749E+01
Ga   -1.7855026484595102E+00    1.0162176766102275E+01    1.6453319774101285E+01
N    6.4309410885565637E+00    2.0321241336995275E+00    2.4935202777084742E+00
Ga    6.4131172176954152E+00    5.4374609664925050E-02    2.8314205535416543E+00
N    6.4382890481135906E+00    5.4125341999541145E-02    4.9771912976400987E+00
Ga    6.4252918141812243E+00    1.8893171643453122E+00    5.7506248816740753E+00
N    6.4320431405722074E+00    1.8967445890688144E+00    7.7499620974283285E+00
Ga    6.4316923333870113E+00    5.2971896495002765E-02    8.3950355723128958E+00
N    6.4329228966569190E+00    5.2623060054066299E-02    1.0371728091305830E+01
Ga    6.4337032802530256E+00    1.8908063198287375E+00    1.1024746671930588E+01
N    6.4336736261222391E+00    1.8712501311940923E+00    1.3025347783200862E+01
Ga    6.4319475967616073E+00    4.2458810640051879E-02    1.3817292215548798E+01
N    6.4313346842628487E+00    4.0647301647819260E-02    1.6025402712020345E+01
Ga    6.4314932516854251E+00    2.0411243969903610E+00    1.6388850144108897E+01
Ga    6.4488002402104838E+00    3.7191662668423127E+00    1.4464823821682677E+00
N    4.9314308112091325E+00    4.6384879088437980E+00    2.3519528023545813E+00
Ga    4.6883002837305243E+00    2.8225417606285998E+00    3.2290017656939884E+00
N    4.8282022303414864E+00    2.8530598996753547E+00    5.1929239116712314E+00
Ga    4.7768092867112362E+00    4.7165070968087210E+00    5.7966920024726329E+00
N    4.8373242774807457E+00    4.6913496224202484E+00    7.7978430340548783E+00
Ga    4.8341861819971470E+00    2.8364253230170884E+00    8.4025361133851071E+00
N    4.8355330387654600E+00    2.8395718991612564E+00    1.0398530632724800E+01
Ga    4.8069381988222020E+00    4.7038718893988651E+00    1.1022430861808278E+01
N    4.7912002157020073E+00    4.7146831631993109E+00    1.3025446269600273E+01
Ga    4.8353183198232346E+00    2.8448037842371829E+00    1.3568781923048599E+01
N    4.8181163791649180E+00    2.8355468905475751E+00    1.5547918118661185E+01
Ga    4.9356052652265552E+00    4.6311226375345687E+00    1.6388589547456931E+01
N    6.4308069056268122E+00    3.7674225205132794E+00    1.7511514961745146E+01
N    3.2181976963079424E+00    7.6032680700816604E+00    2.3594823654630885E+00
N    3.2215788391366296E+00    5.6282602849183192E+00    5.2000477850028544E+00
Ga    3.2191839673690970E+00    7.4213577991615685E+00    5.8065774005873871E+00
N    3.2188893667011702E+00    7.4949216757202777E+00    7.7993172224986100E+00
Ga    3.2161037690593970E+00    5.6218299766380442E+00    8.3888804618564343E+00
N    3.2172391796469810E+00    5.6246463502595345E+00    1.0376701664740221E+01
Ga    3.2163292189980797E+00    7.4623259423853119E+00    1.1024941664683578E+01
N    3.2156572412454154E+00    7.4463950374616035E+00    1.3019377031190754E+01
Ga    3.2059251640461186E+00    5.6292125366403489E+00    1.3815591220301350E+01
N    3.2038337435412916E+00    5.6311045968734241E+00    1.6026175485505782E+01
Ga    3.2133862052030766E+00    7.6882101469913904E+00    1.6454638418192367E+01
Ga    3.2151842397769221E+00    9.3814514418134056E+00    1.4364684326364010E+00
N    1.7098926201514697E+00    1.0189948033483065E+01    2.4820843568503248E+00
Ga    1.6035934289389182E+00    8.3404905214228346E+00    3.2720843151031844E+00
N    1.6098395278142668E+00    8.3969644515535542E+00    5.1980922597524026E+00
Ga    1.5828129528667783E+00    1.0279057080393411E+01    5.7576492056688959E+00
N    1.5979539399862104E+00    1.0268888084532803E+01    7.7499517884393265E+00
Ga    1.6157089627305228E+00    8.4198550408299013E+00    8.4126432576446213E+00
N    1.6148525440452215E+00    8.4177770533962519E+00    1.0399737117685302E+01
Ga    1.5940073758068112E+00    1.0276452662359244E+01    1.1027563585304106E+01
N    1.5778774068921766E+00    1.0284666385206492E+01    1.3019528991476983E+01
Ga    1.6186099106608145E+00    8.4157203536569885E+00    1.3579480871196614E+01
N    1.5903439269336188E+00    8.4002272291861217E+00    1.5537584346137404E+01
Ga    1.7854793473683301E+00    1.0161343619892593E+01    1.6454443228374839E+01
N    3.2234018391678911E+00    9.3434994441973398E+00    1.7599578288177028E+01
N    9.6569034122135395E+00    1.9139867342846060E+00    2.5768049775301320E+00
Ga    9.6567858276145326E+00    1.7714506061340107E-01    3.2504453199558023E+00
N    9.6504412242692403E+00    4.6701440219190482E-02    5.2088775449830473E+00
Ga    9.6573122291698308E+00    1.9136768032388154E+00    5.8284040301687252E+00
N    9.6487594382421289E+00    1.9084371311450574E+00    7.8045377770318041E+00
Ga    9.6503739533304369E+00    4.0913015754476798E-02    8.3902159979127404E+00
N    9.6499290559453073E+00    3.9384035813462122E-02    1.0385449744078429E+01
Ga    9.6500796333867971E+00    1.9101248396127659E+00    1.0977771127384385E+01
N    9.6462344098722692E+00    1.9115954679511318E+00    1.2953391136890309E+01
Ga    9.6481764147739106E+00    4.1768534209892731E-02    1.3581435639391360E+01
N    9.6411003242587618E+00    7.7031643899254237E-02    1.5540381115222196E+01
Ga    9.6498620092656733E+00    1.9099591798887701E+00    1.5821338828364228E+01
N    7.9223105640015117E+00    4.6378768881828272E+00    2.4764717743218996E+00
Ga    8.1488509239549849E+00    2.7806245799222129E+00    3.2532509401258776E+00
N    8.0419004164621377E+00    2.8394912639065302E+00    5.2127171536257588E+00
Ga    8.0680209650931385E+00    4.7114061220968404E+00    5.7548324508858633E+00
N    8.0494128463636105E+00    4.7040368626258777E+00    7.7506429812021418E+00
Ga    8.0301985130340405E+00    2.8430028751217353E+00    8.3879782303213588E+00
N    8.0292591777532856E+00    2.8456102480677310E+00    1.0386173453565144E+01
Ga    8.0600269891335810E+00    4.7032437261998830E+00    1.1027818708471308E+01
N    8.0754249444057518E+00    4.7141311862139617E+00    1.3027181213014931E+01
Ga    8.0309782749676319E+00    2.8439506032661876E+00    1.3570811538001060E+01
N    8.0462632932994946E+00    2.8355789454146585E+00    1.5549105746818276E+01
Ga    7.9267230708119500E+00    4.6307266522255706E+00    1.6389504013161030E+01
N    6.4335644786936923E+00    7.4782276680720852E+00    2.5487773107949270E+00
Ga    6.3831361202900538E+00    5.6566924916896326E+00    3.2626759043864952E+00
N    6.4257824488070536E+00    5.6346985290588814E+00    5.1913416069248699E+00
Ga    6.4312075278849852E+00    7.4770371148073345E+00    5.8503695051255376E+00
N    6.4317836468909348E+00    7.4791508942787122E+00    7.8115193381696582E+00
Ga    6.4386393519665441E+00    5.6094663593253005E+00    8.4154349289140136E+00
N    6.4379064922802023E+00    5.6140769857643962E+00    1.0405151553214628E+01
Ga    6.4367942254804191E+00    7.4831822368711149E+00    1.0993333194447926E+01
N    6.4340441029240338E+00    7.4794707511384964E+00    1.2964716431425895E+01
Ga    6.4325172674237221E+00    5.6101978320891295E+00    1.3570691177724592E+01
N    6.4322275549935064E+00    5.6312786559101964E+00    1.5549331225786265E+01
Ga    6.4317787858022522E+00    7.4834081230744625E+00    1.5817825120976819E+01
N    4.7233332365590392E+00    1.0191634282866463E+01    2.4724570587241925E+00
Ga    4.8405292964014475E+00    8.3492799718298176E+00    3.2654697158371535E+00
N    4.8293614083285732E+00    8.3971929538728851E+00    5.1925368000383374E+00
Ga    4.8584744462863023E+00    1.0282489713687717E+01    5.7562426292600124E+00
N    4.8370383983528935E+00    1.0267829924910593E+01    7.7501179823160786E+00
Ga    4.8181117186283533E+00    8.4219193535019556E+00    8.4169549840194513E+00
N    4.8197089264744495E+00    8.4184522149871039E+00    1.0404022670601789E+01
Ga    4.8420012384985354E+00    1.0278587085551138E+01    1.1032669336770553E+01
N    4.8564681292483067E+00    1.0286422801553833E+01    1.3025520722983096E+01
Ga    4.8110357935001282E+00    8.4170169104517853E+00    1.3581398843665429E+01
N    4.8398353458657111E+00    8.3931847615237043E+00    1.5540728828783759E+01
Ga    4.6571864361289110E+00    1.0170710096458135E+01    1.6454028313374494E+01
O    5.5114071621835049E-02    3.6887715328275585E+00   -5.7247905830637391E-01
H    8.0503241538354177E-03    7.4606089752189755E+00    1.6051284276373547E+00
C    6.0494237533909734E-01    2.4867745114513027E+00   -1.1400439580726169E+00
H    1.6127453313523874E+00    2.2593391340734890E+00   -7.5249349049178171E-01
H   -3.8013662924123358E-02    1.6104439276618028E+00   -9.5575423107506752E-01
H    6.7747036753105694E-01    2.6405601762786266E+00   -2.2266253835184355E+00
Ga    3.1562145445787104E+00    5.5702337433923272E+00    1.8148972645404955E+00
O    3.2589640942837637E+00    5.7368671562975821E+00   -2.7651342921311071E-02
H    2.5356445066151885E+00    5.2305412150236874E+00   -4.3585672337378328E-01
C    6.4375741110645208E+00    7.4803362151117643E+00    1.0530207735363084E+00
H    6.4491654790521249E+00    8.5112013258348238E+00    6.7014173386747800E-01
H    7.3334842509933162E+00    6.9695866149604129E+00    6.7137053607565167E-01
H    5.5529468272982969E+00    6.9711365142651331E+00    6.4125874599155475E-01
     &END COORD
     &KIND C
       BASIS_SET DZVP-MOLOPT-SR-GTH-q4
       POTENTIAL GTH-PBE-q4
       &POTENTIAL
 2 2
  0.3384712400000000E+00 2 -0.8803673979999999E+01  0.1339210850000000E+01
 2
  0.3025757500000000E+00 1  0.9622486650000001E+01
  0.2915069400000000E+00 0
         # Potential name:  GTH-PBE-Q4  for symbol:  C
         # Potential read from the potential filename: GTH_POTENTIALS
       &END POTENTIAL
     &END KIND
     &KIND O
       BASIS_SET DZVP-MOLOPT-SR-GTH-q6
       POTENTIAL GTH-PBE-q6
       &POTENTIAL
 2 4
  0.2445543000000000E+00 2 -0.1666721480000000E+02  0.2487311320000000E+01
 2
  0.2209559200000000E+00 1  0.1833745811000000E+02
  0.2113324700000000E+00 0
         # Potential name:  GTH-PBE-Q6  for symbol:  O
         # Potential read from the potential filename: GTH_POTENTIALS
       &END POTENTIAL
     &END KIND
     &KIND H
       BASIS_SET DZVP-MOLOPT-SR-GTH-q1
       POTENTIAL GTH-PBE-q1
       &POTENTIAL
 1
  0.2000000000000000E+00 2 -0.4178900440000000E+01  0.7244633100000000E+00
 0
         # Potential name:  GTH-PBE-Q1  for symbol:  H
         # Potential read from the potential filename: GTH_POTENTIALS
       &END POTENTIAL
     &END KIND
     &KIND N
       BASIS_SET DZVP-MOLOPT-SR-GTH
       POTENTIAL GTH-PBE-q5
       &POTENTIAL
 2 3
  0.2837905100000000E+00 2 -0.1241522559000000E+02  0.1868095920000000E+01
 2
  0.2554050000000000E+00 1  0.1363026257000000E+02
  0.2454945300000000E+00 0
         # Potential name:  GTH-PBE-Q5  for symbol:  N
         # Potential read from the potential filename: GTH_POTENTIALS
       &END POTENTIAL
     &END KIND
     &KIND Ga
       BASIS_SET DZVP-MOLOPT-SR-GTH
       POTENTIAL GTH-PBE-q13
       &POTENTIAL
 2 1 10
  0.4900000000000000E+00 0
 3
  0.4167772300000000E+00 3  0.1047568975000000E+02 -0.4921768140000000E+01  0.8707055900000000E+00
  0.7770178090000000E+01 -0.2248152160000000E+01
  0.1784415450000000E+01
  0.5696265200000000E+00 2  0.1777985340000000E+01  0.1958597600000000E+00
 -0.2317443900000000E+00
  0.2381265000000000E+00 1 -0.1624868022000000E+02
         # Potential name:  GTH-PBE-Q13  for symbol:  GA
         # Potential read from the potential filename: GTH_POTENTIALS
       &END POTENTIAL
     &END KIND
     &TOPOLOGY
       NUMBER_OF_ATOMS  212
       MULTIPLE_UNIT_CELL  1 1 1
     &END TOPOLOGY
   &END SUBSYS
 &END FORCE_EVAL
