 # Version information for this restart file 
 # current date 2019-06-29 09:15:01.117
 # current working dir /scratch/rzk/rzk/GaN-carbene/443-adatoms-both-2x2/06-CH3O-HO-H-H3C/01-UseUnoptimized-0501
 # Program compiled at                              Sun Apr  7 00:48:11 EDT 2019
 # Program compiled on                          beluga2.int.ets1.calculquebec.ca
 # Program compiled for                        Beluga-Linux-x86-64-intel-openmpi
 # Source code revision number                                         svn:18619
 &GLOBAL
   PRINT_LEVEL  MEDIUM
   PROJECT_NAME TEST
   RUN_TYPE  GEO_OPT
 &END GLOBAL
 &MOTION
   &GEO_OPT
     MAX_ITER  500
     STEP_START_VAL  156
   &END GEO_OPT
 &END MOTION
 &FORCE_EVAL
   METHOD  QS
   STRESS_TENSOR  ANALYTICAL
   &DFT
     BASIS_SET_FILE_NAME BASIS_MOLOPT
     POTENTIAL_FILE_NAME GTH_POTENTIALS
     UKS  T
     SURFACE_DIPOLE_CORRECTION  T
     SURF_DIP_DIR  Z
     &SCF
       MAX_SCF  80
       EPS_SCF     5.0000000000000004E-06
       &OT  T
         PRECONDITIONER  FULL_ALL
       &END OT
       &OUTER_SCF  T
         OPTIMIZER  NONE
         EPS_SCF     5.0000000000000004E-06
         MAX_SCF  4
       &END OUTER_SCF
       &PRINT
         &RESTART  OFF
           BACKUP_COPIES  1
           &EACH
             JUST_ENERGY  0
             QS_SCF  0
             MD  20
           &END EACH
         &END RESTART
       &END PRINT
     &END SCF
     &QS
       EPS_DEFAULT     1.0000000000000000E-14
       METHOD  GPW
     &END QS
     &MGRID
       NGRIDS  5
       CUTOFF     1.2000000000000000E+03
     &END MGRID
     &XC
       DENSITY_CUTOFF     1.0000000000000000E-10
       GRADIENT_CUTOFF     1.0000000000000000E-10
       TAU_CUTOFF     1.0000000000000000E-10
       &XC_FUNCTIONAL  NO_SHORTCUT
         &PBE  T
         &END PBE
       &END XC_FUNCTIONAL
       &VDW_POTENTIAL
         POTENTIAL_TYPE  PAIR_POTENTIAL
         &PAIR_POTENTIAL
           R_CUTOFF     1.0000000000000004E+01
           TYPE  DFTD3
           PARAMETER_FILE_NAME dftd3.dat
           REFERENCE_FUNCTIONAL PBE
           EPS_CN     9.9999999999999995E-07
           CALCULATE_C9_TERM  T
           REFERENCE_C9_TERM  T
           LONG_RANGE_CORRECTION  F
           VERBOSE_OUTPUT  F
         &END PAIR_POTENTIAL
       &END VDW_POTENTIAL
     &END XC
   &END DFT
   &SUBSYS
     &CELL
       A     1.2864472766435110E+01    0.0000000000000000E+00    0.0000000000000000E+00
       B    -6.4322363581020028E+00    1.1140960178524473E+01    0.0000000000000000E+00
       C     0.0000000000000000E+00    0.0000000000000000E+00    3.2000000000000000E+01
       MULTIPLE_UNIT_CELL  1 1 1
       &CELL_REF
         A     1.2982353780853531E+01    0.0000000000000000E+00    0.0000000000000000E+00
         B    -6.4911768904267628E+00    1.1243048175136114E+01    0.0000000000000000E+00
         C     0.0000000000000000E+00    0.0000000000000000E+00    3.2000000000000000E+01
         MULTIPLE_UNIT_CELL  1 1 1
       &END CELL_REF
     &END CELL
     &COORD
N   -1.5070012285975762E-03    2.0416480907152605E+00    2.4736715484250360E+00
Ga    2.2816507179185801E-02    9.9330872822472951E-02    2.8163673110987766E+00
N   -1.9744533151621487E-03    5.1678991712610402E-02    4.9846485993883549E+00
Ga    9.1873748003008914E-03    1.8924322153969919E+00    5.7461620750813172E+00
N    2.6077569539874642E-03    1.8949043929215332E+00    7.7544315056152406E+00
Ga    3.1455046008694418E-03    5.3951115306277664E-02    8.4011942432317053E+00
N    9.7206132866210001E-04    5.0758828961396038E-02    1.0378502656493374E+01
Ga    6.5419343874640275E-05    1.8894253985945308E+00    1.1033729312556629E+01
N   -9.3887801273961143E-04    1.8705210398089416E+00    1.3029173930255448E+01
Ga    8.6418873091691543E-04    5.2493543183867196E-02    1.3845185675032090E+01
N    4.0660890428369814E-04    5.1948532013059025E-02    1.6035643375837623E+01
Ga    2.5125494553600932E-04    2.1002086733705383E+00    1.6459287843131101E+01
Ga   -3.4233543675626636E-02    3.7136994319144576E+00    1.2516000014125930E+00
N   -1.4819197723817104E+00    4.6272977281899319E+00    2.4564123076970961E+00
Ga   -1.6675824834634230E+00    2.7948142309145876E+00    3.2266910618428954E+00
N   -1.6104486273329091E+00    2.8362511659889393E+00    5.2121221084252705E+00
Ga   -1.6242116381799536E+00    4.7031384569572907E+00    5.7561122944719836E+00
N   -1.6160721803288156E+00    4.7019324858620024E+00    7.7570442925575946E+00
Ga   -1.5932395558912447E+00    2.8415096582740564E+00    8.3922240024811039E+00
N   -1.5959342973061077E+00    2.8426103766503279E+00    1.0390555017227193E+01
Ga   -1.6230978809393954E+00    4.7004424567722518E+00    1.1031042654520560E+01
N   -1.6391052961037644E+00    4.7108989247141322E+00    1.3024361674076221E+01
Ga   -1.5969426816123959E+00    2.8432068326191784E+00    1.3585607791270576E+01
N   -1.6311566232282477E+00    2.8315834495481829E+00    1.5545304290931981E+01
Ga   -1.4273201425555027E+00    4.5921639358120672E+00    1.6459928158685017E+01
N    8.1810676822984706E-05    3.7555069073296066E+00    1.7603847076451213E+01
N   -3.2179498467101508E+00    7.5820485378781424E+00    2.4615868752654833E+00
Ga   -3.1770067560343498E+00    5.6046606920400874E+00    2.8178613153600036E+00
N   -3.2137508960185976E+00    5.6160404601488052E+00    4.9864559970509195E+00
Ga   -3.2141907771422176E+00    7.4389586725748806E+00    5.7561869812769455E+00
N   -3.2159001431816456E+00    7.4700849071063704E+00    7.7503935748950026E+00
Ga   -3.2133176189509478E+00    5.6214393260978088E+00    8.4018534471753643E+00
N   -3.2156839295364970E+00    5.6228373987212157E+00    1.0378293303291571E+01
Ga   -3.2149568133305384E+00    7.4627546475078264E+00    1.1029133115234478E+01
N   -3.2150985891991821E+00    7.4440810389578047E+00    1.3022676239893128E+01
Ga   -3.2052324131559615E+00    5.6278451294173228E+00    1.3823542291043648E+01
N   -3.2038050616542804E+00    5.6296228273505191E+00    1.6032304552001193E+01
Ga   -3.2135730131922116E+00    7.6860516155665319E+00    1.6461990965342828E+01
Ga   -3.2164314348858873E+00    9.3915599355147172E+00    1.2149843692179350E+00
N   -4.7296732487396138E+00    1.0201983886411115E+01    2.4677155392967158E+00
Ga   -4.8276496442941177E+00    8.4018598398076740E+00    3.2497667691763228E+00
N   -4.8373551467146605E+00    8.3958943291647525E+00    5.1949818755185397E+00
Ga   -4.8484954607130133E+00    1.0286212450685598E+01    5.7497644322617196E+00
N   -4.8322852145713302E+00    1.0265994537517214E+01    7.7494106529993694E+00
Ga   -4.8115331602260643E+00    8.4158578694544683E+00    8.4007102071115334E+00
N   -4.8121663369510994E+00    8.4143739932078940E+00    1.0392976583481609E+01
Ga   -4.8380556399573447E+00    1.0274742283439043E+01    1.1031305278159664E+01
N   -4.8558791450144501E+00    1.0283080878511369E+01    1.3027221337148976E+01
Ga   -4.8097298558231385E+00    8.4155814811698111E+00    1.3588339243246974E+01
N   -4.8393999633156852E+00    8.3910266908561955E+00    1.5547635065652889E+01
Ga   -4.6586216671516096E+00    1.0169458560630620E+01    1.6461416405292848E+01
N   -3.2241774393626015E+00    9.3414988734813758E+00    1.7604995294020604E+01
N    3.2037719132410540E+00    1.9154950020470716E+00    2.5716527605150654E+00
Ga    3.2102902322044220E+00    1.5330612546736833E-01    3.2072137628711990E+00
N    3.2175442211284415E+00    5.1367718963297698E-02    5.1934031788229369E+00
Ga    3.2088045532046356E+00    1.9188052330013918E+00    5.8082587858369337E+00
N    3.2182138636269579E+00    1.9100885276055901E+00    7.7979223429552889E+00
Ga    3.2166646719597445E+00    4.4571293166810244E-02    8.3859895665228414E+00
N    3.2160913680118868E+00    3.8253294682456154E-02    1.0385671816042359E+01
Ga    3.2155604235101438E+00    1.9041277357832291E+00    1.0991804475070518E+01
N    3.2188566796443787E+00    1.9079068842007880E+00    1.2966385324115286E+01
Ga    3.2168755170859380E+00    3.6811180016798672E-02    1.3586553865968934E+01
N    3.2229938145953065E+00    7.3622550393878952E-02    1.5546282906253150E+01
Ga    3.2141116487773727E+00    1.9080099729271989E+00    1.5822342807024377E+01
N    1.4661080241378266E+00    4.6162001009277498E+00    2.3355080923654765E+00
Ga    1.6832540217860554E+00    2.8296130560984527E+00    3.2004178674927775E+00
N    1.6088947960554127E+00    2.8506731959425897E+00    5.1922310118920620E+00
Ga    1.6562562299914747E+00    4.7111923002137548E+00    5.7902470292694792E+00
N    1.6013193620999897E+00    4.6906078958074469E+00    7.8000410778303459E+00
Ga    1.5984099258768685E+00    2.8363849638511685E+00    8.4046927735275236E+00
N    1.5985177794224559E+00    2.8369620521452434E+00    1.0401823193169523E+01
Ga    1.6238002918663190E+00    4.7010323128472109E+00    1.1026017578985808E+01
N    1.6380685891238109E+00    4.7115145910376155E+00    1.3022875241160822E+01
Ga    1.5956455958349185E+00    2.8442117792037958E+00    1.3584144154827200E+01
N    1.6303669166612045E+00    2.8316933638799497E+00    1.5544441869375413E+01
Ga    1.4279073618429310E+00    4.5922869499251364E+00    1.6459552996075335E+01
N   -1.0507627157583148E-03    7.4641775822216472E+00    2.6391480381862151E+00
Ga    4.1762451054410843E-02    5.5943256967293520E+00    3.2511306615640314E+00
N    1.0722495647632757E-02    5.6292127162965802E+00    5.1972041626435548E+00
Ga    3.5072332952981906E-03    7.4650647383711126E+00    5.8485779490244481E+00
N    2.6529868497893322E-03    7.4782114300995950E+00    7.8134822584008461E+00
Ga   -2.3618729708424161E-03    5.6071782919909570E+00    8.4143431571660852E+00
N   -3.8014519446999831E-03    5.6128715231342108E+00    1.0404612454179235E+01
Ga   -3.2283417129477625E-03    7.4802797346065999E+00    1.0995557933837377E+01
N   -1.4034032107242429E-03    7.4801847536981860E+00    1.2963954054377211E+01
Ga    1.2436490504445560E-04    5.6094428836247419E+00    1.3583748279359559E+01
N   -3.3182064562891343E-04    5.6414890003778595E+00    1.5542346498801098E+01
Ga    9.5766738329530070E-06    7.4787586360129437E+00    1.5819259047663985E+01
N   -1.7026967780719788E+00    1.0203374940677516E+01    2.4733364046399857E+00
Ga   -1.6105789767839278E+00    8.3990231262515866E+00    3.2488282718436596E+00
N   -1.5937712131163064E+00    8.3969598801909342E+00    5.1959260083568504E+00
Ga   -1.5858020256720400E+00    1.0282780995726323E+01    5.7508319531522316E+00
N   -1.5972450282653239E+00    1.0267114126487211E+01    7.7489366067770122E+00
Ga   -1.6169126289468536E+00    8.4140916339058354E+00    8.3965283528990753E+00
N   -1.6194502359768623E+00    8.4139223605136237E+00    1.0388761532136192E+01
Ga   -1.5951614482083072E+00    1.0272793384642133E+01    1.1026217782309407E+01
N   -1.5774403808783570E+00    1.0281269457892828E+01    1.3020892788664618E+01
Ga   -1.6189798347221922E+00    8.4144075718785949E+00    1.3586147472906818E+01
N   -1.5917045781771393E+00    8.3982416833902054E+00    1.5544140721107793E+01
Ga   -1.7855889469821604E+00    1.0159497778707697E+01    1.6461504151045609E+01
N    6.4319087190126272E+00    2.0318016031478900E+00    2.4997847165336724E+00
Ga    6.4137045666147321E+00    5.3772818976174037E-02    2.8376505230942071E+00
N    6.4385216293976786E+00    5.3144720784706410E-02    4.9836684896588412E+00
Ga    6.4255153539121697E+00    1.8885278491053441E+00    5.7563431593850574E+00
N    6.4319944021354400E+00    1.8955198835917724E+00    7.7561597306855630E+00
Ga    6.4316843437371265E+00    5.1750942171941983E-02    8.4012946353689966E+00
N    6.4327527913199489E+00    5.1022930162442102E-02    1.0377998268209540E+01
Ga    6.4336485663711676E+00    1.8891107130261269E+00    1.1030680498276675E+01
N    6.4339771777668568E+00    1.8692716707188521E+00    1.3031470830668582E+01
Ga    6.4320746329405667E+00    4.0286999657200229E-02    1.3822708098997603E+01
N    6.4317739093206558E+00    3.7605995736337772E-02    1.6031999016424827E+01
Ga    6.4321577445748508E+00    2.0367319754535518E+00    1.6393389352911434E+01
Ga    6.4498774976632998E+00    3.7180583704999397E+00    1.4517322243799491E+00
N    4.9316818942004366E+00    4.6382062317085273E+00    2.3553568682783603E+00
Ga    4.6890207620193740E+00    2.8227543346526436E+00    3.2345342040120699E+00
N    4.8286053837854830E+00    2.8524070062219296E+00    5.1987775873721453E+00
Ga    4.7768761924770304E+00    4.7156294090688169E+00    5.8024079037711216E+00
N    4.8373012362888135E+00    4.6902083949420010E+00    7.8039588934316715E+00
Ga    4.8340979713018672E+00    2.8351820271806947E+00    8.4082245423296698E+00
N    4.8355371800639650E+00    2.8379537623083699E+00    1.0404638549274262E+01
Ga    4.8071814806762605E+00    4.7022687083116113E+00    1.1028007763468935E+01
N    4.7914916134263361E+00    4.7128014222566454E+00    1.3031523451090893E+01
Ga    4.8359547550306692E+00    2.8428990444226674E+00    1.3574862579092782E+01
N    4.8192364661857718E+00    2.8338284062984425E+00    1.5554402424243881E+01
Ga    4.9345599405998177E+00    4.6297947448222327E+00    1.6393337227848566E+01
N    6.4316535791882403E+00    3.7646797333634958E+00    1.7517747206110172E+01
N    3.2195461015022859E+00    7.6026733761100944E+00    2.3694790783151691E+00
N    3.2215725825005834E+00    5.6270348467770317E+00    5.2063757640964408E+00
Ga    3.2196131150825251E+00    7.4199359960612563E+00    5.8126802795603565E+00
N    3.2190104355015938E+00    7.4934805850131694E+00    7.8057649478284334E+00
Ga    3.2162056253932425E+00    5.6205975580956036E+00    8.3953489855921593E+00
N    3.2173393556006684E+00    5.6231649206574996E+00    1.0382978146294565E+01
Ga    3.2163409544391239E+00    7.4611364827065003E+00    1.1030641234570137E+01
N    3.2158351604422912E+00    7.4449167885266823E+00    1.3025453681107706E+01
Ga    3.2060036063203072E+00    5.6276264775938998E+00    1.3820742293251818E+01
N    3.2036216067443433E+00    5.6293597702680040E+00    1.6032014033714368E+01
Ga    3.2137197203839367E+00    7.6869798752713150E+00    1.6462153122862659E+01
Ga    3.2158963351781003E+00    9.3790974368087756E+00    1.4428370380079121E+00
N    1.7107264062870988E+00    1.0188876253927942E+01    2.4891597959008429E+00
Ga    1.6043243443666468E+00    8.3397633815865344E+00    3.2799971008681901E+00
N    1.6101113177445665E+00    8.3960566536242069E+00    5.2056898947630303E+00
Ga    1.5831986539126208E+00    1.0278376288590247E+01    5.7638375136796229E+00
N    1.5979451211610722E+00    1.0267813184195274E+01    7.7564503910212412E+00
Ga    1.6155719799904673E+00    8.4185208651356742E+00    8.4180880521569215E+00
N    1.6146837736971260E+00    8.4162830283161885E+00    1.0405675115011201E+01
Ga    1.5938919529841600E+00    1.0274809494623232E+01    1.1033656254193303E+01
N    1.5780443005370992E+00    1.0282907751381732E+01    1.3025702671906728E+01
Ga    1.6185997731636537E+00    8.4140721716913660E+00    1.3585877777230257E+01
N    1.5906665670948987E+00    8.3980367511312224E+00    1.5543895290515788E+01
Ga    1.7867663824198241E+00    1.0158760019656624E+01    1.6461982958845500E+01
N    3.2237225267685781E+00    9.3411925621873255E+00    1.7606796670339538E+01
N    9.6582898033309998E+00    1.9132296405363360E+00    2.5829490933363628E+00
Ga    9.6578760058373341E+00    1.7639201104365976E-01    3.2560476549562511E+00
N    9.6508299034861516E+00    4.5720288338799646E-02    5.2149379629029973E+00
Ga    9.6576297136625708E+00    1.9124706773179554E+00    5.8352959995967106E+00
N    9.6486094717222546E+00    1.9069945432615178E+00    7.8113358064690841E+00
Ga    9.6504009858373987E+00    3.9353120530443209E-02    8.3969031080898855E+00
N    9.6499123379460006E+00    3.7684581068973683E-02    1.0392072011223345E+01
Ga    9.6499523410423986E+00    1.9085109929144299E+00    1.0983768405685129E+01
N    9.6461458069261248E+00    1.9098756223139031E+00    1.2959601732396251E+01
Ga    9.6482848513099722E+00    4.0015174416452505E-02    1.3587820246809240E+01
N    9.6415916819186851E+00    7.5445674650161124E-02    1.5546827402087985E+01
Ga    9.6503806458614250E+00    1.9080149007924532E+00    1.5827503188636079E+01
N    7.9229547264199640E+00    4.6369572612349739E+00    2.4822127302493953E+00
Ga    8.1500621084899727E+00    2.7793762384110776E+00    3.2590507285475487E+00
N    8.0424322961252237E+00    2.8382648295809187E+00    5.2187718723147682E+00
Ga    8.0682534040350440E+00    4.7102067412732467E+00    5.7601614845311708E+00
N    8.0493088054390434E+00    4.7027024118343466E+00    7.7565365600512113E+00
Ga    8.0300153212321614E+00    2.8417917153312997E+00    8.3941757655128715E+00
N    8.0290736076164038E+00    2.8440661219905996E+00    1.0392363292388533E+01
Ga    8.0599449394444154E+00    4.7017041453730046E+00    1.1033557724553042E+01
N    8.0757454883392601E+00    4.7121548596758753E+00    1.3033184480178884E+01
Ga    8.0311039628429235E+00    2.8420397777572353E+00    1.3576675415841652E+01
N    8.0461563486171546E+00    2.8337828344848344E+00    1.5555357953271040E+01
Ga    7.9289445107467369E+00    4.6292603004119872E+00    1.6394050238777186E+01
N    6.4350034095251551E+00    7.4778850743326881E+00    2.5556423876402041E+00
Ga    6.3831955944507479E+00    5.6558505293717101E+00    3.2679012416984232E+00
N    6.4259481766339697E+00    5.6336338122598972E+00    5.1969324848395644E+00
Ga    6.4319054344538458E+00    7.4758874546694418E+00    5.8561850119534560E+00
N    6.4320669015774579E+00    7.4778448768213819E+00    7.8175134519682175E+00
Ga    6.4386950127467149E+00    5.6082985409713393E+00    8.4209675494754261E+00
N    6.4379678701894791E+00    5.6126757154597522E+00    1.0411205918197652E+01
Ga    6.4368549982240086E+00    7.4816699181523969E+00    1.1000076396925564E+01
N    6.4343182225123421E+00    7.4773496042054548E+00    1.2971428133503357E+01
Ga    6.4329656973222544E+00    5.6081247889556218E+00    1.3576696050709364E+01
N    6.4327186794770990E+00    5.6280917865462996E+00    1.5555720501805846E+01
Ga    6.4322246196573660E+00    7.4811145861999702E+00    1.5824017914616988E+01
N    4.7244385623964034E+00    1.0190421532861063E+01    2.4790675885213398E+00
Ga    4.8419901696430783E+00    8.3486990834168040E+00    3.2731220895136310E+00
N    4.8299211079115860E+00    8.3962550055238854E+00    5.1998846016885460E+00
Ga    4.8587937129208498E+00    1.0281701665407795E+01    5.7623401445011311E+00
N    4.8370438900041961E+00    1.0266642177713553E+01    7.7565133289926633E+00
Ga    4.8183620969049805E+00    8.4206000110508921E+00    8.4226009658393988E+00
N    4.8199372425080149E+00    8.4169565133011712E+00    1.0410286486544681E+01
Ga    4.8421413930512935E+00    1.0276983174541373E+01    1.1039372214593730E+01
N    4.8568238725398212E+00    1.0284846636734494E+01    1.3032319589673444E+01
Ga    4.8114458227047230E+00    8.4153408809408905E+00    1.3587978994986120E+01
N    4.8405494489970522E+00    8.3909026859973395E+00    1.5547213511293755E+01
Ga    4.6571074552085872E+00    1.0168324717143374E+01    1.6462027135526821E+01
O    4.9620291224128921E-02    3.6869891250129880E+00   -5.6738663044337567E-01
H    1.0274584390595743E-02    7.4600069242456728E+00    1.6120968687678721E+00
C    5.9347512055315843E-01    2.4867252616560513E+00   -1.1435140508936117E+00
H    1.5991760033366371E+00    2.2496830876263743E+00   -7.5675546783397285E-01
H   -5.5391887454210524E-02    1.6128776663618507E+00   -9.6794500618216150E-01
H    6.6875607391582648E-01    2.6490977815935968E+00   -2.2287840599940130E+00
Ga    3.1550887159017789E+00    5.5729318285659240E+00    1.8209406433034949E+00
O    3.2485646069139902E+00    5.7609011592895722E+00   -2.0153292813040787E-02
H    2.5401747390440153E+00    5.2369042882973815E+00   -4.3363377927247443E-01
C    6.4408612689601732E+00    7.4819794743357280E+00    1.0599239607505475E+00
H    6.4482049651081246E+00    8.5135936021314649E+00    6.7818688722955700E-01
H    7.3401097433086271E+00    6.9758604848081358E+00    6.7900111664582230E-01
H    5.5592727671697064E+00    6.9687879431987065E+00    6.4582410410525237E-01
     &END COORD
     &KIND C
       BASIS_SET DZVP-MOLOPT-SR-GTH-q4
       POTENTIAL GTH-PBE-q4
       &POTENTIAL
 2 2
  0.3384712400000000E+00 2 -0.8803673979999999E+01  0.1339210850000000E+01
 2
  0.3025757500000000E+00 1  0.9622486650000001E+01
  0.2915069400000000E+00 0
         # Potential name:  GTH-PBE-Q4  for symbol:  C
         # Potential read from the potential filename: GTH_POTENTIALS
       &END POTENTIAL
     &END KIND
     &KIND O
       BASIS_SET DZVP-MOLOPT-SR-GTH-q6
       POTENTIAL GTH-PBE-q6
       &POTENTIAL
 2 4
  0.2445543000000000E+00 2 -0.1666721480000000E+02  0.2487311320000000E+01
 2
  0.2209559200000000E+00 1  0.1833745811000000E+02
  0.2113324700000000E+00 0
         # Potential name:  GTH-PBE-Q6  for symbol:  O
         # Potential read from the potential filename: GTH_POTENTIALS
       &END POTENTIAL
     &END KIND
     &KIND H
       BASIS_SET DZVP-MOLOPT-SR-GTH-q1
       POTENTIAL GTH-PBE-q1
       &POTENTIAL
 1
  0.2000000000000000E+00 2 -0.4178900440000000E+01  0.7244633100000000E+00
 0
         # Potential name:  GTH-PBE-Q1  for symbol:  H
         # Potential read from the potential filename: GTH_POTENTIALS
       &END POTENTIAL
     &END KIND
     &KIND N
       BASIS_SET DZVP-MOLOPT-SR-GTH
       POTENTIAL GTH-PBE-q5
       &POTENTIAL
 2 3
  0.2837905100000000E+00 2 -0.1241522559000000E+02  0.1868095920000000E+01
 2
  0.2554050000000000E+00 1  0.1363026257000000E+02
  0.2454945300000000E+00 0
         # Potential name:  GTH-PBE-Q5  for symbol:  N
         # Potential read from the potential filename: GTH_POTENTIALS
       &END POTENTIAL
     &END KIND
     &KIND Ga
       BASIS_SET DZVP-MOLOPT-SR-GTH
       POTENTIAL GTH-PBE-q13
       &POTENTIAL
 2 1 10
  0.4900000000000000E+00 0
 3
  0.4167772300000000E+00 3  0.1047568975000000E+02 -0.4921768140000000E+01  0.8707055900000000E+00
  0.7770178090000000E+01 -0.2248152160000000E+01
  0.1784415450000000E+01
  0.5696265200000000E+00 2  0.1777985340000000E+01  0.1958597600000000E+00
 -0.2317443900000000E+00
  0.2381265000000000E+00 1 -0.1624868022000000E+02
         # Potential name:  GTH-PBE-Q13  for symbol:  GA
         # Potential read from the potential filename: GTH_POTENTIALS
       &END POTENTIAL
     &END KIND
     &TOPOLOGY
       NUMBER_OF_ATOMS  212
       MULTIPLE_UNIT_CELL  1 1 1
     &END TOPOLOGY
   &END SUBSYS
 &END FORCE_EVAL
