 # Version information for this restart file 
 # current date 2019-06-29 07:05:31.703
 # current working dir /scratch/rzk/rzk/GaN-carbene/443-adatoms-both-2x2/06-CH3O-HO-H-H3C/01-UseUnoptimized-0501
 # Program compiled at                              Sun Apr  7 00:48:11 EDT 2019
 # Program compiled on                          beluga2.int.ets1.calculquebec.ca
 # Program compiled for                        Beluga-Linux-x86-64-intel-openmpi
 # Source code revision number                                         svn:18619
 &GLOBAL
   PRINT_LEVEL  MEDIUM
   PROJECT_NAME TEST
   RUN_TYPE  GEO_OPT
 &END GLOBAL
 &MOTION
   &GEO_OPT
     MAX_ITER  500
     STEP_START_VAL  118
   &END GEO_OPT
 &END MOTION
 &FORCE_EVAL
   METHOD  QS
   STRESS_TENSOR  ANALYTICAL
   &DFT
     BASIS_SET_FILE_NAME BASIS_MOLOPT
     POTENTIAL_FILE_NAME GTH_POTENTIALS
     UKS  T
     SURFACE_DIPOLE_CORRECTION  T
     SURF_DIP_DIR  Z
     &SCF
       MAX_SCF  80
       EPS_SCF     5.0000000000000004E-06
       &OT  T
         PRECONDITIONER  FULL_ALL
       &END OT
       &OUTER_SCF  T
         OPTIMIZER  NONE
         EPS_SCF     5.0000000000000004E-06
         MAX_SCF  4
       &END OUTER_SCF
       &PRINT
         &RESTART  OFF
           BACKUP_COPIES  1
           &EACH
             JUST_ENERGY  0
             QS_SCF  0
             MD  20
           &END EACH
         &END RESTART
       &END PRINT
     &END SCF
     &QS
       EPS_DEFAULT     1.0000000000000000E-14
       METHOD  GPW
     &END QS
     &MGRID
       NGRIDS  5
       CUTOFF     1.2000000000000000E+03
     &END MGRID
     &XC
       DENSITY_CUTOFF     1.0000000000000000E-10
       GRADIENT_CUTOFF     1.0000000000000000E-10
       TAU_CUTOFF     1.0000000000000000E-10
       &XC_FUNCTIONAL  NO_SHORTCUT
         &PBE  T
         &END PBE
       &END XC_FUNCTIONAL
       &VDW_POTENTIAL
         POTENTIAL_TYPE  PAIR_POTENTIAL
         &PAIR_POTENTIAL
           R_CUTOFF     1.0000000000000004E+01
           TYPE  DFTD3
           PARAMETER_FILE_NAME dftd3.dat
           REFERENCE_FUNCTIONAL PBE
           EPS_CN     9.9999999999999995E-07
           CALCULATE_C9_TERM  T
           REFERENCE_C9_TERM  T
           LONG_RANGE_CORRECTION  F
           VERBOSE_OUTPUT  F
         &END PAIR_POTENTIAL
       &END VDW_POTENTIAL
     &END XC
   &END DFT
   &SUBSYS
     &CELL
       A     1.2864472766435110E+01    0.0000000000000000E+00    0.0000000000000000E+00
       B    -6.4322363581020028E+00    1.1140960178524473E+01    0.0000000000000000E+00
       C     0.0000000000000000E+00    0.0000000000000000E+00    3.2000000000000000E+01
       MULTIPLE_UNIT_CELL  1 1 1
       &CELL_REF
         A     1.2982353780853531E+01    0.0000000000000000E+00    0.0000000000000000E+00
         B    -6.4911768904267628E+00    1.1243048175136114E+01    0.0000000000000000E+00
         C     0.0000000000000000E+00    0.0000000000000000E+00    3.2000000000000000E+01
         MULTIPLE_UNIT_CELL  1 1 1
       &END CELL_REF
     &END CELL
     &COORD
N   -2.8782163832914106E-03    2.0427243770665675E+00    2.4666009906853614E+00
Ga    2.1166013700562036E-02    1.0046794981630491E-01    2.8099852115772133E+00
N   -2.7343961399672405E-03    5.2688885936507078E-02    4.9780398263047410E+00
Ga    8.5850627353345095E-03    1.8935276715981069E+00    5.7389411579835281E+00
N    2.8024039315605273E-03    1.8962575399332147E+00    7.7474776335073496E+00
Ga    3.5370663317639407E-03    5.5378185646514408E-02    8.3945404964678314E+00
N    1.2088477185883901E-03    5.2171433779672122E-02    1.0372150054119350E+01
Ga    3.8042375124177496E-04    1.8910525509063107E+00    1.1027293966003361E+01
N   -1.0978812713607461E-03    1.8722148922200830E+00    1.3022574243790581E+01
Ga    4.3827569275315900E-04    5.4150688759165316E-02    1.3837881727563104E+01
N   -4.3192413920456837E-04    5.4330058552260571E-02    1.6028038558075107E+01
Ga   -2.9431536639597440E-04    2.1024784532784140E+00    1.6452138770837514E+01
Ga   -3.5611691133401541E-02    3.7171872403296637E+00    1.2464877539124806E+00
N   -1.4831130468161255E+00    4.6289931934508832E+00    2.4499747656003077E+00
Ga   -1.6690710799383375E+00    2.7958879152418823E+00    3.2194413326445450E+00
N   -1.6110226078762533E+00    2.8374923374083871E+00    5.2051726514135046E+00
Ga   -1.6246192963343384E+00    4.7042127820992752E+00    5.7499144861637443E+00
N   -1.6156999115208293E+00    4.7032723398088070E+00    7.7507576749049454E+00
Ga   -1.5928914151156706E+00    2.8428627512036062E+00    8.3856791606678698E+00
N   -1.5957946364200961E+00    2.8441574085940946E+00    1.0384369952631062E+01
Ga   -1.6227962180837059E+00    4.7020206778842084E+00    1.1025261819851048E+01
N   -1.6392334286299994E+00    4.7125836861914925E+00    1.3018392993305460E+01
Ga   -1.5971649563494936E+00    2.8448115028096108E+00    1.3579486756634200E+01
N   -1.6318188051243754E+00    2.8335283725046607E+00    1.5538754822767379E+01
Ga   -1.4277458032579311E+00    4.5940830162498152E+00    1.6453624110277673E+01
N   -2.5131779025082331E-04    3.7573408426655792E+00    1.7597422402477871E+01
N   -3.2192296342944964E+00    7.5833436631016395E+00    2.4553984054171361E+00
Ga   -3.1784923741553786E+00    5.6057476915438542E+00    2.8125696229854378E+00
N   -3.2142985544545408E+00    5.6170086886046215E+00    4.9801659650700199E+00
Ga   -3.2146825242741719E+00    7.4400100436887202E+00    5.7498413660169865E+00
N   -3.2156507210615488E+00    7.4712027755012214E+00    7.7439267052341814E+00
Ga   -3.2128070505299626E+00    5.6227005654564790E+00    8.3958433973157653E+00
N   -3.2153720559227397E+00    5.6244434661813756E+00    1.0372492484168001E+01
Ga   -3.2146017570015122E+00    7.4643241605927813E+00    1.1023669511862009E+01
N   -3.2153968621201998E+00    7.4460274564273856E+00    1.3017179411621099E+01
Ga   -3.2053327295417020E+00    5.6294818181625024E+00    1.3818397820087320E+01
N   -3.2044297632184460E+00    5.6314163825974193E+00    1.6026191317505049E+01
Ga   -3.2145199588431645E+00    7.6876610920683044E+00    1.6454619381398402E+01
Ga   -3.2178243714375783E+00    9.3922277715169500E+00    1.2089759671519933E+00
N   -4.7309838297790616E+00    1.0202892094628199E+01    2.4612803277470454E+00
Ga   -4.8294957805650967E+00    8.4024575117006695E+00    3.2434904474000392E+00
N   -4.8382628692350789E+00    8.3967893631141752E+00    5.1887952646886077E+00
Ga   -4.8491040192483794E+00    1.0287308968606711E+01    5.7430750548696246E+00
N   -4.8320796637435741E+00    1.0267292017853046E+01    7.7427622863039733E+00
Ga   -4.8111291701897914E+00    8.4172186301952756E+00    8.3942317254539063E+00
N   -4.8119029182251563E+00    8.4157330262968824E+00    1.0386934895453594E+01
Ga   -4.8377930049890621E+00    1.0276144244396994E+01    1.1025482158687216E+01
N   -4.8558113366162114E+00    1.0284586599168691E+01    1.3021085051740215E+01
Ga   -4.8102660424604142E+00    8.4172371481873789E+00    1.3582554377012716E+01
N   -4.8403939787617265E+00    8.3930705084543771E+00    1.5541505111667998E+01
Ga   -4.6599332905012956E+00    1.0171897304308873E+01    1.6453111105029244E+01
N   -3.2254063309766750E+00    9.3439110296501831E+00    1.7596269210323978E+01
N    3.2024486814204569E+00    1.9165772565126140E+00    2.5652503237291135E+00
Ga    3.2091319372124780E+00    1.5421580168486385E-01    3.2010828485124798E+00
N    3.2171549596622828E+00    5.2701703145037464E-02    5.1872770971689803E+00
Ga    3.2084971823451780E+00    1.9200767319002139E+00    5.8027958903086905E+00
N    3.2184748304114548E+00    1.9114470150497418E+00    7.7922130764679229E+00
Ga    3.2168901467856932E+00    4.5651778973098481E-02    8.3794977406307911E+00
N    3.2164901241199821E+00    3.9494124751875782E-02    1.0379497078317536E+01
Ga    3.2157028134247621E+00    1.9055759508012158E+00    1.0985074533757523E+01
N    3.2187121028055246E+00    1.9094304366070176E+00    1.2959647342333371E+01
Ga    3.2166543175231084E+00    3.8727589820990220E-02    1.3580498059797319E+01
N    3.2224155008052970E+00    7.5876236798824520E-02    1.5539986259505364E+01
Ga    3.2136116248538196E+00    1.9101375838580230E+00    1.5816596407911895E+01
N    1.4647404275231104E+00    4.6178657949248150E+00    2.3302039820874838E+00
Ga    1.6814835891625306E+00    2.8307489756403141E+00    3.1941901232279841E+00
N    1.6085004178885827E+00    2.8516247804151509E+00    5.1857213360884158E+00
Ga    1.6563083003853329E+00    4.7124502938136308E+00    5.7826745771924868E+00
N    1.6015247910043457E+00    4.6919275861249128E+00    7.7930646775425627E+00
Ga    1.5984200229663592E+00    2.8378798360140327E+00    8.3980944380890996E+00
N    1.5987226576774876E+00    2.8386947869685364E+00    1.0395394207139828E+01
Ga    1.6242294978957659E+00    4.7026123732057545E+00    1.1020306207643827E+01
N    1.6379932815401972E+00    4.7132498899488464E+00    1.3016934011638590E+01
Ga    1.5956030645101882E+00    2.8457855059442747E+00    1.3577910480543455E+01
N    1.6299647946898530E+00    2.8335566216818502E+00    1.5537773925942897E+01
Ga    1.4273080538108660E+00    4.5942263074886620E+00    1.6452766468517783E+01
N   -2.5316756171662185E-03    7.4654422567352556E+00    2.6320516698853429E+00
Ga    4.0496988102520559E-02    5.5960364402529486E+00    3.2454675873146233E+00
N    1.0182347757875056E-02    5.6304946706375842E+00    5.1910271826728103E+00
Ga    3.8083513288561283E-03    7.4663237396263478E+00    5.8426320075445375E+00
N    3.1023015186738478E-03    7.4794365063316244E+00    7.8074861693229005E+00
Ga   -1.9554757357418255E-03    5.6083243026669241E+00    8.4084053198597086E+00
N   -3.4026478348690770E-03    5.6143467056348264E+00    1.0398647852303133E+01
Ga   -3.0242353040760145E-03    7.4818699495293890E+00    1.0989058852477477E+01
N   -1.5343603012510257E-03    7.4821450802087632E+00    1.2957778509722097E+01
Ga   -1.0588268587182588E-05    5.6113600435942157E+00    1.3577746396190834E+01
N   -9.6856178830857450E-04    5.6436140770818444E+00    1.5536045856354470E+01
Ga   -7.2620028121423038E-04    7.4805253930578282E+00    1.5813820621120460E+01
N   -1.7039151496531104E+00    1.0204273770441475E+01    2.4669425778945127E+00
Ga   -1.6117187966876128E+00    8.3999682694663722E+00    3.2428151755045147E+00
N   -1.5938327221964943E+00    8.3978577589570023E+00    5.1898359911749354E+00
Ga   -1.5858464699072174E+00    1.0283976545987359E+01    5.7444203510932423E+00
N   -1.5968502053382869E+00    1.0268372772493352E+01    7.7425150858071783E+00
Ga   -1.6166750799114058E+00    8.4152949088456612E+00    8.3898588203137301E+00
N   -1.6191904397034629E+00    8.4154492744863170E+00    1.0382633338145931E+01
Ga   -1.5946864952685924E+00    1.0274230965686291E+01    1.1020711416028412E+01
N   -1.5775822772290073E+00    1.0283076353997053E+01    1.3015256493958697E+01
Ga   -1.6190226790099114E+00    8.4161498436709969E+00    1.3580375217636606E+01
N   -1.5921511584938035E+00    8.4001943319799040E+00    1.5538314398904319E+01
Ga   -1.7860791578470694E+00    1.0161788665065403E+01    1.6454000821896880E+01
N    6.4307671210753252E+00    2.0326017339472111E+00    2.4935815507073191E+00
Ga    6.4132752301104397E+00    5.4585147274750404E-02    2.8314025015305888E+00
N    6.4386819312720460E+00    5.4202701430308024E-02    4.9773691911814035E+00
Ga    6.4254164587913669E+00    1.8895396226448049E+00    5.7509823625867078E+00
N    6.4323225642486284E+00    1.8967213171355770E+00    7.7505075956640033E+00
Ga    6.4320308587762742E+00    5.2881795139707234E-02    8.3951932810733361E+00
N    6.4330879578531013E+00    5.2427765020323543E-02    1.0372001387940449E+01
Ga    6.4339140271448603E+00    1.8905001383977189E+00    1.1025052415351997E+01
N    6.4336703321413520E+00    1.8708707368834931E+00    1.3025678552952311E+01
Ga    6.4321492571752055E+00    4.2082105498833143E-02    1.3817371090848727E+01
N    6.4313824443304668E+00    3.9999768702077096E-02    1.6026030153326758E+01
Ga    6.4312042379120751E+00    2.0393954463372004E+00    1.6388171683087190E+01
Ga    6.4486879579413152E+00    3.7194393101577417E+00    1.4464381788989606E+00
N    4.9310097318703185E+00    4.6392194431487965E+00    2.3510187234070106E+00
Ga    4.6881708944658973E+00    2.8234028228101553E+00    3.2289718510914387E+00
N    4.8284385773244427E+00    2.8534077276470682E+00    5.1930541112964894E+00
Ga    4.7769856188271786E+00    4.7167021179219182E+00    5.7972577169307620E+00
N    4.8376880562945148E+00    4.6914112646236230E+00    7.7984615572352833E+00
Ga    4.8344784249281378E+00    2.8364497727323581E+00    8.4027708156067362E+00
N    4.8359158293841533E+00    2.8395394744634475E+00    1.0398978276792175E+01
Ga    4.8070824990461158E+00    4.7038439799589780E+00    1.1022893350611700E+01
N    4.7912596575564805E+00    4.7145363491962655E+00    1.3026022322656036E+01
Ga    4.8355135943056071E+00    2.8445421601318612E+00    1.3568960001218361E+01
N    4.8183444901236170E+00    2.8356655417877579E+00    1.5548292457745312E+01
Ga    4.9340018489782818E+00    4.6316683979369566E+00    1.6387812645791975E+01
N    6.4305372522152089E+00    3.7672343072817291E+00    1.7512074424429311E+01
N    3.2180525673680767E+00    7.6029605971817391E+00    2.3595811177719401E+00
N    3.2219546062673543E+00    5.6283068637556628E+00    5.1995503196548567E+00
Ga    3.2195059924169445E+00    7.4212068519085506E+00    5.8068762175870559E+00
N    3.2192619548849706E+00    7.4947647751256357E+00    7.7997413318942872E+00
Ga    3.2163008485830442E+00    5.6216825727835271E+00    8.3892049165382261E+00
N    3.2175616377946832E+00    5.6247884879731300E+00    1.0377003422091223E+01
Ga    3.2164728167930918E+00    7.4624459181903102E+00    1.1025344462965430E+01
N    3.2155465714303344E+00    7.4467605177556342E+00    1.3020014092084695E+01
Ga    3.2057188368007399E+00    5.6294810767403831E+00    1.3815655399492559E+01
N    3.2030482605099184E+00    5.6313616774680852E+00    1.6026321411031045E+01
Ga    3.2127885111870262E+00    7.6888384053108894E+00    1.6456087746435447E+01
Ga    3.2149666253132660E+00    9.3811199133532099E+00    1.4368558390558630E+00
N    1.7096062644375314E+00    1.0189743587344626E+01    2.4824700799693167E+00
Ga    1.6038122022998185E+00    8.3401597540451995E+00    3.2722244764592232E+00
N    1.6100994328262859E+00    8.3968543848150592E+00    5.1982747274021852E+00
Ga    1.5831565859073533E+00    1.0278853007941384E+01    5.7580336081345251E+00
N    1.5982080941626338E+00    1.0268781819149021E+01    7.7504104629344397E+00
Ga    1.6159225739187171E+00    8.4197311878014531E+00    8.4128287315833230E+00
N    1.6150980990986075E+00    8.4177793973140957E+00    1.0400018848333790E+01
Ga    1.5940830574750176E+00    1.0276297410201989E+01    1.1027936970425886E+01
N    1.5778699484973344E+00    1.0284546848955987E+01    1.3019934319932970E+01
Ga    1.6183170886897928E+00    8.4158668625024813E+00    1.3580220284124511E+01
N    1.5898491745901759E+00    8.4001039174441985E+00    1.5538303444766289E+01
Ga    1.7858187758847641E+00    1.0160518163882569E+01    1.6456181591469569E+01
N    3.2232511242715689E+00    9.3433038600399012E+00    1.7600771186101692E+01
N    9.6566931125568747E+00    1.9138492865651322E+00    2.5765812690174195E+00
Ga    9.6566286122983183E+00    1.7707698404151753E-01    3.2504321319522451E+00
N    9.6506124983827331E+00    4.6638533456477962E-02    5.2089859832646166E+00
Ga    9.6574772233583221E+00    1.9135511136025647E+00    5.8287350509809581E+00
N    9.6489402428069120E+00    1.9083301124110750E+00    7.8050211094298714E+00
Ga    9.6507123349940400E+00    4.0706914150730293E-02    8.3903603802460509E+00
N    9.6500286559355661E+00    3.9113223368002152E-02    1.0385766459591133E+01
Ga    9.6500724806777427E+00    1.9098764479986758E+00    1.0977648857506008E+01
N    9.6458965871842537E+00    1.9112818854227258E+00    1.2953502171764839E+01
Ga    9.6479449770538341E+00    4.1506445987424964E-02    1.3581975147727809E+01
N    9.6406335889710011E+00    7.6957371060080063E-02    1.5541195412700278E+01
Ga    9.6496263396857085E+00    1.9099772515951183E+00    1.5821065212906865E+01
N    7.9218207400965124E+00    4.6381760843568349E+00    2.4761607142751045E+00
Ga    8.1489722666848472E+00    2.7807800940628158E+00    3.2533809246472871E+00
N    8.0421403561352136E+00    2.8394722132274235E+00    5.2130889960673263E+00
Ga    8.0680584190147524E+00    4.7113934142635188E+00    5.7549635705576874E+00
N    8.0496206210174339E+00    4.7040273909970116E+00    7.7510800650960681E+00
Ga    8.0304892055074379E+00    2.8430421911792809E+00    8.3881997258721803E+00
N    8.0293234832094473E+00    2.8455359222506740E+00    1.0386660290094300E+01
Ga    8.0603047026594314E+00    4.7031701822967165E+00    1.1028083901585850E+01
N    8.0753801697387555E+00    4.7139776456199529E+00    1.3027681780876980E+01
Ga    8.0308132431084100E+00    2.8436593326812218E+00    1.3571026938489531E+01
N    8.0455287244447167E+00    2.8356399287839480E+00    1.5549682042108834E+01
Ga    7.9279018811535789E+00    4.6313680039475482E+00    1.6388582722401352E+01
N    6.4333602295896073E+00    7.4786897454231074E+00    2.5489581123641067E+00
Ga    6.3828237830344738E+00    5.6571247498562061E+00    3.2627079998540807E+00
N    6.4259067213693459E+00    5.6347436767744359E+00    5.1915600419932035E+00
Ga    6.4311338761821721E+00    7.4769845289017667E+00    5.8508437941885072E+00
N    6.4321719536758843E+00    7.4790318029492910E+00    7.8120833567881842E+00
Ga    6.4390258419021986E+00    5.6094708139787581E+00    8.4161498440144751E+00
N    6.4381204896232154E+00    5.6141134723731376E+00    1.0405981152502052E+01
Ga    6.4369851548966688E+00    7.4832924110561914E+00    1.0993768255829886E+01
N    6.4339636300751026E+00    7.4793014795457085E+00    1.2965326229838340E+01
Ga    6.4325065350602069E+00    5.6102630820480774E+00    1.3571329837148292E+01
N    6.4318942727471686E+00    5.6305655953426843E+00    1.5550121757614184E+01
Ga    6.4313235045003418E+00    7.4831533755177535E+00    1.5818076597774777E+01
N    4.7233480330905833E+00    1.0191464708725482E+01    2.4725054272724947E+00
Ga    4.8400169303639275E+00    8.3489664440561473E+00    3.2655839771779096E+00
N    4.8295239693225351E+00    8.3971875428763756E+00    5.1926530248825573E+00
Ga    4.8585956339332901E+00    1.0282356469035697E+01    5.7562935559968711E+00
N    4.8373575281629142E+00    1.0267674583730480E+01    7.7503178295722996E+00
Ga    4.8185388020010782E+00    8.4218746765804511E+00    8.4174936279924779E+00
N    4.8199196922778933E+00    8.4183244004135247E+00    1.0404641118839692E+01
Ga    4.8422197812425924E+00    1.0278445408280692E+01    1.1032942910055255E+01
N    4.8563264011093628E+00    1.0286378168831934E+01    1.3025969738254554E+01
Ga    4.8111007678048017E+00    8.4170615394371175E+00    1.3582275430665197E+01
N    4.8394751101027600E+00    8.3931130627869823E+00    1.5541703971043210E+01
Ga    4.6564218933348700E+00    1.0170383750619255E+01    1.6455392979308147E+01
O    5.5365307702995518E-02    3.6894062474891909E+00   -5.7219622237185674E-01
H    8.5426783631518989E-03    7.4611387225483430E+00    1.6050986172066135E+00
C    6.0476467537971468E-01    2.4871381034212425E+00   -1.1398888006413155E+00
H    1.6125113162481768E+00    2.2594127941852524E+00   -7.5225830068676069E-01
H   -3.8760351392030948E-02    1.6110095227984176E+00   -9.5543880267652981E-01
H    6.7784246039063789E-01    2.6407659524364475E+00   -2.2264225945370701E+00
Ga    3.1552699987680817E+00    5.5699121841051200E+00    1.8150554997615724E+00
O    3.2563108537570926E+00    5.7376357819990460E+00   -2.7436706315682659E-02
H    2.5326761799402453E+00    5.2324270690194714E+00   -4.3603993490075793E-01
C    6.4379605130704869E+00    7.4800624648878600E+00    1.0532307579392219E+00
H    6.4500297234905730E+00    8.5113640127749903E+00    6.6976684048653568E-01
H    7.3344373452884506E+00    6.9680673555957018E+00    6.7192786356182832E-01
H    5.5528048508568322E+00    6.9704557106504588E+00    6.4161513768116840E-01
     &END COORD
     &KIND C
       BASIS_SET DZVP-MOLOPT-SR-GTH-q4
       POTENTIAL GTH-PBE-q4
       &POTENTIAL
 2 2
  0.3384712400000000E+00 2 -0.8803673979999999E+01  0.1339210850000000E+01
 2
  0.3025757500000000E+00 1  0.9622486650000001E+01
  0.2915069400000000E+00 0
         # Potential name:  GTH-PBE-Q4  for symbol:  C
         # Potential read from the potential filename: GTH_POTENTIALS
       &END POTENTIAL
     &END KIND
     &KIND O
       BASIS_SET DZVP-MOLOPT-SR-GTH-q6
       POTENTIAL GTH-PBE-q6
       &POTENTIAL
 2 4
  0.2445543000000000E+00 2 -0.1666721480000000E+02  0.2487311320000000E+01
 2
  0.2209559200000000E+00 1  0.1833745811000000E+02
  0.2113324700000000E+00 0
         # Potential name:  GTH-PBE-Q6  for symbol:  O
         # Potential read from the potential filename: GTH_POTENTIALS
       &END POTENTIAL
     &END KIND
     &KIND H
       BASIS_SET DZVP-MOLOPT-SR-GTH-q1
       POTENTIAL GTH-PBE-q1
       &POTENTIAL
 1
  0.2000000000000000E+00 2 -0.4178900440000000E+01  0.7244633100000000E+00
 0
         # Potential name:  GTH-PBE-Q1  for symbol:  H
         # Potential read from the potential filename: GTH_POTENTIALS
       &END POTENTIAL
     &END KIND
     &KIND N
       BASIS_SET DZVP-MOLOPT-SR-GTH
       POTENTIAL GTH-PBE-q5
       &POTENTIAL
 2 3
  0.2837905100000000E+00 2 -0.1241522559000000E+02  0.1868095920000000E+01
 2
  0.2554050000000000E+00 1  0.1363026257000000E+02
  0.2454945300000000E+00 0
         # Potential name:  GTH-PBE-Q5  for symbol:  N
         # Potential read from the potential filename: GTH_POTENTIALS
       &END POTENTIAL
     &END KIND
     &KIND Ga
       BASIS_SET DZVP-MOLOPT-SR-GTH
       POTENTIAL GTH-PBE-q13
       &POTENTIAL
 2 1 10
  0.4900000000000000E+00 0
 3
  0.4167772300000000E+00 3  0.1047568975000000E+02 -0.4921768140000000E+01  0.8707055900000000E+00
  0.7770178090000000E+01 -0.2248152160000000E+01
  0.1784415450000000E+01
  0.5696265200000000E+00 2  0.1777985340000000E+01  0.1958597600000000E+00
 -0.2317443900000000E+00
  0.2381265000000000E+00 1 -0.1624868022000000E+02
         # Potential name:  GTH-PBE-Q13  for symbol:  GA
         # Potential read from the potential filename: GTH_POTENTIALS
       &END POTENTIAL
     &END KIND
     &TOPOLOGY
       NUMBER_OF_ATOMS  212
       MULTIPLE_UNIT_CELL  1 1 1
     &END TOPOLOGY
   &END SUBSYS
 &END FORCE_EVAL
