 # Version information for this restart file 
 # current date 2019-06-28 23:09:33.443
 # current working dir /scratch/rzk/rzk/GaN-carbene/443-adatoms-both-2x2/06-CH3O-HO-H-H3C/01-UseUnoptimized-0501
 # Program compiled at                              Sun Apr  7 00:48:11 EDT 2019
 # Program compiled on                          beluga2.int.ets1.calculquebec.ca
 # Program compiled for                        Beluga-Linux-x86-64-intel-openmpi
 # Source code revision number                                         svn:18619
 &GLOBAL
   PRINT_LEVEL  MEDIUM
   PROJECT_NAME TEST
   RUN_TYPE  GEO_OPT
 &END GLOBAL
 &MOTION
   &GEO_OPT
     MAX_ITER  500
     STEP_START_VAL  14
   &END GEO_OPT
 &END MOTION
 &FORCE_EVAL
   METHOD  QS
   STRESS_TENSOR  ANALYTICAL
   &DFT
     BASIS_SET_FILE_NAME BASIS_MOLOPT
     POTENTIAL_FILE_NAME GTH_POTENTIALS
     UKS  T
     SURFACE_DIPOLE_CORRECTION  T
     SURF_DIP_DIR  Z
     &SCF
       MAX_SCF  80
       EPS_SCF     5.0000000000000004E-06
       &OT  T
         PRECONDITIONER  FULL_ALL
       &END OT
       &OUTER_SCF  T
         OPTIMIZER  NONE
         EPS_SCF     5.0000000000000004E-06
         MAX_SCF  4
       &END OUTER_SCF
       &PRINT
         &RESTART  OFF
           BACKUP_COPIES  1
           &EACH
             JUST_ENERGY  0
             QS_SCF  0
             MD  20
           &END EACH
         &END RESTART
       &END PRINT
     &END SCF
     &QS
       EPS_DEFAULT     1.0000000000000000E-14
       METHOD  GPW
     &END QS
     &MGRID
       NGRIDS  5
       CUTOFF     1.2000000000000000E+03
     &END MGRID
     &XC
       DENSITY_CUTOFF     1.0000000000000000E-10
       GRADIENT_CUTOFF     1.0000000000000000E-10
       TAU_CUTOFF     1.0000000000000000E-10
       &XC_FUNCTIONAL  NO_SHORTCUT
         &PBE  T
         &END PBE
       &END XC_FUNCTIONAL
       &VDW_POTENTIAL
         POTENTIAL_TYPE  PAIR_POTENTIAL
         &PAIR_POTENTIAL
           R_CUTOFF     1.0000000000000004E+01
           TYPE  DFTD3
           PARAMETER_FILE_NAME dftd3.dat
           REFERENCE_FUNCTIONAL PBE
           EPS_CN     9.9999999999999995E-07
           CALCULATE_C9_TERM  T
           REFERENCE_C9_TERM  T
           LONG_RANGE_CORRECTION  F
           VERBOSE_OUTPUT  F
         &END PAIR_POTENTIAL
       &END VDW_POTENTIAL
     &END XC
   &END DFT
   &SUBSYS
     &CELL
       A     1.2864472766435110E+01    0.0000000000000000E+00    0.0000000000000000E+00
       B    -6.4322363581020028E+00    1.1140960178524473E+01    0.0000000000000000E+00
       C     0.0000000000000000E+00    0.0000000000000000E+00    3.2000000000000000E+01
       MULTIPLE_UNIT_CELL  1 1 1
       &CELL_REF
         A     1.2982353780853531E+01    0.0000000000000000E+00    0.0000000000000000E+00
         B    -6.4911768904267628E+00    1.1243048175136114E+01    0.0000000000000000E+00
         C     0.0000000000000000E+00    0.0000000000000000E+00    3.2000000000000000E+01
         MULTIPLE_UNIT_CELL  1 1 1
       &END CELL_REF
     &END CELL
     &COORD
N   -5.7926175448803092E-03    2.0361665376457259E+00    2.5109991597103667E+00
Ga    1.2511282649951411E-03    9.8275571620214122E-02    2.8641901003932175E+00
N   -3.0930728471421690E-03    4.6198767373263623E-02    5.0205877252673172E+00
Ga    8.9825573177151306E-03    1.8910161903215317E+00    5.7878458367405576E+00
N    9.0386968223242937E-04    1.8916316679262350E+00    7.7908066590332856E+00
Ga   -7.1633809523906572E-04    5.0922557040109923E-02    8.4444392298127919E+00
N   -1.7262796944452269E-03    4.7636957045482604E-02    1.0416977246464075E+01
Ga   -2.0223897364240210E-03    1.8874781879980322E+00    1.1076777972376311E+01
N   -2.3353460407382893E-03    1.8678505578160287E+00    1.3068075820912487E+01
Ga   -1.3151480681936310E-03    4.9217083306786771E-02    1.3882620217861888E+01
N   -1.8523259311407352E-03    4.7849399602466106E-02    1.6073704661692126E+01
Ga   -1.8790152136725767E-03    2.0951942710200666E+00    1.6489909557741186E+01
Ga   -6.0279322491162669E-02    3.7099864971617929E+00    1.2811177813863310E+00
N   -1.4851832803556204E+00    4.6227715153572815E+00    2.4962394489227533E+00
Ga   -1.6707371703019378E+00    2.7877675315106054E+00    3.2719655404174541E+00
N   -1.6119184574898078E+00    2.8328264642921663E+00    5.2519896160414969E+00
Ga   -1.6227639333884449E+00    4.6999098760576983E+00    5.7972648068824544E+00
N   -1.6177145276029072E+00    4.6995593336302584E+00    7.7930107965349578E+00
Ga   -1.5951918487570051E+00    2.8389544806745319E+00    8.4362936064487375E+00
N   -1.5984131236709542E+00    2.8404944336058509E+00    1.0429341067506529E+01
Ga   -1.6263055524115055E+00    4.6979520360964084E+00    1.1079674717291160E+01
N   -1.6428411581361788E+00    4.7086083340999121E+00    1.3069824773598606E+01
Ga   -1.5999724012959020E+00    2.8389159972100351E+00    1.3627592831410425E+01
N   -1.6302314149225159E+00    2.8213870517115107E+00    1.5586151324496040E+01
Ga   -1.4447118627856255E+00    4.5942435547679770E+00    1.6490612161932322E+01
N   -8.0668218787819518E-03    3.7573438058417126E+00    1.7621317511168872E+01
N   -3.2202918065248660E+00    7.5894772147971494E+00    2.5083965334258180E+00
Ga   -3.1837863577946943E+00    5.5873051991213334E+00    2.8654649594648416E+00
N   -3.2158130350867444E+00    5.6153527848078086E+00    5.0205212337098795E+00
Ga   -3.2173889802335083E+00    7.4322617100156760E+00    5.8058090166587828E+00
N   -3.2188929709029503E+00    7.4663857921279382E+00    7.7905499379981720E+00
Ga   -3.2154551930391966E+00    5.6166501492011731E+00    8.4477307361713692E+00
N   -3.2180147415800842E+00    5.6192449072069106E+00    1.0418323308839501E+01
Ga   -3.2173084071727565E+00    7.4571178465612666E+00    1.1078684697435270E+01
N   -3.2173327295259679E+00    7.4384318294661149E+00    1.3068102077843085E+01
Ga   -3.2174055238886554E+00    5.6183741567697814E+00    1.3884695704114993E+01
N   -3.2182759623050168E+00    5.6184662472449869E+00    1.6074383143071024E+01
Ga   -3.2181237177012880E+00    7.6662537401074227E+00    1.6492187736280268E+01
Ga   -3.2171137319295404E+00    9.3800408779935864E+00    1.3713719995375668E+00
N   -4.7290866801153983E+00    1.0194697577489018E+01    2.5164620774627950E+00
Ga   -4.8543641973159017E+00    8.3861315723569181E+00    3.3065898920618486E+00
N   -4.8423382435154076E+00    8.3907565476082588E+00    5.2379836128653867E+00
Ga   -4.8540783761578252E+00    1.0283273245595746E+01    5.7990659858587517E+00
N   -4.8346792232872309E+00    1.0261884470563126E+01    7.7891138255534402E+00
Ga   -4.8149238881674412E+00    8.4113384274523568E+00    8.4482203750746621E+00
N   -4.8142140743413107E+00    8.4103196814035321E+00    1.0433427412802770E+01
Ga   -4.8404006544545473E+00    1.0271808572909785E+01    1.1075643771018907E+01
N   -4.8574887574249059E+00    1.0279955447854386E+01    1.3066312889655499E+01
Ga   -4.8133287591292024E+00    8.4117182918022593E+00    1.3629958195021272E+01
N   -4.8452345968256516E+00    8.3928739384401414E+00    1.5587807565785651E+01
Ga   -4.6610167288267741E+00    1.0165472272035958E+01    1.6491613312187081E+01
N   -3.2239036099387506E+00    9.3293198112726827E+00    1.7623330131676138E+01
N    3.2051851539750356E+00    1.9131938975402938E+00    2.6002799497258327E+00
Ga    3.2089569769141053E+00    1.6976487377983182E-01    3.2697481443866940E+00
N    3.2155645457838684E+00    4.5920451836128515E-02    5.2379352949402529E+00
Ga    3.2054039111181609E+00    1.9209482042864312E+00    5.8537565868880002E+00
N    3.2150713698735269E+00    1.9068119514037114E+00    7.8353886123809335E+00
Ga    3.2142503651624605E+00    4.2088945794434174E-02    8.4324946197143227E+00
N    3.2139668150908629E+00    3.5002366663382092E-02    1.0424718988828785E+01
Ga    3.2133850406878381E+00    1.9025666166556228E+00    1.1034853061878671E+01
N    3.2148575418921528E+00    1.9038074896342767E+00    1.3001592573069312E+01
Ga    3.2149356257729851E+00    3.5981925612816296E-02    1.3628670450115189E+01
N    3.2160698409786623E+00    6.9150588122712381E-02    1.5586126928411877E+01
Ga    3.2156175321153015E+00    1.9054044900151346E+00    1.5868235490671982E+01
N    1.4647668038374562E+00    4.6074645724238366E+00    2.3479242331237482E+00
Ga    1.6801319494457467E+00    2.8282953062376306E+00    3.2282489321620069E+00
N    1.6081012386772557E+00    2.8461617167681550E+00    5.2211575478810488E+00
Ga    1.6581414433681638E+00    4.7073781517402455E+00    5.8254471228706315E+00
N    1.6010910313601614E+00    4.6883904680959683E+00    7.8313788502643575E+00
Ga    1.5959029214562970E+00    2.8354105985541391E+00    8.4480107703322318E+00
N    1.5957227010855339E+00    2.8358130952195921E+00    1.0439048915637306E+01
Ga    1.6227898411660271E+00    4.6983235372991849E+00    1.1074975412209964E+01
N    1.6383028343093835E+00    4.7087471182379437E+00    1.3068005019328655E+01
Ga    1.5958717057658500E+00    2.8397428884345537E+00    1.3627218869502414E+01
N    1.6258302184655722E+00    2.8235349734750894E+00    1.5585335640147619E+01
Ga    1.4350600718445421E+00    4.5909257148552882E+00    1.6492549956720314E+01
N   -2.2343315377764688E-04    7.4567035942107207E+00    2.6730857631120859E+00
Ga    4.8289373442105619E-02    5.5847080640453699E+00    3.2835976398069460E+00
N    1.1132462502757397E-02    5.6246726453776263E+00    5.2277337710975740E+00
Ga    9.0441203930169585E-03    7.4565610487461917E+00    5.8918623182411682E+00
N    1.0132023940693461E-03    7.4739112087365891E+00    7.8516748308774744E+00
Ga   -2.7479552406931727E-03    5.6023377221927007E+00    8.4587737860509016E+00
N   -5.4475347410427562E-03    5.6085225415521727E+00    1.0444476014476354E+01
Ga   -4.8377659263204387E-03    7.4761685440005499E+00    1.1040168208694757E+01
N   -2.7420697208341812E-03    7.4768621241498900E+00    1.3004864949645084E+01
Ga   -1.3873776485126496E-03    5.6058427148240622E+00    1.3628390699821308E+01
N   -4.1291620424304895E-04    5.6403199523492678E+00    1.5586359964610178E+01
Ga   -9.2745571494416441E-04    7.4762571989310489E+00    1.5868974009186886E+01
N   -1.7053513224660946E+00    1.0194891505171618E+01    2.5205167739537577E+00
Ga   -1.5930705957316131E+00    8.3834679216623051E+00    3.3108194569217564E+00
N   -1.5956090436963313E+00    8.3918814387754939E+00    5.2431020423623380E+00
Ga   -1.5852321362083717E+00    1.0279500761533148E+01    5.8025105084648043E+00
N   -1.5997335780436832E+00    1.0263118232006068E+01    7.7902592573110843E+00
Ga   -1.6185204514422156E+00    8.4093145717439501E+00    8.4435713698016119E+00
N   -1.6221718508960750E+00    8.4101510569790054E+00    1.0430157336123610E+01
Ga   -1.5965069499316780E+00    1.0270437717971815E+01    1.1074024114103707E+01
N   -1.5783335747780318E+00    1.0279334282240317E+01    1.3064768903483456E+01
Ga   -1.6208299891873137E+00    8.4115193105613137E+00    1.3629851170117998E+01
N   -1.5908184453009850E+00    8.3950620683902315E+00    1.5587018698431317E+01
Ga   -1.7810377993443063E+00    1.0162155240160503E+01    1.6493744073607164E+01
N    6.4333862246271734E+00    2.0217226550642629E+00    2.5439474309369774E+00
Ga    6.4288321710890415E+00    5.2448459142458263E-02    2.8902851518814749E+00
N    6.4346620456252905E+00    4.6407445887794781E-02    5.0212486981649374E+00
Ga    6.4232027070029361E+00    1.8848617138723092E+00    5.8018528341876676E+00
N    6.4295122689332720E+00    1.8911230375770849E+00    7.7944303320145387E+00
Ga    6.4308276389163108E+00    4.8139961148372906E-02    8.4474715911306681E+00
N    6.4303582685434080E+00    4.7546057346998717E-02    1.0418060160914365E+01
Ga    6.4306382271589415E+00    1.8872998099961447E+00    1.1077124335807216E+01
N    6.4312506811416004E+00    1.8680919523232935E+00    1.3067853166787634E+01
Ga    6.4295644872184967E+00    4.8462534100956897E-02    1.3879716569295438E+01
N    6.4283205441993490E+00    4.6978996633472346E-02    1.6074349091667024E+01
Ga    6.4302400946612170E+00    2.0886581805037721E+00    1.6489269980782364E+01
Ga    6.4607021045251747E+00    3.7029922165052387E+00    1.4874502560183314E+00
N    4.9344041238925023E+00    4.6236395380228528E+00    2.3893266905752486E+00
Ga    4.6915740227604559E+00    2.8181866226672354E+00    3.2738320827754692E+00
N    4.8265796446418285E+00    2.8465091396853208E+00    5.2350371930043869E+00
Ga    4.7710340895563030E+00    4.7123482566719090E+00    5.8410797982623537E+00
N    4.8330089719364517E+00    4.6875889023608970E+00    7.8371234456078467E+00
Ga    4.8315305972815334E+00    2.8330815347761464E+00    8.4514317916613173E+00
N    4.8326451131373984E+00    2.8354982272774141E+00    1.0440242882028567E+01
Ga    4.8051117604940323E+00    4.6980978826717488E+00    1.1076691545347915E+01
N    4.7906884109755632E+00    4.7081589425714006E+00    1.3069175287298158E+01
Ga    4.8333933606001018E+00    2.8391965754820521E+00    1.3627935067201083E+01
N    4.8082393074592940E+00    2.8245214072381652E+00    1.5588818370115792E+01
Ga    4.9818055435836506E+00    4.5974570172129861E+00    1.6489644462494702E+01
N    6.4247806548113591E+00    3.7572442163836830E+00    1.7633269616304748E+01
N    3.2142123364273298E+00    7.6013050068900307E+00    2.3802295953339501E+00
N    3.2203363980483068E+00    5.6222004002796613E+00    5.2225185258310569E+00
Ga    3.2160991699021877E+00    7.4110732885219148E+00    5.8501732626849297E+00
N    3.2161288201862539E+00    7.4873086319802935E+00    7.8389203387505253E+00
Ga    3.2140394951039131E+00    5.6167371145275435E+00    8.4413137068280548E+00
N    3.2149419783053248E+00    5.6196455713478057E+00    1.0422818299696168E+01
Ga    3.2137969582971255E+00    7.4557790331482936E+00    1.1079642954906744E+01
N    3.2140898862525096E+00    7.4392085673318498E+00    1.3070832303300092E+01
Ga    3.2137428686635845E+00    5.6178582329491231E+00    1.3880235274792364E+01
N    3.2125295283484978E+00    5.6172747821354507E+00    1.6075667551425752E+01
Ga    3.2142424895367125E+00    7.6595525775329687E+00    1.6490180570875932E+01
Ga    3.2117832368662551E+00    9.3886314646792872E+00    1.4567761006700897E+00
N    1.7074581799959681E+00    1.0184308983860905E+01    2.5271231988433871E+00
Ga    1.6102265120084616E+00    8.3336172137327154E+00    3.3078059936804745E+00
N    1.6086795822428392E+00    8.3897437334760259E+00    5.2348864024248876E+00
Ga    1.5828630410533668E+00    1.0269712828026369E+01    5.8060525540459604E+00
N    1.5952242538346182E+00    1.0262270317681573E+01    7.7936551348139407E+00
Ga    1.6146196925775345E+00    8.4135253527108560E+00    8.4628069250235871E+00
N    1.6133169688756546E+00    8.4123105921190824E+00    1.0445872958687723E+01
Ga    1.5905497644237760E+00    1.0271813735496695E+01    1.1080705000779092E+01
N    1.5745430694781084E+00    1.0280377961869359E+01    1.3069935026572418E+01
Ga    1.6171547994237176E+00    8.4109724365421776E+00    1.3629860772291371E+01
N    1.5915659187406257E+00    8.3957715730755229E+00    1.5590353082959149E+01
Ga    1.7657627025585598E+00    1.0168587204363838E+01    1.6489812950695747E+01
N    3.2084375677249346E+00    9.3296398608218087E+00    1.7633259992873629E+01
N    9.6561112412096488E+00    1.9068324851754488E+00    2.6267335696585543E+00
Ga    9.6533433703392166E+00    1.6855764290615985E-01    3.2980548579996172E+00
N    9.6476839323960917E+00    4.1334196958875406E-02    5.2547952933521076E+00
Ga    9.6569043476158214E+00    1.9077006356475787E+00    5.8811398515341207E+00
N    9.6469859481860354E+00    1.9032836050938076E+00    7.8509132617777686E+00
Ga    9.6475235211901893E+00    3.5117063231925441E-02    8.4398050761239016E+00
N    9.6465170785914278E+00    3.3696146429068062E-02    1.0429606439778924E+01
Ga    9.6465076946778687E+00    1.9053851160970929E+00    1.1027054213275761E+01
N    9.6457047722138682E+00    1.9045732460058784E+00    1.2996648974317226E+01
Ga    9.6468696800857963E+00    3.7401069462477878E-02    1.3629080658805314E+01
N    9.6471026818177403E+00    6.5327280151786057E-02    1.5588676841138572E+01
Ga    9.6451136796669488E+00    1.9041345460506667E+00    1.5868176368885189E+01
N    7.9218821310919942E+00    4.6299240901577798E+00    2.5280059373955530E+00
Ga    8.1501173107781728E+00    2.7709509987684262E+00    3.3073896628690043E+00
N    8.0406308078811239E+00    2.8342182681530814E+00    5.2614379197886905E+00
Ga    8.0650199467552639E+00    4.7064319977816131E+00    5.8036949282265295E+00
N    8.0472175326174433E+00    4.6999517654453724E+00    7.7937937530633006E+00
Ga    8.0278646161522360E+00    2.8385262353708836E+00    8.4384475207117564E+00
N    8.0264906233947482E+00    2.8409623254913110E+00    1.0429238415516943E+01
Ga    8.0565164498716850E+00    4.6977945900309850E+00    1.1081328397511315E+01
N    8.0721571151904872E+00    4.7080638384468161E+00    1.3070181970597735E+01
Ga    8.0287630971899642E+00    2.8389385286095625E+00    1.3628415315678666E+01
N    8.0534742649673010E+00    2.8248892178774336E+00    1.5588141982873456E+01
Ga    7.8745872444640161E+00    4.5950728150585194E+00    1.6489539586639168E+01
N    6.4265994592752111E+00    7.4673170805737445E+00    2.5761154123524772E+00
Ga    6.3759704951796392E+00    5.6430765212285499E+00    3.3088925269624236E+00
N    6.4234758653763118E+00    5.6305935896264065E+00    5.2333930966610938E+00
Ga    6.4223999255460074E+00    7.4695548479105423E+00    5.9012205384956120E+00
N    6.4286686991258692E+00    7.4744161238533264E+00    7.8560653666613325E+00
Ga    6.4349644747352075E+00    5.6033315435319277E+00    8.4648153881065689E+00
N    6.4347312203845934E+00    5.6084451890625777E+00    1.0447496339697697E+01
Ga    6.4327613352746633E+00    7.4766446037554228E+00    1.1043472077699136E+01
N    6.4312658633418378E+00    7.4760060748979313E+00    1.3008222576177511E+01
Ga    6.4310863218635221E+00    5.6042597859482122E+00    1.3629296608402438E+01
N    6.4312260923803519E+00    5.6349648127536884E+00    1.5589095535613060E+01
Ga    6.4292800975990421E+00    7.4745665566954873E+00    1.5864708625147752E+01
N    4.7188637823027513E+00    1.0184313252937839E+01    2.5213912853857892E+00
Ga    4.8275372815754833E+00    8.3387329048256937E+00    3.3043301992758782E+00
N    4.8265550548845590E+00    8.3895849643552651E+00    5.2297818235773628E+00
Ga    4.8541687397624633E+00    1.0274589396933489E+01    5.8028931080082744E+00
N    4.8346098743693213E+00    1.0261714351008017E+01    7.7924968365728899E+00
Ga    4.8134355961114919E+00    8.4158619524214533E+00    8.4661473948757120E+00
N    4.8153547050363095E+00    8.4127422618397460E+00    1.0447901384882989E+01
Ga    4.8386294375123118E+00    1.0273189228200852E+01    1.1081347642259843E+01
N    4.8544772361088002E+00    1.0281050645886852E+01    1.3070072241098631E+01
Ga    4.8107107225530230E+00    8.4119288979788500E+00    1.3629778270333130E+01
N    4.8372448757090574E+00    8.3962752818647193E+00    1.5589406426894191E+01
Ga    4.6586938512658929E+00    1.0166243290814402E+01    1.6489532288422485E+01
O   -5.8616327364154480E-02    3.6627388776513357E+00   -5.3804298034136433E-01
H    2.0407090783973532E-03    7.4560811022003852E+00    1.6458287072077467E+00
C    6.2733613246186892E-01    2.5461168178707472E+00   -1.1256168884771933E+00
H    1.6833888355150075E+00    2.4792799237496457E+00   -8.1022580272680411E-01
H    1.4181522414809250E-01    1.5856024945888529E+00   -8.8393647546421972E-01
H    6.0066152711910237E-01    2.6823938995351884E+00   -2.2170102329940478E+00
Ga    3.1605004042099756E+00    5.5686165381722841E+00    1.8368121453744539E+00
O    3.2883657610851027E+00    5.7653958408053487E+00   -7.2283598822445627E-04
H    2.8098844082112437E+00    5.0437473461376472E+00   -4.4103283777036834E-01
C    6.4231662924172470E+00    7.4566921173622243E+00    1.0802546338983621E+00
H    5.5445218564163383E+00    7.9724854496547630E+00    6.6459050780043760E-01
H    7.3169701847061592E+00    7.9495868634609170E+00    6.6802092431542115E-01
H    6.3965822450267487E+00    6.4346479991142456E+00    6.7751811497463221E-01
     &END COORD
     &KIND C
       BASIS_SET DZVP-MOLOPT-SR-GTH-q4
       POTENTIAL GTH-PBE-q4
       &POTENTIAL
 2 2
  0.3384712400000000E+00 2 -0.8803673979999999E+01  0.1339210850000000E+01
 2
  0.3025757500000000E+00 1  0.9622486650000001E+01
  0.2915069400000000E+00 0
         # Potential name:  GTH-PBE-Q4  for symbol:  C
         # Potential read from the potential filename: GTH_POTENTIALS
       &END POTENTIAL
     &END KIND
     &KIND O
       BASIS_SET DZVP-MOLOPT-SR-GTH-q6
       POTENTIAL GTH-PBE-q6
       &POTENTIAL
 2 4
  0.2445543000000000E+00 2 -0.1666721480000000E+02  0.2487311320000000E+01
 2
  0.2209559200000000E+00 1  0.1833745811000000E+02
  0.2113324700000000E+00 0
         # Potential name:  GTH-PBE-Q6  for symbol:  O
         # Potential read from the potential filename: GTH_POTENTIALS
       &END POTENTIAL
     &END KIND
     &KIND H
       BASIS_SET DZVP-MOLOPT-SR-GTH-q1
       POTENTIAL GTH-PBE-q1
       &POTENTIAL
 1
  0.2000000000000000E+00 2 -0.4178900440000000E+01  0.7244633100000000E+00
 0
         # Potential name:  GTH-PBE-Q1  for symbol:  H
         # Potential read from the potential filename: GTH_POTENTIALS
       &END POTENTIAL
     &END KIND
     &KIND N
       BASIS_SET DZVP-MOLOPT-SR-GTH
       POTENTIAL GTH-PBE-q5
       &POTENTIAL
 2 3
  0.2837905100000000E+00 2 -0.1241522559000000E+02  0.1868095920000000E+01
 2
  0.2554050000000000E+00 1  0.1363026257000000E+02
  0.2454945300000000E+00 0
         # Potential name:  GTH-PBE-Q5  for symbol:  N
         # Potential read from the potential filename: GTH_POTENTIALS
       &END POTENTIAL
     &END KIND
     &KIND Ga
       BASIS_SET DZVP-MOLOPT-SR-GTH
       POTENTIAL GTH-PBE-q13
       &POTENTIAL
 2 1 10
  0.4900000000000000E+00 0
 3
  0.4167772300000000E+00 3  0.1047568975000000E+02 -0.4921768140000000E+01  0.8707055900000000E+00
  0.7770178090000000E+01 -0.2248152160000000E+01
  0.1784415450000000E+01
  0.5696265200000000E+00 2  0.1777985340000000E+01  0.1958597600000000E+00
 -0.2317443900000000E+00
  0.2381265000000000E+00 1 -0.1624868022000000E+02
         # Potential name:  GTH-PBE-Q13  for symbol:  GA
         # Potential read from the potential filename: GTH_POTENTIALS
       &END POTENTIAL
     &END KIND
     &TOPOLOGY
       NUMBER_OF_ATOMS  212
       MULTIPLE_UNIT_CELL  1 1 1
     &END TOPOLOGY
   &END SUBSYS
 &END FORCE_EVAL
