 # Version information for this restart file 
 # current date 2019-06-28 23:07:03.625
 # current working dir /scratch/rzk/rzk/GaN-carbene/443-adatoms-both-2x2/06-CH3O-HO-H-H3C/01-UseUnoptimized-0501
 # Program compiled at                              Sun Apr  7 00:48:11 EDT 2019
 # Program compiled on                          beluga2.int.ets1.calculquebec.ca
 # Program compiled for                        Beluga-Linux-x86-64-intel-openmpi
 # Source code revision number                                         svn:18619
 &GLOBAL
   PRINT_LEVEL  MEDIUM
   PROJECT_NAME TEST
   RUN_TYPE  GEO_OPT
 &END GLOBAL
 &MOTION
   &GEO_OPT
     MAX_ITER  500
     STEP_START_VAL  13
   &END GEO_OPT
 &END MOTION
 &FORCE_EVAL
   METHOD  QS
   STRESS_TENSOR  ANALYTICAL
   &DFT
     BASIS_SET_FILE_NAME BASIS_MOLOPT
     POTENTIAL_FILE_NAME GTH_POTENTIALS
     UKS  T
     SURFACE_DIPOLE_CORRECTION  T
     SURF_DIP_DIR  Z
     &SCF
       MAX_SCF  80
       EPS_SCF     5.0000000000000004E-06
       &OT  T
         PRECONDITIONER  FULL_ALL
       &END OT
       &OUTER_SCF  T
         OPTIMIZER  NONE
         EPS_SCF     5.0000000000000004E-06
         MAX_SCF  4
       &END OUTER_SCF
       &PRINT
         &RESTART  OFF
           BACKUP_COPIES  1
           &EACH
             JUST_ENERGY  0
             QS_SCF  0
             MD  20
           &END EACH
         &END RESTART
       &END PRINT
     &END SCF
     &QS
       EPS_DEFAULT     1.0000000000000000E-14
       METHOD  GPW
     &END QS
     &MGRID
       NGRIDS  5
       CUTOFF     1.2000000000000000E+03
     &END MGRID
     &XC
       DENSITY_CUTOFF     1.0000000000000000E-10
       GRADIENT_CUTOFF     1.0000000000000000E-10
       TAU_CUTOFF     1.0000000000000000E-10
       &XC_FUNCTIONAL  NO_SHORTCUT
         &PBE  T
         &END PBE
       &END XC_FUNCTIONAL
       &VDW_POTENTIAL
         POTENTIAL_TYPE  PAIR_POTENTIAL
         &PAIR_POTENTIAL
           R_CUTOFF     1.0000000000000004E+01
           TYPE  DFTD3
           PARAMETER_FILE_NAME dftd3.dat
           REFERENCE_FUNCTIONAL PBE
           EPS_CN     9.9999999999999995E-07
           CALCULATE_C9_TERM  T
           REFERENCE_C9_TERM  T
           LONG_RANGE_CORRECTION  F
           VERBOSE_OUTPUT  F
         &END PAIR_POTENTIAL
       &END VDW_POTENTIAL
     &END XC
   &END DFT
   &SUBSYS
     &CELL
       A     1.2864472766435110E+01    0.0000000000000000E+00    0.0000000000000000E+00
       B    -6.4322363581020028E+00    1.1140960178524473E+01    0.0000000000000000E+00
       C     0.0000000000000000E+00    0.0000000000000000E+00    3.2000000000000000E+01
       MULTIPLE_UNIT_CELL  1 1 1
       &CELL_REF
         A     1.2982353780853531E+01    0.0000000000000000E+00    0.0000000000000000E+00
         B    -6.4911768904267628E+00    1.1243048175136114E+01    0.0000000000000000E+00
         C     0.0000000000000000E+00    0.0000000000000000E+00    3.2000000000000000E+01
         MULTIPLE_UNIT_CELL  1 1 1
       &END CELL_REF
     &END CELL
     &COORD
N   -6.9506853890853532E-03    2.0350496431977825E+00    2.5112557679611180E+00
Ga    1.9986212198506317E-04    9.7424762163895284E-02    2.8661491959147911E+00
N   -3.0020644767083365E-03    4.6150539797190131E-02    5.0208184586115596E+00
Ga    9.5295238169293521E-03    1.8911375794785326E+00    5.7881565692868184E+00
N    1.1246005195190885E-03    1.8915108951811799E+00    7.7906800599250694E+00
Ga   -6.6500782534664499E-04    5.0570833500906923E-02    8.4445311327541415E+00
N   -1.6360459314260424E-03    4.7676862005119627E-02    1.0417217678671170E+01
Ga   -1.6826540581779382E-03    1.8878428449898041E+00    1.1077106954675065E+01
N   -2.1151454998591186E-03    1.8682147284067923E+00    1.3068890534503451E+01
Ga   -1.3490440540293996E-03    4.9355890838348473E-02    1.3883388851280250E+01
N   -1.9579822823633285E-03    4.7923718142206140E-02    1.6075371606843987E+01
Ga   -1.9721403830810585E-03    2.0948294015350464E+00    1.6490602564633551E+01
Ga   -6.5245045520544442E-02    3.7076231420123276E+00    1.2798739306095095E+00
N   -1.4857989632796689E+00    4.6219580908229112E+00    2.4958590749793679E+00
Ga   -1.6710918775442516E+00    2.7870369938508976E+00    3.2739889950914760E+00
N   -1.6113294204098638E+00    2.8327181083725952E+00    5.2527048029947254E+00
Ga   -1.6219889913477721E+00    4.6998818328649463E+00    5.7968516318060974E+00
N   -1.6173452539494262E+00    4.6994788920156711E+00    7.7923498445476378E+00
Ga   -1.5950570336036149E+00    2.8389004340938224E+00    8.4364134241973403E+00
N   -1.5983754296981061E+00    2.8405373671983534E+00    1.0429341163613522E+01
Ga   -1.6259190865140636E+00    4.6981160111570821E+00    1.1079887120309435E+01
N   -1.6425765597262647E+00    4.7087844062614916E+00    1.3070532755380928E+01
Ga   -1.6001053617166876E+00    2.8389861253105635E+00    1.3628278812036257E+01
N   -1.6301855527799887E+00    2.8214542390102331E+00    1.5587458156270310E+01
Ga   -1.4451035153962519E+00    4.5943788580193381E+00    1.6491373109025410E+01
N   -8.2944748414568933E-03    3.7572251433687072E+00    1.7622128777028099E+01
N   -3.2199539855682660E+00    7.5902607138415386E+00    2.5097749451333251E+00
Ga   -3.1843730667916406E+00    5.5879119811075402E+00    2.8662603355806153E+00
N   -3.2156035225004440E+00    5.6150286447514519E+00    5.0200994952337794E+00
Ga   -3.2174335085911436E+00    7.4320983020543450E+00    5.8051449926372563E+00
N   -3.2189235695723935E+00    7.4660402779613539E+00    7.7896379791225634E+00
Ga   -3.2155872135301595E+00    5.6164617919244932E+00    8.4473031916516543E+00
N   -3.2180641256988087E+00    5.6191374538001870E+00    1.0418150921954821E+01
Ga   -3.2171214051726613E+00    7.4570608951597590E+00    1.1079141057381710E+01
N   -3.2171762782495663E+00    7.4384260097374959E+00    1.3068837089055782E+01
Ga   -3.2173677521646695E+00    5.6183483628345083E+00    1.3885501626118709E+01
N   -3.2183168959382336E+00    5.6183952073944310E+00    1.6076003059486464E+01
Ga   -3.2182365320812694E+00    7.6659098843005449E+00    1.6492823305813033E+01
Ga   -3.2182998212551173E+00    9.3793288123552188E+00    1.3752830783023942E+00
N   -4.7286348677824792E+00    1.0195630402005950E+01    2.5171970457304575E+00
Ga   -4.8547776957410633E+00    8.3867773273295452E+00    3.3082952767705973E+00
N   -4.8423216430968923E+00    8.3908326802848094E+00    5.2385515962449860E+00
Ga   -4.8537644846118564E+00    1.0283321986507080E+01    5.7987013167827497E+00
N   -4.8346030399281368E+00    1.0261815846299008E+01    7.7884409046300167E+00
Ga   -4.8147135518683806E+00    8.4112056613600767E+00    8.4481227861153148E+00
N   -4.8141112327543150E+00    8.4103345824313802E+00    1.0433289257686766E+01
Ga   -4.8401378218597086E+00    1.0271992781800300E+01    1.1076209272754415E+01
N   -4.8573568679757466E+00    1.0280123975818983E+01    1.3067162570406371E+01
Ga   -4.8133952550580155E+00    8.4116788693151801E+00    1.3630403562576015E+01
N   -4.8450055678555506E+00    8.3930649803884183E+00    1.5588934956154615E+01
Ga   -4.6614177155689633E+00    1.0165634961828699E+01    1.6492209000331254E+01
N   -3.2240032085584041E+00    9.3293161146260051E+00    1.7624000567981465E+01
N    3.2060075231052840E+00    1.9134842276114077E+00    2.5994290023085727E+00
Ga    3.2100299974357229E+00    1.7084231678397194E-01    3.2701951849986646E+00
N    3.2158622127213623E+00    4.5745691042908619E-02    5.2375660917279889E+00
Ga    3.2054537874650588E+00    1.9212075345308117E+00    5.8524008662476934E+00
N    3.2151787791115725E+00    1.9069915025516866E+00    7.8339312209522642E+00
Ga    3.2143254489778932E+00    4.2440364682024743E-02    8.4317276942914159E+00
N    3.2139547323999698E+00    3.5449318460794806E-02    1.0424234091486419E+01
Ga    3.2133207885779247E+00    1.9031411898886095E+00    1.1034785703326568E+01
N    3.2147830655682612E+00    1.9039820054683048E+00    1.3001851497551080E+01
Ga    3.2150017658952637E+00    3.6246741430021344E-02    1.3629366040170501E+01
N    3.2160286705999619E+00    6.8936637718533811E-02    1.5587431444424105E+01
Ga    3.2156983722961057E+00    1.9052398786622429E+00    1.5869439762535563E+01
N    1.4638270960926505E+00    4.6055961047411209E+00    2.3443965753899541E+00
Ga    1.6797315980035823E+00    2.8274355106471698E+00    3.2265629744811934E+00
N    1.6082671987096619E+00    2.8458331128092982E+00    5.2201619454854686E+00
Ga    1.6597200148227129E+00    4.7078853699170153E+00    5.8220537649803639E+00
N    1.6024636650437931E+00    4.6891622504925614E+00    7.8281120644076854E+00
Ga    1.5964889202221042E+00    2.8361908829085234E+00    8.4469215089049481E+00
N    1.5957981514997299E+00    2.8364419237805545E+00    1.0438275431484561E+01
Ga    1.6228657725459474E+00    4.6983829609713137E+00    1.1075630356249706E+01
N    1.6383283589893884E+00    4.7088321224921366E+00    1.3068832075019825E+01
Ga    1.5960976567493330E+00    2.8397829996632908E+00    1.3628250213803016E+01
N    1.6257576047940860E+00    2.8235074617211025E+00    1.5586840012997348E+01
Ga    1.4352473164231454E+00    4.5910628925336860E+00    1.6493534035359289E+01
N   -3.5927396196864625E-04    7.4564847101793319E+00    2.6722898878362020E+00
Ga    4.8815839607651165E-02    5.5842583442418459E+00    3.2819193588206463E+00
N    1.1496329950495873E-02    5.6246514834463932E+00    5.2262531821232443E+00
Ga    9.5100893937119391E-03    7.4560709165315089E+00    5.8908452430466705E+00
N    1.1556146775178126E-03    7.4738075502855121E+00    7.8505152677043428E+00
Ga   -1.7451119340615791E-03    5.6023246699175218E+00    8.4578818689309188E+00
N   -4.9241894473912289E-03    5.6083359547128060E+00    1.0443815418069969E+01
Ga   -4.5674935436283799E-03    7.4758793960872172E+00    1.1040215860221677E+01
N   -2.7970640517384262E-03    7.4767966261952017E+00    1.3005228013794790E+01
Ga   -1.3620346577174363E-03    5.6060706424703799E+00    1.3629344775944439E+01
N   -5.1907030867905644E-04    5.6403104966374480E+00    1.5587852361551326E+01
Ga   -1.0572253129894750E-03    7.4764886336162011E+00    1.5870148844821584E+01
N   -1.7051101433697737E+00    1.0194698750356615E+01    2.5206417007789597E+00
Ga   -1.5920006642102329E+00    8.3834537890294438E+00    3.3121664589906765E+00
N   -1.5956471269038828E+00    8.3916209083279476E+00    5.2434073316586929E+00
Ga   -1.5851834990273224E+00    1.0279339178127604E+01    5.8021542851194736E+00
N   -1.5997687915207979E+00    1.0262982073997771E+01    7.7894657208002132E+00
Ga   -1.6184118146393374E+00    8.4089969344589051E+00    8.4428077675816002E+00
N   -1.6220149796526770E+00    8.4099860584999249E+00    1.0429640713391295E+01
Ga   -1.5967217800257956E+00    1.0270402226838877E+01    1.1074259608699776E+01
N   -1.5785210538740608E+00    1.0279308646086740E+01    1.3065372482751810E+01
Ga   -1.6207248879723841E+00    8.4115477681535591E+00    1.3630514319572999E+01
N   -1.5910840512482101E+00    8.3952412158502820E+00    1.5588329705584339E+01
Ga   -1.7807691940101409E+00    1.0162387897605598E+01    1.6494598027691957E+01
N    6.4346898748913564E+00    2.0213676817388402E+00    2.5443627028552114E+00
Ga    6.4302649646116459E+00    5.1525928637257981E-02    2.8916792537690599E+00
N    6.4348379875896526E+00    4.6149308986742542E-02    5.0212083033220081E+00
Ga    6.4232702023786850E+00    1.8847998439907736E+00    5.8018854918749678E+00
N    6.4294498866626579E+00    1.8910137101317750E+00    7.7939593423447677E+00
Ga    6.4308971389469729E+00    4.7855935661560822E-02    8.4473473173312161E+00
N    6.4302512421395752E+00    4.7546782487519701E-02    1.0418123199401398E+01
Ga    6.4302645552349755E+00    1.8876459547118498E+00    1.1077056985947133E+01
N    6.4310223514675480E+00    1.8685173370416044E+00    1.3068295430545723E+01
Ga    6.4295625222607651E+00    4.8609928821600618E-02    1.3880348341822508E+01
N    6.4283846419924471E+00    4.7119494399092215E-02    1.6075707990451729E+01
Ga    6.4303699543029760E+00    2.0886582255072583E+00    1.6490149844996022E+01
Ga    6.4644652479223366E+00    3.7025686619263638E+00    1.4878480403225114E+00
N    4.9348326500078539E+00    4.6224196302340594E+00    2.3858103709991481E+00
Ga    4.6930944900494946E+00    2.8169786829096934E+00    3.2728261145180100E+00
N    4.8269935485920392E+00    2.8466097004668849E+00    5.2337331619259322E+00
Ga    4.7698345590428257E+00    4.7133986607116203E+00    5.8381454618140172E+00
N    4.8321789363897159E+00    4.6882489915006191E+00    7.8343207671530513E+00
Ga    4.8311743340700559E+00    2.8338130801775288E+00    8.4499137184859023E+00
N    4.8323746435840365E+00    2.8360598905768746E+00    1.0439219061904430E+01
Ga    4.8048904213058794E+00    4.6978746635637867E+00    1.1077548339817586E+01
N    4.7905215646293833E+00    4.7081145177499861E+00    1.3070074274884526E+01
Ga    4.8331202585376856E+00    2.8390974387637633E+00    1.3629017790919798E+01
N    4.8083078807031345E+00    2.8245295276501703E+00    1.5590193022506764E+01
Ga    4.9818986150300981E+00    4.5976042539885400E+00    1.6490548072211737E+01
N    6.4249443606067773E+00    3.7572427237605992E+00    1.7634642624183012E+01
N    3.2136023237216911E+00    7.6020564904390948E+00    2.3772321884562668E+00
N    3.2206299667180396E+00    5.6219593337848570E+00    5.2118625606442226E+00
Ga    3.2160352091024325E+00    7.4091569068807894E+00    5.8476523701871352E+00
N    3.2162142984932087E+00    7.4858924219803251E+00    7.8364924661542892E+00
Ga    3.2144087740080129E+00    5.6167337804327682E+00    8.4412263003705466E+00
N    3.2150575290849863E+00    5.6195246622109059E+00    1.0422650433385387E+01
Ga    3.2136288105788817E+00    7.4555549057421242E+00    1.1080436260436938E+01
N    3.2139548001152027E+00    7.4390572466925784E+00    1.3071713607849992E+01
Ga    3.2137012826105695E+00    5.6178611465203394E+00    1.3881608997505689E+01
N    3.2125513874613518E+00    5.6173169585987495E+00    1.6077060060575459E+01
Ga    3.2143855316776868E+00    7.6596384216368971E+00    1.6491088069333603E+01
Ga    3.2134902915203996E+00    9.3899946046056737E+00    1.4570951533938576E+00
N    1.7081178180349166E+00    1.0183848840461314E+01    2.5273893219142920E+00
Ga    1.6103565085446914E+00    8.3332339066196326E+00    3.3065403090912118E+00
N    1.6086540747176474E+00    8.3891367643154329E+00    5.2338881337116057E+00
Ga    1.5834163508525940E+00    1.0268794230393029E+01    5.8056520676860659E+00
N    1.5953958215922170E+00    1.0261801812570072E+01    7.7930384307351588E+00
Ga    1.6151151293576111E+00    8.4126537513323196E+00    8.4617051586968852E+00
N    1.6136350005518147E+00    8.4118443633325324E+00    1.0445152533445759E+01
Ga    1.5905360308867289E+00    1.0271456300377970E+01    1.1080860932105814E+01
N    1.5746227895492377E+00    1.0280152413936788E+01    1.3070541396355056E+01
Ga    1.6169048139266087E+00    8.4108618383741973E+00    1.3630822873141836E+01
N    1.5915870063185249E+00    8.3959045351521411E+00    1.5591713399886999E+01
Ga    1.7657801460594322E+00    1.0168819937410420E+01    1.6490639298322897E+01
N    3.2084877588273439E+00    9.3299129059921189E+00    1.7634394075372228E+01
N    9.6559567781076598E+00    1.9069713860930182E+00    2.6293297626043062E+00
Ga    9.6523510145071558E+00    1.6854054642471408E-01    3.2988504379260948E+00
N    9.6476994871492288E+00    4.1387445581247226E-02    5.2551394838670555E+00
Ga    9.6572659187228567E+00    1.9075345202865301E+00    5.8814678500880699E+00
N    9.6470163540754452E+00    1.9032365791865733E+00    7.8505283900082157E+00
Ga    9.6474830666006000E+00    3.4907905842005288E-02    8.4396948074205369E+00
N    9.6464900382854193E+00    3.3827919338721119E-02    1.0429407077470326E+01
Ga    9.6465053073702691E+00    1.9055404844211530E+00    1.1027343263430163E+01
N    9.6457567169663356E+00    1.9047665602687993E+00    1.2997208991214730E+01
Ga    9.6468284823748878E+00    3.7729547947914097E-02    1.3629747307001876E+01
N    9.6471847221909126E+00    6.5329482053460342E-02    1.5589814812151181E+01
Ga    9.6450689139218042E+00    1.9040982548102883E+00    1.5869336869125901E+01
N    7.9222149257537602E+00    4.6295305614612561E+00    2.5281430022567082E+00
Ga    8.1505887124853356E+00    2.7701188057364003E+00    3.3092323351085686E+00
N    8.0407000289168522E+00    2.8345029503963999E+00    5.2618660862566937E+00
Ga    8.0645454762442803E+00    4.7067196851518673E+00    5.8030985027840503E+00
N    8.0468935918302993E+00    4.6999925489784111E+00    7.7930615612502319E+00
Ga    8.0277602399948034E+00    2.8386185791572829E+00    8.4380633818908439E+00
N    8.0265363260588565E+00    2.8410272829362144E+00    1.0428897752521157E+01
Ga    8.0563536797148600E+00    4.6977444690467109E+00    1.1081822006478006E+01
N    8.0720305678880955E+00    4.7080990820243569E+00    1.3070997716868169E+01
Ga    8.0289260206904931E+00    2.8388420314356981E+00    1.3629204419664411E+01
N    8.0534824658102195E+00    2.8249529113671406E+00    1.5589357620659944E+01
Ga    7.8746495852046765E+00    4.5951449729057510E+00    1.6490297671910064E+01
N    6.4264348245790099E+00    7.4682429230402025E+00    2.5755524961997498E+00
Ga    6.3756759485922183E+00    5.6425913418583020E+00    3.3079164655903810E+00
N    6.4234128403498225E+00    5.6311090572156592E+00    5.2318638881145416E+00
Ga    6.4222536188062964E+00    7.4696660652056472E+00    5.9008606214760846E+00
N    6.4286928422995944E+00    7.4741941928894660E+00    7.8553239484709989E+00
Ga    6.4342622069054149E+00    5.6028695236021040E+00    8.4641968007373674E+00
N    6.4342415626116081E+00    5.6078485154531572E+00    1.0446995944355825E+01
Ga    6.4324835909140123E+00    7.4763403539616426E+00    1.1043517207175638E+01
N    6.4313171978363890E+00    7.4759809658906216E+00    1.3008508422013323E+01
Ga    6.4310438938874643E+00    5.6045606925512903E+00    1.3630154067319681E+01
N    6.4313263662384852E+00    5.6350044292414330E+00    1.5590338566793719E+01
Ga    6.4293974539598828E+00    7.4747323101354830E+00    1.5865398097705571E+01
N    4.7179370879184246E+00    1.0184684142877254E+01    2.5229953540572354E+00
Ga    4.8260649345836137E+00    8.3383255722997589E+00    3.3052348351612899E+00
N    4.8265025761765221E+00    8.3892856181185653E+00    5.2299360796724956E+00
Ga    4.8537707380952870E+00    1.0274053173460146E+01    5.8027181841524822E+00
N    4.8346182273561462E+00    1.0261415999822452E+01    7.7920637114116289E+00
Ga    4.8127943050726465E+00    8.4151377992607550E+00    8.4655050883144884E+00
N    4.8147958663164223E+00    8.4124609216153186E+00    1.0447374519787763E+01
Ga    4.8385286664964493E+00    1.0273034254637269E+01    1.1081768567324966E+01
N    4.8544230620887987E+00    1.0281001228316347E+01    1.3070879931024106E+01
Ga    4.8109377872850461E+00    8.4117862681804958E+00    1.3630507944521799E+01
N    4.8372570342996957E+00    8.3964656919965890E+00    1.5590584875719324E+01
Ga    4.6587851653300625E+00    1.0166356686038755E+01    1.6490256862356112E+01
O   -6.0223154950904176E-02    3.6615678221859485E+00   -5.3963321388919006E-01
H    1.0481357629709485E-03    7.4574654824160751E+00    1.6449880456381356E+00
C    6.2729647317936943E-01    2.5448846681560369E+00   -1.1262893708925208E+00
H    1.6829244334723923E+00    2.4794757638504583E+00   -8.0970765591534710E-01
H    1.4202646715507283E-01    1.5842494536039871E+00   -8.8445539644484994E-01
H    6.0074161907029755E-01    2.6819572293748966E+00   -2.2175200394581389E+00
Ga    3.1591308472962840E+00    5.5646976243679234E+00    1.8388743131701000E+00
O    3.2937401193121407E+00    5.7677536263024880E+00    2.8464763223845025E-03
H    2.8029300495638458E+00    5.0530904386473248E+00   -4.5072409887923454E-01
C    6.4229816258230104E+00    7.4582275810039143E+00    1.0798192905349326E+00
H    5.5452220578613476E+00    7.9739342025972801E+00    6.6103720446356495E-01
H    7.3167037262451808E+00    7.9507848279507582E+00    6.6539144164670883E-01
H    6.3963621163278601E+00    6.4365069669259203E+00    6.7518450813224884E-01
     &END COORD
     &KIND C
       BASIS_SET DZVP-MOLOPT-SR-GTH-q4
       POTENTIAL GTH-PBE-q4
       &POTENTIAL
 2 2
  0.3384712400000000E+00 2 -0.8803673979999999E+01  0.1339210850000000E+01
 2
  0.3025757500000000E+00 1  0.9622486650000001E+01
  0.2915069400000000E+00 0
         # Potential name:  GTH-PBE-Q4  for symbol:  C
         # Potential read from the potential filename: GTH_POTENTIALS
       &END POTENTIAL
     &END KIND
     &KIND O
       BASIS_SET DZVP-MOLOPT-SR-GTH-q6
       POTENTIAL GTH-PBE-q6
       &POTENTIAL
 2 4
  0.2445543000000000E+00 2 -0.1666721480000000E+02  0.2487311320000000E+01
 2
  0.2209559200000000E+00 1  0.1833745811000000E+02
  0.2113324700000000E+00 0
         # Potential name:  GTH-PBE-Q6  for symbol:  O
         # Potential read from the potential filename: GTH_POTENTIALS
       &END POTENTIAL
     &END KIND
     &KIND H
       BASIS_SET DZVP-MOLOPT-SR-GTH-q1
       POTENTIAL GTH-PBE-q1
       &POTENTIAL
 1
  0.2000000000000000E+00 2 -0.4178900440000000E+01  0.7244633100000000E+00
 0
         # Potential name:  GTH-PBE-Q1  for symbol:  H
         # Potential read from the potential filename: GTH_POTENTIALS
       &END POTENTIAL
     &END KIND
     &KIND N
       BASIS_SET DZVP-MOLOPT-SR-GTH
       POTENTIAL GTH-PBE-q5
       &POTENTIAL
 2 3
  0.2837905100000000E+00 2 -0.1241522559000000E+02  0.1868095920000000E+01
 2
  0.2554050000000000E+00 1  0.1363026257000000E+02
  0.2454945300000000E+00 0
         # Potential name:  GTH-PBE-Q5  for symbol:  N
         # Potential read from the potential filename: GTH_POTENTIALS
       &END POTENTIAL
     &END KIND
     &KIND Ga
       BASIS_SET DZVP-MOLOPT-SR-GTH
       POTENTIAL GTH-PBE-q13
       &POTENTIAL
 2 1 10
  0.4900000000000000E+00 0
 3
  0.4167772300000000E+00 3  0.1047568975000000E+02 -0.4921768140000000E+01  0.8707055900000000E+00
  0.7770178090000000E+01 -0.2248152160000000E+01
  0.1784415450000000E+01
  0.5696265200000000E+00 2  0.1777985340000000E+01  0.1958597600000000E+00
 -0.2317443900000000E+00
  0.2381265000000000E+00 1 -0.1624868022000000E+02
         # Potential name:  GTH-PBE-Q13  for symbol:  GA
         # Potential read from the potential filename: GTH_POTENTIALS
       &END POTENTIAL
     &END KIND
     &TOPOLOGY
       NUMBER_OF_ATOMS  212
       MULTIPLE_UNIT_CELL  1 1 1
     &END TOPOLOGY
   &END SUBSYS
 &END FORCE_EVAL
