 # Version information for this restart file 
 # current date 2019-06-28 23:14:13.299
 # current working dir /scratch/rzk/rzk/GaN-carbene/443-adatoms-both-2x2/06-CH3O-HO-H-H3C/01-UseUnoptimized-0501
 # Program compiled at                              Sun Apr  7 00:48:11 EDT 2019
 # Program compiled on                          beluga2.int.ets1.calculquebec.ca
 # Program compiled for                        Beluga-Linux-x86-64-intel-openmpi
 # Source code revision number                                         svn:18619
 &GLOBAL
   PRINT_LEVEL  MEDIUM
   PROJECT_NAME TEST
   RUN_TYPE  GEO_OPT
 &END GLOBAL
 &MOTION
   &GEO_OPT
     MAX_ITER  500
     STEP_START_VAL  16
   &END GEO_OPT
 &END MOTION
 &FORCE_EVAL
   METHOD  QS
   STRESS_TENSOR  ANALYTICAL
   &DFT
     BASIS_SET_FILE_NAME BASIS_MOLOPT
     POTENTIAL_FILE_NAME GTH_POTENTIALS
     UKS  T
     SURFACE_DIPOLE_CORRECTION  T
     SURF_DIP_DIR  Z
     &SCF
       MAX_SCF  80
       EPS_SCF     5.0000000000000004E-06
       &OT  T
         PRECONDITIONER  FULL_ALL
       &END OT
       &OUTER_SCF  T
         OPTIMIZER  NONE
         EPS_SCF     5.0000000000000004E-06
         MAX_SCF  4
       &END OUTER_SCF
       &PRINT
         &RESTART  OFF
           BACKUP_COPIES  1
           &EACH
             JUST_ENERGY  0
             QS_SCF  0
             MD  20
           &END EACH
         &END RESTART
       &END PRINT
     &END SCF
     &QS
       EPS_DEFAULT     1.0000000000000000E-14
       METHOD  GPW
     &END QS
     &MGRID
       NGRIDS  5
       CUTOFF     1.2000000000000000E+03
     &END MGRID
     &XC
       DENSITY_CUTOFF     1.0000000000000000E-10
       GRADIENT_CUTOFF     1.0000000000000000E-10
       TAU_CUTOFF     1.0000000000000000E-10
       &XC_FUNCTIONAL  NO_SHORTCUT
         &PBE  T
         &END PBE
       &END XC_FUNCTIONAL
       &VDW_POTENTIAL
         POTENTIAL_TYPE  PAIR_POTENTIAL
         &PAIR_POTENTIAL
           R_CUTOFF     1.0000000000000004E+01
           TYPE  DFTD3
           PARAMETER_FILE_NAME dftd3.dat
           REFERENCE_FUNCTIONAL PBE
           EPS_CN     9.9999999999999995E-07
           CALCULATE_C9_TERM  T
           REFERENCE_C9_TERM  T
           LONG_RANGE_CORRECTION  F
           VERBOSE_OUTPUT  F
         &END PAIR_POTENTIAL
       &END VDW_POTENTIAL
     &END XC
   &END DFT
   &SUBSYS
     &CELL
       A     1.2864472766435110E+01    0.0000000000000000E+00    0.0000000000000000E+00
       B    -6.4322363581020028E+00    1.1140960178524473E+01    0.0000000000000000E+00
       C     0.0000000000000000E+00    0.0000000000000000E+00    3.2000000000000000E+01
       MULTIPLE_UNIT_CELL  1 1 1
       &CELL_REF
         A     1.2982353780853531E+01    0.0000000000000000E+00    0.0000000000000000E+00
         B    -6.4911768904267628E+00    1.1243048175136114E+01    0.0000000000000000E+00
         C     0.0000000000000000E+00    0.0000000000000000E+00    3.2000000000000000E+01
         MULTIPLE_UNIT_CELL  1 1 1
       &END CELL_REF
     &END CELL
     &COORD
N   -3.5966978571565110E-03    2.0368779465332896E+00    2.5088145508929425E+00
Ga    2.6877887564381742E-03    9.8755215255980716E-02    2.8591484478960676E+00
N   -2.8677302734938280E-03    4.5281441123338255E-02    5.0197849125388112E+00
Ga    8.4174507985068422E-03    1.8900009489742380E+00    5.7858614300734992E+00
N    1.2267156385849824E-03    1.8912612727339733E+00    7.7899035739806193E+00
Ga   -2.5239323254458163E-04    5.1132031383028707E-02    8.4441152133345252E+00
N   -1.5654303059923803E-03    4.7388586622117902E-02    1.0416443579203749E+01
Ga   -2.1078065950833674E-03    1.8866679283118297E+00    1.1076374022553193E+01
N   -2.3542236599493256E-03    1.8670384570456446E+00    1.3066770598128203E+01
Ga   -9.7373215963183623E-04    4.9123550527145420E-02    1.3882505390099727E+01
N   -1.5893265693668526E-03    4.8174908555463948E-02    1.6071464227676710E+01
Ga   -1.6772131292643474E-03    2.0963083948037720E+00    1.6491113212565633E+01
Ga   -5.3482283934632849E-02    3.7105251538431383E+00    1.2808243089650071E+00
N   -1.4841775690846666E+00    4.6227165987928638E+00    2.4949242296727845E+00
Ga   -1.6704384879553547E+00    2.7876169509302362E+00    3.2675901225327504E+00
N   -1.6131097398332179E+00    2.8318856868194668E+00    5.2498060691717194E+00
Ga   -1.6236937739265469E+00    4.6989258549011961E+00    5.7967617136768705E+00
N   -1.6179619691757250E+00    4.6993589052958473E+00    7.7931786392525595E+00
Ga   -1.5949616448557027E+00    2.8384901159647709E+00    8.4355671878631195E+00
N   -1.5979107828640515E+00    2.8402129738298139E+00    1.0429201885401211E+01
Ga   -1.6265452855971905E+00    4.6974262344053601E+00    1.1079518208318168E+01
N   -1.6432128822716316E+00    4.7085541957844352E+00    1.3068712856234443E+01
Ga   -1.5992472654010721E+00    2.8390050855218032E+00    1.3626908497647952E+01
N   -1.6298607664967055E+00    2.8218152901673283E+00    1.5584197912535226E+01
Ga   -1.4439217487920191E+00    4.5942856346024135E+00    1.6491693197149576E+01
N   -7.5878374299566615E-03    3.7579374829098455E+00    1.7621411887184049E+01
N   -3.2200566519914715E+00    7.5870387902034455E+00    2.5032235405134515E+00
Ga   -3.1828155109480996E+00    5.5835675826766025E+00    2.8627102995556650E+00
N   -3.2156965956419943E+00    5.6151231513006312E+00    5.0202278030657377E+00
Ga   -3.2171997224630782E+00    7.4315921935892124E+00    5.8064570843586729E+00
N   -3.2184029551610216E+00    7.4665963544773142E+00    7.7915935196316823E+00
Ga   -3.2147579763548131E+00    5.6165321257358514E+00    8.4481026737382017E+00
N   -3.2174573309655767E+00    5.6191010534359807E+00    1.0418359569052646E+01
Ga   -3.2174384638871967E+00    7.4569213227083733E+00    1.1078219940744344E+01
N   -3.2175356272296374E+00    7.4382549561595406E+00    1.3067170130427332E+01
Ga   -3.2172970562926890E+00    5.6184729667017521E+00    1.3884467645545723E+01
N   -3.2180762989907215E+00    5.6188251460807406E+00    1.6072318834940226E+01
Ga   -3.2178558103064590E+00    7.6668794466236827E+00    1.6493232352738417E+01
Ga   -3.2138237720086567E+00    9.3794817135056618E+00    1.3684161437493960E+00
N   -4.7294142212943759E+00    1.0191138412412661E+01    2.5133932181255876E+00
Ga   -4.8543887896337719E+00    8.3825101700382305E+00    3.3022987448147725E+00
N   -4.8419262066925590E+00    8.3894003098510801E+00    5.2355868438573507E+00
Ga   -4.8545351974675102E+00    1.0281783466616922E+01    5.7991685390155290E+00
N   -4.8344023005213241E+00    1.0261297371533459E+01    7.7898212957880002E+00
Ga   -4.8153814728253481E+00    8.4107464506441243E+00    8.4477460139578859E+00
N   -4.8143370722153431E+00    8.4098550649050097E+00    1.0433411780394454E+01
Ga   -4.8405928736661901E+00    1.0271114294668521E+01    1.1074968356018095E+01
N   -4.8577347112517399E+00    1.0279746509787110E+01    1.3065131085895022E+01
Ga   -4.8130874884959969E+00    8.4118341648180159E+00    1.3630001033330728E+01
N   -4.8454101606049242E+00    8.3929414609963402E+00    1.5586531699224979E+01
Ga   -4.6604998990908051E+00    1.0165753709614220E+01    1.6492646614879156E+01
N   -3.2235541672827814E+00    9.3297973194674935E+00    1.7622672855630480E+01
N    3.2033734641496627E+00    1.9098344719524971E+00    2.5982285852559817E+00
Ga    3.2067141769737888E+00    1.6662090436456584E-01    3.2700069273121311E+00
N    3.2153237573816642E+00    4.4860885132389172E-02    5.2386864965700903E+00
Ga    3.2061318621617909E+00    1.9194958512431251E+00    5.8546770037705000E+00
N    3.2155422357360810E+00    1.9059878464201720E+00    7.8367089694058443E+00
Ga    3.2146368156597873E+00    4.0860932311627782E-02    8.4336650611568977E+00
N    3.2144006414284032E+00    3.3939064524147328E-02    1.0425477247396575E+01
Ga    3.2139021164383115E+00    1.9014400234170750E+00    1.1034973405904530E+01
N    3.2152089911092223E+00    1.9037041934598555E+00    1.3001198461386558E+01
Ga    3.2149709683819192E+00    3.5747995523298749E-02    1.3628018622774867E+01
N    3.2162685793527612E+00    6.9596603593292380E-02    1.5584402296621080E+01
Ga    3.2154239896314860E+00    1.9062053232135405E+00    1.5867170245239802E+01
N    1.4666605518416738E+00    4.6096628820713361E+00    2.3476193265246073E+00
Ga    1.6814194379294560E+00    2.8281394494806640E+00    3.2281417439243252E+00
N    1.6084210780200634E+00    2.8456706937823695E+00    5.2200033927522522E+00
Ga    1.6552279427872909E+00    4.7051817784084315E+00    5.8280684407713075E+00
N    1.5985561151016372E+00    4.6858227817046654E+00    7.8347270397741111E+00
Ga    1.5954390065272885E+00    2.8334575579048056E+00    8.4486618078343394E+00
N    1.5960872178910654E+00    2.8342782937595747E+00    1.0439557446066722E+01
Ga    1.6232585651493470E+00    4.6979344436360426E+00    1.1073010725542664E+01
N    1.6388114246470826E+00    4.7088050611247372E+00    1.3066042600321978E+01
Ga    1.5957442819503849E+00    2.8400333323571405E+00    1.3625935862343161E+01
N    1.6257150671225851E+00    2.8242820029917506E+00    1.5583266261687196E+01
Ga    1.4347856569906101E+00    4.5910123984906939E+00    1.6493625504860489E+01
N   -7.0023103559676734E-05    7.4564412567470200E+00    2.6717374987617339E+00
Ga    4.7434306609950863E-02    5.5843447411268352E+00    3.2831685480912824E+00
N    1.0753709058775169E-02    5.6236150740567066E+00    5.2272808964229300E+00
Ga    8.6153216187220220E-03    7.4562304420878762E+00    5.8923282014727727E+00
N    1.3630572941065009E-03    7.4729221048166661E+00    7.8525685127686629E+00
Ga   -3.8699163154893280E-03    5.6012921842674226E+00    8.4593412205711935E+00
N   -5.9420209165832131E-03    5.6084163804383405E+00    1.0444913801804635E+01
Ga   -4.8384263244186142E-03    7.4761315372655925E+00    1.1040272710678950E+01
N   -2.3705345786384263E-03    7.4769020518056939E+00    1.3004447560114077E+01
Ga   -9.3247533916291498E-04    5.6053477052603240E+00    1.3627280664571851E+01
N    4.5279605298561809E-06    5.6402016652143123E+00    1.5584299829081445E+01
Ga   -5.8735920634935945E-04    7.4759530758737718E+00    1.5868020661080509E+01
N   -1.7059242973385813E+00    1.0193459319664401E+01    2.5195989015699687E+00
Ga   -1.5942215461941083E+00    8.3817683718177438E+00    3.3090129906519619E+00
N   -1.5953196894669970E+00    8.3912934346117058E+00    5.2425180155476774E+00
Ga   -1.5845806566663891E+00    1.0278893938208192E+01    5.8030938390739175E+00
N   -1.5989243073200423E+00    1.0262612380082457E+01    7.7916812553276102E+00
Ga   -1.6180363021582627E+00    8.4090780190523624E+00    8.4448452066969715E+00
N   -1.6219275429303288E+00    8.4099788124153161E+00    1.0431078901303399E+01
Ga   -1.5957508329407863E+00    1.0270159390028081E+01    1.1074070409989524E+01
N   -1.5775749363955287E+00    1.0279547201129239E+01    1.3064133669353357E+01
Ga   -1.6208102620313989E+00    8.4114348726965940E+00    1.3629320851023738E+01
N   -1.5905149625949175E+00    8.3952309160441914E+00    1.5585361882897358E+01
Ga   -1.7811099818222116E+00    1.0162321889840840E+01    1.6494298275154353E+01
N    6.4304488741874577E+00    2.0208341421385736E+00    2.5402901255826169E+00
Ga    6.4264038545541178E+00    5.3793535539918919E-02    2.8861726481321162E+00
N    6.4346207227439125E+00    4.6073438800686851E-02    5.0212979424731090E+00
Ga    6.4232215228173439E+00    1.8845997614401961E+00    5.8004431010095834E+00
N    6.4300338609137269E+00    1.8907475577764095E+00    7.7944248328250314E+00
Ga    6.4311547785424903E+00    4.8330185387076646E-02    8.4477351060548536E+00
N    6.4309450544886602E+00    4.7334186462065574E-02    1.0418127441326469E+01
Ga    6.4315965336502439E+00    1.8865575148037441E+00    1.1077516366533615E+01
N    6.4316472289164812E+00    1.8671728731083099E+00    1.3067436661566690E+01
Ga    6.4296057021432169E+00    4.8257321932670280E-02    1.3879652970874334E+01
N    6.4281978599996243E+00    4.7025645428466253E-02    1.6073011804746027E+01
Ga    6.4301170966855929E+00    2.0883735979851137E+00    1.6489344177582407E+01
Ga    6.4537225540765544E+00    3.7012839501984076E+00    1.4817789111757811E+00
N    4.9322620377282078E+00    4.6249093886263282E+00    2.3896042735406260E+00
Ga    4.6880943800628438E+00    2.8194768542798658E+00    3.2717717745710200E+00
N    4.8258068609490552E+00    2.8454910364374277E+00    5.2345057252612808E+00
Ga    4.7742351992077001E+00    4.7092941639867520E+00    5.8435142247882439E+00
N    4.8353229196161598E+00    4.6855142973178845E+00    7.8396598787450351E+00
Ga    4.8329230602457178E+00    2.8313743751328166E+00    8.4531702355022169E+00
N    4.8335576364624142E+00    2.8342151707036187E+00    1.0441289608509450E+01
Ga    4.8057163145469870E+00    4.6985338108625969E+00    1.1074115747248229E+01
N    4.7909731361325374E+00    4.7084818999992457E+00    1.3067029309795419E+01
Ga    4.8338717394372672E+00    2.8397498581124720E+00    1.3626371986429023E+01
N    4.8085804066144133E+00    2.8252160880001398E+00    1.5587069538969011E+01
Ga    4.9811497862996896E+00    4.5978478992470029E+00    1.6490055204697089E+01
N    6.4246407267255661E+00    3.7575895683891636E+00    1.7630787111668837E+01
N    3.2151655717985985E+00    7.6014209740052436E+00    2.3876448142045157E+00
N    3.2200514325898957E+00    5.6218416689564625E+00    5.2414493636924568E+00
Ga    3.2167544316590648E+00    7.4144567351017310E+00    5.8522401491729772E+00
N    3.2163845690760424E+00    7.4894443735378902E+00    7.8410663806524878E+00
Ga    3.2136087380979719E+00    5.6157592486924992E+00    8.4383793886301763E+00
N    3.2149713483276945E+00    5.6193846405114840E+00    1.0420948075290740E+01
Ga    3.2145259138949998E+00    7.4554601964005780E+00    1.1077390452467824E+01
N    3.2145380082788635E+00    7.4391339127172333E+00    1.3068924775100394E+01
Ga    3.2139673583460615E+00    5.6177924343714185E+00    1.3878617067159421E+01
N    3.2124337879949514E+00    5.6174139942181887E+00    1.6074452030142705E+01
Ga    3.2140393542064856E+00    7.6589960235919001E+00    1.6490603278920613E+01
Ga    3.2070664127341799E+00    9.3847326907708783E+00    1.4533035373945147E+00
N    1.7052808585033523E+00    1.0185192235166685E+01    2.5242646659850441E+00
Ga    1.6091557421925657E+00    8.3349921347325093E+00    3.3097374565720883E+00
N    1.6086569980498782E+00    8.3903154446053954E+00    5.2361052626657054E+00
Ga    1.5821505417831454E+00    1.0270981239583657E+01    5.8065280549396610E+00
N    1.5951852920025691E+00    1.0262545125770407E+01    7.7947366595817611E+00
Ga    1.6143047623521876E+00    8.4143383843546911E+00    8.4639697312914066E+00
N    1.6130149421834996E+00    8.4127061194862911E+00    1.0446563265148196E+01
Ga    1.5908820799474344E+00    1.0271991384805871E+01    1.1080858216045826E+01
N    1.5742958365987569E+00    1.0280725665774453E+01    1.3069347216229136E+01
Ga    1.6178921305560892E+00    8.4108807522472624E+00    1.3628599520952410E+01
N    1.5921176456503503E+00    8.3960344085771990E+00    1.5588700322895411E+01
Ga    1.7651235392687994E+00    1.0168990863444671E+01    1.6489993319241552E+01
N    3.2084328799381301E+00    9.3296208327215080E+00    1.7631334660304056E+01
N    9.6563601852553571E+00    1.9054377272038963E+00    2.6205117651911647E+00
Ga    9.6553475330532041E+00    1.6757604556310535E-01    3.2954919546271060E+00
N    9.6481187083137279E+00    4.0218929149188634E-02    5.2533950855109905E+00
Ga    9.6560170795836360E+00    1.9069852653050261E+00    5.8800080105745707E+00
N    9.6473116509607131E+00    1.9026640124314935E+00    7.8514584218944350E+00
Ga    9.6481150006305523E+00    3.4815641935775590E-02    8.4403863403811084E+00
N    9.6469340838872988E+00    3.2995622832284986E-02    1.0430563761872673E+01
Ga    9.6468813843797658E+00    1.9049317549658229E+00    1.1027168179632486E+01
N    9.6457483168166807E+00    1.9043024844481986E+00    1.2996280672401287E+01
Ga    9.6470584056853035E+00    3.6660229955280954E-02    1.3628389916166881E+01
N    9.6469028866278368E+00    6.5132372035056466E-02    1.5587217625899518E+01
Ga    9.6452914135982599E+00    1.9046528654818473E+00    1.5866526624325752E+01
N    7.9222959271497047E+00    4.6288983829416965E+00    2.5241219348457409E+00
Ga    8.1486336008125573E+00    2.7715482703219712E+00    3.3021978958246576E+00
N    8.0409247348115418E+00    2.8328086761498898E+00    5.2593827688460015E+00
Ga    8.0656876635084611E+00    4.7052527368755053E+00    5.8030287280034170E+00
N    8.0483082282855580E+00    4.6996811460434662E+00    7.7937418723424940E+00
Ga    8.0284182704256111E+00    2.8380388611135254E+00    8.4387617095939440E+00
N    8.0266344782678711E+00    2.8407311009208049E+00    1.0429840123749864E+01
Ga    8.0569586361315988E+00    4.6979042281700760E+00    1.1080403157942772E+01
N    8.0724543888686355E+00    4.7082996620406146E+00    1.3068868420076051E+01
Ga    8.0283415984701314E+00    2.8393747721212894E+00    1.3627395159075844E+01
N    8.0529902231114239E+00    2.8253422699628237E+00    1.5586458243246415E+01
Ga    7.8751843745025560E+00    4.5955830585093613E+00    1.6489920633768225E+01
N    6.4264594393083287E+00    7.4647507545330951E+00    2.5752149111998524E+00
Ga    6.3768864296341032E+00    5.6429482427195028E+00    3.3051340006026106E+00
N    6.4236809725169488E+00    5.6286690964534198E+00    5.2320808504536513E+00
Ga    6.4228486350845833E+00    7.4678673811171974E+00    5.8989304519590382E+00
N    6.4289165499863250E+00    7.4740157282643160E+00    7.8551569385407323E+00
Ga    6.4364828058727266E+00    5.6037823835892624E+00    8.4643638360055462E+00
N    6.4359138400024518E+00    5.6095253784997139E+00    1.0447290537456906E+01
Ga    6.4334247807848337E+00    7.4768435419810446E+00    1.1043690677724856E+01
N    6.4311944558863381E+00    7.4760367934044112E+00    1.3008130059683186E+01
Ga    6.4309928725252039E+00    5.6036858569154804E+00    1.3628274444890817E+01
N    6.4309406754170366E+00    5.6346597885193601E+00    1.5587533197499006E+01
Ga    6.4289968854736275E+00    7.4744397202020831E+00    1.5864752344365947E+01
N    4.7212010338026111E+00    1.0184214344587732E+01    2.5152587718693820E+00
Ga    4.8311468927161485E+00    8.3409821119873637E+00    3.3009698846807014E+00
N    4.8274332368420936E+00    8.3895353267966186E+00    5.2281112147014923E+00
Ga    4.8553193022430365E+00    1.0274699171687413E+01    5.8025550301886968E+00
N    4.8351790395031298E+00    1.0261628548197873E+01    7.7928799913024127E+00
Ga    4.8151869905902407E+00    8.4162850852615705E+00    8.4660109536947843E+00
N    4.8168284608067324E+00    8.4128091437457400E+00    1.0448101331480300E+01
Ga    4.8392628345409268E+00    1.0272963916012271E+01    1.1080995809847590E+01
N    4.8549266586204531E+00    1.0281026384218421E+01    1.3069114113585668E+01
Ga    4.8101976035305718E+00    8.4119586398805044E+00    1.3629106344551992E+01
N    4.8367286983512230E+00    8.3963408004459890E+00    1.5588101793137524E+01
Ga    4.6592767311252921E+00    1.0166894826350052E+01    1.6489894461750847E+01
O   -6.5059856238601874E-02    3.6544405593518956E+00   -5.3747565193194768E-01
H    2.5632873869571608E-03    7.4551993112521080E+00    1.6449076988651368E+00
C    6.2491721894123331E-01    2.5422788018393123E+00   -1.1265402328748879E+00
H    1.6802682039499228E+00    2.4791674541337021E+00   -8.0902199485307313E-01
H    1.4314902154502385E-01    1.5797150658676942E+00   -8.8717003090050994E-01
H    6.0143686569264665E-01    2.6796752319964701E+00   -2.2175970721332283E+00
Ga    3.1633503372371523E+00    5.5804450547084761E+00    1.8420260714058754E+00
O    3.2882162389942762E+00    5.7806982820891566E+00    2.2289258341410189E-03
H    2.7798321730848818E+00    5.0781808668751767E+00   -4.3748831041174097E-01
C    6.4238432132742389E+00    7.4605499609416412E+00    1.0773699061826538E+00
H    5.5486555635872126E+00    7.9815420773705945E+00    6.6542713901633888E-01
H    7.3187059901519618E+00    7.9515376231065673E+00    6.6871358103772971E-01
H    6.3940633350972131E+00    6.4405686922019862E+00    6.6909420903673000E-01
     &END COORD
     &KIND C
       BASIS_SET DZVP-MOLOPT-SR-GTH-q4
       POTENTIAL GTH-PBE-q4
       &POTENTIAL
 2 2
  0.3384712400000000E+00 2 -0.8803673979999999E+01  0.1339210850000000E+01
 2
  0.3025757500000000E+00 1  0.9622486650000001E+01
  0.2915069400000000E+00 0
         # Potential name:  GTH-PBE-Q4  for symbol:  C
         # Potential read from the potential filename: GTH_POTENTIALS
       &END POTENTIAL
     &END KIND
     &KIND O
       BASIS_SET DZVP-MOLOPT-SR-GTH-q6
       POTENTIAL GTH-PBE-q6
       &POTENTIAL
 2 4
  0.2445543000000000E+00 2 -0.1666721480000000E+02  0.2487311320000000E+01
 2
  0.2209559200000000E+00 1  0.1833745811000000E+02
  0.2113324700000000E+00 0
         # Potential name:  GTH-PBE-Q6  for symbol:  O
         # Potential read from the potential filename: GTH_POTENTIALS
       &END POTENTIAL
     &END KIND
     &KIND H
       BASIS_SET DZVP-MOLOPT-SR-GTH-q1
       POTENTIAL GTH-PBE-q1
       &POTENTIAL
 1
  0.2000000000000000E+00 2 -0.4178900440000000E+01  0.7244633100000000E+00
 0
         # Potential name:  GTH-PBE-Q1  for symbol:  H
         # Potential read from the potential filename: GTH_POTENTIALS
       &END POTENTIAL
     &END KIND
     &KIND N
       BASIS_SET DZVP-MOLOPT-SR-GTH
       POTENTIAL GTH-PBE-q5
       &POTENTIAL
 2 3
  0.2837905100000000E+00 2 -0.1241522559000000E+02  0.1868095920000000E+01
 2
  0.2554050000000000E+00 1  0.1363026257000000E+02
  0.2454945300000000E+00 0
         # Potential name:  GTH-PBE-Q5  for symbol:  N
         # Potential read from the potential filename: GTH_POTENTIALS
       &END POTENTIAL
     &END KIND
     &KIND Ga
       BASIS_SET DZVP-MOLOPT-SR-GTH
       POTENTIAL GTH-PBE-q13
       &POTENTIAL
 2 1 10
  0.4900000000000000E+00 0
 3
  0.4167772300000000E+00 3  0.1047568975000000E+02 -0.4921768140000000E+01  0.8707055900000000E+00
  0.7770178090000000E+01 -0.2248152160000000E+01
  0.1784415450000000E+01
  0.5696265200000000E+00 2  0.1777985340000000E+01  0.1958597600000000E+00
 -0.2317443900000000E+00
  0.2381265000000000E+00 1 -0.1624868022000000E+02
         # Potential name:  GTH-PBE-Q13  for symbol:  GA
         # Potential read from the potential filename: GTH_POTENTIALS
       &END POTENTIAL
     &END KIND
     &TOPOLOGY
       NUMBER_OF_ATOMS  212
       MULTIPLE_UNIT_CELL  1 1 1
     &END TOPOLOGY
   &END SUBSYS
 &END FORCE_EVAL
