 # Version information for this restart file 
 # current date 2019-06-29 09:17:27.229
 # current working dir /scratch/rzk/rzk/GaN-carbene/443-adatoms-both-2x2/06-CH3O-HO-H-H3C/01-UseUnoptimized-0501
 # Program compiled at                              Sun Apr  7 00:48:11 EDT 2019
 # Program compiled on                          beluga2.int.ets1.calculquebec.ca
 # Program compiled for                        Beluga-Linux-x86-64-intel-openmpi
 # Source code revision number                                         svn:18619
 &GLOBAL
   PRINT_LEVEL  MEDIUM
   PROJECT_NAME TEST
   RUN_TYPE  GEO_OPT
 &END GLOBAL
 &MOTION
   &GEO_OPT
     MAX_ITER  500
     STEP_START_VAL  157
   &END GEO_OPT
 &END MOTION
 &FORCE_EVAL
   METHOD  QS
   STRESS_TENSOR  ANALYTICAL
   &DFT
     BASIS_SET_FILE_NAME BASIS_MOLOPT
     POTENTIAL_FILE_NAME GTH_POTENTIALS
     UKS  T
     SURFACE_DIPOLE_CORRECTION  T
     SURF_DIP_DIR  Z
     &SCF
       MAX_SCF  80
       EPS_SCF     5.0000000000000004E-06
       &OT  T
         PRECONDITIONER  FULL_ALL
       &END OT
       &OUTER_SCF  T
         OPTIMIZER  NONE
         EPS_SCF     5.0000000000000004E-06
         MAX_SCF  4
       &END OUTER_SCF
       &PRINT
         &RESTART  OFF
           BACKUP_COPIES  1
           &EACH
             JUST_ENERGY  0
             QS_SCF  0
             MD  20
           &END EACH
         &END RESTART
       &END PRINT
     &END SCF
     &QS
       EPS_DEFAULT     1.0000000000000000E-14
       METHOD  GPW
     &END QS
     &MGRID
       NGRIDS  5
       CUTOFF     1.2000000000000000E+03
     &END MGRID
     &XC
       DENSITY_CUTOFF     1.0000000000000000E-10
       GRADIENT_CUTOFF     1.0000000000000000E-10
       TAU_CUTOFF     1.0000000000000000E-10
       &XC_FUNCTIONAL  NO_SHORTCUT
         &PBE  T
         &END PBE
       &END XC_FUNCTIONAL
       &VDW_POTENTIAL
         POTENTIAL_TYPE  PAIR_POTENTIAL
         &PAIR_POTENTIAL
           R_CUTOFF     1.0000000000000004E+01
           TYPE  DFTD3
           PARAMETER_FILE_NAME dftd3.dat
           REFERENCE_FUNCTIONAL PBE
           EPS_CN     9.9999999999999995E-07
           CALCULATE_C9_TERM  T
           REFERENCE_C9_TERM  T
           LONG_RANGE_CORRECTION  F
           VERBOSE_OUTPUT  F
         &END PAIR_POTENTIAL
       &END VDW_POTENTIAL
     &END XC
   &END DFT
   &SUBSYS
     &CELL
       A     1.2864472766435110E+01    0.0000000000000000E+00    0.0000000000000000E+00
       B    -6.4322363581020028E+00    1.1140960178524473E+01    0.0000000000000000E+00
       C     0.0000000000000000E+00    0.0000000000000000E+00    3.2000000000000000E+01
       MULTIPLE_UNIT_CELL  1 1 1
       &CELL_REF
         A     1.2982353780853531E+01    0.0000000000000000E+00    0.0000000000000000E+00
         B    -6.4911768904267628E+00    1.1243048175136114E+01    0.0000000000000000E+00
         C     0.0000000000000000E+00    0.0000000000000000E+00    3.2000000000000000E+01
         MULTIPLE_UNIT_CELL  1 1 1
       &END CELL_REF
     &END CELL
     &COORD
N   -1.6029164383095785E-03    2.0415061718623675E+00    2.4737839331910743E+00
Ga    2.2611181387179186E-02    9.9277454333760104E-02    2.8165077911629646E+00
N   -2.0569298073350299E-03    5.1686511198201113E-02    4.9848121372826997E+00
Ga    9.0515528296469423E-03    1.8923687693755422E+00    5.7466421294371735E+00
N    2.5372928625133568E-03    1.8949814892892494E+00    7.7548467335149738E+00
Ga    3.0110858636830601E-03    5.4064388946010060E-02    8.4014605095778041E+00
N    1.0492784830738457E-03    5.0825898470164672E-02    1.0378741235447848E+01
Ga    1.0870711659272456E-04    1.8894259057203369E+00    1.1034298445719514E+01
N   -8.0785038301476491E-04    1.8704609517833874E+00    1.3029753442629737E+01
Ga    9.3864336583878165E-04    5.2377483033889997E-02    1.3845677071936173E+01
N    3.1252429370349979E-04    5.1876578314653823E-02    1.6036013267692496E+01
Ga    4.7051197728773561E-04    2.1004817259980988E+00    1.6459946553222622E+01
Ga   -3.4254366273150018E-02    3.7135651934538174E+00    1.2516249719331691E+00
N   -1.4820302643221885E+00    4.6271623053856832E+00    2.4566669456422328E+00
Ga   -1.6675788726045377E+00    2.7946755796751450E+00    3.2269638845336788E+00
N   -1.6104972031422005E+00    2.8362401198564333E+00    5.2123599912869940E+00
Ga   -1.6243781911225830E+00    4.7030735359702920E+00    5.7565300324075217E+00
N   -1.6160527226003747E+00    4.7017547343107822E+00    7.7573850485010558E+00
Ga   -1.5933265304524094E+00    2.8414239261611547E+00    8.3926473784265418E+00
N   -1.5958301852496439E+00    2.8425370330898558E+00    1.0390948246539006E+01
Ga   -1.6230634561452675E+00    4.7003445367684096E+00    1.1031506813817780E+01
N   -1.6390767645627344E+00    4.7108559357827549E+00    1.3024892730506615E+01
Ga   -1.5968270071678570E+00    2.8431665878988106E+00    1.3586193659351489E+01
N   -1.6311128645101554E+00    2.8315175525749048E+00    1.5545940602862672E+01
Ga   -1.4270835668705668E+00    4.5922168191339381E+00    1.6460512331515393E+01
N   -2.4822147766339012E-06    3.7556817670363705E+00    1.7604009221646614E+01
N   -3.2180491279717423E+00    7.5819437858836372E+00    2.4618724535757415E+00
Ga   -3.1771574478855822E+00    5.6044555851647253E+00    2.8180450023403649E+00
N   -3.2138120731647244E+00    5.6158241639814834E+00    4.9865254691733591E+00
Ga   -3.2142710007119062E+00    7.4386177090320285E+00    5.7565388575292396E+00
N   -3.2159274376181890E+00    7.4699319948080412E+00    7.7507612498322622E+00
Ga   -3.2133183887022110E+00    5.6212135998887263E+00    8.4020764161504395E+00
N   -3.2156054139847394E+00    5.6227349425061695E+00    1.0378479002098764E+01
Ga   -3.2149232821469536E+00    7.4626224645021884E+00    1.1029426448841017E+01
N   -3.2150340067315955E+00    7.4440042985072221E+00    1.3022923529030750E+01
Ga   -3.2053135688801970E+00    5.6277743004450453E+00    1.3823737943647036E+01
N   -3.2038052151720677E+00    5.6294550537434702E+00    1.6032586675466806E+01
Ga   -3.2134943152879161E+00    7.6854142026746564E+00    1.6461074813702758E+01
Ga   -3.2166143751078646E+00    9.3915628932274906E+00    1.2158319521608392E+00
N   -4.7297964113664044E+00    1.0201886476270035E+01    2.4680168738780583E+00
Ga   -4.8280357190867980E+00    8.4015376492308924E+00    3.2500363896522826E+00
N   -4.8374303854388989E+00    8.3957468210246926E+00    5.1952724388055778E+00
Ga   -4.8487627952973913E+00    1.0286107411694148E+01    5.7502903262639862E+00
N   -4.8323575812475994E+00    1.0265977784315659E+01    7.7499678050764258E+00
Ga   -4.8115574777873036E+00    8.4157384040429442E+00    8.4009734445751967E+00
N   -4.8121635553098923E+00    8.4143781995922904E+00    1.0393216598800578E+01
Ga   -4.8380729988581299E+00    1.0274765462203387E+01    1.1031719832707157E+01
N   -4.8557619680848276E+00    1.0283070845355743E+01    1.3027528620622284E+01
Ga   -4.8095507475197534E+00    8.4155919304061086E+00    1.3588430516370902E+01
N   -4.8391586782810005E+00    8.3909869392101335E+00    1.5547765402805870E+01
Ga   -4.6591469029795851E+00    1.0169847587972294E+01    1.6460457050804191E+01
N   -3.2242266662710222E+00    9.3415581785419732E+00    1.7603588982781471E+01
N    3.2037325538425572E+00    1.9154921970474006E+00    2.5718353648721921E+00
Ga    3.2101914701695580E+00    1.5339366132282883E-01    3.2076968156401584E+00
N    3.2174111728205377E+00    5.1286004120232223E-02    5.1937668568220046E+00
Ga    3.2086794890705299E+00    1.9188588108345925E+00    5.8086999768477723E+00
N    3.2180807428247578E+00    1.9100804205334905E+00    7.7983740624850544E+00
Ga    3.2166643700409150E+00    4.4583445684478584E-02    8.3863540392966645E+00
N    3.2160574517593359E+00    3.8275676965480475E-02    1.0385988170919875E+01
Ga    3.2155062189298627E+00    1.9041476464013714E+00    1.0992270527123949E+01
N    3.2188556372653747E+00    1.9077857530636504E+00    1.2966717133129547E+01
Ga    3.2169597086214399E+00    3.6803730962943274E-02    1.3586825766107069E+01
N    3.2232142537147497E+00    7.3671013522978931E-02    1.5546460866096819E+01
Ga    3.2144873201940363E+00    1.9080070678922192E+00    1.5822649411389978E+01
N    1.4660922344146443E+00    4.6160465027444753E+00    2.3355858016162729E+00
Ga    1.6830677907350393E+00    2.8295084729204447E+00    3.2005544989862531E+00
N    1.6087624453550959E+00    2.8505918413847331E+00    5.1924204889992067E+00
Ga    1.6561372241239136E+00    4.7110852985278724E+00    5.7906996662492878E+00
N    1.6012515550180020E+00    4.6904915876498849E+00    7.8004026173030496E+00
Ga    1.5983012167793860E+00    2.8363477282051566E+00    8.4051611886571074E+00
N    1.5985154816714451E+00    2.8368681873911088E+00    1.0402231994102296E+01
Ga    1.6237863305146438E+00    4.7008757728466986E+00    1.1026592598076927E+01
N    1.6382375760776924E+00    4.7113979904811174E+00    1.3023378977078437E+01
Ga    1.5958056851062981E+00    2.8441370828781802E+00    1.3584773212022224E+01
N    1.6307819389541178E+00    2.8315477606037112E+00    1.5545048055830710E+01
Ga    1.4279022360773099E+00    4.5922398455993116E+00    1.6460153882958870E+01
N   -9.8884638805184525E-04    7.4639307264397807E+00    2.6395029396075356E+00
Ga    4.1760402717425614E-02    5.5940330088441872E+00    3.2514734161908589E+00
N    1.0607200915363919E-02    5.6289995434970974E+00    5.1975474635014143E+00
Ga    3.4510106479835874E-03    7.4648694658309731E+00    5.8489427776103708E+00
N    2.6072940367164810E-03    7.4780654383031360E+00    7.8138416350790818E+00
Ga   -2.4057896195813066E-03    5.6070436871370060E+00    8.4147053586379759E+00
N   -3.7498391234338465E-03    5.6127122387176476E+00    1.0404939094224325E+01
Ga   -3.2352960431033403E-03    7.4801340441688318E+00    1.0995856198769316E+01
N   -1.4369448485066971E-03    7.4800710866643767E+00    1.2964206864059927E+01
Ga    2.6210361696814261E-04    5.6092911070416509E+00    1.3584167449971963E+01
N   -1.9693063304721130E-04    5.6417562850235639E+00    1.5542755707562343E+01
Ga    2.9282861176727868E-04    7.4789404786480294E+00    1.5819613615408713E+01
N   -1.7028165677083167E+00    1.0203236455577541E+01    2.4736082851895334E+00
Ga   -1.6104801200237884E+00    8.3987742336925457E+00    3.2491921627238991E+00
N   -1.5938985364776344E+00    8.3968449997858894E+00    5.1962388752890645E+00
Ga   -1.5857602514717293E+00    1.0282704401629516E+01    5.7512665115548787E+00
N   -1.5972902900687580E+00    1.0267047193601043E+01    7.7493998201558174E+00
Ga   -1.6169209149038632E+00    8.4139824963877352E+00    8.3968423016773208E+00
N   -1.6194569381746566E+00    8.4139162628327764E+00    1.0388996473494766E+01
Ga   -1.5951469235774420E+00    1.0272801334765042E+01    1.1026507281961543E+01
N   -1.5774239689907099E+00    1.0281304557631676E+01    1.3021082483282896E+01
Ga   -1.6189709993616688E+00    8.4144479820631375E+00    1.3586225708463161E+01
N   -1.5915970346787705E+00    8.3982802427672958E+00    1.5544229746640079E+01
Ga   -1.7849791438166260E+00    1.0159863975869516E+01    1.6460490302643439E+01
N    6.4317925442223594E+00    2.0316672111023375E+00    2.4998545868332642E+00
Ga    6.4137190862074345E+00    5.3691616150477482E-02    2.8378619966308105E+00
N    6.4383679264296978E+00    5.3116486423862311E-02    4.9838632397794482E+00
Ga    6.4255076546043188E+00    1.8884748086560965E+00    5.7566045986444232E+00
N    6.4319387803917376E+00    1.8955104323960070E+00    7.7564211868586099E+00
Ga    6.4316748525826366E+00    5.1797263269762091E-02    8.4015158050330303E+00
N    6.4326910434282620E+00    5.1005490144647475E-02    1.0378150893912455E+01
Ga    6.4336135996111974E+00    1.8890779548605450E+00    1.1030848767818318E+01
N    6.4340050569062806E+00    1.8693527968725154E+00    1.3031615317802867E+01
Ga    6.4321502071484691E+00    4.0335726043509323E-02    1.3822879680577314E+01
N    6.4322114484824864E+00    3.7733933522562109E-02    1.6031844559308521E+01
Ga    6.4323326279915438E+00    2.0368939809083213E+00    1.6393479391675534E+01
Ga    6.4498205506672521E+00    3.7180568898023822E+00    1.4514600062426510E+00
N    4.9315828307848895E+00    4.6380973854827330E+00    2.3555007798458254E+00
Ga    4.6891031467702442E+00    2.8227134470494479E+00    3.2347191979622290E+00
N    4.8285004453537370E+00    2.8523327853474818E+00    5.1990206007346016E+00
Ga    4.7768048581677185E+00    4.7156148459075666E+00    5.8026461862879843E+00
N    4.8371256228098209E+00    4.6900827170300294E+00    7.8042222660976055E+00
Ga    4.8340703906791127E+00    2.8350567983297248E+00    8.4084962239234091E+00
N    4.8354438821058157E+00    2.8378494422942953E+00    1.0404865096597007E+01
Ga    4.8071681284306527E+00    4.7021363930298481E+00    1.1028307034189449E+01
N    4.7916224579580424E+00    4.7126760660657840E+00    1.3031678778850445E+01
Ga    4.8359165302971618E+00    2.8428437672747964E+00    1.3575130555246298E+01
N    4.8195203252470344E+00    2.8338577777616476E+00    1.5554578688946497E+01
Ga    4.9347601606058973E+00    4.6299494326308608E+00    1.6393492141074855E+01
N    6.4313934591405761E+00    3.7647240123807411E+00    1.7518231612015196E+01
N    3.2194969802542337E+00    7.6024077186905537E+00    2.3700432276612839E+00
N    3.2214104452609487E+00    5.6269380436351586E+00    5.2065679266924212E+00
Ga    3.2195163249950154E+00    7.4199048839166197E+00    5.8129701073391526E+00
N    3.2188945452551048E+00    7.4933132554502349E+00    7.8060356128647959E+00
Ga    3.2160820997132444E+00    5.6204641725261899E+00    8.3958388738852108E+00
N    3.2172770908526900E+00    5.6229773877634086E+00    1.0383347050137990E+01
Ga    3.2163531605181803E+00    7.4610289138605275E+00    1.1030805085749112E+01
N    3.2159737422004526E+00    7.4446964180089479E+00    1.3025453218401479E+01
Ga    3.2062282048016217E+00    5.6275192626384056E+00    1.3821233858201664E+01
N    3.2038587832379424E+00    5.6295065751124094E+00    1.6032176856315264E+01
Ga    3.2139716660780997E+00    7.6874236865436387E+00    1.6462757925228317E+01
Ga    3.2159594324067804E+00    9.3788499576903259E+00    1.4429144732384489E+00
N    1.7107086341057720E+00    1.0188828952937294E+01    2.4893421498265242E+00
Ga    1.6043459724906237E+00    8.3398470114198560E+00    3.2803136892860563E+00
N    1.6099541292384003E+00    8.3959854203962898E+00    5.2060542278456863E+00
Ga    1.5831256219821979E+00    1.0278376069514099E+01    5.7640589938286446E+00
N    1.5979027250489481E+00    1.0267813276709093E+01    7.7567143314557230E+00
Ga    1.6155003821829599E+00    8.4184943587781387E+00    8.4182768299587458E+00
N    1.6146616735536907E+00    8.4162095454788712E+00    1.0405836830565358E+01
Ga    1.5938856590520261E+00    1.0274797473068658E+01    1.1033712358360575E+01
N    1.5780741381069268E+00    1.0282963210016119E+01    1.3025680227562686E+01
Ga    1.6187897851712894E+00    8.4140381121620251E+00    1.3585825058223458E+01
N    1.5908281511118860E+00    8.3980086552911857E+00    1.5543662864761679E+01
Ga    1.7874226274389635E+00    1.0158475544156333E+01    1.6462523992104209E+01
N    3.2235786021704302E+00    9.3411113195544520E+00    1.7608002143497792E+01
N    9.6582226960360593E+00    1.9131540418114112E+00    2.5832093485658008E+00
Ga    9.6577477883562324E+00    1.7626376654814710E-01    3.2562645820338934E+00
N    9.6507691946183183E+00    4.5738708677331055E-02    5.2151493977425192E+00
Ga    9.6575142920656578E+00    1.9124860186012951E+00    5.8355524246501629E+00
N    9.6486011415741615E+00    1.9070233792427576E+00    7.8115625547963372E+00
Ga    9.6503059861116451E+00    3.9464595308195710E-02    8.3971674818081681E+00
N    9.6499535224646458E+00    3.7706229971158321E-02    1.0392293358736540E+01
Ga    9.6499790020379059E+00    1.9085691371945910E+00    1.0983926867167533E+01
N    9.6463212389581887E+00    1.9099122044407211E+00    1.2959687793553547E+01
Ga    9.6484355191007722E+00    3.9975543609980721E-02    1.3587912455741055E+01
N    9.6419307730786237E+00    7.5391938858266852E-02    1.5546690174392905E+01
Ga    9.6504307362537531E+00    1.9078667970862626E+00    1.5827377589042326E+01
N    7.9229728238572292E+00    4.6368287537519723E+00    2.4823611331713691E+00
Ga    8.1498457011286511E+00    2.7793329496773689E+00    3.2590540288785870E+00
N    8.0423338791227970E+00    2.8382190656563222E+00    5.2188105015584165E+00
Ga    8.0681765855878389E+00    4.7101034629035015E+00    5.7603320008648149E+00
N    8.0492885414895721E+00    4.7025565932896871E+00    7.7567112618565979E+00
Ga    8.0299926724989010E+00    2.8416851217840473E+00    8.3943856096250613E+00
N    8.0290259755740614E+00    2.8439948242029010E+00    1.0392530488237997E+01
Ga    8.0599924599382966E+00    4.7016293584657394E+00    1.1033717814553212E+01
N    8.0757522758777824E+00    4.7121090087824413E+00    1.3033289416969859E+01
Ga    8.0312710883329146E+00    2.8420188232232451E+00    1.3576835283346137E+01
N    8.0462570386770835E+00    2.8339484903511876E+00    1.5555394689354255E+01
Ga    7.9287416541481139E+00    4.6292186727958127E+00    1.6394222819192940E+01
N    6.4346016559600727E+00    7.4778514034436707E+00    2.5557210876494434E+00
Ga    6.3831894199006394E+00    5.6556457216850360E+00    3.2678354602495094E+00
N    6.4258636036464249E+00    5.6335174740614926E+00    5.1969792219784168E+00
Ga    6.4317503461579433E+00    7.4756692857126312E+00    5.8566066778851598E+00
N    6.4320008190617175E+00    7.4777153397386371E+00    7.8179345712895696E+00
Ga    6.4386518324695450E+00    5.6080616396472758E+00    8.4210865592231201E+00
N    6.4379321434466616E+00    5.6125424076281272E+00    1.0411321513824467E+01
Ga    6.4368511176738856E+00    7.4815346758065377E+00    1.1000332096933164E+01
N    6.4345544855194809E+00    7.4773257232097405E+00    1.2971576090918145E+01
Ga    6.4330353909446050E+00    5.6080534949290444E+00    1.3576767056641287E+01
N    6.4330329883631405E+00    5.6280307908716471E+00    1.5555615669433271E+01
Ga    6.4323666696208930E+00    7.4810592184940923E+00    1.5823379933726653E+01
N    4.7243327211453634E+00    1.0190447019642093E+01    2.4793131183657775E+00
Ga    4.8417549899306627E+00    8.3488132672608657E+00    3.2734797746140440E+00
N    4.8298826011841474E+00    8.3961985107290769E+00    5.2002834140038638E+00
Ga    4.8586803302059351E+00    1.0281693476933457E+01    5.7627067162920920E+00
N    4.8369403100791679E+00    1.0266675131894004E+01    7.7568926834327296E+00
Ga    4.8182361919357808E+00    8.4205636768917138E+00    8.4227352384911409E+00
N    4.8199770574756737E+00    8.4169286183881056E+00    1.0410410193892101E+01
Ga    4.8422034762332729E+00    1.0276994410265681E+01    1.1039540296158734E+01
N    4.8570188948359476E+00    1.0284837847923693E+01    1.3032339741791905E+01
Ga    4.8115281851528078E+00    8.4152933705987429E+00    1.3587941825498739E+01
N    4.8408519531100280E+00    8.3909425684006518E+00    1.5546977734691470E+01
Ga    4.6567503203175900E+00    1.0167864155810790E+01    1.6462702319839220E+01
O    4.9395750119557810E-02    3.6868999605907287E+00   -5.6745592766164321E-01
H    1.0251104676639956E-02    7.4597664332935540E+00    1.6123551413721922E+00
C    5.9349576655291969E-01    2.4867548309727527E+00   -1.1436453120179071E+00
H    1.5995189046812293E+00    2.2498798625375351E+00   -7.5724362927693289E-01
H   -5.4962659196779902E-02    1.6124738941744277E+00   -9.6809246742069011E-01
H    6.6847825192447352E-01    2.6489186387846906E+00   -2.2290234755216902E+00
Ga    3.1552556886916494E+00    5.5727086678080910E+00    1.8217900341160127E+00
O    3.2483990566067038E+00    5.7605600969482369E+00   -1.9500469695606100E-02
H    2.5389533043475310E+00    5.2380599122262481E+00   -4.3298951166873884E-01
C    6.4404960584055191E+00    7.4824156213842965E+00    1.0599963621395516E+00
H    6.4452497439471630E+00    8.5141855443198438E+00    6.7855380640699681E-01
H    7.3408339686696857E+00    6.9784262902086356E+00    6.7888372076986436E-01
H    5.5600109822239645E+00    6.9674023153521567E+00    6.4608040202436479E-01
     &END COORD
     &KIND C
       BASIS_SET DZVP-MOLOPT-SR-GTH-q4
       POTENTIAL GTH-PBE-q4
       &POTENTIAL
 2 2
  0.3384712400000000E+00 2 -0.8803673979999999E+01  0.1339210850000000E+01
 2
  0.3025757500000000E+00 1  0.9622486650000001E+01
  0.2915069400000000E+00 0
         # Potential name:  GTH-PBE-Q4  for symbol:  C
         # Potential read from the potential filename: GTH_POTENTIALS
       &END POTENTIAL
     &END KIND
     &KIND O
       BASIS_SET DZVP-MOLOPT-SR-GTH-q6
       POTENTIAL GTH-PBE-q6
       &POTENTIAL
 2 4
  0.2445543000000000E+00 2 -0.1666721480000000E+02  0.2487311320000000E+01
 2
  0.2209559200000000E+00 1  0.1833745811000000E+02
  0.2113324700000000E+00 0
         # Potential name:  GTH-PBE-Q6  for symbol:  O
         # Potential read from the potential filename: GTH_POTENTIALS
       &END POTENTIAL
     &END KIND
     &KIND H
       BASIS_SET DZVP-MOLOPT-SR-GTH-q1
       POTENTIAL GTH-PBE-q1
       &POTENTIAL
 1
  0.2000000000000000E+00 2 -0.4178900440000000E+01  0.7244633100000000E+00
 0
         # Potential name:  GTH-PBE-Q1  for symbol:  H
         # Potential read from the potential filename: GTH_POTENTIALS
       &END POTENTIAL
     &END KIND
     &KIND N
       BASIS_SET DZVP-MOLOPT-SR-GTH
       POTENTIAL GTH-PBE-q5
       &POTENTIAL
 2 3
  0.2837905100000000E+00 2 -0.1241522559000000E+02  0.1868095920000000E+01
 2
  0.2554050000000000E+00 1  0.1363026257000000E+02
  0.2454945300000000E+00 0
         # Potential name:  GTH-PBE-Q5  for symbol:  N
         # Potential read from the potential filename: GTH_POTENTIALS
       &END POTENTIAL
     &END KIND
     &KIND Ga
       BASIS_SET DZVP-MOLOPT-SR-GTH
       POTENTIAL GTH-PBE-q13
       &POTENTIAL
 2 1 10
  0.4900000000000000E+00 0
 3
  0.4167772300000000E+00 3  0.1047568975000000E+02 -0.4921768140000000E+01  0.8707055900000000E+00
  0.7770178090000000E+01 -0.2248152160000000E+01
  0.1784415450000000E+01
  0.5696265200000000E+00 2  0.1777985340000000E+01  0.1958597600000000E+00
 -0.2317443900000000E+00
  0.2381265000000000E+00 1 -0.1624868022000000E+02
         # Potential name:  GTH-PBE-Q13  for symbol:  GA
         # Potential read from the potential filename: GTH_POTENTIALS
       &END POTENTIAL
     &END KIND
     &TOPOLOGY
       NUMBER_OF_ATOMS  212
       MULTIPLE_UNIT_CELL  1 1 1
     &END TOPOLOGY
   &END SUBSYS
 &END FORCE_EVAL
