 # Version information for this restart file 
 # current date 2019-07-19 08:25:03.356
 # current working dir /lustre04/scratch/rzk/rzk/GaN-carbene/443-adatoms-both-2x2/09-BondBreaking-CH/02-0401-CH-to-NTop-PES/Phase04-OptimizeAdjustedIntermed909
 # Program compiled at                              Sun Apr  7 00:48:11 EDT 2019
 # Program compiled on                          beluga2.int.ets1.calculquebec.ca
 # Program compiled for                        Beluga-Linux-x86-64-intel-openmpi
 # Source code revision number                                         svn:18619
 &GLOBAL
   PRINT_LEVEL  MEDIUM
   PROJECT_NAME TEST
   RUN_TYPE  GEO_OPT
 &END GLOBAL
 &MOTION
   &GEO_OPT
     MAX_ITER  500
     STEP_START_VAL  199
   &END GEO_OPT
 &END MOTION
 &FORCE_EVAL
   METHOD  QS
   STRESS_TENSOR  ANALYTICAL
   &DFT
     BASIS_SET_FILE_NAME BASIS_MOLOPT
     POTENTIAL_FILE_NAME GTH_POTENTIALS
     UKS  T
     SURFACE_DIPOLE_CORRECTION  T
     SURF_DIP_DIR  Z
     &SCF
       MAX_SCF  80
       EPS_SCF     5.0000000000000004E-06
       &OT  T
         PRECONDITIONER  FULL_ALL
       &END OT
       &OUTER_SCF  T
         OPTIMIZER  NONE
         EPS_SCF     5.0000000000000004E-06
         MAX_SCF  4
       &END OUTER_SCF
       &PRINT
         &RESTART  OFF
           BACKUP_COPIES  1
           &EACH
             JUST_ENERGY  0
             QS_SCF  0
             MD  20
           &END EACH
         &END RESTART
       &END PRINT
     &END SCF
     &QS
       EPS_DEFAULT     1.0000000000000000E-14
       METHOD  GPW
     &END QS
     &MGRID
       NGRIDS  5
       CUTOFF     1.2000000000000000E+03
     &END MGRID
     &XC
       DENSITY_CUTOFF     1.0000000000000000E-10
       GRADIENT_CUTOFF     1.0000000000000000E-10
       TAU_CUTOFF     1.0000000000000000E-10
       &XC_FUNCTIONAL  NO_SHORTCUT
         &PBE  T
         &END PBE
       &END XC_FUNCTIONAL
       &VDW_POTENTIAL
         POTENTIAL_TYPE  PAIR_POTENTIAL
         &PAIR_POTENTIAL
           R_CUTOFF     1.0000000000000009E+01
           TYPE  DFTD3
           PARAMETER_FILE_NAME dftd3.dat
           REFERENCE_FUNCTIONAL PBE
           EPS_CN     9.9999999999999995E-07
           CALCULATE_C9_TERM  T
           REFERENCE_C9_TERM  T
           LONG_RANGE_CORRECTION  F
           VERBOSE_OUTPUT  F
         &END PAIR_POTENTIAL
       &END VDW_POTENTIAL
     &END XC
   &END DFT
   &SUBSYS
     &CELL
       A     1.2864472766435110E+01    0.0000000000000000E+00    0.0000000000000000E+00
       B    -6.4322363581020028E+00    1.1140960178524477E+01    0.0000000000000000E+00
       C     0.0000000000000000E+00    0.0000000000000000E+00    3.2000000000000000E+01
       MULTIPLE_UNIT_CELL  1 1 1
       &CELL_REF
         A     1.2982353780853531E+01    0.0000000000000000E+00    0.0000000000000000E+00
         B    -6.4911768904267628E+00    1.1243048175136114E+01    0.0000000000000000E+00
         C     0.0000000000000000E+00    0.0000000000000000E+00    3.2000000000000000E+01
         MULTIPLE_UNIT_CELL  1 1 1
       &END CELL_REF
     &END CELL
     &COORD
N   -2.9883777816988213E-02    1.9360829252162448E+00    2.4649925985528682E+00
Ga   -3.7126575404513730E-02   -2.9916417648744496E-02    2.7775882442795070E+00
N   -2.7320939959855177E-02   -6.3583812966689232E-02    4.9821444552998280E+00
Ga   -2.1813378963743822E-02    1.7646524381170379E+00    5.7522606152643538E+00
N   -2.1761736807308755E-02    1.7807140457026416E+00    7.7596392878240703E+00
Ga   -2.0699414755829149E-02   -6.4069362550012929E-02    8.3996405287755120E+00
N   -2.0931317247161942E-02   -6.5069531970663300E-02    1.0377059106657896E+01
Ga   -2.0841007874332726E-02    1.7758875144669082E+00    1.1024091119174985E+01
N   -2.0698625258588337E-02    1.7567781589049223E+00    1.3020771511635992E+01
Ga   -2.0790060867483758E-02   -6.3022616779757026E-02    1.3821245347446315E+01
N   -2.1877134200093556E-02   -6.3719818925249666E-02    1.6026754353651928E+01
Ga   -2.0847774460092748E-02    1.9755515096645575E+00    1.6435716739616115E+01
Ga   -4.9362660234272923E-02    3.6317911541541061E+00    1.2832196210631179E+00
N   -1.5082269198466416E+00    4.5117154430171302E+00    2.4710320216260517E+00
Ga   -1.6941402098349416E+00    2.6770995211855726E+00    3.2371296509062386E+00
N   -1.6314023626355789E+00    2.7241229943678351E+00    5.2210214186432449E+00
Ga   -1.6536116634750024E+00    4.5892002483339382E+00    5.7622688767230015E+00
N   -1.6377835421112175E+00    4.5868812484990489E+00    7.7616454592875188E+00
Ga   -1.6180784567968738E+00    2.7266710325029417E+00    8.3946030763147217E+00
N   -1.6186903990828119E+00    2.7283217422327937E+00    1.0391828054072009E+01
Ga   -1.6443233645975983E+00    4.5865007913114262E+00    1.1027042550625509E+01
N   -1.6609653227404104E+00    4.5972200967641932E+00    1.3022529991017700E+01
Ga   -1.6176480426572144E+00    2.7279522694505181E+00    1.3576275329734944E+01
N   -1.6452985159495095E+00    2.7120290836610788E+00    1.5540448813285357E+01
Ga   -1.4720918818814901E+00    4.4879118691943827E+00    1.6435766532140470E+01
N   -2.9026260097082968E-02    3.6459577013312083E+00    1.7569807364383596E+01
N   -3.2401422987852446E+00    7.4705962285503853E+00    2.4621856581021104E+00
Ga   -3.1943741230879721E+00    5.5011869418736561E+00    2.8105833059412588E+00
N   -3.2381916283100645E+00    5.5029841493219527E+00    4.9898564663640510E+00
Ga   -3.2364146462597980E+00    7.3291317988678033E+00    5.7533941279602665E+00
N   -3.2379628339918032E+00    7.3556410144454283E+00    7.7498303447054315E+00
Ga   -3.2352447116557643E+00    5.5095509209363671E+00    8.4040067558358125E+00
N   -3.2376363601140077E+00    5.5084008576718517E+00    1.0378434323493629E+01
Ga   -3.2375630997339631E+00    7.3470049062330345E+00    1.1028506487372916E+01
N   -3.2371914646217097E+00    7.3276328850321022E+00    1.3022959922289187E+01
Ga   -3.2373025317662782E+00    5.5067973041730989E+00    1.3824395282510674E+01
N   -3.2384957168047595E+00    5.5061137189837668E+00    1.6026764638849130E+01
Ga   -3.2368628046918917E+00    7.5450402526156983E+00    1.6437021226484227E+01
Ga   -3.2313877498257710E+00    9.2761606289390404E+00    1.2042916790758207E+00
N   -4.7584858182273244E+00    1.0094972188942601E+01    2.4556030544513865E+00
Ga   -4.8430826460293037E+00    8.3057092744641583E+00    3.2446467856538792E+00
N   -4.8559784790158584E+00    8.2853923554442463E+00    5.1931394140357936E+00
Ga   -4.8762553239711837E+00    1.0173223585617187E+01    5.7464878536957764E+00
N   -4.8552243744418959E+00    1.0151776199273414E+01    7.7492633547700107E+00
Ga   -4.8337384852041847E+00    8.3014890340799159E+00    8.3965940190751027E+00
N   -4.8346753271754643E+00    8.2977356518893401E+00    1.0389856153349280E+01
Ga   -4.8596851480049086E+00    1.0158042638084369E+01    1.1025345673286992E+01
N   -4.8763420978243772E+00    1.0167201189782183E+01    1.3021088504431320E+01
Ga   -4.8336256175103145E+00    8.2994619519827850E+00    1.3578797673910460E+01
N   -4.8619036504053863E+00    8.2831303972896837E+00    1.5542467867612858E+01
Ga   -4.6873794747357529E+00    1.0058612569378699E+01    1.6436964546959686E+01
N   -3.2443712274849870E+00    9.2161565858999026E+00    1.7570850684769241E+01
N    3.1804186486641726E+00    1.7943653679654241E+00    2.5826086607692513E+00
Ga    3.1850428959359549E+00    2.7256067190059994E-02    3.2029605691996874E+00
N    3.1937722951847456E+00   -6.9420927566672466E-02    5.1928936462021200E+00
Ga    3.1842291847824673E+00    1.7863903306376214E+00    5.8180315883922349E+00
N    3.1953962026899037E+00    1.7914244354046762E+00    7.8022181935192476E+00
Ga    3.1943253907182272E+00   -7.5242987839220191E-02    8.3868923190640974E+00
N    3.1946460131016416E+00   -7.7516048516646507E-02    1.0385165018913714E+01
Ga    3.1934929827696070E+00    1.7913441980986833E+00    1.0981115264772026E+01
N    3.1951044949150456E+00    1.7926059519126667E+00    1.2955194539165687E+01
Ga    3.1955105729435784E+00   -7.6012978751939353E-02    1.3577183447171421E+01
N    3.1967540251485125E+00   -4.5059495778857379E-02    1.5539957759528619E+01
Ga    3.1951886561926712E+00    1.7934950331305290E+00    1.5818606603162829E+01
N    1.4718620899172785E+00    4.5173843510629554E+00    2.4741792175352892E+00
Ga    1.6457187822770003E+00    2.6788775328474372E+00    3.2166221831370199E+00
N    1.5862081744874681E+00    2.7196564088059962E+00    5.2089210766255007E+00
Ga    1.6096735024783875E+00    4.5817332097007011E+00    5.7623819317346978E+00
N    1.5946403054947249E+00    4.5846287431758332E+00    7.7609808621823015E+00
Ga    1.5771087895481373E+00    2.7238306635509990E+00    8.3907787047294029E+00
N    1.5764367237288832E+00    2.7273898423246035E+00    1.0388667100848378E+01
Ga    1.6016994002395457E+00    4.5853709067221873E+00    1.1025281945224837E+01
N    1.6191152883828184E+00    4.5966947678177243E+00    1.3020803822994726E+01
Ga    1.5764983786897178E+00    2.7280025082286845E+00    1.3576222947476115E+01
N    1.6039611847637736E+00    2.7139361233681671E+00    1.5539241282978718E+01
Ga    1.4230638224819041E+00    4.4836346980204880E+00    1.6437169438934038E+01
N   -1.5986589700546613E-02    7.3639261898283728E+00    2.6339584866116832E+00
Ga   -1.4628977521918354E-02    5.5073406547653274E+00    3.2673215088046104E+00
N   -2.0673273751722544E-02    5.5246084765339889E+00    5.2139019626462773E+00
Ga   -1.8233702889240342E-02    7.3668772998083245E+00    5.8453105787498814E+00
N   -2.1437779138406204E-02    7.3656636220407607E+00    7.8130326440792723E+00
Ga   -2.1178107307911049E-02    5.4954031286485820E+00    8.3997194292209905E+00
N   -2.1372477105822130E-02    5.4947986048998390E+00    1.0392963929842303E+01
Ga   -2.2160816829280679E-02    7.3635542966182781E+00    1.0984407455947828E+01
N   -2.1102166580969483E-02    7.3643482878270952E+00    1.2957279251632912E+01
Ga   -2.0320047893769979E-02    5.4940999942588906E+00    1.3576791068833170E+01
N   -1.8917660617618303E-02    5.5256283893004534E+00    1.5539689431574283E+01
Ga   -2.0706472637729872E-02    7.3637041519006203E+00    1.5819339748812085E+01
N   -1.7235157285097449E+00    1.0092543907966345E+01    2.4681945911145284E+00
Ga   -1.6230827974212143E+00    8.2889803543471210E+00    3.2387796855122053E+00
N   -1.6185717593746474E+00    8.2837650921783776E+00    5.1909142081309589E+00
Ga   -1.6066754992091010E+00    1.0167082926049494E+01    5.7481758451594622E+00
N   -1.6203321661110588E+00    1.0151588420329203E+01    7.7494684826901050E+00
Ga   -1.6402779717917324E+00    8.3000858912365167E+00    8.3962968466568988E+00
N   -1.6412147143831923E+00    8.2980842486831889E+00    1.0389674545416604E+01
Ga   -1.6158151217022760E+00    1.0157797304551764E+01    1.1025142437718328E+01
N   -1.5977181587648372E+00    1.0167349210633036E+01    1.3020405812610935E+01
Ga   -1.6398544849176457E+00    8.2994558247992103E+00    1.3577846104373160E+01
N   -1.6118396134556745E+00    8.2846493735825000E+00    1.5540518268813496E+01
Ga   -1.7929726216687616E+00    1.0054692128251357E+01    1.6437492935560027E+01
N    6.4134629655695443E+00    1.9097751320373368E+00    2.5042719197283336E+00
Ga    6.4260080933532020E+00   -8.9640870850648383E-02    2.8204962233182291E+00
N    6.4139878645410766E+00   -6.2457172890608439E-02    4.9896507073952687E+00
Ga    6.4113204125204781E+00    1.7608367097001096E+00    5.7653420638985873E+00
N    6.4111783977939334E+00    1.7815268303233494E+00    7.7623329869395032E+00
Ga    6.4100294532573114E+00   -6.6748322784176167E-02    8.4009004964745131E+00
N    6.4104425787851600E+00   -6.4910581792355843E-02    1.0377096702974869E+01
Ga    6.4101776234994290E+00    1.7752673672687709E+00    1.1026106401989052E+01
N    6.4112362045294118E+00    1.7567508387967792E+00    1.3021550145344403E+01
Ga    6.4105556498786234E+00   -6.3289595437832066E-02    1.3821796339250753E+01
N    6.4095174006267044E+00   -6.3726403259816142E-02    1.6026248783496182E+01
Ga    6.4114107287885211E+00    1.9761623465597020E+00    1.6436625383952506E+01
Ga    6.4098946343053260E+00    3.6122492592770268E+00    1.4968483744925654E+00
N    4.9170560521022688E+00    4.5200109250691893E+00    2.4933728664050210E+00
Ga    4.6852633134660975E+00    2.6497046725452447E+00    3.2594100187212058E+00
N    4.8048557378895360E+00    2.7216865761509643E+00    5.2187716639740707E+00
Ga    4.7721665088588798E+00    4.5872840955893732E+00    5.7754366439399138E+00
N    4.7968931776620112E+00    4.5840686432065967E+00    7.7647407672657698E+00
Ga    4.8100686194279518E+00    2.7224338178227825E+00    8.3959863525136491E+00
N    4.8128907897321680E+00    2.7271970668877272E+00    1.0390867026227228E+01
Ga    4.7873017791843058E+00    4.5857821055839203E+00    1.1027211419213835E+01
N    4.7717594271533530E+00    4.5967470445556735E+00    1.3022124626121448E+01
Ga    4.8141137221077202E+00    2.7276802263367510E+00    1.3577051643536402E+01
N    4.7867324459707321E+00    2.7121612758767624E+00    1.5540723147157468E+01
Ga    4.9617299781615616E+00    4.4866311589296251E+00    1.6437600144309172E+01
N    6.4037893202359184E+00    3.6451503504302005E+00    1.7571843653879718E+01
N    3.1894650653578527E+00    7.4476276181797152E+00    2.4466193682112474E+00
N    3.1987295319908644E+00    5.4976185143415517E+00    5.0058180956924234E+00
Ga    3.1947333246455325E+00    7.3303512462934224E+00    5.7562896983332825E+00
N    3.1957871991696489E+00    7.3545966871245403E+00    7.7528812741532667E+00
Ga    3.1930250041081201E+00    5.5075214283831952E+00    8.4028899857001900E+00
N    3.1951542800281096E+00    5.5074192920214644E+00    1.0377817397558795E+01
Ga    3.1945165615858020E+00    7.3454624441144949E+00    1.1029723499624295E+01
N    3.1954208683981684E+00    7.3270734830547033E+00    1.3024159056313691E+01
Ga    3.1948417582456727E+00    5.5057857223111251E+00    1.3823465542703948E+01
N    3.1939791599580598E+00    5.5055434578597637E+00    1.6027306966545954E+01
Ga    3.1951981027822525E+00    7.5423199824083458E+00    1.6434723023999187E+01
Ga    3.1850002353262177E+00    9.4199425903810745E+00    1.2168361279518347E+00
N    1.7096407279444501E+00    1.0099237197570638E+01    2.4802622347141132E+00
Ga    1.6028695492130356E+00    8.2859025321090733E+00    3.2345973384487325E+00
N    1.5781690543705520E+00    8.2833267728633313E+00    5.1928641674240961E+00
Ga    1.5622185386994392E+00    1.0161951906385827E+01    5.7579790406726898E+00
N    1.5761872293244219E+00    1.0150081547887872E+01    7.7574046854590666E+00
Ga    1.5975876586270841E+00    8.2983441628473518E+00    8.3995815069072606E+00
N    1.5980662641177363E+00    8.2971063125676725E+00    1.0392600338522307E+01
Ga    1.5723096393263924E+00    1.0157638340877506E+01    1.1026040497127145E+01
N    1.5555933761620080E+00    1.0167397811398816E+01    1.3022041643411418E+01
Ga    1.5983312974828607E+00    8.2991370217832685E+00    1.3577906509110305E+01
N    1.5713555981754781E+00    8.2834395029239101E+00    1.5542558915285698E+01
Ga    1.7413756577819084E+00    1.0060600001449721E+01    1.6434072119909370E+01
N    3.1869298319333237E+00    9.2166051870144887E+00    1.7568377741922554E+01
N    9.6389692935981142E+00    1.7916481140192404E+00    2.6014302155297253E+00
Ga    9.6295820866733113E+00    3.6948320158726802E-02    3.2608685638071373E+00
N    9.6281763069240558E+00   -6.3103578271938923E-02    5.2302978442177102E+00
Ga    9.6351204042029099E+00    1.7943779205885615E+00    5.8371158624003021E+00
N    9.6256986880310986E+00    1.7947102453514705E+00    7.8154851432523200E+00
Ga    9.6270907865577282E+00   -7.5631715338468339E-02    8.3905649298422027E+00
N    9.6268408241271821E+00   -7.7416826846632356E-02    1.0388500451246886E+01
Ga    9.6271768317832791E+00    1.7920957362821477E+00    1.0981720262596967E+01
N    9.6272711565443014E+00    1.7928162159276975E+00    1.2956001697218611E+01
Ga    9.6279158328274193E+00   -7.5945731128651689E-02    1.3576729373380775E+01
N    9.6290417585255224E+00   -4.5738240900689744E-02    1.5540397936232157E+01
Ga    9.6275611264384295E+00    1.7935246904204301E+00    1.5818098127329611E+01
N    7.9077598411960572E+00    4.5258552882183292E+00    2.4858201444875432E+00
Ga    8.1353903880719844E+00    2.6575941864949284E+00    3.2650588333507162E+00
N    8.0169040030038836E+00    2.7265399422634524E+00    5.2240001306874051E+00
Ga    8.0536297254877276E+00    4.5940900334496249E+00    5.7720187645247494E+00
N    8.0266244548478465E+00    4.5867130012458679E+00    7.7634362253017892E+00
Ga    8.0093729185200520E+00    2.7259474600802229E+00    8.3994901902937684E+00
N    8.0072349226599808E+00    2.7286907750440390E+00    1.0393199673887667E+01
Ga    8.0346166340652001E+00    4.5870587180109803E+00    1.1028360115826185E+01
N    8.0511300571996660E+00    4.5971808350575500E+00    1.3022439425337602E+01
Ga    8.0087884020280669E+00    2.7280715166467200E+00    1.3576719575944978E+01
N    8.0362523678324980E+00    2.7135724037064568E+00    1.5539245380465713E+01
Ga    7.8546593551544746E+00    4.4830527289630053E+00    1.6437938645384495E+01
N    6.4063027040270510E+00    7.3782931285495925E+00    2.6364180141366371E+00
Ga    6.4106742634151139E+00    5.5527977731079909E+00    3.2974311017905498E+00
N    6.4108691903501001E+00    5.5242461348095793E+00    5.2207610127657142E+00
Ga    6.4060046529039409E+00    7.3798917236604487E+00    5.8485563717942251E+00
N    6.4099501950203601E+00    7.3657499915763625E+00    7.8121192127202397E+00
Ga    6.4113629295408936E+00    5.4967974212995978E+00    8.4044143532428421E+00
N    6.4109907954100693E+00    5.4952076639498770E+00    1.0394330819050136E+01
Ga    6.4109545950520754E+00    7.3643615032493459E+00    1.0986366928624548E+01
N    6.4114079169188489E+00    7.3642662298467902E+00    1.2958425146524663E+01
Ga    6.4116328177568880E+00    5.4941635539566827E+00    1.3578230733530576E+01
N    6.4125562306429593E+00    5.5257073445707263E+00    1.5540499730622868E+01
Ga    6.4111931578205628E+00    7.3637239336570888E+00    1.5819819037716107E+01
N    4.6725734526400995E+00    1.0095898400621424E+01    2.4408629042195527E+00
Ga    4.7713990150180337E+00    8.2943218209318541E+00    3.2253951319858576E+00
N    4.8100435178796692E+00    8.2858987517969442E+00    5.1831301634233933E+00
Ga    4.8331636703579601E+00    1.0166517125828879E+01    5.7568461309572987E+00
N    4.8132957332705502E+00    1.0149271733035828E+01    7.7572813849553119E+00
Ga    4.7905030528211556E+00    8.2996881303396943E+00    8.4019994016999338E+00
N    4.7914031702608479E+00    8.2971314540818160E+00    1.0393401791757245E+01
Ga    4.8175083847117728E+00    1.0158277406660009E+01    1.1025798257481974E+01
N    4.8348792455302441E+00    1.0167302007544221E+01    1.3021403221649395E+01
Ga    4.7924925676740084E+00    8.2995582882519532E+00    1.3578162052475633E+01
N    4.8194842571228298E+00    8.2851201416704825E+00    1.5541592868997379E+01
Ga    4.6419135555836792E+00    1.0056585176513243E+01    1.6435192681688310E+01
O   -1.6254805526818357E-02    3.8058561609946415E+00   -5.1862043697221338E-01
H    2.4062449340611858E+00    7.0315423465319462E+00    4.5076560747866123E-01
C    1.2728089976479302E+00    3.7580023332595633E+00   -1.1516490862328432E+00
H    2.0356610504535690E+00    4.3390386979951412E+00   -6.0643458608243395E-01
H    1.6337705932747473E+00    2.7225809311317088E+00   -1.2584382690638793E+00
H    1.1634997233211362E+00    4.1998448195100151E+00   -2.1524096267308233E+00
Ga    3.1536585801757888E+00    5.5021355193676831E+00    2.8573672520964655E+00
O    2.0000966120590191E+00    7.4725164428079873E+00   -3.2809020498220498E-01
H    4.7450941836696785E-03    7.3522323853027975E+00    1.6049970246497771E+00
C    2.7964988980947978E+00    8.6378266554996355E+00   -5.8128629424476153E-01
H    2.1989819245652935E+00    9.3360742671698045E+00   -1.1789540606651840E+00
H    6.4150521135400851E+00    7.3541914636402543E+00    1.6102777312497931E+00
H    3.7246870880615357E+00    8.4035742182751498E+00   -1.1235900287808911E+00
     &END COORD
     &KIND C
       BASIS_SET DZVP-MOLOPT-SR-GTH-q4
       POTENTIAL GTH-PBE-q4
       &POTENTIAL
2 2
0.3384712400000000E+00 2 -0.8803673979999999E+01  0.1339210850000000E+01
2
0.3025757500000000E+00 1  0.9622486650000001E+01
0.2915069400000000E+00 0
       &END POTENTIAL
     &END KIND
     &KIND O
       BASIS_SET DZVP-MOLOPT-SR-GTH-q6
       POTENTIAL GTH-PBE-q6
       &POTENTIAL
2 4
0.2445543000000000E+00 2 -0.1666721480000000E+02  0.2487311320000000E+01
2
0.2209559200000000E+00 1  0.1833745811000000E+02
0.2113324700000000E+00 0
       &END POTENTIAL
     &END KIND
     &KIND H
       BASIS_SET DZVP-MOLOPT-SR-GTH-q1
       POTENTIAL GTH-PBE-q1
       &POTENTIAL
1
0.2000000000000000E+00 2 -0.4178900440000000E+01  0.7244633100000000E+00
0
       &END POTENTIAL
     &END KIND
     &KIND N
       BASIS_SET DZVP-MOLOPT-SR-GTH
       POTENTIAL GTH-PBE-q5
       &POTENTIAL
2 3
0.2837905100000000E+00 2 -0.1241522559000000E+02  0.1868095920000000E+01
2
0.2554050000000000E+00 1  0.1363026257000000E+02
0.2454945300000000E+00 0
       &END POTENTIAL
     &END KIND
     &KIND Ga
       BASIS_SET DZVP-MOLOPT-SR-GTH
       POTENTIAL GTH-PBE-q13
       &POTENTIAL
2 1 10
0.4900000000000000E+00 0
3
0.4167772300000000E+00 3  0.1047568975000000E+02 -0.4921768140000000E+01  0.8707055900000000E+00
0.7770178090000000E+01 -0.2248152160000000E+01
0.1784415450000000E+01
0.5696265200000000E+00 2  0.1777985340000000E+01  0.1958597600000000E+00
-0.2317443900000000E+00
0.2381265000000000E+00 1 -0.1624868022000000E+02
       &END POTENTIAL
     &END KIND
     &TOPOLOGY
       NUMBER_OF_ATOMS  212
       MULTIPLE_UNIT_CELL  1 1 1
     &END TOPOLOGY
     &COLVAR
       &DISTANCE
         ATOMS  127 211
       &END DISTANCE
       &PRINT
       &END PRINT
     &END COLVAR
   &END SUBSYS
 &END FORCE_EVAL
