 # Version information for this restart file 
 # current date 2019-07-18 21:39:40.997
 # current working dir /lustre04/scratch/rzk/rzk/GaN-carbene/443-adatoms-both-2x2/09-BondBreaking-CH/02-0401-CH-to-NTop-PES/Phase04-OptimizeAdjustedIntermed909
 # Program compiled at                              Sun Apr  7 00:48:11 EDT 2019
 # Program compiled on                          beluga2.int.ets1.calculquebec.ca
 # Program compiled for                        Beluga-Linux-x86-64-intel-openmpi
 # Source code revision number                                         svn:18619
 &GLOBAL
   PRINT_LEVEL  MEDIUM
   PROJECT_NAME TEST
   RUN_TYPE  GEO_OPT
 &END GLOBAL
 &MOTION
   &GEO_OPT
     MAX_ITER  500
     STEP_START_VAL  5
   &END GEO_OPT
 &END MOTION
 &FORCE_EVAL
   METHOD  QS
   STRESS_TENSOR  ANALYTICAL
   &DFT
     BASIS_SET_FILE_NAME BASIS_MOLOPT
     POTENTIAL_FILE_NAME GTH_POTENTIALS
     UKS  T
     SURFACE_DIPOLE_CORRECTION  T
     SURF_DIP_DIR  Z
     &SCF
       MAX_SCF  80
       EPS_SCF     5.0000000000000004E-06
       &OT  T
         PRECONDITIONER  FULL_ALL
       &END OT
       &OUTER_SCF  T
         OPTIMIZER  NONE
         EPS_SCF     5.0000000000000004E-06
         MAX_SCF  4
       &END OUTER_SCF
       &PRINT
         &RESTART  OFF
           BACKUP_COPIES  1
           &EACH
             JUST_ENERGY  0
             QS_SCF  0
             MD  20
           &END EACH
         &END RESTART
       &END PRINT
     &END SCF
     &QS
       EPS_DEFAULT     1.0000000000000000E-14
       METHOD  GPW
     &END QS
     &MGRID
       NGRIDS  5
       CUTOFF     1.2000000000000000E+03
     &END MGRID
     &XC
       DENSITY_CUTOFF     1.0000000000000000E-10
       GRADIENT_CUTOFF     1.0000000000000000E-10
       TAU_CUTOFF     1.0000000000000000E-10
       &XC_FUNCTIONAL  NO_SHORTCUT
         &PBE  T
         &END PBE
       &END XC_FUNCTIONAL
       &VDW_POTENTIAL
         POTENTIAL_TYPE  PAIR_POTENTIAL
         &PAIR_POTENTIAL
           R_CUTOFF     1.0000000000000009E+01
           TYPE  DFTD3
           PARAMETER_FILE_NAME dftd3.dat
           REFERENCE_FUNCTIONAL PBE
           EPS_CN     9.9999999999999995E-07
           CALCULATE_C9_TERM  T
           REFERENCE_C9_TERM  T
           LONG_RANGE_CORRECTION  F
           VERBOSE_OUTPUT  F
         &END PAIR_POTENTIAL
       &END VDW_POTENTIAL
     &END XC
   &END DFT
   &SUBSYS
     &CELL
       A     1.2864472766435110E+01    0.0000000000000000E+00    0.0000000000000000E+00
       B    -6.4322363581020028E+00    1.1140960178524477E+01    0.0000000000000000E+00
       C     0.0000000000000000E+00    0.0000000000000000E+00    3.2000000000000000E+01
       MULTIPLE_UNIT_CELL  1 1 1
       &CELL_REF
         A     1.2982353780853531E+01    0.0000000000000000E+00    0.0000000000000000E+00
         B    -6.4911768904267628E+00    1.1243048175136114E+01    0.0000000000000000E+00
         C     0.0000000000000000E+00    0.0000000000000000E+00    3.2000000000000000E+01
         MULTIPLE_UNIT_CELL  1 1 1
       &END CELL_REF
     &END CELL
     &COORD
N    1.1577142279759140E-02    1.9804830121122914E+00    2.5276665303316275E+00
Ga   -2.1844637821123278E-03   -9.9025834035871077E-03    2.8707287891572064E+00
N    1.4103935532534849E-02   -4.1464168607399064E-03    5.0361301723388214E+00
Ga    1.2070605211994616E-02    1.8139000598676076E+00    5.8263628823046067E+00
N    1.2856114517664899E-02    1.8326852596661478E+00    7.8154299129818918E+00
Ga    1.1248912432337142E-02   -1.7944031914179894E-02    8.4527009795830779E+00
N    1.3590422096254412E-02   -1.6630096188657070E-02    1.0422231602299053E+01
Ga    1.3298205973190740E-02    1.8235137480582717E+00    1.1081016056024817E+01
N    1.4077031996945929E-02    1.8038899378718642E+00    1.3069091411147578E+01
Ga    1.3929596229127811E-02   -1.6127445847611256E-02    1.3885803358639349E+01
N    1.4449177935216070E-02   -1.6192398601496145E-02    1.6073158061647664E+01
Ga    1.4727303685827777E-02    2.0235676234767217E+00    1.6480804888887725E+01
Ga   -6.1185905547238642E-04    3.6748786258386943E+00    1.5151176982061287E+00
N   -1.4754370843365878E+00    4.5713585643279853E+00    2.5251265888856222E+00
Ga   -1.6901928413097995E+00    2.7049290565845379E+00    3.3155243197973303E+00
N   -1.5964733243629050E+00    2.7751962087760158E+00    5.2726477977373420E+00
Ga   -1.6243166303771603E+00    4.6396190766846797E+00    5.8303142717732070E+00
N   -1.6044507589367063E+00    4.6369662525793549E+00    7.8132434805560989E+00
Ga   -1.5876572811110368E+00    2.7747394300494892E+00    8.4545880353457399E+00
N   -1.5843842570413667E+00    2.7783147049035564E+00    1.0439848076401621E+01
Ga   -1.6105676263128093E+00    4.6372899067915947E+00    1.1083808959521539E+01
N   -1.6269599862921529E+00    4.6471824962335173E+00    1.3070669074978023E+01
Ga   -1.5833438392231602E+00    2.7766186312636614E+00    1.3628024798685054E+01
N   -1.6115972274332724E+00    2.7607406308219611E+00    1.5586305714954243E+01
Ga   -1.4367638860595171E+00    4.5375637693166135E+00    1.6481070503298145E+01
N    1.4594545058164961E-02    3.6995398214641759E+00    1.7601585941978669E+01
N   -3.2038307563236228E+00    7.5188059189863914E+00    2.4974566998491103E+00
Ga   -3.1901576186243044E+00    5.5603081737142359E+00    2.8869514907246705E+00
N   -3.2013792815762776E+00    5.5539575635754002E+00    5.0305884174054718E+00
Ga   -3.2041176700804730E+00    7.3849563577179973E+00    5.8057387732368051E+00
N   -3.2033242937195316E+00    7.4065302706976919E+00    7.7927995972856259E+00
Ga   -3.2036292022091031E+00    5.5616727886568622E+00    8.4589752991658660E+00
N   -3.2032144851655842E+00    5.5590471759149702E+00    1.0424784821141014E+01
Ga   -3.2024261631614372E+00    7.3965025183968329E+00    1.1085810270163510E+01
N   -3.2017014182765511E+00    7.3755282014999635E+00    1.3070874613287764E+01
Ga   -3.2029218342878756E+00    5.5567926345171461E+00    1.3888669826110055E+01
N   -3.2032659632850682E+00    5.5574242065183048E+00    1.6073978129661207E+01
Ga   -3.2023170340968932E+00    7.6088088763223478E+00    1.6497755776002812E+01
Ga   -3.1960062867731387E+00    9.3429866011329583E+00    1.2442604817943730E+00
N   -4.7191391306985651E+00    1.0152558682560993E+01    2.4957483846775399E+00
Ga   -4.8084182505673043E+00    8.3577884588119780E+00    3.2838421983468473E+00
N   -4.8197772377564663E+00    8.3402623416299502E+00    5.2277319579516117E+00
Ga   -4.8385170111204587E+00    1.0224570485766844E+01    5.8034176437540790E+00
N   -4.8184859530677180E+00    1.0202575888937588E+01    7.7961023419096387E+00
Ga   -4.8005443886294588E+00    8.3512841073417459E+00    8.4505282351425546E+00
N   -4.7984161478634482E+00    8.3479312512998352E+00    1.0435097106719709E+01
Ga   -4.8261573171112380E+00    1.0207419788627979E+01    1.1083241160776613E+01
N   -4.8422798718244415E+00    1.0216623281672675E+01    1.3069411140285967E+01
Ga   -4.7988089357130299E+00    8.3478582088628279E+00    1.3631714915686551E+01
N   -4.8265676078239794E+00    8.3316160670527779E+00    1.5585778425165962E+01
Ga   -4.6406747489412190E+00    1.0099929308802123E+01    1.6497397812508915E+01
N   -3.1973823437866060E+00    9.2722841041912023E+00    1.7638854270374566E+01
N    3.2152440098874675E+00    1.8536440266118241E+00    2.6055814553485290E+00
Ga    3.2227456068700775E+00    8.4612734691778116E-02    3.2508621533791846E+00
N    3.2284624840999117E+00   -1.3613448954689345E-02    5.2345589000255472E+00
Ga    3.2272986941154187E+00    1.8340401118277874E+00    5.8925649686415627E+00
N    3.2318355167213033E+00    1.8403984132896454E+00    7.8608493312649594E+00
Ga    3.2295508127299981E+00   -2.7562374361805243E-02    8.4530689038518130E+00
N    3.2299355075884364E+00   -2.8551504110021567E-02    1.0438571941500092E+01
Ga    3.2310728637492887E+00    1.8413502625486473E+00    1.1040073137767896E+01
N    3.2312439967540740E+00    1.8417795607211147E+00    1.3003413600851378E+01
Ga    3.2303173895426704E+00   -2.7880424936200316E-02    1.3632282051278512E+01
N    3.2285781452027824E+00    4.6661408418416546E-03    1.5587654358295296E+01
Ga    3.2323644875626703E+00    1.8416798410420177E+00    1.5868578360371142E+01
N    1.4951714943760290E+00    4.5668005377142897E+00    2.5402976217132305E+00
Ga    1.7081141797257966E+00    2.7161737891985545E+00    3.3217460444579814E+00
N    1.6240520948546575E+00    2.7711535762593020E+00    5.2786765527080242E+00
Ga    1.6494991515950110E+00    4.6389331714990405E+00    5.8317135001562859E+00
N    1.6303850245718874E+00    4.6357798018105978E+00    7.8145608608479140E+00
Ga    1.6130453356861585E+00    2.7743501654470317E+00    8.4572585015497115E+00
N    1.6120662531292174E+00    2.7775104920862166E+00    1.0441741102785912E+01
Ga    1.6385361526531836E+00    4.6372076241201885E+00    1.1083894658970555E+01
N    1.6560473491377163E+00    4.6472367561185628E+00    1.3070813965777665E+01
Ga    1.6117084730435689E+00    2.7766622655370528E+00    1.3627919630030529E+01
N    1.6405129454544325E+00    2.7608394753416086E+00    1.5586164292520412E+01
Ga    1.4659027633898349E+00    4.5373158463508814E+00    1.6481188637221216E+01
N    1.0669180172396410E-02    7.4207283106879700E+00    2.6848273310258026E+00
Ga    1.5519109103705075E-02    5.5915230041583976E+00    3.3569713321146515E+00
N    1.0918170412511041E-02    5.5765781550204370E+00    5.2796118512210040E+00
Ga    1.7005802355104727E-02    7.4301536656203195E+00    5.9012609055116467E+00
N    1.3196121679373288E-02    7.4186460664653389E+00    7.8598516359353763E+00
Ga    1.3237420179987431E-02    5.5485772606116850E+00    8.4590999246072371E+00
N    1.3979121553037996E-02    5.5447365254063259E+00    1.0441421386624192E+01
Ga    1.4918546257134584E-02    7.4155721777803016E+00    1.1037923647141517E+01
N    1.4914157559578591E-02    7.4142602065994376E+00    1.3001440862811124E+01
Ga    1.4637663257205093E-02    5.5447249964750016E+00    1.3628059493314977E+01
N    1.4674877678104881E-02    5.5771655487978693E+00    1.5586214623302762E+01
Ga    1.4984441153511840E-02    7.4150546381103624E+00    1.5869741946860081E+01
N   -1.6924390306661599E+00    1.0150831756287634E+01    2.5060097318101437E+00
Ga   -1.5975218550881736E+00    8.3516350370459200E+00    3.2890307741196971E+00
N   -1.5875973309518112E+00    8.3391834768861965E+00    5.2346802105523489E+00
Ga   -1.5721920551162758E+00    1.0222125261877034E+01    5.8081529679998258E+00
N   -1.5871997413632040E+00    1.0202645644382498E+01    7.7997599113459843E+00
Ga   -1.6063992353963694E+00    8.3518638137913452E+00    8.4543082794896929E+00
N   -1.6067341327474598E+00    8.3483481964862154E+00    1.0437821194196252E+01
Ga   -1.5782626110956293E+00    1.0207723053626257E+01    1.1084947812368798E+01
N   -1.5609907822415388E+00    1.0216802785864223E+01    1.3071329736777578E+01
Ga   -1.6044885617401623E+00    8.3476570881625012E+00    1.3632153607555868E+01
N   -1.5778350878187812E+00    8.3299155836667715E+00    1.5587571097423885E+01
Ga   -1.7588759251503383E+00    1.0102840578519929E+01    1.6498583442151386E+01
N    6.4402221522958181E+00    1.9608412352043487E+00    2.5479591264367052E+00
Ga    6.4524074773021542E+00   -3.0424173140669451E-02    2.8932826666372398E+00
N    6.4418969664777022E+00   -6.7553601558692370E-03    5.0438887563598742E+00
Ga    6.4444680438253146E+00    1.8136717818285764E+00    5.8231441452405504E+00
N    6.4462595175703790E+00    1.8346404985407825E+00    7.8113627537430697E+00
Ga    6.4481019907459221E+00   -1.6496093017984624E-02    8.4532803310982167E+00
N    6.4464969312535052E+00   -1.5247528226674694E-02    1.0423254941925904E+01
Ga    6.4470184313795809E+00    1.8241977642966767E+00    1.1084100374918906E+01
N    6.4468689208393908E+00    1.8044477069718543E+00    1.3071213510674813E+01
Ga    6.4470860153927001E+00   -1.4766341351165758E-02    1.3889932822974998E+01
N    6.4466114782115147E+00   -1.4508203976795911E-02    1.6074751178594774E+01
Ga    6.4467469308346272E+00    2.0331901532407155E+00    1.6498447174147650E+01
Ga    6.4441334945757509E+00    3.6598964146741748E+00    1.5176448639830458E+00
N    4.9432474930436996E+00    4.5705356714170309E+00    2.5281614569584021E+00
Ga    4.7247596603761446E+00    2.7054276430887669E+00    3.3076820003632723E+00
N    4.8350053552400807E+00    2.7733343159666273E+00    5.2630350417786920E+00
Ga    4.8046848542398921E+00    4.6405117522837296E+00    5.8255684031868027E+00
N    4.8305942288514867E+00    4.6346937424918018E+00    7.8078616689993536E+00
Ga    4.8482161497406286E+00    2.7750503627926495E+00    8.4577090317936712E+00
N    4.8496311881239862E+00    2.7783650857431859E+00    1.0441484477268741E+01
Ga    4.8226811691404432E+00    4.6373622280379418E+00    1.1084722061714031E+01
N    4.8061035582602480E+00    4.6468146665737518E+00    1.3070643623692087E+01
Ga    4.8502830574780988E+00    2.7775387762590000E+00    1.3632114671290557E+01
N    4.8214786173160968E+00    2.7636911661119745E+00    1.5588012070324668E+01
Ga    5.0081281929709780E+00    4.5307627805942232E+00    1.6498005438538961E+01
N    6.4468708386761158E+00    3.6944326555978435E+00    1.7638587581482629E+01
N    3.2192480850973384E+00    7.4989123103753581E+00    2.4917606325131061E+00
N    3.2275486084408307E+00    5.5497563797005700E+00    5.0422981360007597E+00
Ga    3.2276406457431794E+00    7.3845562389033690E+00    5.8027696654482579E+00
N    3.2296754744901413E+00    7.4048073260597675E+00    7.7935321074015071E+00
Ga    3.2309957538524001E+00    5.5613026275707433E+00    8.4589174697698759E+00
N    3.2311442187095039E+00    5.5581647575054438E+00    1.0425246912804202E+01
Ga    3.2305595245317633E+00    7.3966467207333473E+00    1.1083585659635595E+01
N    3.2306973846737970E+00    7.3757237915388201E+00    1.3069708813278039E+01
Ga    3.2320016273365222E+00    5.5572407394950067E+00    1.3887685600510947E+01
N    3.2320845509754315E+00    5.5574282299244864E+00    1.6074305620389417E+01
Ga    3.2312075599982988E+00    7.6081148566138666E+00    1.6497843306142968E+01
Ga    3.2074306387893632E+00    9.3640857223048179E+00    1.1060760813887900E+00
N    1.7032946806931197E+00    1.0155660103803209E+01    2.4896582475580096E+00
Ga    1.6401825531835175E+00    8.3586706136345050E+00    3.2627469253878778E+00
N    1.6114251002022517E+00    8.3370560441701489E+00    5.2229202058077133E+00
Ga    1.6008008795637776E+00    1.0219882047502242E+01    5.7974121543512842E+00
N    1.6142802561273220E+00    1.0202519194418731E+01    7.7942992725978160E+00
Ga    1.6348415115575217E+00    8.3530110154599377E+00    8.4514300483777109E+00
N    1.6348939673893965E+00    8.3486300848348449E+00    1.0436547062757795E+01
Ga    1.6076867232982281E+00    1.0207746454120896E+01    1.1082812600925610E+01
N    1.5900390198151095E+00    1.0216784765098133E+01    1.3070096474736681E+01
Ga    1.6341836264306246E+00    8.3481584434555955E+00    1.3631820273366294E+01
N    1.6078009258289452E+00    8.3304480329494002E+00    1.5587626181111158E+01
Ga    1.7870859018561156E+00    1.0103469349840326E+01    1.6498289791489601E+01
N    3.2261743390875872E+00    9.2729094204367453E+00    1.7638552872278815E+01
N    9.6664273228896960E+00    1.8455823954086454E+00    2.6170153413161570E+00
Ga    9.6604635472135136E+00    6.1974736910428742E-02    3.2253707656604629E+00
N    9.6599493945789696E+00   -1.4033199984875386E-02    5.2255054315266509E+00
Ga    9.6626209280152295E+00    1.8305505550960517E+00    5.8797417330738488E+00
N    9.6604278040233069E+00    1.8423988898422536E+00    7.8527312970005010E+00
Ga    9.6617642278842002E+00   -2.6158231223816678E-02    8.4452556457225807E+00
N    9.6624285622686816E+00   -2.7419836652229874E-02    1.0433717444844980E+01
Ga    9.6614273243853450E+00    1.8414398381289805E+00    1.1037823013446625E+01
N    9.6619081578142030E+00    1.8418377131613490E+00    1.3001975015183074E+01
Ga    9.6626564211217545E+00   -2.7617741587895171E-02    1.3631394419634111E+01
N    9.6647344411290810E+00    4.1823469110530377E-03    1.5587351404565959E+01
Ga    9.6614392184434390E+00    1.8413194974290212E+00    1.5869307213590037E+01
N    7.9420544524532737E+00    4.5726021638846444E+00    2.5314818065809073E+00
Ga    8.1598700454614832E+00    2.6986472205929233E+00    3.3069463240182735E+00
N    8.0511452733126774E+00    2.7759934179259060E+00    5.2623085091151713E+00
Ga    8.0841607733496286E+00    4.6416155815106981E+00    5.8222035955640115E+00
N    8.0622154938895658E+00    4.6369735785693766E+00    7.8053701563936295E+00
Ga    8.0459098318779532E+00    2.7756092818126756E+00    8.4536687887235011E+00
N    8.0432927948231079E+00    2.7790835430293472E+00    1.0438873652205290E+01
Ga    8.0696707519582489E+00    4.6371681332499772E+00    1.1084642992079141E+01
N    8.0871865299733656E+00    4.6467329458070754E+00    1.3070624907964815E+01
Ga    8.0435098204585191E+00    2.7772162404177712E+00    1.3632104944160314E+01
N    8.0723132509106570E+00    2.7632422580106892E+00    1.5588043811169054E+01
Ga    7.8851033359676954E+00    4.5307495297120353E+00    1.6497673990890270E+01
N    6.4397545904570919E+00    7.4263075640067848E+00    2.6731378288502272E+00
Ga    6.4402785921229668E+00    5.5968673618419986E+00    3.3390062239584912E+00
N    6.4447466565709286E+00    5.5733102559821992E+00    5.2590152123117306E+00
Ga    6.4381257016201650E+00    7.4328088852601235E+00    5.8872177335632330E+00
N    6.4452361543945251E+00    7.4173457797124795E+00    7.8482162959235575E+00
Ga    6.4463058684764505E+00    5.5490912999014759E+00    8.4549797742587280E+00
N    6.4462805466251929E+00    5.5449048644740921E+00    1.0437989829722532E+01
Ga    6.4458321867484587E+00    7.4146889866074135E+00    1.1038212871106534E+01
N    6.4464924286654597E+00    7.4134503087904218E+00    1.3002544962426578E+01
Ga    6.4465032952770045E+00    5.5437131611223922E+00    1.3631657668793562E+01
N    6.4464337289314173E+00    5.5754792600438048E+00    1.5586212848045976E+01
Ga    6.4465294288523527E+00    7.4131587071698357E+00    1.5866942183711251E+01
N    4.7436345125748849E+00    1.0157957818477064E+01    2.4842784419009600E+00
Ga    4.8017927511383096E+00    8.3653811994933402E+00    3.2574599591748195E+00
N    4.8403770297071800E+00    8.3390061888320126E+00    5.2166086059080365E+00
Ga    4.8579819265816440E+00    1.0221927179009620E+01    5.7930131526708690E+00
N    4.8452184083805454E+00    1.0202550109532362E+01    7.7912487191087623E+00
Ga    4.8251309998930987E+00    8.3524760530206059E+00    8.4484361528492276E+00
N    4.8267680905415409E+00    8.3481714465168047E+00    1.0434484795433555E+01
Ga    4.8525303886818589E+00    1.0207465332447887E+01    1.1081520179922919E+01
N    4.8704633943871825E+00    1.0216561935408070E+01    1.3068612359450709E+01
Ga    4.8272783210943642E+00    8.3480834261737620E+00    1.3631491133952391E+01
N    4.8548169541328097E+00    8.3318632850015284E+00    1.5585990830243608E+01
Ga    4.6701720907759059E+00    1.0100430130656900E+01    1.6496970379461938E+01
O    3.6574448815182281E-01    3.8526897003761005E+00   -4.7609282277575921E-01
H    6.6640261492496489E-01    4.8171590897173271E+00   -6.0021870105793973E-01
C    1.4426710344106539E+00    2.9619197380045645E+00   -9.2967596518623186E-01
H    2.2636885798104323E+00    2.9306412526195476E+00   -1.9812426930976687E-01
H    1.0014733202217163E+00    1.9656323295834466E+00   -1.0360786459123019E+00
H    1.7962281791986074E+00    3.3207759668122083E+00   -1.9028545160903354E+00
Ga    3.2019515463399695E+00    5.5692189305167865E+00    2.9012326268638780E+00
O    1.0459534340491468E+00    6.3717632091284653E+00   -7.5393633490102419E-01
H    1.7667205572916671E-02    7.3874808700367849E+00    1.6584923958420537E+00
C    1.2471916695555951E+00    6.8877951944400015E+00   -1.8599871635554321E+00
H    1.5015586578493896E+00    7.9593642561562072E+00   -1.9420617630754298E+00
H    6.4480431810234320E+00    7.4046323316424001E+00    1.6469716313377833E+00
H    1.1704783391192821E+00    6.2996480499667395E+00   -2.7942710215940281E+00
     &END COORD
     &KIND C
       BASIS_SET DZVP-MOLOPT-SR-GTH-q4
       POTENTIAL GTH-PBE-q4
       &POTENTIAL
2 2
0.3384712400000000E+00 2 -0.8803673979999999E+01  0.1339210850000000E+01
2
0.3025757500000000E+00 1  0.9622486650000001E+01
0.2915069400000000E+00 0
       &END POTENTIAL
     &END KIND
     &KIND O
       BASIS_SET DZVP-MOLOPT-SR-GTH-q6
       POTENTIAL GTH-PBE-q6
       &POTENTIAL
2 4
0.2445543000000000E+00 2 -0.1666721480000000E+02  0.2487311320000000E+01
2
0.2209559200000000E+00 1  0.1833745811000000E+02
0.2113324700000000E+00 0
       &END POTENTIAL
     &END KIND
     &KIND H
       BASIS_SET DZVP-MOLOPT-SR-GTH-q1
       POTENTIAL GTH-PBE-q1
       &POTENTIAL
1
0.2000000000000000E+00 2 -0.4178900440000000E+01  0.7244633100000000E+00
0
       &END POTENTIAL
     &END KIND
     &KIND N
       BASIS_SET DZVP-MOLOPT-SR-GTH
       POTENTIAL GTH-PBE-q5
       &POTENTIAL
2 3
0.2837905100000000E+00 2 -0.1241522559000000E+02  0.1868095920000000E+01
2
0.2554050000000000E+00 1  0.1363026257000000E+02
0.2454945300000000E+00 0
       &END POTENTIAL
     &END KIND
     &KIND Ga
       BASIS_SET DZVP-MOLOPT-SR-GTH
       POTENTIAL GTH-PBE-q13
       &POTENTIAL
2 1 10
0.4900000000000000E+00 0
3
0.4167772300000000E+00 3  0.1047568975000000E+02 -0.4921768140000000E+01  0.8707055900000000E+00
0.7770178090000000E+01 -0.2248152160000000E+01
0.1784415450000000E+01
0.5696265200000000E+00 2  0.1777985340000000E+01  0.1958597600000000E+00
-0.2317443900000000E+00
0.2381265000000000E+00 1 -0.1624868022000000E+02
       &END POTENTIAL
     &END KIND
     &TOPOLOGY
       NUMBER_OF_ATOMS  212
       MULTIPLE_UNIT_CELL  1 1 1
     &END TOPOLOGY
     &COLVAR
       &DISTANCE
         ATOMS  127 211
       &END DISTANCE
       &PRINT
       &END PRINT
     &END COLVAR
   &END SUBSYS
 &END FORCE_EVAL
