 # Version information for this restart file 
 # current date 2019-07-18 21:36:59.384
 # current working dir /lustre04/scratch/rzk/rzk/GaN-carbene/443-adatoms-both-2x2/09-BondBreaking-CH/02-0401-CH-to-NTop-PES/Phase04-OptimizeAdjustedIntermed909
 # Program compiled at                              Sun Apr  7 00:48:11 EDT 2019
 # Program compiled on                          beluga2.int.ets1.calculquebec.ca
 # Program compiled for                        Beluga-Linux-x86-64-intel-openmpi
 # Source code revision number                                         svn:18619
 &GLOBAL
   PRINT_LEVEL  MEDIUM
   PROJECT_NAME TEST
   RUN_TYPE  GEO_OPT
 &END GLOBAL
 &MOTION
   &GEO_OPT
     MAX_ITER  500
     STEP_START_VAL  4
   &END GEO_OPT
 &END MOTION
 &FORCE_EVAL
   METHOD  QS
   STRESS_TENSOR  ANALYTICAL
   &DFT
     BASIS_SET_FILE_NAME BASIS_MOLOPT
     POTENTIAL_FILE_NAME GTH_POTENTIALS
     UKS  T
     SURFACE_DIPOLE_CORRECTION  T
     SURF_DIP_DIR  Z
     &SCF
       MAX_SCF  80
       EPS_SCF     5.0000000000000004E-06
       &OT  T
         PRECONDITIONER  FULL_ALL
       &END OT
       &OUTER_SCF  T
         OPTIMIZER  NONE
         EPS_SCF     5.0000000000000004E-06
         MAX_SCF  4
       &END OUTER_SCF
       &PRINT
         &RESTART  OFF
           BACKUP_COPIES  1
           &EACH
             JUST_ENERGY  0
             QS_SCF  0
             MD  20
           &END EACH
         &END RESTART
       &END PRINT
     &END SCF
     &QS
       EPS_DEFAULT     1.0000000000000000E-14
       METHOD  GPW
     &END QS
     &MGRID
       NGRIDS  5
       CUTOFF     1.2000000000000000E+03
     &END MGRID
     &XC
       DENSITY_CUTOFF     1.0000000000000000E-10
       GRADIENT_CUTOFF     1.0000000000000000E-10
       TAU_CUTOFF     1.0000000000000000E-10
       &XC_FUNCTIONAL  NO_SHORTCUT
         &PBE  T
         &END PBE
       &END XC_FUNCTIONAL
       &VDW_POTENTIAL
         POTENTIAL_TYPE  PAIR_POTENTIAL
         &PAIR_POTENTIAL
           R_CUTOFF     1.0000000000000009E+01
           TYPE  DFTD3
           PARAMETER_FILE_NAME dftd3.dat
           REFERENCE_FUNCTIONAL PBE
           EPS_CN     9.9999999999999995E-07
           CALCULATE_C9_TERM  T
           REFERENCE_C9_TERM  T
           LONG_RANGE_CORRECTION  F
           VERBOSE_OUTPUT  F
         &END PAIR_POTENTIAL
       &END VDW_POTENTIAL
     &END XC
   &END DFT
   &SUBSYS
     &CELL
       A     1.2864472766435110E+01    0.0000000000000000E+00    0.0000000000000000E+00
       B    -6.4322363581020028E+00    1.1140960178524477E+01    0.0000000000000000E+00
       C     0.0000000000000000E+00    0.0000000000000000E+00    3.2000000000000000E+01
       MULTIPLE_UNIT_CELL  1 1 1
       &CELL_REF
         A     1.2982353780853531E+01    0.0000000000000000E+00    0.0000000000000000E+00
         B    -6.4911768904267628E+00    1.1243048175136114E+01    0.0000000000000000E+00
         C     0.0000000000000000E+00    0.0000000000000000E+00    3.2000000000000000E+01
         MULTIPLE_UNIT_CELL  1 1 1
       &END CELL_REF
     &END CELL
     &COORD
N    1.2417531006416222E-02    1.9799654803772477E+00    2.5326065130009505E+00
Ga   -3.6266854874137350E-03   -1.0149265153097354E-02    2.8741753185230574E+00
N    1.4357803861722343E-02   -2.6207850661647629E-03    5.0376202348737822E+00
Ga    1.1822716823535582E-02    1.8139913316901937E+00    5.8303880511501402E+00
N    1.2533353396166564E-02    1.8324697877024489E+00    7.8185022648311966E+00
Ga    1.0995432807052771E-02   -1.8865836483043991E-02    8.4529812399790263E+00
N    1.3569951263786474E-02   -1.7186282222633159E-02    1.0422427896608987E+01
Ga    1.3214792531430205E-02    1.8233573460420098E+00    1.1080300513856082E+01
N    1.4014812594900719E-02    1.8033714152532714E+00    1.3068126177715889E+01
Ga    1.3780410756950150E-02   -1.6624753352429116E-02    1.3883371153238327E+01
N    1.4426744991875835E-02   -1.4632373796839208E-02    1.6072240521630768E+01
Ga    1.4761642615143050E-02    2.0217474220114156E+00    1.6478567283674131E+01
Ga    4.7257108811264790E-04    3.6735044613472536E+00    1.5189246479860874E+00
N   -1.4746170662981202E+00    4.5712492519419277E+00    2.5262086504410006E+00
Ga   -1.6898990029605301E+00    2.7055526062252837E+00    3.3190137733757004E+00
N   -1.5958825980852442E+00    2.7761045153657888E+00    5.2754253257704917E+00
Ga   -1.6233833098408896E+00    4.6408779238217033E+00    5.8302842356298141E+00
N   -1.6040309167202782E+00    4.6375926126098879E+00    7.8133400694287225E+00
Ga   -1.5879071388603945E+00    2.7754965805425895E+00    8.4554913896184143E+00
N   -1.5845572043052631E+00    2.7785453429134148E+00    1.0440462843370570E+01
Ga   -1.6104702019626187E+00    4.6374676537139310E+00    1.1082852363723562E+01
N   -1.6272780098887714E+00    4.6474878295765985E+00    1.3069348505413386E+01
Ga   -1.5835042275727349E+00    2.7766259192350260E+00    1.3626265473363302E+01
N   -1.6117769640340542E+00    2.7607743697660405E+00    1.5584567113257712E+01
Ga   -1.4380889139030320E+00    4.5384081781859509E+00    1.6479035512776196E+01
N    1.4597154784786197E-02    3.6993727159185883E+00    1.7598606908492545E+01
N   -3.2048498739749851E+00    7.5187066166540149E+00    2.4966647218251143E+00
Ga   -3.1877980899978064E+00    5.5609733184481858E+00    2.8860254329479686E+00
N   -3.2003386431158831E+00    5.5538186158265814E+00    5.0290991239863043E+00
Ga   -3.2043652860707650E+00    7.3849229975373660E+00    5.8036826774456136E+00
N   -3.2036095524274302E+00    7.4064516487016983E+00    7.7911769575726275E+00
Ga   -3.2036859778209741E+00    5.5616311155098472E+00    8.4578184251734090E+00
N   -3.2033397412038567E+00    5.5587013306053619E+00    1.0423871119732981E+01
Ga   -3.2021940925844801E+00    7.3963464543343678E+00    1.1084478828614051E+01
N   -3.2016864351480394E+00    7.3751789591846073E+00    1.3069992926498649E+01
Ga   -3.2030624439531712E+00    5.5569069082389060E+00    1.3886177645150733E+01
N   -3.2018541514052430E+00    5.5567616901847128E+00    1.6073195892585041E+01
Ga   -3.2019638895710627E+00    7.6084247477752243E+00    1.6497461767494485E+01
Ga   -3.1969811767281349E+00    9.3432101485977981E+00    1.2373667425596486E+00
N   -4.7204981708802585E+00    1.0152908987764716E+01    2.4973712990636820E+00
Ga   -4.8080284696728306E+00    8.3590452262980151E+00    3.2802245353993840E+00
N   -4.8214971216847422E+00    8.3392444092207967E+00    5.2240516814009972E+00
Ga   -4.8383248085435282E+00    1.0224339424364064E+01    5.8029259802538400E+00
N   -4.8186937168950816E+00    1.0201802287830240E+01    7.7958362966592265E+00
Ga   -4.7994833849242946E+00    8.3515311553866454E+00    8.4515007306918832E+00
N   -4.7982433209773054E+00    8.3475943768280327E+00    1.0435482235985104E+01
Ga   -4.8258150647156510E+00    1.0206984376403060E+01    1.1082632185132525E+01
N   -4.8424177393507568E+00    1.0216369825457232E+01    1.3069080800566255E+01
Ga   -4.7984940431554728E+00    8.3477373147812735E+00    1.3631076834363274E+01
N   -4.8262327780273244E+00    8.3316666216355220E+00    1.5585743598109078E+01
Ga   -4.6410390847599912E+00    1.0100573285047727E+01    1.6496779310434516E+01
N   -3.1971093312211196E+00    9.2725907674520531E+00    1.7636890819606464E+01
N    3.2165111459570581E+00    1.8516860159420068E+00    2.6101665478478586E+00
Ga    3.2240527671963215E+00    8.1224299946131853E-02    3.2519714452373014E+00
N    3.2289500681154966E+00   -1.4648667670251863E-02    5.2361961644442516E+00
Ga    3.2275425969989553E+00    1.8325787465022298E+00    5.8954766268251069E+00
N    3.2318411184754505E+00    1.8404325225098508E+00    7.8633783441001004E+00
Ga    3.2295997461025565E+00   -2.8185973840831789E-02    8.4532569307446508E+00
N    3.2299979441918341E+00   -2.9034810058419243E-02    1.0438752838292874E+01
Ga    3.2314393713911920E+00    1.8409261276156075E+00    1.1040329912098908E+01
N    3.2314806357210459E+00    1.8415164027428204E+00    1.3003766379034872E+01
Ga    3.2303137525291628E+00   -2.8202472978165683E-02    1.3632338514506316E+01
N    3.2288204555679068E+00    4.4836935663145235E-03    1.5587947897609622E+01
Ga    3.2323293844831817E+00    1.8417047860069700E+00    1.5867700761763242E+01
N    1.4956096767023910E+00    4.5645891429675878E+00    2.5458072646261694E+00
Ga    1.7091641316581243E+00    2.7143218118647292E+00    3.3265749681696186E+00
N    1.6240903670913325E+00    2.7695018605480497E+00    5.2834469512735085E+00
Ga    1.6489564795406459E+00    4.6376370601183510E+00    5.8345086621581466E+00
N    1.6302019704815129E+00    4.6354224562011996E+00    7.8162408382472384E+00
Ga    1.6132061694194038E+00    2.7741276999398825E+00    8.4591443009871909E+00
N    1.6123297185501462E+00    2.7773203191696787E+00    1.0443168014417623E+01
Ga    1.6388753912342784E+00    4.6376222575120121E+00    1.1082066188021741E+01
N    1.6566649496118142E+00    4.6477019491066311E+00    1.3068956260842354E+01
Ga    1.6117091978179308E+00    2.7768994291385525E+00    1.3626059841119890E+01
N    1.6407206395409317E+00    2.7608153354897826E+00    1.5584390128408678E+01
Ga    1.4674079366197266E+00    4.5381919916082092E+00    1.6479411734689435E+01
N    7.9651520907495724E-03    7.4205999329918315E+00    2.6841633583351814E+00
Ga    1.6684111332042978E-02    5.5919676241055427E+00    3.3570862376760098E+00
N    1.2092423497443223E-02    5.5777386757739338E+00    5.2797778209891586E+00
Ga    1.7193699063192996E-02    7.4300301529599455E+00    5.9030597679459147E+00
N    1.3235320922105182E-02    7.4183573937350857E+00    7.8610779629456244E+00
Ga    1.3329600708657574E-02    5.5489685136820999E+00    8.4598916581591901E+00
N    1.3847537414893286E-02    5.5449096422380233E+00    1.0441855515948426E+01
Ga    1.5315127890116657E-02    7.4157345870962503E+00    1.1036957150442323E+01
N    1.5097998332125561E-02    7.4144944042116885E+00    1.3000698503858997E+01
Ga    1.4838605775549428E-02    5.5447201323468587E+00    1.3626185518641149E+01
N    1.4665512316474455E-02    5.5773958212103700E+00    1.5584387342479429E+01
Ga    1.4973974330822237E-02    7.4151134635726477E+00    1.5868863038386323E+01
N   -1.6908282745330632E+00    1.0151792932638326E+01    2.5079323849652453E+00
Ga   -1.5989360931670147E+00    8.3539804158910798E+00    3.2893461497386993E+00
N   -1.5871775506967905E+00    8.3396351112930631E+00    5.2350305929721301E+00
Ga   -1.5715987905186162E+00    1.0222828727543082E+01    5.8102843040666556E+00
N   -1.5865045313853163E+00    1.0202492089237769E+01    7.8015457119161420E+00
Ga   -1.6062418978547197E+00    8.3514724375387903E+00    8.4542769023322677E+00
N   -1.6066740571305536E+00    8.3479678467802749E+00    1.0437769428619625E+01
Ga   -1.5784717132214590E+00    1.0207101853549700E+01    1.1085173590834327E+01
N   -1.5609194917922649E+00    1.0216488756509055E+01    1.3071861540980430E+01
Ga   -1.6045490983183737E+00    8.3473878442034337E+00    1.3632093163721120E+01
N   -1.5779889175710922E+00    8.3301563887959489E+00    1.5587790859721538E+01
Ga   -1.7578379853073125E+00    1.0103480898960152E+01    1.6498633731331651E+01
N    6.4413144934081581E+00    1.9603816152587699E+00    2.5499558031881522E+00
Ga    6.4526782541004044E+00   -3.1389201363684588E-02    2.8953570191705200E+00
N    6.4424188791829140E+00   -6.1609152413074110E-03    5.0470738548719201E+00
Ga    6.4455967607313074E+00    1.8132446032355958E+00    5.8257944370103036E+00
N    6.4466411603496345E+00    1.8340631479686424E+00    7.8136633238137367E+00
Ga    6.4484140045512977E+00   -1.6868596596797698E-02    8.4560227940180805E+00
N    6.4465726137540491E+00   -1.5453474795945882E-02    1.0425688168359075E+01
Ga    6.4469396106139261E+00    1.8243508127270698E+00    1.1085119585019704E+01
N    6.4469118747713585E+00    1.8042852129493387E+00    1.3072448850284820E+01
Ga    6.4473196596737941E+00   -1.5107267538428323E-02    1.3889798873770232E+01
N    6.4467392165302364E+00   -1.4570067292898637E-02    1.6075859052917689E+01
Ga    6.4467885718351763E+00    2.0322848047148319E+00    1.6499226238187976E+01
Ga    6.4433572643076316E+00    3.6614368009837883E+00    1.5218331258070026E+00
N    4.9437324800145488E+00    4.5705283893066344E+00    2.5332015193609903E+00
Ga    4.7267828261061453E+00    2.7027680183711196E+00    3.3114199693656721E+00
N    4.8358695596787626E+00    2.7715794295024332E+00    5.2661832542744262E+00
Ga    4.8058231835843586E+00    4.6392163961880275E+00    5.8262127386057267E+00
N    4.8312861839649308E+00    4.6344606874317185E+00    7.8079491150225131E+00
Ga    4.8484747272484006E+00    2.7748553846868034E+00    8.4587108073236106E+00
N    4.8497762494424377E+00    2.7783049049041448E+00    1.0442189112854322E+01
Ga    4.8225776710703618E+00    4.6374421972790776E+00    1.1083398068051588E+01
N    4.8058938971121155E+00    4.6471666332029429E+00    1.3069917511964507E+01
Ga    4.8503566133414013E+00    2.7778587511503288E+00    1.3632548218048697E+01
N    4.8216937775650921E+00    2.7636927815339138E+00    1.5588797431207679E+01
Ga    5.0077217486739167E+00    4.5306339189867373E+00    1.6498632083847838E+01
N    6.4470882623802019E+00    3.6940443935294236E+00    1.7637818298159022E+01
N    3.2177848418573727E+00    7.4988657331327477E+00    2.4963751124554032E+00
N    3.2276412269900021E+00    5.5470864192164226E+00    5.0420700866647810E+00
Ga    3.2287745988316416E+00    7.3849964804193959E+00    5.7988577309788329E+00
N    3.2306769529654988E+00    7.4050038993595475E+00    7.7911348393227371E+00
Ga    3.2314981768654811E+00    5.5627039841407466E+00    8.4566788326797866E+00
N    3.2314108280211626E+00    5.5586222805673779E+00    1.0423555608457587E+01
Ga    3.2306927639688268E+00    7.3965715216545913E+00    1.1082251336472119E+01
N    3.2309525686337888E+00    7.3754155730848883E+00    1.3068659866808748E+01
Ga    3.2322987721262462E+00    5.5575201093816560E+00    1.3885398273607937E+01
N    3.2307118701361102E+00    5.5566952945914290E+00    1.6073800055969624E+01
Ga    3.2309185194525085E+00    7.6084895093453451E+00    1.6498633509658259E+01
Ga    3.2051416959431109E+00    9.3674599878477096E+00    1.1002220305880355E+00
N    1.7038597474300599E+00    1.0153300013385074E+01    2.4929725094009609E+00
Ga    1.6387298275820348E+00    8.3567073194745465E+00    3.2639545690769607E+00
N    1.6107192552230885E+00    8.3367074747190273E+00    5.2243327603247165E+00
Ga    1.6008073744307338E+00    1.0219893318094346E+01    5.7989568931980990E+00
N    1.6142737119566271E+00    1.0202524526789754E+01    7.7955780536106749E+00
Ga    1.6359900162029610E+00    8.3519404526288561E+00    8.4498816635091334E+00
N    1.6355277768460417E+00    8.3481031010265578E+00    1.0435382509439945E+01
Ga    1.6082852398301932E+00    1.0206960367731748E+01    1.1082720601219032E+01
N    1.5901469341610655E+00    1.0216413232579974E+01    1.3070407593155680E+01
Ga    1.6345376256359483E+00    8.3479255246764037E+00    1.3632198117291940E+01
N    1.6077390977676842E+00    8.3306986642952001E+00    1.5588157118195230E+01
Ga    1.7870456636854473E+00    1.0103624469436459E+01    1.6499467276713247E+01
N    3.2261533073984601E+00    9.2730890594759021E+00    1.7638161503382708E+01
N    9.6668703580323889E+00    1.8464100872751052E+00    2.6211599037567326E+00
Ga    9.6619199042850799E+00    6.1044724167319979E-02    3.2279296267747224E+00
N    9.6604465910102562E+00   -1.3034329378346879E-02    5.2267097689595126E+00
Ga    9.6627314880511062E+00    1.8321995350507958E+00    5.8819186972451929E+00
N    9.6602593378237387E+00    1.8431928941263962E+00    7.8540056503038729E+00
Ga    9.6618693978706141E+00   -2.5939584329311940E-02    8.4456012651031998E+00
N    9.6624847948786048E+00   -2.7674782182478392E-02    1.0433882780355360E+01
Ga    9.6610541613133485E+00    1.8412147515891586E+00    1.1037212548081946E+01
N    9.6616987803912675E+00    1.8417549680358307E+00    1.3001631132817076E+01
Ga    9.6627991584675037E+00   -2.7749600317153792E-02    1.3631318725226606E+01
N    9.6645743401209128E+00    4.1706265060545483E-03    1.5587533382110625E+01
Ga    9.6615259697316063E+00    1.8413054023258064E+00    1.5868664248779373E+01
N    7.9421430420820380E+00    4.5755596434846852E+00    2.5302977771578283E+00
Ga    8.1601017779644458E+00    2.6996476339725297E+00    3.3086152826224611E+00
N    8.0510879984393355E+00    2.7776567954946039E+00    5.2634089421096313E+00
Ga    8.0844414021310094E+00    4.6433965136208606E+00    5.8207584092992875E+00
N    8.0617722036494026E+00    4.6379316296507769E+00    7.8044055712101548E+00
Ga    8.0455417987055640E+00    2.7764801128166550E+00    8.4540284771884551E+00
N    8.0428550793299252E+00    2.7794476352522266E+00    1.0439135468999270E+01
Ga    8.0694880742629227E+00    4.6371642192743598E+00    1.1084265075238758E+01
N    8.0873471666249337E+00    4.6469467384535452E+00    1.3070524691378939E+01
Ga    8.0436263089512394E+00    2.7772613865081164E+00    1.3632620346616118E+01
N    8.0721842390307739E+00    2.7631882443859328E+00    1.5588829199204504E+01
Ga    7.8855185365855833E+00    4.5306098043072316E+00    1.6497999336343980E+01
N    6.4380966094656866E+00    7.4258373162271916E+00    2.6632997885736835E+00
Ga    6.4399304980549914E+00    5.5972944277339103E+00    3.3386577395335948E+00
N    6.4444951736553193E+00    5.5764563014054627E+00    5.2574202674747044E+00
Ga    6.4381336524321178E+00    7.4340895069519464E+00    5.8897949984960629E+00
N    6.4455025972022817E+00    7.4175264586508556E+00    7.8495684038987585E+00
Ga    6.4463149240514621E+00    5.5484587956099238E+00    8.4559367875750819E+00
N    6.4464653789606183E+00    5.5448529979257284E+00    1.0438388334271597E+01
Ga    6.4457116023233896E+00    7.4146243915473056E+00    1.1037677239848307E+01
N    6.4464625892032767E+00    7.4134880484751111E+00    1.3002687267724882E+01
Ga    6.4463908816059918E+00    5.5434886968264472E+00    1.3631478845945731E+01
N    6.4464204689625566E+00    5.5753934219475818E+00    1.5586718159621892E+01
Ga    6.4466218618824760E+00    7.4132664021485200E+00    1.5867152456180500E+01
N    4.7444745223192299E+00    1.0158552274697184E+01    2.4858002919776858E+00
Ga    4.7993056084135652E+00    8.3665205978995996E+00    3.2538983941690334E+00
N    4.8432913048974209E+00    8.3386962591903462E+00    5.2147232000555679E+00
Ga    4.8589374944848487E+00    1.0221594323202085E+01    5.7926298362957525E+00
N    4.8451019884120106E+00    1.0201967074743429E+01    7.7908155948045890E+00
Ga    4.8236773107655671E+00    8.3521808211584947E+00    8.4477817676616098E+00
N    4.8265832804800155E+00    8.3477275383894955E+00    1.0433729015536580E+01
Ga    4.8520454481037163E+00    1.0206803596296004E+01    1.1080477146431814E+01
N    4.8706568894724018E+00    1.0216191881218636E+01    1.3067976050393455E+01
Ga    4.8270740455530001E+00    8.3480455005791487E+00    1.3631395941199813E+01
N    4.8549034670105327E+00    8.3319337837618672E+00    1.5586341437704792E+01
Ga    4.6697817942027218E+00    1.0100666599017028E+01    1.6497561736229372E+01
O    3.6499457170378558E-01    3.8543235410818251E+00   -4.7420639174418466E-01
H    6.6628540857219121E-01    4.8174116079288263E+00   -5.9609530901340535E-01
C    1.4399386376935583E+00    2.9629810230014377E+00   -9.3257208662765689E-01
H    2.2611567355864124E+00    2.9318653600116376E+00   -2.0058144989111229E-01
H    9.9890743184727948E-01    1.9664821052644865E+00   -1.0411876588324585E+00
H    1.7926350452835003E+00    3.3268440396038521E+00   -1.9045567483565282E+00
Ga    3.2015012427918896E+00    5.5707355241447640E+00    2.9083208131758034E+00
O    1.0618431461138165E+00    6.3736405409659644E+00   -7.5681839267465101E-01
H    9.6137787550497518E-03    7.3906662279665607E+00    1.6568007159006650E+00
C    1.2427324962595194E+00    6.8874395991086512E+00   -1.8664524236050446E+00
H    1.5046549459436389E+00    7.9570903003625384E+00   -1.9566478180425650E+00
H    6.4487385110674644E+00    7.4040339237269706E+00    1.6374463039690703E+00
H    1.1620738400034147E+00    6.2944136476834203E+00   -2.7981972818321190E+00
     &END COORD
     &KIND C
       BASIS_SET DZVP-MOLOPT-SR-GTH-q4
       POTENTIAL GTH-PBE-q4
       &POTENTIAL
2 2
0.3384712400000000E+00 2 -0.8803673979999999E+01  0.1339210850000000E+01
2
0.3025757500000000E+00 1  0.9622486650000001E+01
0.2915069400000000E+00 0
       &END POTENTIAL
     &END KIND
     &KIND O
       BASIS_SET DZVP-MOLOPT-SR-GTH-q6
       POTENTIAL GTH-PBE-q6
       &POTENTIAL
2 4
0.2445543000000000E+00 2 -0.1666721480000000E+02  0.2487311320000000E+01
2
0.2209559200000000E+00 1  0.1833745811000000E+02
0.2113324700000000E+00 0
       &END POTENTIAL
     &END KIND
     &KIND H
       BASIS_SET DZVP-MOLOPT-SR-GTH-q1
       POTENTIAL GTH-PBE-q1
       &POTENTIAL
1
0.2000000000000000E+00 2 -0.4178900440000000E+01  0.7244633100000000E+00
0
       &END POTENTIAL
     &END KIND
     &KIND N
       BASIS_SET DZVP-MOLOPT-SR-GTH
       POTENTIAL GTH-PBE-q5
       &POTENTIAL
2 3
0.2837905100000000E+00 2 -0.1241522559000000E+02  0.1868095920000000E+01
2
0.2554050000000000E+00 1  0.1363026257000000E+02
0.2454945300000000E+00 0
       &END POTENTIAL
     &END KIND
     &KIND Ga
       BASIS_SET DZVP-MOLOPT-SR-GTH
       POTENTIAL GTH-PBE-q13
       &POTENTIAL
2 1 10
0.4900000000000000E+00 0
3
0.4167772300000000E+00 3  0.1047568975000000E+02 -0.4921768140000000E+01  0.8707055900000000E+00
0.7770178090000000E+01 -0.2248152160000000E+01
0.1784415450000000E+01
0.5696265200000000E+00 2  0.1777985340000000E+01  0.1958597600000000E+00
-0.2317443900000000E+00
0.2381265000000000E+00 1 -0.1624868022000000E+02
       &END POTENTIAL
     &END KIND
     &TOPOLOGY
       NUMBER_OF_ATOMS  212
       MULTIPLE_UNIT_CELL  1 1 1
     &END TOPOLOGY
     &COLVAR
       &DISTANCE
         ATOMS  127 211
       &END DISTANCE
       &PRINT
       &END PRINT
     &END COLVAR
   &END SUBSYS
 &END FORCE_EVAL
