 # Version information for this restart file 
 # current date 2019-07-19 07:40:58.987
 # current working dir /lustre04/scratch/rzk/rzk/GaN-carbene/443-adatoms-both-2x2/09-BondBreaking-CH/02-0401-CH-to-NTop-PES/Phase04-OptimizeAdjustedIntermed909
 # Program compiled at                              Sun Apr  7 00:48:11 EDT 2019
 # Program compiled on                          beluga2.int.ets1.calculquebec.ca
 # Program compiled for                        Beluga-Linux-x86-64-intel-openmpi
 # Source code revision number                                         svn:18619
 &GLOBAL
   PRINT_LEVEL  MEDIUM
   PROJECT_NAME TEST
   RUN_TYPE  GEO_OPT
 &END GLOBAL
 &MOTION
   &GEO_OPT
     MAX_ITER  500
     STEP_START_VAL  181
   &END GEO_OPT
 &END MOTION
 &FORCE_EVAL
   METHOD  QS
   STRESS_TENSOR  ANALYTICAL
   &DFT
     BASIS_SET_FILE_NAME BASIS_MOLOPT
     POTENTIAL_FILE_NAME GTH_POTENTIALS
     UKS  T
     SURFACE_DIPOLE_CORRECTION  T
     SURF_DIP_DIR  Z
     &SCF
       MAX_SCF  80
       EPS_SCF     5.0000000000000004E-06
       &OT  T
         PRECONDITIONER  FULL_ALL
       &END OT
       &OUTER_SCF  T
         OPTIMIZER  NONE
         EPS_SCF     5.0000000000000004E-06
         MAX_SCF  4
       &END OUTER_SCF
       &PRINT
         &RESTART  OFF
           BACKUP_COPIES  1
           &EACH
             JUST_ENERGY  0
             QS_SCF  0
             MD  20
           &END EACH
         &END RESTART
       &END PRINT
     &END SCF
     &QS
       EPS_DEFAULT     1.0000000000000000E-14
       METHOD  GPW
     &END QS
     &MGRID
       NGRIDS  5
       CUTOFF     1.2000000000000000E+03
     &END MGRID
     &XC
       DENSITY_CUTOFF     1.0000000000000000E-10
       GRADIENT_CUTOFF     1.0000000000000000E-10
       TAU_CUTOFF     1.0000000000000000E-10
       &XC_FUNCTIONAL  NO_SHORTCUT
         &PBE  T
         &END PBE
       &END XC_FUNCTIONAL
       &VDW_POTENTIAL
         POTENTIAL_TYPE  PAIR_POTENTIAL
         &PAIR_POTENTIAL
           R_CUTOFF     1.0000000000000009E+01
           TYPE  DFTD3
           PARAMETER_FILE_NAME dftd3.dat
           REFERENCE_FUNCTIONAL PBE
           EPS_CN     9.9999999999999995E-07
           CALCULATE_C9_TERM  T
           REFERENCE_C9_TERM  T
           LONG_RANGE_CORRECTION  F
           VERBOSE_OUTPUT  F
         &END PAIR_POTENTIAL
       &END VDW_POTENTIAL
     &END XC
   &END DFT
   &SUBSYS
     &CELL
       A     1.2864472766435110E+01    0.0000000000000000E+00    0.0000000000000000E+00
       B    -6.4322363581020028E+00    1.1140960178524477E+01    0.0000000000000000E+00
       C     0.0000000000000000E+00    0.0000000000000000E+00    3.2000000000000000E+01
       MULTIPLE_UNIT_CELL  1 1 1
       &CELL_REF
         A     1.2982353780853531E+01    0.0000000000000000E+00    0.0000000000000000E+00
         B    -6.4911768904267628E+00    1.1243048175136114E+01    0.0000000000000000E+00
         C     0.0000000000000000E+00    0.0000000000000000E+00    3.2000000000000000E+01
         MULTIPLE_UNIT_CELL  1 1 1
       &END CELL_REF
     &END CELL
     &COORD
N   -2.9788165261352560E-02    1.9361030591465782E+00    2.4682241641197842E+00
Ga   -3.7794267316695010E-02   -3.0299408437962957E-02    2.7808424504826674E+00
N   -2.7340251650395293E-02   -6.3460721561389738E-02    4.9871373239215009E+00
Ga   -2.1565287203621258E-02    1.7646408065739785E+00    5.7566177314396834E+00
N   -2.1041462966449785E-02    1.7806643112457521E+00    7.7643970251925873E+00
Ga   -1.9959111045461598E-02   -6.4198968979859064E-02    8.4046282101007623E+00
N   -1.9535432095227095E-02   -6.5551374444865321E-02    1.0381703206955116E+01
Ga   -1.9519101625447371E-02    1.7750489895991521E+00    1.1028287761365592E+01
N   -1.9029850441748809E-02    1.7554569047727280E+00    1.3024805670790190E+01
Ga   -1.8868898601515527E-02   -6.4969204080498000E-02    1.3824242562476687E+01
N   -1.9748648037917815E-02   -6.6551027636173737E-02    1.6029976014486323E+01
Ga   -1.8452128241082156E-02    1.9714471722562277E+00    1.6436038629868676E+01
Ga   -4.7959641621466771E-02    3.6321233654358696E+00    1.2851486656656532E+00
N   -1.5078438038065332E+00    4.5117189516202059E+00    2.4741415029824063E+00
Ga   -1.6938572424559637E+00    2.6774134798334179E+00    3.2405134782105267E+00
N   -1.6310494205593626E+00    2.7240846448596696E+00    5.2249125941142909E+00
Ga   -1.6530322384225482E+00    4.5890230455610030E+00    5.7663866011627505E+00
N   -1.6367751327427509E+00    4.5866601944620182E+00    7.7661258589028694E+00
Ga   -1.6171431334044759E+00    2.7266988319281706E+00    8.3997297958196064E+00
N   -1.6172182656166139E+00    2.7277684347380307E+00    1.0396784106375859E+01
Ga   -1.6429030502762922E+00    4.5858903835815541E+00    1.1031128125873780E+01
N   -1.6595238474584306E+00    4.5961781876648358E+00    1.3026676855397319E+01
Ga   -1.6158330125587386E+00    2.7266827852835296E+00    1.3579408919192224E+01
N   -1.6429708137857924E+00    2.7103916875908030E+00    1.5544311697422525E+01
Ga   -1.4712180048778758E+00    4.4870640500948058E+00    1.6436795831844478E+01
N   -2.6459172055883683E-02    3.6439414627207936E+00    1.7569521434026548E+01
N   -3.2406772866988680E+00    7.4701761969039522E+00    2.4668275701616729E+00
Ga   -3.1945113128540754E+00    5.5010732451857143E+00    2.8145535475801315E+00
N   -3.2379037222825691E+00    5.5025055886980958E+00    4.9946532411741336E+00
Ga   -3.2361605762039662E+00    7.3288572510331651E+00    5.7579990631488966E+00
N   -3.2372604506504046E+00    7.3553833800480088E+00    7.7547515282130144E+00
Ga   -3.2342358835305594E+00    5.5093100609420800E+00    8.4087441626392820E+00
N   -3.2362347653192507E+00    5.5077333068542149E+00    1.0383103570624801E+01
Ga   -3.2362720127776607E+00    7.3463439939333472E+00    1.1032455323100436E+01
N   -3.2354662699550767E+00    7.3265516904301320E+00    1.3026529516873888E+01
Ga   -3.2361106019731185E+00    5.5060779205235493E+00    1.3827218812645725E+01
N   -3.2369050178946042E+00    5.5051568855179944E+00    1.6030599111810044E+01
Ga   -3.2349676430829533E+00    7.5456179307578255E+00    1.6440314899133231E+01
Ga   -3.2317489566813049E+00    9.2765775769920573E+00    1.2060991431147250E+00
N   -4.7591229999351690E+00    1.0094835903699408E+01    2.4599289093793346E+00
Ga   -4.8432944404846046E+00    8.3055238676672865E+00    3.2487604628027222E+00
N   -4.8558766052189561E+00    8.2852406675104131E+00    5.1979573199379043E+00
Ga   -4.8762377149122340E+00    1.0173177907756276E+01    5.7513366799367249E+00
N   -4.8546012607448423E+00    1.0151399213159831E+01    7.7544356225043432E+00
Ga   -4.8329964178843623E+00    8.3010925230587151E+00    8.4017586087386125E+00
N   -4.8334515911760958E+00    8.2971438819713530E+00    1.0394645482863970E+01
Ga   -4.8585382916901549E+00    1.0157332859651094E+01    1.1029567218177391E+01
N   -4.8744600809125354E+00    1.0165889271561687E+01    1.3024757306628699E+01
Ga   -4.8318175746746546E+00    8.2983744675607696E+00    1.3581970852508881E+01
N   -4.8597383842051656E+00    8.2814608564387626E+00    1.5545044714714463E+01
Ga   -4.6845084321415689E+00    1.0056673821283436E+01    1.6439594698117560E+01
N   -3.2422005917851329E+00    9.2155636619897727E+00    1.7574353402058350E+01
N    3.1804347015970160E+00    1.7941203997708699E+00    2.5875411273359363E+00
Ga    3.1847980712182964E+00    2.6499448202516051E-02    3.2074910616513530E+00
N    3.1939203153951050E+00   -6.9689967053507718E-02    5.1978739188499095E+00
Ga    3.1843003724143220E+00    1.7858523081699207E+00    5.8233724341483342E+00
N    3.1959834648057033E+00    1.7909938848409395E+00    7.8076890804232617E+00
Ga    3.1950196615059396E+00   -7.5838012919599504E-02    8.3926792401387118E+00
N    3.1958855048729311E+00   -7.8182568897898513E-02    1.0390560550224489E+01
Ga    3.1947336214530138E+00    1.7906024419338940E+00    1.0985973049491975E+01
N    3.1967125277163677E+00    1.7914296144959179E+00    1.2959655565356352E+01
Ga    3.1970704548101594E+00   -7.7569531060847768E-02    1.3580297427714578E+01
N    3.1984497115798658E+00   -4.6407446583589654E-02    1.5542379144962650E+01
Ga    3.1973439712761262E+00    1.7913765018254142E+00    1.5819970090133001E+01
N    1.4718339393662387E+00    4.5172129578491802E+00    2.4777995889865987E+00
Ga    1.6454743183499936E+00    2.6786159679333537E+00    3.2212684810671588E+00
N    1.5865886583721867E+00    2.7194921782115142E+00    5.2134838433817237E+00
Ga    1.6099775192785402E+00    4.5814891970739939E+00    5.7666946283947667E+00
N    1.5954754757095657E+00    4.5841935361321902E+00    7.7655766738094334E+00
Ga    1.5777975622576561E+00    2.7235181350291167E+00    8.3962066698486559E+00
N    1.5777370841625156E+00    2.7267632525016730E+00    1.0393904906762367E+01
Ga    1.6032779574790283E+00    4.5847636461065937E+00    1.1029720421602203E+01
N    1.6208709856854819E+00    4.5953763691529774E+00    1.3025153826022986E+01
Ga    1.5780456058300563E+00    2.7266183343954418E+00    1.3579201124002129E+01
N    1.6058177488710783E+00    2.7119918949473054E+00    1.5542661723872733E+01
Ga    1.4271433990724594E+00    4.4828217721183607E+00    1.6437415902683906E+01
N   -1.6403231548718849E-02    7.3649684082327962E+00    2.6390939833287073E+00
Ga   -1.4926230313618664E-02    5.5078706252992200E+00    3.2709305083198386E+00
N   -2.0183266686005102E-02    5.5244399504799437E+00    5.2179515181590332E+00
Ga   -1.8375915850348781E-02    7.3664391287029654E+00    5.8502170433150287E+00
N   -2.0621289726763355E-02    7.3651107007984615E+00    7.8180897909737412E+00
Ga   -2.0234023012746401E-02    5.4949295730820795E+00    8.4046820589415958E+00
N   -1.9817273108206780E-02    5.4940569154672634E+00    1.0397921483222015E+01
Ga   -2.0720757415052873E-02    7.3628408010975779E+00    1.0988730631465154E+01
N   -1.9682252254558660E-02    7.3628213579548634E+00    1.2961409539600412E+01
Ga   -1.8579451973321792E-02    5.4924918967058494E+00    1.3579955454619549E+01
N   -1.7100482598385324E-02    5.5235784817963358E+00    1.5543295077038563E+01
Ga   -1.9569198885283169E-02    7.3620377872250051E+00    1.5820379898742491E+01
N   -1.7239123025743037E+00    1.0092519477638270E+01    2.4732485373415951E+00
Ga   -1.6241290238785571E+00    8.2891130814348681E+00    3.2434867204092557E+00
N   -1.6185183957088511E+00    8.2836646499235673E+00    5.1960191137215475E+00
Ga   -1.6064983449111379E+00    1.0166883533562213E+01    5.7533929417682304E+00
N   -1.6196832691230345E+00    1.0151086634627170E+01    7.7549094228797459E+00
Ga   -1.6393934535116395E+00    8.2995062924044678E+00    8.4015881824704461E+00
N   -1.6398098026904138E+00    8.2974055042432120E+00    1.0394697550624809E+01
Ga   -1.6143568983223404E+00    1.0157112958123147E+01    1.1029665437784415E+01
N   -1.5961704080386203E+00    1.0166148082625611E+01    1.3024395946486072E+01
Ga   -1.6383744908484501E+00    8.2983938507393837E+00    1.3581128184415476E+01
N   -1.6102487545891342E+00    8.2828816956467950E+00    1.5543240644080992E+01
Ga   -1.7915580369331168E+00    1.0053216869231738E+01    1.6440553920591892E+01
N    6.4133460592123841E+00    1.9095033556958669E+00    2.5107651689929877E+00
Ga    6.4260589810165509E+00   -9.0054051026714724E-02    2.8256063791783865E+00
N    6.4140380609064609E+00   -6.2475558345359845E-02    4.9954089700771922E+00
Ga    6.4115112772353875E+00    1.7605484752414655E+00    5.7709107678417588E+00
N    6.4119423553131343E+00    1.7813956746828057E+00    7.7679538425108854E+00
Ga    6.4107822334915010E+00   -6.7139530734264083E-02    8.4061417948882511E+00
N    6.4116523566815129E+00   -6.5381321879284790E-02    1.0382139307955716E+01
Ga    6.4113958058934299E+00    1.7746091539773088E+00    1.1030811114126520E+01
N    6.4127315160554543E+00    1.7555981850731375E+00    1.3025952116301207E+01
Ga    6.4117566550726188E+00   -6.4542084998745225E-02    1.3825872396930965E+01
N    6.4113463383487561E+00   -6.5735874804996680E-02    1.6030223785601240E+01
Ga    6.4134738688600352E+00    1.9738220557204085E+00    1.6439005661849400E+01
Ga    6.4101143271462560E+00    3.6112687369586665E+00    1.5012685564636032E+00
N    4.9168720891856195E+00    4.5195083505230214E+00    2.4987463020213680E+00
Ga    4.6853379050254969E+00    2.6491018436802727E+00    3.2653174671906999E+00
N    4.8049077304843522E+00    2.7214019421569069E+00    5.2245414681211253E+00
Ga    4.7723413144121638E+00    4.5870054969995850E+00    5.7810926995499496E+00
N    4.7975295592533627E+00    4.5837185817175756E+00    7.7701546801861445E+00
Ga    4.8107350693009998E+00    2.7220170797362342E+00    8.4016351695384337E+00
N    4.8139845352609942E+00    2.7266145905140236E+00    1.0396273598636107E+01
Ga    4.7883613352421781E+00    4.5852368482196910E+00    1.1031776273921400E+01
N    4.7733431832280537E+00    4.5954234905453868E+00    1.3026373047722668E+01
Ga    4.8157631804813752E+00    2.7265743941272969E+00    1.3580889216673905E+01
N    4.7882850757510029E+00    2.7107606018301986E+00    1.5544593436387760E+01
Ga    4.9634254857757991E+00    4.4859611120562546E+00    1.6439443863195685E+01
N    6.4060339949593796E+00    3.6440201851791780E+00    1.7574543119442946E+01
N    3.1892949196055169E+00    7.4492975023831818E+00    2.4530968175848091E+00
N    3.1991083119077874E+00    5.4973703259100430E+00    5.0105281468883911E+00
Ga    3.1947012296006778E+00    7.3298141108383161E+00    5.7617574362884421E+00
N    3.1964413656938278E+00    7.3541833667829026E+00    7.7582767803110944E+00
Ga    3.1936603793920160E+00    5.5070914238340887E+00    8.4080225302918841E+00
N    3.1964054310367778E+00    5.5067024401888274E+00    1.0382620182572291E+01
Ga    3.1957756140378741E+00    7.3447083388450354E+00    1.1033842552667108E+01
N    3.1969218403172612E+00    7.3257297325265940E+00    1.3027756396271359E+01
Ga    3.1968619258448423E+00    5.5046502040494172E+00    1.3827214327796428E+01
N    3.1962957770310960E+00    5.5041698625453597E+00    1.6030845963160154E+01
Ga    3.1977325031128818E+00    7.5434476977988654E+00    1.6437550901601504E+01
Ga    3.1846179878351295E+00    9.4174272380870860E+00    1.2238269259524759E+00
N    1.7092685944490684E+00    1.0099494542143159E+01    2.4876144555299238E+00
Ga    1.6018301327932922E+00    8.2868652498180921E+00    3.2412132357466730E+00
N    1.5782996020245386E+00    8.2835458315958554E+00    5.1993389948529076E+00
Ga    1.5625119177426545E+00    1.0162636925396772E+01    5.7631951895975613E+00
N    1.5771653820177076E+00    1.0150045167471855E+01    7.7628207398467390E+00
Ga    1.5982520626240819E+00    8.2981838361001348E+00    8.4045118069538596E+00
N    1.5993262646763764E+00    8.2965191371713498E+00    1.0397398264399156E+01
Ga    1.5734710759145860E+00    1.0157058027255394E+01    1.1030441997219809E+01
N    1.5568229338511728E+00    1.0166358516262985E+01    1.3025952793065054E+01
Ga    1.5998380338181351E+00    8.2978203422691656E+00    1.3581109244516080E+01
N    1.5725803054667131E+00    8.2807748061516957E+00    1.5545429490387692E+01
Ga    1.7457629956198430E+00    1.0057630996952563E+01    1.6437437952761094E+01
N    3.1896849127924636E+00    9.2153007290213012E+00    1.7569942892353676E+01
N    9.6385328829518553E+00    1.7919713729240812E+00    2.6062795019276384E+00
Ga    9.6291155659537662E+00    3.7182314252387293E-02    3.2665877675154711E+00
N    9.6282587653612897E+00   -6.2484536653214517E-02    5.2359594890693728E+00
Ga    9.6356969112741258E+00    1.7947357002863824E+00    5.8422659012100562E+00
N    9.6266634976535546E+00    1.7948337202180382E+00    7.8207716148285407E+00
Ga    9.6278587090134398E+00   -7.5455095257931856E-02    8.3961257729966619E+00
N    9.6280889499979843E+00   -7.7704763020061338E-02    1.0393695072258184E+01
Ga    9.6285067519538536E+00    1.7918069384911919E+00    1.0986223409366257E+01
N    9.6288982006129409E+00    1.7920744037648046E+00    1.2960212229746764E+01
Ga    9.6295803189766733E+00   -7.7171488556701098E-02    1.3579722090473336E+01
N    9.6313477896548338E+00   -4.6488574513863998E-02    1.5542982951549186E+01
Ga    9.6290636445649085E+00    1.7919168653816475E+00    1.5820218485689356E+01
N    7.9074421080572339E+00    4.5255975723554434E+00    2.4913757533970373E+00
Ga    8.1351879871189663E+00    2.6576299883678369E+00    3.2715099435101247E+00
N    8.0171338245716370E+00    2.7263567556286263E+00    5.2299654505514619E+00
Ga    8.0540225381404404E+00    4.5939886623638531E+00    5.7774949653312566E+00
N    8.0272938385641268E+00    4.5866655783865609E+00    7.7687910043187145E+00
Ga    8.0102935473310488E+00    2.7258995623264983E+00    8.4047571986786860E+00
N    8.0083808645871528E+00    2.7282147151746372E+00    1.0398380787338018E+01
Ga    8.0359510457666996E+00    4.5865998369237317E+00    1.1032616692631498E+01
N    8.0527786137706610E+00    4.5960922137618212E+00    1.3026502563933782E+01
Ga    8.0101794080172137E+00    2.7270778217883356E+00    1.3580438370225464E+01
N    8.0383439258294640E+00    2.7123351646602987E+00    1.5542778814090301E+01
Ga    7.8572855138267430E+00    4.4824176068786743E+00    1.6440355953747055E+01
N    6.4048660610512238E+00    7.3787601679824251E+00    2.6424338491933690E+00
Ga    6.4104451036366630E+00    5.5528988387535341E+00    3.3023629974516742E+00
N    6.4110199328495403E+00    5.5238799880370966E+00    5.2261077710161610E+00
Ga    6.4064006173866481E+00    7.3795540646088211E+00    5.8537060525879552E+00
N    6.4105604234719813E+00    7.3655295508950562E+00    7.8173394102963680E+00
Ga    6.4120485458256615E+00    5.4966781942139109E+00    8.4095860625633652E+00
N    6.4120368012236391E+00    5.4946394088292960E+00    1.0399419179974517E+01
Ga    6.4121786159684264E+00    7.3638947192183988E+00    1.0990684181047110E+01
N    6.4132793250265303E+00    7.3629144952405392E+00    1.2962263320048807E+01
Ga    6.4131863650983636E+00    5.4926422658036023E+00    1.3581609506708196E+01
N    6.4146609068541336E+00    5.5242422622748570E+00    1.5543350614619175E+01
Ga    6.4138026418558951E+00    7.3618012753376929E+00    1.5820481288294342E+01
N    4.6719096368525435E+00    1.0095595547000656E+01    2.4472623226555608E+00
Ga    4.7709340249638750E+00    8.2953856382432090E+00    3.2332129852359741E+00
N    4.8098855655106183E+00    8.2863996776007607E+00    5.1902146646002114E+00
Ga    4.8331772541741733E+00    1.0167657467821558E+01    5.7622227602651792E+00
N    4.8138044525058312E+00    1.0149435301694577E+01    7.7626937250535635E+00
Ga    4.7912471599504345E+00    8.2996864096390297E+00    8.4069379364317385E+00
N    4.7925801612632606E+00    8.2966636724485792E+00    1.0398186537605298E+01
Ga    4.8190253394117626E+00    1.0157858548482247E+01    1.1029971241033707E+01
N    4.8365547864852898E+00    1.0166136840163231E+01    1.3025024104672079E+01
Ga    4.7942176147196998E+00    8.2982352757161877E+00    1.3581010817006758E+01
N    4.8224735092760938E+00    8.2826035842497099E+00    1.5543741051084631E+01
Ga    4.6424543137569918E+00    1.0053421565433847E+01    1.6438017092777624E+01
O   -1.6590147499637473E-02    3.8107321758099908E+00   -5.1687135365436110E-01
H    2.3992947211602220E+00    7.0276144829872482E+00    4.5206505266136060E-01
C    1.2695598601816858E+00    3.7566445368491768E+00   -1.1537023981330210E+00
H    2.0424911629284743E+00    4.3166825627311107E+00   -5.9995387517157350E-01
H    1.6161091516185249E+00    2.7181879488412299E+00   -1.2796955607194509E+00
H    1.1644057027364494E+00    4.2177497545293363E+00   -2.1469975349446928E+00
Ga    3.1539649766222828E+00    5.5021477827402370E+00    2.8619971275570304E+00
O    1.9880541467321660E+00    7.4758031829534328E+00   -3.2022049356632665E-01
H    4.8953394991939729E-03    7.3557398656490687E+00    1.6096370097196013E+00
C    2.7865005009551989E+00    8.6401325631981560E+00   -5.7455405872203835E-01
H    2.1858091630829453E+00    9.3412154824728511E+00   -1.1667654685679518E+00
H    6.4111032593475619E+00    7.3559518477793935E+00    1.6157826669394708E+00
H    3.7111489981316566E+00    8.4049826943523840E+00   -1.1239428374571783E+00
     &END COORD
     &KIND C
       BASIS_SET DZVP-MOLOPT-SR-GTH-q4
       POTENTIAL GTH-PBE-q4
       &POTENTIAL
2 2
0.3384712400000000E+00 2 -0.8803673979999999E+01  0.1339210850000000E+01
2
0.3025757500000000E+00 1  0.9622486650000001E+01
0.2915069400000000E+00 0
       &END POTENTIAL
     &END KIND
     &KIND O
       BASIS_SET DZVP-MOLOPT-SR-GTH-q6
       POTENTIAL GTH-PBE-q6
       &POTENTIAL
2 4
0.2445543000000000E+00 2 -0.1666721480000000E+02  0.2487311320000000E+01
2
0.2209559200000000E+00 1  0.1833745811000000E+02
0.2113324700000000E+00 0
       &END POTENTIAL
     &END KIND
     &KIND H
       BASIS_SET DZVP-MOLOPT-SR-GTH-q1
       POTENTIAL GTH-PBE-q1
       &POTENTIAL
1
0.2000000000000000E+00 2 -0.4178900440000000E+01  0.7244633100000000E+00
0
       &END POTENTIAL
     &END KIND
     &KIND N
       BASIS_SET DZVP-MOLOPT-SR-GTH
       POTENTIAL GTH-PBE-q5
       &POTENTIAL
2 3
0.2837905100000000E+00 2 -0.1241522559000000E+02  0.1868095920000000E+01
2
0.2554050000000000E+00 1  0.1363026257000000E+02
0.2454945300000000E+00 0
       &END POTENTIAL
     &END KIND
     &KIND Ga
       BASIS_SET DZVP-MOLOPT-SR-GTH
       POTENTIAL GTH-PBE-q13
       &POTENTIAL
2 1 10
0.4900000000000000E+00 0
3
0.4167772300000000E+00 3  0.1047568975000000E+02 -0.4921768140000000E+01  0.8707055900000000E+00
0.7770178090000000E+01 -0.2248152160000000E+01
0.1784415450000000E+01
0.5696265200000000E+00 2  0.1777985340000000E+01  0.1958597600000000E+00
-0.2317443900000000E+00
0.2381265000000000E+00 1 -0.1624868022000000E+02
       &END POTENTIAL
     &END KIND
     &TOPOLOGY
       NUMBER_OF_ATOMS  212
       MULTIPLE_UNIT_CELL  1 1 1
     &END TOPOLOGY
     &COLVAR
       &DISTANCE
         ATOMS  127 211
       &END DISTANCE
       &PRINT
       &END PRINT
     &END COLVAR
   &END SUBSYS
 &END FORCE_EVAL
