 # Version information for this restart file 
 # current date 2019-07-18 23:29:48.075
 # current working dir /lustre04/scratch/rzk/rzk/GaN-carbene/443-adatoms-both-2x2/09-BondBreaking-CH/02-0401-CH-to-NTop-PES/Phase04-OptimizeAdjustedIntermed909
 # Program compiled at                              Sun Apr  7 00:48:11 EDT 2019
 # Program compiled on                          beluga2.int.ets1.calculquebec.ca
 # Program compiled for                        Beluga-Linux-x86-64-intel-openmpi
 # Source code revision number                                         svn:18619
 &GLOBAL
   PRINT_LEVEL  MEDIUM
   PROJECT_NAME TEST
   RUN_TYPE  GEO_OPT
 &END GLOBAL
 &MOTION
   &GEO_OPT
     MAX_ITER  500
     STEP_START_VAL  27
   &END GEO_OPT
 &END MOTION
 &FORCE_EVAL
   METHOD  QS
   STRESS_TENSOR  ANALYTICAL
   &DFT
     BASIS_SET_FILE_NAME BASIS_MOLOPT
     POTENTIAL_FILE_NAME GTH_POTENTIALS
     UKS  T
     SURFACE_DIPOLE_CORRECTION  T
     SURF_DIP_DIR  Z
     &SCF
       MAX_SCF  80
       EPS_SCF     5.0000000000000004E-06
       &OT  T
         PRECONDITIONER  FULL_ALL
       &END OT
       &OUTER_SCF  T
         OPTIMIZER  NONE
         EPS_SCF     5.0000000000000004E-06
         MAX_SCF  4
       &END OUTER_SCF
       &PRINT
         &RESTART  OFF
           BACKUP_COPIES  1
           &EACH
             JUST_ENERGY  0
             QS_SCF  0
             MD  20
           &END EACH
         &END RESTART
       &END PRINT
     &END SCF
     &QS
       EPS_DEFAULT     1.0000000000000000E-14
       METHOD  GPW
     &END QS
     &MGRID
       NGRIDS  5
       CUTOFF     1.2000000000000000E+03
     &END MGRID
     &XC
       DENSITY_CUTOFF     1.0000000000000000E-10
       GRADIENT_CUTOFF     1.0000000000000000E-10
       TAU_CUTOFF     1.0000000000000000E-10
       &XC_FUNCTIONAL  NO_SHORTCUT
         &PBE  T
         &END PBE
       &END XC_FUNCTIONAL
       &VDW_POTENTIAL
         POTENTIAL_TYPE  PAIR_POTENTIAL
         &PAIR_POTENTIAL
           R_CUTOFF     1.0000000000000009E+01
           TYPE  DFTD3
           PARAMETER_FILE_NAME dftd3.dat
           REFERENCE_FUNCTIONAL PBE
           EPS_CN     9.9999999999999995E-07
           CALCULATE_C9_TERM  T
           REFERENCE_C9_TERM  T
           LONG_RANGE_CORRECTION  F
           VERBOSE_OUTPUT  F
         &END PAIR_POTENTIAL
       &END VDW_POTENTIAL
     &END XC
   &END DFT
   &SUBSYS
     &CELL
       A     1.2864472766435110E+01    0.0000000000000000E+00    0.0000000000000000E+00
       B    -6.4322363581020028E+00    1.1140960178524477E+01    0.0000000000000000E+00
       C     0.0000000000000000E+00    0.0000000000000000E+00    3.2000000000000000E+01
       MULTIPLE_UNIT_CELL  1 1 1
       &CELL_REF
         A     1.2982353780853531E+01    0.0000000000000000E+00    0.0000000000000000E+00
         B    -6.4911768904267628E+00    1.1243048175136114E+01    0.0000000000000000E+00
         C     0.0000000000000000E+00    0.0000000000000000E+00    3.2000000000000000E+01
         MULTIPLE_UNIT_CELL  1 1 1
       &END CELL_REF
     &END CELL
     &COORD
N   -6.8583551275173881E-03    1.9622498762897449E+00    2.5016277547426982E+00
Ga   -1.8646746330484004E-02   -3.0958334673136596E-02    2.8287580999645630E+00
N   -1.3416920172053201E-03   -1.7347147708317929E-02    5.0087041336692621E+00
Ga   -2.8991407957133990E-03    1.8008046173529342E+00    5.7905772227669905E+00
N    9.7569563505970226E-04    1.8272894732408160E+00    7.7864377579743431E+00
Ga   -5.4754879295414269E-04   -2.2608103124862434E-02    8.4151432973581741E+00
N    4.0900730041170969E-03   -1.5581444382722773E-02    1.0392209676774637E+01
Ga    3.6585662316090846E-03    1.8240950279528607E+00    1.1045039358888513E+01
N    5.4115578213898849E-03    1.8080651133277139E+00    1.3041811257649250E+01
Ga    5.8753054604359697E-03   -1.4040507828240121E-02    1.3839696674339997E+01
N    4.3414747293555956E-03   -1.1904807446809143E-02    1.6047008096627994E+01
Ga    5.6602494543547786E-03    2.0180085995734895E+00    1.6447750484282707E+01
Ga   -2.3921041802337315E-02    3.6592195934177161E+00    1.4810552003494240E+00
N   -1.4901928119518157E+00    4.5503715232002460E+00    2.5042158618292691E+00
Ga   -1.7059898240628630E+00    2.6837930192008557E+00    3.2854067480497093E+00
N   -1.6121433616583976E+00    2.7615482627279282E+00    5.2463914098102036E+00
Ga   -1.6388022536899047E+00    4.6261820388162045E+00    5.7990163805692285E+00
N   -1.6161392657106908E+00    4.6293781297716423E+00    7.7869019928442507E+00
Ga   -1.5997151256604829E+00    2.7677145543206687E+00    8.4175748180149519E+00
N   -1.5940725490485004E+00    2.7768186780519222E+00    1.0412044130381245E+01
Ga   -1.6194928376365554E+00    4.6356179992406812E+00    1.1048221861061625E+01
N   -1.6349278924145314E+00    4.6492514067086477E+00    1.3043362711327497E+01
Ga   -1.5913909838560776E+00    2.7798884237398123E+00    1.3595705950771425E+01
N   -1.6176063368541256E+00    2.7673881954269355E+00    1.5563012465872044E+01
Ga   -1.4556434757828025E+00    4.5481823798985372E+00    1.6447695432507469E+01
N   -4.5071877735429998E-03    3.6996673625399490E+00    1.7579018309134938E+01
N   -3.2211853088171662E+00    7.5026990271452680E+00    2.4819576772599152E+00
Ga   -3.2022567781809785E+00    5.5518545918115718E+00    2.8579001494081000E+00
N   -3.2153189222946836E+00    5.5399739510598769E+00    5.0080116629523381E+00
Ga   -3.2160970167320020E+00    7.3732399912224222E+00    5.7734683212757894E+00
N   -3.2140121973041320E+00    7.3990760024482016E+00    7.7671797098497946E+00
Ga   -3.2141527281308298E+00    5.5551530213234681E+00    8.4249339111717934E+00
N   -3.2118389931102036E+00    5.5576065535784531E+00    1.0397021546860552E+01
Ga   -3.2119842507846701E+00    7.3971277115826162E+00    1.1047720214052843E+01
N   -3.2110077043214718E+00    7.3798874892912369E+00    1.3040387366119726E+01
Ga   -3.2128103289652308E+00    5.5610328784218428E+00    1.3842847155936251E+01
N   -3.2140982826763946E+00    5.5621457754174832E+00    1.6047134690634948E+01
Ga   -3.2121330729105737E+00    7.6077263018872179E+00    1.6463779699692896E+01
Ga   -3.2169034492431168E+00    9.3195271257074292E+00    1.1895928662702435E+00
N   -4.7334625564412818E+00    1.0136718251908789E+01    2.4762490616237698E+00
Ga   -4.8212627266740338E+00    8.3449585437246707E+00    3.2580396268655036E+00
N   -4.8345533836154617E+00    8.3271238526486773E+00    5.2086958250625477E+00
Ga   -4.8522480767578102E+00    1.0213620591572822E+01    5.7694290461615489E+00
N   -4.8305292625118961E+00    1.0197668970839159E+01    7.7695157037279561E+00
Ga   -4.8108697478548041E+00    8.3461189938274529E+00    8.4136915887394874E+00
N   -4.8083750732934112E+00    8.3470698003291179E+00    1.0405667282346448E+01
Ga   -4.8347169167220549E+00    1.0207240308778260E+01    1.1043239936182157E+01
N   -4.8500562776117127E+00    1.0219370172881607E+01    1.3037854081651350E+01
Ga   -4.8074771650442356E+00    8.3519830587747421E+00    1.3596954124348928E+01
N   -4.8367139695805594E+00    8.3370602200575625E+00    1.5559106984181494E+01
Ga   -4.6561915498503774E+00    1.0108849321085028E+01    1.6463805610121550E+01
N   -3.2190985476358867E+00    9.2709694982240585E+00    1.7599660201610273E+01
N    3.2002588706974331E+00    1.8353858383201411E+00    2.5863492436517683E+00
Ga    3.2087304442931983E+00    6.0057329438861475E-02    3.2208692087736437E+00
N    3.2146460261177912E+00   -2.3793320179611808E-02    5.2116728124349825E+00
Ga    3.2131791048908607E+00    1.8236509656469526E+00    5.8543313600931279E+00
N    3.2194976416871488E+00    1.8369849696235840E+00    7.8307736710381679E+00
Ga    3.2182800086337902E+00   -3.0860431944927835E-02    8.4133169385465525E+00
N    3.2202934138833599E+00   -2.7413212604918226E-02    1.0407813673005311E+01
Ga    3.2199129760335783E+00    1.8412233631900961E+00    1.1005664315662505E+01
N    3.2206537751959852E+00    1.8459084108260004E+00    1.2977510893221030E+01
Ga    3.2216572636461303E+00   -2.4456990473906100E-02    1.3596948451441213E+01
N    3.2215684180672262E+00    1.0073519986825140E-02    1.5558309368431066E+01
Ga    3.2222568917933021E+00    1.8467312813565366E+00    1.5838126183168800E+01
N    1.4811356582336781E+00    4.5452647203829555E+00    2.5223801640480699E+00
Ga    1.6876487402130047E+00    2.6971518602021498E+00    3.2896466378311362E+00
N    1.6072416029792744E+00    2.7590264501890132E+00    5.2520691750220569E+00
Ga    1.6362916359304820E+00    4.6258910310904566E+00    5.8025113604549512E+00
N    1.6176857394529172E+00    4.6286575641743921E+00    7.7908359008762478E+00
Ga    1.6008996867491525E+00    2.7687070795806172E+00    8.4210646769830042E+00
N    1.6016187460370426E+00    2.7768966266680057E+00    1.0414205047889341E+01
Ga    1.6278044065173729E+00    4.6369325706836406E+00    1.1046296639953113E+01
N    1.6452021283795868E+00    4.6498597171022817E+00    1.3041398328381314E+01
Ga    1.6021041103801912E+00    2.7810045007997957E+00    1.3595764118855197E+01
N    1.6286701437669633E+00    2.7699331392021529E+00    1.5561629742494569E+01
Ga    1.4568849362933580E+00    4.5434492836770231E+00    1.6448238983493415E+01
N   -8.8760963984578483E-03    7.3954403980552543E+00    2.6639888835223688E+00
Ga    4.4355734174756287E-03    5.5697273394971871E+00    3.3345787835991656E+00
N   -2.8606833978748335E-03    5.5616302153580106E+00    5.2591435078306050E+00
Ga    4.8070014283916156E-03    7.4194296509522086E+00    5.8663374823794099E+00
N    2.7916935589140414E-03    7.4117263240914388E+00    7.8316293792979321E+00
Ga    1.6869504141696588E-03    5.5430251656179985E+00    8.4232723504581131E+00
N    3.3543418721612762E-03    5.5439796295173629E+00    1.0414186146036316E+01
Ga    4.1037443239352557E-03    7.4143258136498726E+00    1.1003829278697443E+01
N    4.7520002775776780E-03    7.4162789071100823E+00    1.2975672190574869E+01
Ga    5.4841261056355391E-03    5.5475252112936175E+00    1.3595684042800992E+01
N    6.6441838399913227E-03    5.5784176164588510E+00    1.5561259900919969E+01
Ga    4.1580828093039524E-03    7.4197860667947264E+00    1.5839345933399512E+01
N   -1.7107147643774121E+00    1.0132014537973140E+01    2.4844671591107783E+00
Ga   -1.6154550111749311E+00    8.3358461948750318E+00    3.2582672469737672E+00
N   -1.5997650306702176E+00    8.3262775843823515E+00    5.2111129109648076E+00
Ga   -1.5857055602277623E+00    1.0210215274541888E+01    5.7726762643039207E+00
N   -1.5986704485715932E+00    1.0196632662622447E+01    7.7718240576532276E+00
Ga   -1.6166216886636775E+00    8.3455929003305229E+00    8.4164242990113838E+00
N   -1.6154633712791517E+00    8.3471853588351053E+00    1.0408144471530150E+01
Ga   -1.5885642099610136E+00    1.0207763266200944E+01    1.1043401050025080E+01
N   -1.5714604962067402E+00    1.0219832964694819E+01    1.3037749673453714E+01
Ga   -1.6143483682207906E+00    8.3524855922692396E+00    1.3597156890865543E+01
N   -1.5862461311425380E+00    8.3380275766764083E+00    1.5558541229328403E+01
Ga   -1.7728191952419772E+00    1.0106169593921537E+01    1.6463661745044522E+01
N    6.4255437526326000E+00    1.9471448516081742E+00    2.5185236158056745E+00
Ga    6.4360531232772500E+00   -5.5233258356191847E-02    2.8477495242670368E+00
N    6.4265890423723979E+00   -1.8108432841004145E-02    5.0166293704187703E+00
Ga    6.4289063049750945E+00    1.8013117076709817E+00    5.7880381175813396E+00
N    6.4332876780830492E+00    1.8291941696363068E+00    7.7821203692904994E+00
Ga    6.4364474225043784E+00   -2.2344313360518651E-02    8.4140924298767867E+00
N    6.4368080471617617E+00   -1.5089286389793882E-02    1.0391062863967303E+01
Ga    6.4371078174188199E+00    1.8245779107591982E+00    1.1043595203698912E+01
N    6.4375922386740765E+00    1.8084235586477642E+00    1.3039049356840614E+01
Ga    6.4359835167764610E+00   -1.1994688318278697E-02    1.3841956258225810E+01
N    6.4347253724140892E+00   -9.8057267967742289E-03    1.6044741032415384E+01
Ga    6.4373568735214644E+00    2.0276777439317208E+00    1.6453768381134317E+01
Ga    6.4359721074537299E+00    3.6512831246721991E+00    1.4929446182514312E+00
N    4.9257850981838409E+00    4.5583389093285680E+00    2.5008966089458062E+00
Ga    4.7109875950268201E+00    2.6916022150448078E+00    3.2757119082830775E+00
N    4.8219525377002306E+00    2.7642762621089179E+00    5.2357035862555028E+00
Ga    4.7899574126970483E+00    4.6303687802598938E+00    5.7970524287890646E+00
N    4.8195409032800853E+00    4.6293445060929566E+00    7.7840415320295682E+00
Ga    4.8354134198599725E+00    2.7699958053670226E+00    8.4208602804099915E+00
N    4.8382791496737241E+00    2.7773689171408114E+00    1.0412755012548315E+01
Ga    4.8132451512604426E+00    4.6374750127521054E+00    1.1045266196797400E+01
N    4.7978350095618323E+00    4.6499079087495145E+00    1.3038968176072490E+01
Ga    4.8412608394180721E+00    2.7809757210946255E+00    1.3594830416908250E+01
N    4.8120470428569195E+00    2.7681816291853201E+00    1.5559125498659768E+01
Ga    4.9878191312841729E+00    4.5424445527115829E+00    1.6454699950954918E+01
N    6.4299584130320557E+00    3.6989200760159560E+00    1.7586496427164338E+01
N    3.2084211266396161E+00    7.4716025201155656E+00    2.4731740971227913E+00
N    3.2125182101852836E+00    5.5333209876090059E+00    5.0251349883041057E+00
Ga    3.2143571609444486E+00    7.3749690326759243E+00    5.7604514864420402E+00
N    3.2181231214338646E+00    7.4009157511282790E+00    7.7614894158010577E+00
Ga    3.2182398186531906E+00    5.5578305844879878E+00    8.4216347500415178E+00
N    3.2204207196340602E+00    5.5586120368799676E+00    1.0395577141306436E+01
Ga    3.2207342674630848E+00    7.3980584432111218E+00    1.1044825502672474E+01
N    3.2214533067874558E+00    7.3803978904580969E+00    1.3038567871172495E+01
Ga    3.2223488611197850E+00    5.5606965909549970E+00    1.3839211488659886E+01
N    3.2207878216755104E+00    5.5616434665868102E+00    1.6046089772194673E+01
Ga    3.2210731519157632E+00    7.6017213021014065E+00    1.6454822865944415E+01
Ga    3.1912722076598756E+00    9.2840156627729513E+00    1.0371740289766844E+00
N    1.6850156349346472E+00    1.0129888906959183E+01    2.4519938763841216E+00
Ga    1.6240371480100422E+00    8.3395933536738927E+00    3.2243311009858679E+00
N    1.5959058499164906E+00    8.3244052809048430E+00    5.1921701804277607E+00
Ga    1.5872359711210915E+00    1.0206849849478029E+01    5.7555289927276796E+00
N    1.6020105494132300E+00    1.0196159552918196E+01    7.7627275066265806E+00
Ga    1.6235763751121044E+00    8.3471997132346711E+00    8.4127555760318824E+00
N    1.6233938470543550E+00    8.3475344946913790E+00    1.0406737747849919E+01
Ga    1.5978253810171015E+00    1.0207694245353821E+01    1.1042294702598639E+01
N    1.5812793097259057E+00    1.0220038709934371E+01    1.3037990821923989E+01
Ga    1.6244664357383165E+00    8.3520438989052241E+00    1.3594876400374160E+01
N    1.5966189154330817E+00    8.3362955090523325E+00    1.5559112251668964E+01
Ga    1.7674707037459683E+00    1.0114783457853234E+01    1.6453399687294045E+01
N    3.2114827255279494E+00    9.2728972780871963E+00    1.7586210025991718E+01
N    9.6476254767094325E+00    1.8276458636134849E+00    2.5930188788707969E+00
Ga    9.6409224298256699E+00    3.2471742241816565E-02    3.1708932180621541E+00
N    9.6453021247995583E+00   -2.7313721532793635E-02    5.1886280265731308E+00
Ga    9.6477424996907839E+00    1.8135227696833329E+00    5.8421314720890276E+00
N    9.6485493921805272E+00    1.8353745065107145E+00    7.8230014078226615E+00
Ga    9.6498880403419456E+00   -3.2759684777637361E-02    8.4061238082143976E+00
N    9.6525815481424004E+00   -2.8035469675294248E-02    1.0403478805997233E+01
Ga    9.6521850180263780E+00    1.8403870691671720E+00    1.1001920748257298E+01
N    9.6539319036085907E+00    1.8454147112181665E+00    1.2974934515713437E+01
Ga    9.6540703619160784E+00   -2.4197560514498236E-02    1.3593793510783659E+01
N    9.6559066361510144E+00    9.4144438224246802E-03    1.5556814897450414E+01
Ga    9.6531547351196547E+00    1.8468864948502042E+00    1.5839250775411820E+01
N    7.9261382102250533E+00    4.5608608171972964E+00    2.5124266109024811E+00
Ga    8.1434117134573185E+00    2.6828236237696612E+00    3.2806586419321073E+00
N    8.0364441974193390E+00    2.7641008278116241E+00    5.2381904096235434E+00
Ga    8.0694949024226599E+00    4.6314171365753420E+00    5.7903808468299731E+00
N    8.0504937901005604E+00    4.6311581481329576E+00    7.7785246282115974E+00
Ga    8.0345316151999970E+00    2.7692590499630527E+00    8.4150592142773739E+00
N    8.0341571028114309E+00    2.7775945266110162E+00    1.0408482606783599E+01
Ga    8.0600593031716095E+00    4.6360248460001472E+00    1.1046038727836260E+01
N    8.0773585261470213E+00    4.6491334770767745E+00    1.3039227099890319E+01
Ga    8.0346006658171838E+00    2.7803837082098894E+00    1.3594672711626162E+01
N    8.0634995120732267E+00    2.7689114764304672E+00    1.5558086775470006E+01
Ga    7.8808824464356784E+00    4.5390967197546370E+00    1.6456168592764474E+01
N    6.4290636950667892E+00    7.4127761739592728E+00    2.6486704439210205E+00
Ga    6.4206300534506493E+00    5.5893397966337091E+00    3.3117605819281626E+00
N    6.4291326978706245E+00    5.5640824828030411E+00    5.2358502329394927E+00
Ga    6.4237279521919168E+00    7.4239468877946697E+00    5.8594183012639762E+00
N    6.4334880549632807E+00    7.4117849371480338E+00    7.8244323277481698E+00
Ga    6.4348103961717928E+00    5.5442163365537516E+00    8.4202713640937255E+00
N    6.4371522708189666E+00    5.5447193679567368E+00    1.0409583136578830E+01
Ga    6.4364899724251936E+00    7.4148978996211872E+00    1.1002110112204223E+01
N    6.4373844611292519E+00    7.4169128558325266E+00    1.2973202574291545E+01
Ga    6.4380389746816409E+00    5.5474009795333057E+00    1.3594082615146814E+01
N    6.4383707638608456E+00    5.5800135858816464E+00    1.5556616966197875E+01
Ga    6.4372494829683928E+00    7.4186956812067590E+00    1.5836714995557090E+01
N    4.7276772745660125E+00    1.0131941616743051E+01    2.4419760017324816E+00
Ga    4.7890921929511530E+00    8.3464787457159826E+00    3.2192653567281213E+00
N    4.8311069935053155E+00    8.3257389774945150E+00    5.1875652610347913E+00
Ga    4.8421506007470514E+00    1.0208988034723811E+01    5.7532658046590015E+00
N    4.8337531890578429E+00    1.0196854560266194E+01    7.7608082022027451E+00
Ga    4.8129374182238118E+00    8.3475974593767877E+00    8.4104295685082775E+00
N    4.8172617698120552E+00    8.3478101487860297E+00    1.0403694783354272E+01
Ga    4.8430470401148789E+00    1.0207422503208345E+01    1.1041395726905879E+01
N    4.8612089185137695E+00    1.0219576295828505E+01    1.3036424973470742E+01
Ga    4.8184620595266949E+00    8.3522018675081338E+00    1.3594095958040207E+01
N    4.8451823131332725E+00    8.3388075728635798E+00    1.5556880224256641E+01
Ga    4.6655707174963563E+00    1.0109077707267566E+01    1.6455845698025726E+01
O    5.0664652518994535E-01    3.7030307318081506E+00   -4.6419751611771670E-01
H    7.5761227770645423E-01    4.6822536973353959E+00   -5.8252239730924382E-01
C    1.6907052000186686E+00    2.8476872738491674E+00   -6.6702080776467287E-01
H    2.4766326891203660E+00    3.0852861313839077E+00    6.2798577850964946E-02
H    1.3612633276873303E+00    1.8145413964654333E+00   -5.1005422654746080E-01
H    2.0367181263629761E+00    2.9849272266408637E+00   -1.6977125038243457E+00
Ga    3.1834151399387745E+00    5.5498004023145411E+00    2.8731509373503257E+00
O    7.1516936656568197E-01    6.3015574212418430E+00   -3.9419218402907397E-01
H   -2.6758186378857272E-02    7.3183430410786929E+00    1.6389550592826772E+00
C    1.3387452267530877E+00    7.2594012103944046E+00   -8.8764275238217960E-01
H    1.0167175089365639E+00    8.2992499384553486E+00   -6.9441776127923127E-01
H    6.4478306495840192E+00    7.3868489909696118E+00    1.6223234096300643E+00
H    2.2076734975082077E+00    7.1045360325006381E+00   -1.5529028640285902E+00
     &END COORD
     &KIND C
       BASIS_SET DZVP-MOLOPT-SR-GTH-q4
       POTENTIAL GTH-PBE-q4
       &POTENTIAL
2 2
0.3384712400000000E+00 2 -0.8803673979999999E+01  0.1339210850000000E+01
2
0.3025757500000000E+00 1  0.9622486650000001E+01
0.2915069400000000E+00 0
       &END POTENTIAL
     &END KIND
     &KIND O
       BASIS_SET DZVP-MOLOPT-SR-GTH-q6
       POTENTIAL GTH-PBE-q6
       &POTENTIAL
2 4
0.2445543000000000E+00 2 -0.1666721480000000E+02  0.2487311320000000E+01
2
0.2209559200000000E+00 1  0.1833745811000000E+02
0.2113324700000000E+00 0
       &END POTENTIAL
     &END KIND
     &KIND H
       BASIS_SET DZVP-MOLOPT-SR-GTH-q1
       POTENTIAL GTH-PBE-q1
       &POTENTIAL
1
0.2000000000000000E+00 2 -0.4178900440000000E+01  0.7244633100000000E+00
0
       &END POTENTIAL
     &END KIND
     &KIND N
       BASIS_SET DZVP-MOLOPT-SR-GTH
       POTENTIAL GTH-PBE-q5
       &POTENTIAL
2 3
0.2837905100000000E+00 2 -0.1241522559000000E+02  0.1868095920000000E+01
2
0.2554050000000000E+00 1  0.1363026257000000E+02
0.2454945300000000E+00 0
       &END POTENTIAL
     &END KIND
     &KIND Ga
       BASIS_SET DZVP-MOLOPT-SR-GTH
       POTENTIAL GTH-PBE-q13
       &POTENTIAL
2 1 10
0.4900000000000000E+00 0
3
0.4167772300000000E+00 3  0.1047568975000000E+02 -0.4921768140000000E+01  0.8707055900000000E+00
0.7770178090000000E+01 -0.2248152160000000E+01
0.1784415450000000E+01
0.5696265200000000E+00 2  0.1777985340000000E+01  0.1958597600000000E+00
-0.2317443900000000E+00
0.2381265000000000E+00 1 -0.1624868022000000E+02
       &END POTENTIAL
     &END KIND
     &TOPOLOGY
       NUMBER_OF_ATOMS  212
       MULTIPLE_UNIT_CELL  1 1 1
     &END TOPOLOGY
     &COLVAR
       &DISTANCE
         ATOMS  127 211
       &END DISTANCE
       &PRINT
       &END PRINT
     &END COLVAR
   &END SUBSYS
 &END FORCE_EVAL
