 # Version information for this restart file 
 # current date 2019-07-18 21:44:35.866
 # current working dir /lustre04/scratch/rzk/rzk/GaN-carbene/443-adatoms-both-2x2/09-BondBreaking-CH/02-0401-CH-to-NTop-PES/Phase04-OptimizeAdjustedIntermed909
 # Program compiled at                              Sun Apr  7 00:48:11 EDT 2019
 # Program compiled on                          beluga2.int.ets1.calculquebec.ca
 # Program compiled for                        Beluga-Linux-x86-64-intel-openmpi
 # Source code revision number                                         svn:18619
 &GLOBAL
   PRINT_LEVEL  MEDIUM
   PROJECT_NAME TEST
   RUN_TYPE  GEO_OPT
 &END GLOBAL
 &MOTION
   &GEO_OPT
     MAX_ITER  500
     STEP_START_VAL  7
   &END GEO_OPT
 &END MOTION
 &FORCE_EVAL
   METHOD  QS
   STRESS_TENSOR  ANALYTICAL
   &DFT
     BASIS_SET_FILE_NAME BASIS_MOLOPT
     POTENTIAL_FILE_NAME GTH_POTENTIALS
     UKS  T
     SURFACE_DIPOLE_CORRECTION  T
     SURF_DIP_DIR  Z
     &SCF
       MAX_SCF  80
       EPS_SCF     5.0000000000000004E-06
       &OT  T
         PRECONDITIONER  FULL_ALL
       &END OT
       &OUTER_SCF  T
         OPTIMIZER  NONE
         EPS_SCF     5.0000000000000004E-06
         MAX_SCF  4
       &END OUTER_SCF
       &PRINT
         &RESTART  OFF
           BACKUP_COPIES  1
           &EACH
             JUST_ENERGY  0
             QS_SCF  0
             MD  20
           &END EACH
         &END RESTART
       &END PRINT
     &END SCF
     &QS
       EPS_DEFAULT     1.0000000000000000E-14
       METHOD  GPW
     &END QS
     &MGRID
       NGRIDS  5
       CUTOFF     1.2000000000000000E+03
     &END MGRID
     &XC
       DENSITY_CUTOFF     1.0000000000000000E-10
       GRADIENT_CUTOFF     1.0000000000000000E-10
       TAU_CUTOFF     1.0000000000000000E-10
       &XC_FUNCTIONAL  NO_SHORTCUT
         &PBE  T
         &END PBE
       &END XC_FUNCTIONAL
       &VDW_POTENTIAL
         POTENTIAL_TYPE  PAIR_POTENTIAL
         &PAIR_POTENTIAL
           R_CUTOFF     1.0000000000000009E+01
           TYPE  DFTD3
           PARAMETER_FILE_NAME dftd3.dat
           REFERENCE_FUNCTIONAL PBE
           EPS_CN     9.9999999999999995E-07
           CALCULATE_C9_TERM  T
           REFERENCE_C9_TERM  T
           LONG_RANGE_CORRECTION  F
           VERBOSE_OUTPUT  F
         &END PAIR_POTENTIAL
       &END VDW_POTENTIAL
     &END XC
   &END DFT
   &SUBSYS
     &CELL
       A     1.2864472766435110E+01    0.0000000000000000E+00    0.0000000000000000E+00
       B    -6.4322363581020028E+00    1.1140960178524477E+01    0.0000000000000000E+00
       C     0.0000000000000000E+00    0.0000000000000000E+00    3.2000000000000000E+01
       MULTIPLE_UNIT_CELL  1 1 1
       &CELL_REF
         A     1.2982353780853531E+01    0.0000000000000000E+00    0.0000000000000000E+00
         B    -6.4911768904267628E+00    1.1243048175136114E+01    0.0000000000000000E+00
         C     0.0000000000000000E+00    0.0000000000000000E+00    3.2000000000000000E+01
         MULTIPLE_UNIT_CELL  1 1 1
       &END CELL_REF
     &END CELL
     &COORD
N    9.6265150193606455E-03    1.9828329690185724E+00    2.5125584893072372E+00
Ga   -8.7541072995583479E-04   -6.9451344584785628E-03    2.8649334921458833E+00
N    1.3556574980949325E-02   -5.7393645045014756E-03    5.0307412828151321E+00
Ga    1.1425353920080204E-02    1.8145939967464226E+00    5.8172278099362185E+00
N    1.3567392684072666E-02    1.8340374533640573E+00    7.8079667607964565E+00
Ga    1.1940345131688995E-02   -1.4785362766523482E-02    8.4512432356243288E+00
N    1.3592182714872366E-02   -1.4457629815216035E-02    1.0421781639040166E+01
Ga    1.3532547038685861E-02    1.8242401012639544E+00    1.1082337352850399E+01
N    1.4221965470181641E-02    1.8044530849822074E+00    1.3073302145159980E+01
Ga    1.4492411281378872E-02   -1.7400272093686494E-02    1.3890050780828483E+01
N    1.4334658736945597E-02   -1.9837064897342983E-02    1.6075038407740383E+01
Ga    1.4565521776991852E-02    2.0209649337966678E+00    1.6482751766101885E+01
Ga   -4.3793344641222089E-03    3.6809181615703235E+00    1.5013670587194583E+00
N   -1.4750738076694119E+00    4.5740126450664578E+00    2.5201890212428868E+00
Ga   -1.6911562095178490E+00    2.7053660805264954E+00    3.3041178730436682E+00
N   -1.5987084659421227E+00    2.7725907677352204E+00    5.2628553289190965E+00
Ga   -1.6252938455775636E+00    4.6371391471882655E+00    5.8285787382131575E+00
N   -1.6040966117388706E+00    4.6354884555084057E+00    7.8114975321956122E+00
Ga   -1.5866145415959720E+00    2.7738207831459798E+00    8.4527747138096814E+00
N   -1.5835922704008547E+00    2.7782632735350674E+00    1.0439695195377638E+01
Ga   -1.6106043488396404E+00    4.6371414777114461E+00    1.1085364807713544E+01
N   -1.6269500161681811E+00    4.6469053379493079E+00    1.3075178271064454E+01
Ga   -1.5830652257706554E+00    2.7766907279671003E+00    1.3631133411428678E+01
N   -1.6102237311015537E+00    2.7610992835343517E+00    1.5593007581391943E+01
Ga   -1.4395414207120858E+00    4.5388957689890477E+00    1.6482571178725255E+01
N    1.4212951042009201E-02    3.6995779373274336E+00    1.7605555749915634E+01
N   -3.2038964019318978E+00    7.5185318008669109E+00    2.5014011023287508E+00
Ga   -3.1932206146755511E+00    5.5571037903589779E+00    2.8910447178420848E+00
N   -3.2034313383287598E+00    5.5526999575919822E+00    5.0336707184238243E+00
Ga   -3.2035583762630844E+00    7.3827917414610980E+00    5.8103474638458401E+00
N   -3.2032042814414230E+00    7.4057725364075448E+00    7.7963881552931884E+00
Ga   -3.2030289854008305E+00    5.5600114757274675E+00    8.4607464262550049E+00
N   -3.2027835066520138E+00    5.5591205721654280E+00    1.0426704030291130E+01
Ga   -3.2032390434277076E+00    7.3974025434178001E+00    1.1086094745664317E+01
N   -3.2020689390241870E+00    7.3766435893807598E+00    1.3071074861924455E+01
Ga   -3.2048188530020494E+00    5.5580390107079545E+00    1.3892630248931445E+01
N   -3.2066766727642046E+00    5.5589791236924198E+00    1.6075238153831197E+01
Ga   -3.2037365192221965E+00    7.6101629442445251E+00    1.6500644368658417E+01
Ga   -3.1981013413781461E+00    9.3369418957299377E+00    1.2650542465696148E+00
N   -4.7183436590551944E+00    1.0150983383949695E+01    2.4946753898057406E+00
Ga   -4.8132752644846697E+00    8.3537518739170284E+00    3.2917207246530609E+00
N   -4.8193013892506444E+00    8.3400570220740438E+00    5.2361358484248530E+00
Ga   -4.8389000510928684E+00    1.0225171955917862E+01    5.8041609527303093E+00
N   -4.8186979080354382E+00    1.0203642090175185E+01    7.7961254861677594E+00
Ga   -4.8017158036674532E+00    8.3511312386548191E+00    8.4499259054553679E+00
N   -4.7996548839161370E+00    8.3482872296321258E+00    1.0435024961532815E+01
Ga   -4.8264241547994455E+00    1.0208065242215072E+01    1.1082131360040773E+01
N   -4.8421910841332139E+00    1.0216939813834548E+01    1.3068687528238918E+01
Ga   -4.7992196020868141E+00    8.3485339822208164E+00    1.3632894206449627E+01
N   -4.8270879682956149E+00    8.3318847534600486E+00    1.5586572998525158E+01
Ga   -4.6399432095911477E+00    1.0098003927464811E+01    1.6500875418052150E+01
N   -3.1975724963068015E+00    9.2721326032588784E+00    1.7643332859295235E+01
N    3.2130383908834523E+00    1.8560252937950577E+00    2.5922791798529072E+00
Ga    3.2201828504263377E+00    9.0959357895423948E-02    3.2504083092613549E+00
N    3.2270893636320541E+00   -1.0218645879932159E-02    5.2306982192891969E+00
Ga    3.2261563080734659E+00    1.8389333794350426E+00    5.8853875910079765E+00
N    3.2305449730690192E+00    1.8425175094597110E+00    7.8546987969277167E+00
Ga    3.2291658845795892E+00   -2.5261666054969281E-02    8.4505299273330028E+00
N    3.2297848739389767E+00   -2.6729102968196167E-02    1.0436559749815281E+01
Ga    3.2300975111414263E+00    1.8425166222119864E+00    1.1038516803412362E+01
N    3.2297416779234367E+00    1.8429015608767370E+00    1.3003133313927840E+01
Ga    3.2299177962082459E+00   -2.7185540329681099E-02    1.3631763911513159E+01
N    3.2270655769720999E+00    4.7086728475403726E-03    1.5587545911365840E+01
Ga    3.2335445526494451E+00    1.8406665106957456E+00    1.5871684723955203E+01
N    1.4961224622609268E+00    4.5701645091784995E+00    2.5273950410540587E+00
Ga    1.7050956406012578E+00    2.7192800404759332E+00    3.3069060262928902E+00
N    1.6217742322731123E+00    2.7741989358307659E+00    5.2644258203090519E+00
Ga    1.6494047979237971E+00    4.6405639738046496E+00    5.8281353186860061E+00
N    1.6290941481874333E+00    4.6355166531593746E+00    7.8124201188639519E+00
Ga    1.6116588402868224E+00    2.7753607694670857E+00    8.4539639675187601E+00
N    1.6110434990410927E+00    2.7782102087138298E+00    1.0440212382270948E+01
Ga    1.6375579379834431E+00    4.6368753230789226E+00    1.1086313115389522E+01
N    1.6549950025858859E+00    4.6466235556621278E+00    1.3075844012062081E+01
Ga    1.6116601159961408E+00    2.7762557638428946E+00    1.3631448396753093E+01
N    1.6392836546027616E+00    2.7611498522872573E+00    1.5593126209856614E+01
Ga    1.4678795041150743E+00    4.5384566857576694E+00    1.6482278979585551E+01
N    1.7776484709841577E-02    7.4204612814654398E+00    2.6826872080375392E+00
Ga    1.7172132145018535E-02    5.5899769998913076E+00    3.3549442337930713E+00
N    9.7939178310938579E-03    5.5761228224021133E+00    5.2762348071988106E+00
Ga    1.7261465583583491E-02    7.4307380790490498E+00    5.8996034636546923E+00
N    1.3341832744254324E-02    7.4188278765247082E+00    7.8583264756594611E+00
Ga    1.3270724419644813E-02    5.5479878296905039E+00    8.4578596691038186E+00
N    1.3714108455916148E-02    5.5448388032672806E+00    1.0441667100602755E+01
Ga    1.3817608639636282E-02    7.4150445408263410E+00    1.1039640098540975E+01
N    1.4111579448465727E-02    7.4129084132522269E+00    1.3003789683390092E+01
Ga    1.3953222522901704E-02    5.5444364346061095E+00    1.3631953420312472E+01
N    1.4601351752003234E-02    5.5758342240657175E+00    1.5593483628698015E+01
Ga    1.4558811894252505E-02    7.4164095917889794E+00    1.5872375412628019E+01
N   -1.6973246765409811E+00    1.0147887292628434E+01    2.5018426527819151E+00
Ga   -1.5937276624660757E+00    8.3465062387266631E+00    3.2889258530591268E+00
N   -1.5875464563144501E+00    8.3377828414190791E+00    5.2334498935105920E+00
Ga   -1.5736624409234592E+00    1.0221798381300808E+01    5.8036363245399576E+00
N   -1.5890909790057437E+00    1.0202406895828858E+01    7.7955631395208762E+00
Ga   -1.6066698219017446E+00    8.3521032247133302E+00    8.4540121364540131E+00
N   -1.6062209953728772E+00    8.3487337385768381E+00    1.0437602912129705E+01
Ga   -1.5783083470113435E+00    1.0209015944599310E+01    1.1082223286068468E+01
N   -1.5611966997245192E+00    1.0217462145695871E+01    1.3069384498106945E+01
Ga   -1.6050427782364280E+00    8.3483893190849727E+00    1.3632735121243883E+01
N   -1.5783576840173288E+00    8.3290560770779294E+00    1.5588205193126509E+01
Ga   -1.7608972640582885E+00    1.0101817425760641E+01    1.6499466948266768E+01
N    6.4378815715447031E+00    1.9646536345178713E+00    2.5388037243704722E+00
Ga    6.4523477663501732E+00   -2.6649061183887615E-02    2.8835341818978479E+00
N    6.4403083513893451E+00   -8.4542620369335627E-03    5.0355941920448437E+00
Ga    6.4415516488676596E+00    1.8144159011208774E+00    5.8144426869399091E+00
N    6.4445072613083045E+00    1.8356681170767488E+00    7.8041455029200471E+00
Ga    6.4460079421829235E+00   -1.5215338391449682E-02    8.4472729466015917E+00
N    6.4459117031513502E+00   -1.4368702486074665E-02    1.0418132044555916E+01
Ga    6.4467376005492785E+00    1.8242729799162796E+00    1.1080238702297338E+01
N    6.4466719327345530E+00    1.8048067767841063E+00    1.3068182816260919E+01
Ga    6.4461503184285132E+00   -1.3785347795711410E-02    1.3890209131976976E+01
N    6.4464074184111952E+00   -1.4226261207374774E-02    1.6072166536841987E+01
Ga    6.4465957691122648E+00    2.0342067852061936E+00    1.6497271884050694E+01
Ga    6.4461125273273261E+00    3.6613574490734413E+00    1.5007573283509303E+00
N    4.9410132448621980E+00    4.5744859116172734E+00    2.5165910187961802E+00
Ga    4.7220192834002255E+00    2.7122878161480566E+00    3.2957372493263390E+00
N    4.8328639531434598E+00    2.7766407082821347E+00    5.2530189448895976E+00
Ga    4.8023468212246714E+00    4.6424660854151343E+00    5.8246636176941440E+00
N    4.8293633511938623E+00    4.6356226236848057E+00    7.8081826510083623E+00
Ga    4.8475280390696698E+00    2.7761039057237995E+00    8.4547449774157268E+00
N    4.8489207485913566E+00    2.7785599590785184E+00    1.0439293352272278E+01
Ga    4.8230729181474992E+00    4.6375658365844341E+00    1.1084844329943824E+01
N    4.8067634132979951E+00    4.6464298693917501E+00    1.3070424583077356E+01
Ga    4.8498963256008896E+00    2.7771510440641549E+00    1.3630826842421143E+01
N    4.8205027409119801E+00    2.7641783488005580E+00    1.5586874482257407E+01
Ga    5.0094224683497890E+00    4.5312502619124890E+00    1.6498030500953043E+01
N    6.4464257038670514E+00    3.6943497655108621E+00    1.7639809536500046E+01
N    3.2288781007710323E+00    7.5014417448218964E+00    2.4873806249171295E+00
N    3.2257307293869593E+00    5.5516932631087634E+00    5.0433097468209995E+00
Ga    3.2262564810306151E+00    7.3855814497403243E+00    5.8042651192569661E+00
N    3.2279966291860385E+00    7.4060936622358717E+00    7.7937959232097329E+00
Ga    3.2287308537451254E+00    5.5598303827132964E+00    8.4602385607392989E+00
N    3.2299488468040525E+00    5.5577851440512962E+00    1.0426837421834463E+01
Ga    3.2304719707032055E+00    7.3972184931105360E+00    1.1084858106125459E+01
N    3.2304008450052657E+00    7.3764525874654296E+00    1.3070763491490796E+01
Ga    3.2334299786364391E+00    5.5576866726098233E+00    1.3891409167211354E+01
N    3.2352345853276838E+00    5.5589700764844983E+00    1.6075157895464624E+01
Ga    3.2323125610858865E+00    7.6079144477065785E+00    1.6497019637043113E+01
Ga    3.2161527323338781E+00    9.3435404581956920E+00    1.1225924259042448E+00
N    1.7059016142698689E+00    1.0152756434245054E+01    2.4859999725315753E+00
Ga    1.6433073219536125E+00    8.3588411823742668E+00    3.2646820367434870E+00
N    1.6111432437956277E+00    8.3393775364266656E+00    5.2221671029432848E+00
Ga    1.5987221307634214E+00    1.0219498864484027E+01    5.7964750986311833E+00
N    1.6130785352824000E+00    1.0201961224308919E+01    7.7930040923499933E+00
Ga    1.6329997763656434E+00    8.3535415041652339E+00    8.4541590423200912E+00
N    1.6331109266671873E+00    8.3491992322602879E+00    1.0438143632031204E+01
Ga    1.6061286229353120E+00    1.0209507976559408E+01    1.1081314070029517E+01
N    1.5895299836059420E+00    1.0217849122291623E+01    1.3069105188475737E+01
Ga    1.6336017286469251E+00    8.3485780169472665E+00    1.3631107931270204E+01
N    1.6079327672148644E+00    8.3293476522302221E+00    1.5587406226324759E+01
Ga    1.7867699890008437E+00    1.0103529998990187E+01    1.6496066195924595E+01
N    3.2255845611168179E+00    9.2726874818183056E+00    1.7638787147747692E+01
N    9.6634412177948157E+00    1.8454681120328262E+00    2.6068544892801877E+00
Ga    9.6594083084827318E+00    6.4248441522724242E-02    3.2225064204688660E+00
N    9.6583043710179535E+00   -1.5160604544842972E-02    5.2229654343325036E+00
Ga    9.6613005832719345E+00    1.8288422048764039E+00    5.8767529384465034E+00
N    9.6610919683458256E+00    1.8409752127654400E+00    7.8511044764307663E+00
Ga    9.6615921355865400E+00   -2.7031305985170770E-02    8.4448442136670518E+00
N    9.6621288881257463E+00   -2.7099683302754782E-02    1.0433858682633538E+01
Ga    9.6622934629401840E+00    1.8417675682834362E+00    1.1037495231641374E+01
N    9.6631554669489557E+00    1.8425138097298672E+00    1.3002718437460683E+01
Ga    9.6627624342312508E+00   -2.7225761797348515E-02    1.3631127599237109E+01
N    9.6659908396616014E+00    4.4943624693913678E-03    1.5587439146213361E+01
Ga    9.6600000242663739E+00    1.8410792720780500E+00    1.5871480234145368E+01
N    7.9402160007746527E+00    4.5739178762595545E+00    2.5306282819358934E+00
Ga    8.1573085147084239E+00    2.7019913458740445E+00    3.3007695197058462E+00
N    8.0512466229142916E+00    2.7722460614583433E+00    5.2577259300884478E+00
Ga    8.0814661905986007E+00    4.6384651635658178E+00    5.8221234998440696E+00
N    8.0617997311419884E+00    4.6357512501914719E+00    7.8054960466450733E+00
Ga    8.0456130746989629E+00    2.7742948955094398E+00    8.4516607089489710E+00
N    8.0440073614076795E+00    2.7784490903663475E+00    1.0437552986494168E+01
Ga    8.0693824990229377E+00    4.6372299570275697E+00    1.1083947401737889E+01
N    8.0867382664499541E+00    4.6465204389404775E+00    1.3069873844201245E+01
Ga    8.0433292259883782E+00    2.7773755119527261E+00    1.3630617620247037E+01
N    8.0727287604189151E+00    2.7641456919992851E+00    1.5586804601239631E+01
Ga    7.8838271822366561E+00    4.5313929760470746E+00    1.6498507722873743E+01
N    6.4429364470975790E+00    7.4275503894157113E+00    2.6901112833659973E+00
Ga    6.4370792718443832E+00    5.5992533825100859E+00    3.3378886404786590E+00
N    6.4427124254865005E+00    5.5716810113939745E+00    5.2615504524053076E+00
Ga    6.4380004991937030E+00    7.4299422806056477E+00    5.8924088378356654E+00
N    6.4445902398632571E+00    7.4168009512417479E+00    7.8518539305210178E+00
Ga    6.4453712613909868E+00    5.5491391164669936E+00    8.4546352591808756E+00
N    6.4462348133501841E+00    5.5457579841415567E+00    1.0437977989023185E+01
Ga    6.4459547565743538E+00    7.4149175756480581E+00    1.1038238857397545E+01
N    6.4466323952528262E+00    7.4135358679618593E+00    1.3001808476007326E+01
Ga    6.4468318595236243E+00    5.5439887813242432E+00    1.3631742983843617E+01
N    6.4464855723862984E+00    5.5758072695742475E+00    1.5585734025113053E+01
Ga    6.4465231785636741E+00    7.4131148883865512E+00    1.5866661953685497E+01
N    4.7441345545900262E+00    1.0150702056554801E+01    2.4799986114624026E+00
Ga    4.8121377154712786E+00    8.3602573609627733E+00    3.2637235205718325E+00
N    4.8415580538492380E+00    8.3383827882106480E+00    5.2205104620669109E+00
Ga    4.8566475485992688E+00    1.0221131183106792E+01    5.7936421579068877E+00
N    4.8460882238228589E+00    1.0202734931760000E+01    7.7914361935548326E+00
Ga    4.8264921827883374E+00    8.3523706599624461E+00    8.4497949391150424E+00
N    4.8272986124098916E+00    8.3485197344589004E+00    1.0435225879753084E+01
Ga    4.8532162358892288E+00    1.0208348357574348E+01    1.1081516352964814E+01
N    4.8704063382025380E+00    1.0217287284808750E+01    1.3068617088435925E+01
Ga    4.8276012157646022E+00    8.3484424698290294E+00    1.3631274461568966E+01
N    4.8548658821794870E+00    8.3320089390487055E+00    1.5585748054966359E+01
Ga    4.6708542779559208E+00    1.0099406017748835E+01    1.6497156567652638E+01
O    3.6989551581005065E-01    3.8445108991308570E+00   -4.8393759255187152E-01
H    6.6089358938477105E-01    4.8148870405669770E+00   -6.1458343684598005E-01
C    1.4521516921799258E+00    2.9527344453418185E+00   -9.2200861900673103E-01
H    2.2704746293134561E+00    2.9303892197103658E+00   -1.8615275094923026E-01
H    1.0125629817738719E+00    1.9545577955544511E+00   -1.0180138271787929E+00
H    1.8095673515645416E+00    3.3017728530539854E+00   -1.8975322820893552E+00
Ga    3.2028984751560849E+00    5.5652332076295759E+00    2.8886098179469895E+00
O    9.9777712402340712E-01    6.3666728312741725E+00   -7.4049705823709555E-01
H    3.4212557064445107E-02    7.3793957809829500E+00    1.6573763173857063E+00
C    1.2453514728116410E+00    6.8957048949671265E+00   -1.8336731810313056E+00
H    1.4946027214799433E+00    7.9699541881336460E+00   -1.8911901491873724E+00
H    6.4466050552801635E+00    7.4049122233056286E+00    1.6639394075852865E+00
H    1.2117056930486552E+00    6.3174542079569349E+00   -2.7770918271753158E+00
     &END COORD
     &KIND C
       BASIS_SET DZVP-MOLOPT-SR-GTH-q4
       POTENTIAL GTH-PBE-q4
       &POTENTIAL
2 2
0.3384712400000000E+00 2 -0.8803673979999999E+01  0.1339210850000000E+01
2
0.3025757500000000E+00 1  0.9622486650000001E+01
0.2915069400000000E+00 0
       &END POTENTIAL
     &END KIND
     &KIND O
       BASIS_SET DZVP-MOLOPT-SR-GTH-q6
       POTENTIAL GTH-PBE-q6
       &POTENTIAL
2 4
0.2445543000000000E+00 2 -0.1666721480000000E+02  0.2487311320000000E+01
2
0.2209559200000000E+00 1  0.1833745811000000E+02
0.2113324700000000E+00 0
       &END POTENTIAL
     &END KIND
     &KIND H
       BASIS_SET DZVP-MOLOPT-SR-GTH-q1
       POTENTIAL GTH-PBE-q1
       &POTENTIAL
1
0.2000000000000000E+00 2 -0.4178900440000000E+01  0.7244633100000000E+00
0
       &END POTENTIAL
     &END KIND
     &KIND N
       BASIS_SET DZVP-MOLOPT-SR-GTH
       POTENTIAL GTH-PBE-q5
       &POTENTIAL
2 3
0.2837905100000000E+00 2 -0.1241522559000000E+02  0.1868095920000000E+01
2
0.2554050000000000E+00 1  0.1363026257000000E+02
0.2454945300000000E+00 0
       &END POTENTIAL
     &END KIND
     &KIND Ga
       BASIS_SET DZVP-MOLOPT-SR-GTH
       POTENTIAL GTH-PBE-q13
       &POTENTIAL
2 1 10
0.4900000000000000E+00 0
3
0.4167772300000000E+00 3  0.1047568975000000E+02 -0.4921768140000000E+01  0.8707055900000000E+00
0.7770178090000000E+01 -0.2248152160000000E+01
0.1784415450000000E+01
0.5696265200000000E+00 2  0.1777985340000000E+01  0.1958597600000000E+00
-0.2317443900000000E+00
0.2381265000000000E+00 1 -0.1624868022000000E+02
       &END POTENTIAL
     &END KIND
     &TOPOLOGY
       NUMBER_OF_ATOMS  212
       MULTIPLE_UNIT_CELL  1 1 1
     &END TOPOLOGY
     &COLVAR
       &DISTANCE
         ATOMS  127 211
       &END DISTANCE
       &PRINT
       &END PRINT
     &END COLVAR
   &END SUBSYS
 &END FORCE_EVAL
