 # Version information for this restart file 
 # current date 2019-07-18 23:25:46.277
 # current working dir /lustre04/scratch/rzk/rzk/GaN-carbene/443-adatoms-both-2x2/09-BondBreaking-CH/02-0401-CH-to-NTop-PES/Phase04-OptimizeAdjustedIntermed909
 # Program compiled at                              Sun Apr  7 00:48:11 EDT 2019
 # Program compiled on                          beluga2.int.ets1.calculquebec.ca
 # Program compiled for                        Beluga-Linux-x86-64-intel-openmpi
 # Source code revision number                                         svn:18619
 &GLOBAL
   PRINT_LEVEL  MEDIUM
   PROJECT_NAME TEST
   RUN_TYPE  GEO_OPT
 &END GLOBAL
 &MOTION
   &GEO_OPT
     MAX_ITER  500
     STEP_START_VAL  26
   &END GEO_OPT
 &END MOTION
 &FORCE_EVAL
   METHOD  QS
   STRESS_TENSOR  ANALYTICAL
   &DFT
     BASIS_SET_FILE_NAME BASIS_MOLOPT
     POTENTIAL_FILE_NAME GTH_POTENTIALS
     UKS  T
     SURFACE_DIPOLE_CORRECTION  T
     SURF_DIP_DIR  Z
     &SCF
       MAX_SCF  80
       EPS_SCF     5.0000000000000004E-06
       &OT  T
         PRECONDITIONER  FULL_ALL
       &END OT
       &OUTER_SCF  T
         OPTIMIZER  NONE
         EPS_SCF     5.0000000000000004E-06
         MAX_SCF  4
       &END OUTER_SCF
       &PRINT
         &RESTART  OFF
           BACKUP_COPIES  1
           &EACH
             JUST_ENERGY  0
             QS_SCF  0
             MD  20
           &END EACH
         &END RESTART
       &END PRINT
     &END SCF
     &QS
       EPS_DEFAULT     1.0000000000000000E-14
       METHOD  GPW
     &END QS
     &MGRID
       NGRIDS  5
       CUTOFF     1.2000000000000000E+03
     &END MGRID
     &XC
       DENSITY_CUTOFF     1.0000000000000000E-10
       GRADIENT_CUTOFF     1.0000000000000000E-10
       TAU_CUTOFF     1.0000000000000000E-10
       &XC_FUNCTIONAL  NO_SHORTCUT
         &PBE  T
         &END PBE
       &END XC_FUNCTIONAL
       &VDW_POTENTIAL
         POTENTIAL_TYPE  PAIR_POTENTIAL
         &PAIR_POTENTIAL
           R_CUTOFF     1.0000000000000009E+01
           TYPE  DFTD3
           PARAMETER_FILE_NAME dftd3.dat
           REFERENCE_FUNCTIONAL PBE
           EPS_CN     9.9999999999999995E-07
           CALCULATE_C9_TERM  T
           REFERENCE_C9_TERM  T
           LONG_RANGE_CORRECTION  F
           VERBOSE_OUTPUT  F
         &END PAIR_POTENTIAL
       &END VDW_POTENTIAL
     &END XC
   &END DFT
   &SUBSYS
     &CELL
       A     1.2864472766435110E+01    0.0000000000000000E+00    0.0000000000000000E+00
       B    -6.4322363581020028E+00    1.1140960178524477E+01    0.0000000000000000E+00
       C     0.0000000000000000E+00    0.0000000000000000E+00    3.2000000000000000E+01
       MULTIPLE_UNIT_CELL  1 1 1
       &CELL_REF
         A     1.2982353780853531E+01    0.0000000000000000E+00    0.0000000000000000E+00
         B    -6.4911768904267628E+00    1.1243048175136114E+01    0.0000000000000000E+00
         C     0.0000000000000000E+00    0.0000000000000000E+00    3.2000000000000000E+01
         MULTIPLE_UNIT_CELL  1 1 1
       &END CELL_REF
     &END CELL
     &COORD
N   -6.4508941050850825E-03    1.9626301925630587E+00    2.5024655893000816E+00
Ga   -1.7412046800000885E-02   -3.0558207617736980E-02    2.8320192724462103E+00
N   -6.3658195231155752E-04   -1.6175029530020202E-02    5.0109608280674118E+00
Ga   -2.1779612829718972E-03    1.8019730049842386E+00    5.7906438234709885E+00
N    1.5824668523686065E-03    1.8287723909727549E+00    7.7860814409319703E+00
Ga   -2.2329198894648750E-04   -2.1446795302714247E-02    8.4148431053063479E+00
N    4.5237709081189792E-03   -1.4749853396340946E-02    1.0392229072545602E+01
Ga    3.7458519251830813E-03    1.8246475390977459E+00    1.1045698034938971E+01
N    5.6240982731169268E-03    1.8083331008558297E+00    1.3043067201742204E+01
Ga    6.2032146386571214E-03   -1.4115136949047641E-02    1.3839996739005620E+01
N    4.4391402074859523E-03   -1.2641599793492069E-02    1.6048485222894339E+01
Ga    5.9903124450690981E-03    2.0167680278445119E+00    1.6448504272515983E+01
Ga   -2.5929704774068758E-02    3.6586678899221563E+00    1.4818552381936216E+00
N   -1.4897072193673528E+00    4.5509157436107692E+00    2.5038091863762446E+00
Ga   -1.7052256428893922E+00    2.6847716216872648E+00    3.2853076789512996E+00
N   -1.6122496183230466E+00    2.7619625310773377E+00    5.2462065979714962E+00
Ga   -1.6379198908899395E+00    4.6265237706699240E+00    5.7994917116876961E+00
N   -1.6152429197815839E+00    4.6298126995221836E+00    7.7876036435425178E+00
Ga   -1.5992904452793313E+00    2.7679040236353138E+00    8.4177297164391565E+00
N   -1.5937833458697834E+00    2.7767838094152442E+00    1.0412183534546177E+01
Ga   -1.6189020787354291E+00    4.6356380387924290E+00    1.1048782326760431E+01
N   -1.6346132665650424E+00    4.6492283844644966E+00    1.3044581308707548E+01
Ga   -1.5913065491848899E+00    2.7800314247661566E+00    1.3597285925380692E+01
N   -1.6173381221865655E+00    2.7675835721223265E+00    1.5565197213829562E+01
Ga   -1.4565762068522954E+00    4.5491805680164870E+00    1.6448096887443757E+01
N   -4.3438071726426934E-03    3.7000658450162351E+00    1.7579247191085063E+01
N   -3.2213024534486143E+00    7.5049289633959875E+00    2.4838668624878015E+00
Ga   -3.2029122750259460E+00    5.5522888881661698E+00    2.8600311858289236E+00
N   -3.2141741071087671E+00    5.5407805645318584E+00    5.0090074010951735E+00
Ga   -3.2153348887180382E+00    7.3738274970351094E+00    5.7740870743370714E+00
N   -3.2135218119417983E+00    7.4002331658516534E+00    7.7678255810751891E+00
Ga   -3.2131803897958955E+00    5.5556035902589080E+00    8.4252536189433318E+00
N   -3.2112522721753267E+00    5.5576459662532223E+00    1.0397789967564162E+01
Ga   -3.2115413316513135E+00    7.3971732266882357E+00    1.1047334925032633E+01
N   -3.2107754901660623E+00    7.3801737607990932E+00    1.3040391137105951E+01
Ga   -3.2127194884470236E+00    5.5615033830019440E+00    1.3843222887374353E+01
N   -3.2144823862309875E+00    5.5627959264684508E+00    1.6048528496053994E+01
Ga   -3.2119570980423120E+00    7.6091715008903416E+00    1.6465560536105265E+01
Ga   -3.2173258104458498E+00    9.3188003019173848E+00    1.1957128688235710E+00
N   -4.7314502433275427E+00    1.0136545613835359E+01    2.4784895303962449E+00
Ga   -4.8220213484841699E+00    8.3457530413191687E+00    3.2598734795123709E+00
N   -4.8352560791996888E+00    8.3273551185379411E+00    5.2092142869205293E+00
Ga   -4.8524093011416225E+00    1.0214376830119750E+01    5.7704886318871464E+00
N   -4.8303128733917289E+00    1.0197939016368657E+01    7.7702746226893087E+00
Ga   -4.8108668769690599E+00    8.3464295795324492E+00    8.4138645549075584E+00
N   -4.8083937646198818E+00    8.3468805615903445E+00    1.0405703513047309E+01
Ga   -4.8342714089765213E+00    1.0207797064561358E+01    1.1042444807118024E+01
N   -4.8497054353229352E+00    1.0219455188520014E+01    1.3037619692875641E+01
Ga   -4.8071504711700443E+00    8.3522667149643137E+00    1.3597091404727134E+01
N   -4.8364629950408107E+00    8.3372440302041095E+00    1.5559506976051388E+01
Ga   -4.6546671756367966E+00    1.0108192863006996E+01    1.6465641665662591E+01
N   -3.2186043410720773E+00    9.2708542548515833E+00    1.7603677915839818E+01
N    3.2007910841452882E+00    1.8346724703198589E+00    2.5893603515874659E+00
Ga    3.2093347174887179E+00    6.0207658442446368E-02    3.2244304827936876E+00
N    3.2150408888514868E+00   -2.3473187846880596E-02    5.2139875354968881E+00
Ga    3.2138343115288985E+00    1.8245786376096900E+00    5.8538923762564155E+00
N    3.2195668888321607E+00    1.8375851050778864E+00    7.8306923034085560E+00
Ga    3.2186161171923753E+00   -3.0217931717229876E-02    8.4129114414513229E+00
N    3.2207153058208546E+00   -2.6696787250099333E-02    1.0408031502896144E+01
Ga    3.2203530642013023E+00    1.8416725425658398E+00    1.1006082427910512E+01
N    3.2206594833331574E+00    1.8464953069661887E+00    1.2978175517611559E+01
Ga    3.2216423454170866E+00   -2.3978986144637799E-02    1.3597228039846195E+01
N    3.2211034635881464E+00    1.0391035032233093E-02    1.5559051464037156E+01
Ga    3.2226511099350881E+00    1.8466417256853107E+00    1.5839493436304195E+01
N    1.4808630207698084E+00    4.5456479991779659E+00    2.5206509385245512E+00
Ga    1.6879310311733888E+00    2.6979946031728534E+00    3.2879641708487841E+00
N    1.6082229149862759E+00    2.7592485356423064E+00    5.2509781098201955E+00
Ga    1.6367104363010072E+00    4.6256626591710903E+00    5.8027003803165300E+00
N    1.6182421007151850E+00    4.6286609300670403E+00    7.7911950808408612E+00
Ga    1.6012667167515839E+00    2.7693493836891254E+00    8.4219638717227721E+00
N    1.6017266220246178E+00    2.7777478974422842E+00    1.0414628548294207E+01
Ga    1.6281177268040072E+00    4.6375305994458715E+00    1.1047290488458906E+01
N    1.6449857968757524E+00    4.6502225009890852E+00    1.3043122302001207E+01
Ga    1.6023691903315811E+00    2.7811847336243765E+00    1.3597102249217055E+01
N    1.6288953998205586E+00    2.7701245519856106E+00    1.5563577761679488E+01
Ga    1.4579335244355403E+00    4.5442702442805540E+00    1.6448700819983742E+01
N   -8.4787671308371240E-03    7.3951588770928476E+00    2.6644585103323184E+00
Ga    4.8396379845099561E-03    5.5689923215246511E+00    3.3344315040648502E+00
N   -2.0733019727802097E-03    5.5620098894690759E+00    5.2590154999715093E+00
Ga    6.0376129728190791E-03    7.4197942583013834E+00    5.8667947470586546E+00
N    3.9374722140828053E-03    7.4116680259871783E+00    7.8320214734682025E+00
Ga    2.6367179705521489E-03    5.5428749715650740E+00    8.4239211903110327E+00
N    4.0203443888002528E-03    5.5443534827215357E+00    1.0414419928243221E+01
Ga    4.3931748260935882E-03    7.4149198263088989E+00    1.1003980847875292E+01
N    4.7772587152489871E-03    7.4164904194117334E+00    1.2975774240384480E+01
Ga    5.3018471214207269E-03    5.5482323880333224E+00    1.3596808773140058E+01
N    6.6954742991893763E-03    5.5788578585286395E+00    1.5563117579678265E+01
Ga    4.1167820102390217E-03    7.4203930505190252E+00    1.5840532724682953E+01
N   -1.7111659699264403E+00    1.0132574867533837E+01    2.4876276469422582E+00
Ga   -1.6137667956117550E+00    8.3370598443036368E+00    3.2604504136448229E+00
N   -1.5985261130658015E+00    8.3266395267517002E+00    5.2127277365792519E+00
Ga   -1.5847234413836775E+00    1.0210445809779092E+01    5.7735597520945481E+00
N   -1.5977719801362036E+00    1.0197058322913298E+01    7.7723822692541047E+00
Ga   -1.6156543758897055E+00    8.3459661425240821E+00    8.4163327524464862E+00
N   -1.6148548719420994E+00    8.3473436654370232E+00    1.0408122897329134E+01
Ga   -1.5882941764099670E+00    1.0208266762507007E+01    1.1042941022969481E+01
N   -1.5714778460826102E+00    1.0220074282767591E+01    1.3038150951175544E+01
Ga   -1.6140771197302677E+00    8.3525037633837584E+00    1.3597175071125692E+01
N   -1.5864289653131252E+00    8.3376127150854842E+00    1.5559015103541196E+01
Ga   -1.7737266918293040E+00    1.0105618524602225E+01    1.6464814787298852E+01
N    6.4255552328461309E+00    1.9481559979247429E+00    2.5197187984469238E+00
Ga    6.4348845041222322E+00   -5.4043715152858073E-02    2.8484323675649534E+00
N    6.4274797294574002E+00   -1.7850821408112009E-02    5.0175066086834352E+00
Ga    6.4294209532558071E+00    1.8022464862219683E+00    5.7878030415393020E+00
N    6.4335860883358285E+00    1.8300812616017343E+00    7.7817836185226197E+00
Ga    6.4370302806963009E+00   -2.1619355595906664E-02    8.4138701142087786E+00
N    6.4374008195018035E+00   -1.4511145558397652E-02    1.0390816732960426E+01
Ga    6.4377867185883195E+00    1.8251889484237300E+00    1.1043325403811027E+01
N    6.4379692745551171E+00    1.8087828316379688E+00    1.3039198175812409E+01
Ga    6.4361874710574858E+00   -1.1816448507698417E-02    1.3842255957698899E+01
N    6.4346981973295003E+00   -1.0110858229329157E-02    1.6045470125499801E+01
Ga    6.4375484309831439E+00    2.0275755855766455E+00    1.6454069495507536E+01
Ga    6.4373788786979107E+00    3.6521151035733839E+00    1.4903381984745514E+00
N    4.9267490650903083E+00    4.5584650642977751E+00    2.5020739438028077E+00
Ga    4.7117426106096367E+00    2.6929414318236002E+00    3.2751585260131355E+00
N    4.8224064417332642E+00    2.7651159896681183E+00    5.2360995684326914E+00
Ga    4.7895931674258660E+00    4.6311044619099784E+00    5.7972910376362323E+00
N    4.8199170563271867E+00    4.6300205324295405E+00    7.7845348969249413E+00
Ga    4.8355839386282833E+00    2.7707417108053352E+00    8.4208302144355738E+00
N    4.8384487857048084E+00    2.7780113814921510E+00    1.0413033213412151E+01
Ga    4.8134946715376206E+00    4.6380724206256607E+00    1.1045178335512579E+01
N    4.7984600158899546E+00    4.6502787740003706E+00    1.3039059173162144E+01
Ga    4.8413402120393165E+00    2.7812289435863873E+00    1.3594738562807036E+01
N    4.8120311950435344E+00    2.7688517347965722E+00    1.5559576707350690E+01
Ga    4.9882731429121545E+00    4.5424903102582519E+00    1.6455401229110695E+01
N    6.4306655857333661E+00    3.6992188992289794E+00    1.7588617531694492E+01
N    3.2091965153294963E+00    7.4728686050866902E+00    2.4700909379895246E+00
N    3.2123984233202747E+00    5.5351309910359774E+00    5.0262544536076019E+00
Ga    3.2148615122809066E+00    7.3755800417720678E+00    5.7614323424252483E+00
N    3.2186958620356219E+00    7.4019708031731177E+00    7.7623275857166893E+00
Ga    3.2183453943422879E+00    5.5582781431848298E+00    8.4217342718967689E+00
N    3.2206261438683010E+00    5.5590543560862269E+00    1.0396139341072137E+01
Ga    3.2212216362040240E+00    7.3985478699129663E+00    1.1044658396916178E+01
N    3.2215004579751909E+00    7.3810609483241514E+00    1.3038531021609369E+01
Ga    3.2226832832884713E+00    5.5614082052523770E+00    1.3839211417539513E+01
N    3.2212596323488834E+00    5.5623148360358359E+00    1.6047573178337679E+01
Ga    3.2211829801059642E+00    7.6028519702115158E+00    1.6455853323321378E+01
Ga    3.1932659481228911E+00    9.2886569253094375E+00    1.0387680170952505E+00
N    1.6839893874425758E+00    1.0130830424978637E+01    2.4519229826214466E+00
Ga    1.6247374493473170E+00    8.3396570391091451E+00    3.2245658639651089E+00
N    1.5964147519440663E+00    8.3247523907105752E+00    5.1919390039316635E+00
Ga    1.5879795190723784E+00    1.0207498835194023E+01    5.7557925868033344E+00
N    1.6026271875906299E+00    1.0195959720185686E+01    7.7630199530598096E+00
Ga    1.6241463030956007E+00    8.3476631283954656E+00    8.4130772063090031E+00
N    1.6235520463215110E+00    8.3479138060897675E+00    1.0407146306540254E+01
Ga    1.5982365729572270E+00    1.0208131228882868E+01    1.1041855548227321E+01
N    1.5815672869785475E+00    1.0220367988535740E+01    1.3038066671579806E+01
Ga    1.6243761536367458E+00    8.3521314368946218E+00    1.3594600090660322E+01
N    1.5969098369191430E+00    8.3357772655433600E+00    1.5559259582105176E+01
Ga    1.7680605793404942E+00    1.0114586417753664E+01    1.6453821218240204E+01
N    3.2118306690894216E+00    9.2734434508930779E+00    1.7588672573216417E+01
N    9.6474748677860234E+00    1.8290883023910289E+00    2.5950058068417272E+00
Ga    9.6417420185176539E+00    3.3567786418571582E-02    3.1697917064142138E+00
N    9.6454185258921203E+00   -2.6658295470905806E-02    5.1888989218642800E+00
Ga    9.6477420048004650E+00    1.8141777934517087E+00    5.8418697322592745E+00
N    9.6489324761798745E+00    1.8353716377387326E+00    7.8228726955114425E+00
Ga    9.6506843976441932E+00   -3.2619593894548618E-02    8.4059607840602073E+00
N    9.6532071165288880E+00   -2.7698479238037178E-02    1.0403640254173490E+01
Ga    9.6524683145963035E+00    1.8403543157048834E+00    1.1002252862387023E+01
N    9.6543014991636245E+00    1.8456452803056456E+00    1.2975441580784880E+01
Ga    9.6544075927257698E+00   -2.3910382431624303E-02    1.3593956058947679E+01
N    9.6563628383884730E+00    9.6866235946373690E-03    1.5557245835963139E+01
Ga    9.6531175614285214E+00    1.8467542631936331E+00    1.5840368494024926E+01
N    7.9255035378304814E+00    4.5615550505496101E+00    2.5133522947224551E+00
Ga    8.1422844568371104E+00    2.6841331549456169E+00    3.2812882824090104E+00
N    8.0372513884185786E+00    2.7652927793393345E+00    5.2391531886474887E+00
Ga    8.0701795415789928E+00    4.6323566031418899E+00    5.7907317356949033E+00
N    8.0507595070823914E+00    4.6322808442552166E+00    7.7789279670401852E+00
Ga    8.0351334063317736E+00    2.7696498758543697E+00    8.4146393248005733E+00
N    8.0349070993789820E+00    2.7779568830324295E+00    1.0408543428112546E+01
Ga    8.0606549224004276E+00    4.6362506789043278E+00    1.1045998847489827E+01
N    8.0774982622727656E+00    4.6491136470499939E+00    1.3039225399128362E+01
Ga    8.0351690836372018E+00    2.7805836045599666E+00    1.3594906996429931E+01
N    8.0638042019969465E+00    2.7695116957907686E+00    1.5558932202067234E+01
Ga    7.8810891665462064E+00    4.5393391785292829E+00    1.6456875790433241E+01
N    6.4294399942711822E+00    7.4133150016373435E+00    2.6481536669078918E+00
Ga    6.4212068313204185E+00    5.5892807822182489E+00    3.3117168008016349E+00
N    6.4295753817766075E+00    5.5650532031037114E+00    5.2356828464648029E+00
Ga    6.4237592267605725E+00    7.4239836935326764E+00    5.8593418254518683E+00
N    6.4333467889691542E+00    7.4121395124443978E+00    7.8240562434368712E+00
Ga    6.4350466612698343E+00    5.5447527103000223E+00    8.4206104763811656E+00
N    6.4375534230409652E+00    5.5455377908430901E+00    1.0409607899541996E+01
Ga    6.4370869706778358E+00    7.4152264069569913E+00    1.1001971507406505E+01
N    6.4377084730212193E+00    7.4169844531841091E+00    1.2972932018858122E+01
Ga    6.4385006158125284E+00    5.5475023537617929E+00    1.3594120318543849E+01
N    6.4385502622713791E+00    5.5798614294264111E+00    1.5557016403976649E+01
Ga    6.4372765098232438E+00    7.4188643773477949E+00    1.5836059432012021E+01
N    4.7293339622760762E+00    1.0132819372999066E+01    2.4433691221694138E+00
Ga    4.7894410447669147E+00    8.3469734236680964E+00    3.2183231446096512E+00
N    4.8321652978444121E+00    8.3253298576741201E+00    5.1857378901861075E+00
Ga    4.8426301204625037E+00    1.0209860659747749E+01    5.7525042443197902E+00
N    4.8343929023481493E+00    1.0196980166139383E+01    7.7602038578161263E+00
Ga    4.8135129557060310E+00    8.3485108084095767E+00    8.4109283067639158E+00
N    4.8184459364269188E+00    8.3481740218146765E+00    1.0403709294397245E+01
Ga    4.8438424381655310E+00    1.0208013603947174E+01    1.1041109581837651E+01
N    4.8613874538638981E+00    1.0219938304784344E+01    1.3036347797824115E+01
Ga    4.8184000376055689E+00    8.3525528935492321E+00    1.3593845381774246E+01
N    4.8449526266884053E+00    8.3386108686696421E+00    1.5556869230152840E+01
Ga    4.6650239805404450E+00    1.0108693269047437E+01    1.6456503236794291E+01
O    5.0129030289619247E-01    3.6965199846841568E+00   -4.6547560824960382E-01
H    7.4456805275259430E-01    4.6775729096776031E+00   -5.8789452864236769E-01
C    1.6859637006806714E+00    2.8425721142302036E+00   -6.7180684762334597E-01
H    2.4684792606525519E+00    3.0856605928762213E+00    6.3181534119014657E-02
H    1.3576612151492427E+00    1.8082274647569743E+00   -5.1671503939492447E-01
H    2.0338874183578777E+00    2.9867368830912717E+00   -1.7007545493198015E+00
Ga    3.1846924430578945E+00    5.5507235583000947E+00    2.8728939235240216E+00
O    7.0508780951958672E-01    6.2973963038280587E+00   -4.0096559106322655E-01
H   -2.7936159365383049E-02    7.3168437177546553E+00    1.6398038549546643E+00
C    1.3300373934577807E+00    7.2472947072420588E+00   -9.0242133879215036E-01
H    1.0285957750713781E+00    8.2867954618776665E+00   -7.0381607376475175E-01
H    6.4507018405758894E+00    7.3862690533360196E+00    1.6220552721813488E+00
H    2.1926946424586018E+00    7.0833135602843562E+00   -1.5759827635187942E+00
     &END COORD
     &KIND C
       BASIS_SET DZVP-MOLOPT-SR-GTH-q4
       POTENTIAL GTH-PBE-q4
       &POTENTIAL
2 2
0.3384712400000000E+00 2 -0.8803673979999999E+01  0.1339210850000000E+01
2
0.3025757500000000E+00 1  0.9622486650000001E+01
0.2915069400000000E+00 0
       &END POTENTIAL
     &END KIND
     &KIND O
       BASIS_SET DZVP-MOLOPT-SR-GTH-q6
       POTENTIAL GTH-PBE-q6
       &POTENTIAL
2 4
0.2445543000000000E+00 2 -0.1666721480000000E+02  0.2487311320000000E+01
2
0.2209559200000000E+00 1  0.1833745811000000E+02
0.2113324700000000E+00 0
       &END POTENTIAL
     &END KIND
     &KIND H
       BASIS_SET DZVP-MOLOPT-SR-GTH-q1
       POTENTIAL GTH-PBE-q1
       &POTENTIAL
1
0.2000000000000000E+00 2 -0.4178900440000000E+01  0.7244633100000000E+00
0
       &END POTENTIAL
     &END KIND
     &KIND N
       BASIS_SET DZVP-MOLOPT-SR-GTH
       POTENTIAL GTH-PBE-q5
       &POTENTIAL
2 3
0.2837905100000000E+00 2 -0.1241522559000000E+02  0.1868095920000000E+01
2
0.2554050000000000E+00 1  0.1363026257000000E+02
0.2454945300000000E+00 0
       &END POTENTIAL
     &END KIND
     &KIND Ga
       BASIS_SET DZVP-MOLOPT-SR-GTH
       POTENTIAL GTH-PBE-q13
       &POTENTIAL
2 1 10
0.4900000000000000E+00 0
3
0.4167772300000000E+00 3  0.1047568975000000E+02 -0.4921768140000000E+01  0.8707055900000000E+00
0.7770178090000000E+01 -0.2248152160000000E+01
0.1784415450000000E+01
0.5696265200000000E+00 2  0.1777985340000000E+01  0.1958597600000000E+00
-0.2317443900000000E+00
0.2381265000000000E+00 1 -0.1624868022000000E+02
       &END POTENTIAL
     &END KIND
     &TOPOLOGY
       NUMBER_OF_ATOMS  212
       MULTIPLE_UNIT_CELL  1 1 1
     &END TOPOLOGY
     &COLVAR
       &DISTANCE
         ATOMS  127 211
       &END DISTANCE
       &PRINT
       &END PRINT
     &END COLVAR
   &END SUBSYS
 &END FORCE_EVAL
