 # Version information for this restart file 
 # current date 2019-07-19 08:23:08.888
 # current working dir /lustre04/scratch/rzk/rzk/GaN-carbene/443-adatoms-both-2x2/09-BondBreaking-CH/02-0401-CH-to-NTop-PES/Phase04-OptimizeAdjustedIntermed909
 # Program compiled at                              Sun Apr  7 00:48:11 EDT 2019
 # Program compiled on                          beluga2.int.ets1.calculquebec.ca
 # Program compiled for                        Beluga-Linux-x86-64-intel-openmpi
 # Source code revision number                                         svn:18619
 &GLOBAL
   PRINT_LEVEL  MEDIUM
   PROJECT_NAME TEST
   RUN_TYPE  GEO_OPT
 &END GLOBAL
 &MOTION
   &GEO_OPT
     MAX_ITER  500
     STEP_START_VAL  198
   &END GEO_OPT
 &END MOTION
 &FORCE_EVAL
   METHOD  QS
   STRESS_TENSOR  ANALYTICAL
   &DFT
     BASIS_SET_FILE_NAME BASIS_MOLOPT
     POTENTIAL_FILE_NAME GTH_POTENTIALS
     UKS  T
     SURFACE_DIPOLE_CORRECTION  T
     SURF_DIP_DIR  Z
     &SCF
       MAX_SCF  80
       EPS_SCF     5.0000000000000004E-06
       &OT  T
         PRECONDITIONER  FULL_ALL
       &END OT
       &OUTER_SCF  T
         OPTIMIZER  NONE
         EPS_SCF     5.0000000000000004E-06
         MAX_SCF  4
       &END OUTER_SCF
       &PRINT
         &RESTART  OFF
           BACKUP_COPIES  1
           &EACH
             JUST_ENERGY  0
             QS_SCF  0
             MD  20
           &END EACH
         &END RESTART
       &END PRINT
     &END SCF
     &QS
       EPS_DEFAULT     1.0000000000000000E-14
       METHOD  GPW
     &END QS
     &MGRID
       NGRIDS  5
       CUTOFF     1.2000000000000000E+03
     &END MGRID
     &XC
       DENSITY_CUTOFF     1.0000000000000000E-10
       GRADIENT_CUTOFF     1.0000000000000000E-10
       TAU_CUTOFF     1.0000000000000000E-10
       &XC_FUNCTIONAL  NO_SHORTCUT
         &PBE  T
         &END PBE
       &END XC_FUNCTIONAL
       &VDW_POTENTIAL
         POTENTIAL_TYPE  PAIR_POTENTIAL
         &PAIR_POTENTIAL
           R_CUTOFF     1.0000000000000009E+01
           TYPE  DFTD3
           PARAMETER_FILE_NAME dftd3.dat
           REFERENCE_FUNCTIONAL PBE
           EPS_CN     9.9999999999999995E-07
           CALCULATE_C9_TERM  T
           REFERENCE_C9_TERM  T
           LONG_RANGE_CORRECTION  F
           VERBOSE_OUTPUT  F
         &END PAIR_POTENTIAL
       &END VDW_POTENTIAL
     &END XC
   &END DFT
   &SUBSYS
     &CELL
       A     1.2864472766435110E+01    0.0000000000000000E+00    0.0000000000000000E+00
       B    -6.4322363581020028E+00    1.1140960178524477E+01    0.0000000000000000E+00
       C     0.0000000000000000E+00    0.0000000000000000E+00    3.2000000000000000E+01
       MULTIPLE_UNIT_CELL  1 1 1
       &CELL_REF
         A     1.2982353780853531E+01    0.0000000000000000E+00    0.0000000000000000E+00
         B    -6.4911768904267628E+00    1.1243048175136114E+01    0.0000000000000000E+00
         C     0.0000000000000000E+00    0.0000000000000000E+00    3.2000000000000000E+01
         MULTIPLE_UNIT_CELL  1 1 1
       &END CELL_REF
     &END CELL
     &COORD
N   -2.9805315726734189E-02    1.9360642353929014E+00    2.4653917976339605E+00
Ga   -3.6945779211613447E-02   -2.9984584460172686E-02    2.7780563260691649E+00
N   -2.7330628653204105E-02   -6.3504766469300616E-02    4.9826325748250326E+00
Ga   -2.1818521820188057E-02    1.7646703479393941E+00    5.7527866876670268E+00
N   -2.1733362346464943E-02    1.7806559576614986E+00    7.7601565248322526E+00
Ga   -2.0780107564259787E-02   -6.4047097806964826E-02    8.4002672373048615E+00
N   -2.0816359720815858E-02   -6.5213302768556788E-02    1.0377607625524885E+01
Ga   -2.0730696314930127E-02    1.7757099183126126E+00    1.1024509603355261E+01
N   -2.0414649603750303E-02    1.7565633142125952E+00    1.3021308265909800E+01
Ga   -2.0554437131232516E-02   -6.3361807509547188E-02    1.3821930121313876E+01
N   -2.1775996827020430E-02   -6.4018100388412491E-02    1.6027396698278881E+01
Ga   -2.0448347992466372E-02    1.9751689408526065E+00    1.6436118791486813E+01
Ga   -4.9112215942619067E-02    3.6318032195510312E+00    1.2836125504669600E+00
N   -1.5081177116222262E+00    4.5115950299408780E+00    2.4714650863962748E+00
Ga   -1.6940204856691718E+00    2.6770584777605584E+00    3.2374926299771034E+00
N   -1.6313495582718422E+00    2.7239980445497149E+00    5.2213906169145901E+00
Ga   -1.6535337969546486E+00    4.5889990325925325E+00    5.7627376147720426E+00
N   -1.6376529317718640E+00    4.5867125532756585E+00    7.7621448890908002E+00
Ga   -1.6179880055017575E+00    2.7265616661607464E+00    8.3951342499852508E+00
N   -1.6185378982246867E+00    2.7282324616485791E+00    1.0392319873739932E+01
Ga   -1.6441883365171326E+00    4.5863913356674644E+00    1.1027453733003565E+01
N   -1.6608143708034599E+00    4.5972205659693692E+00    1.3023029311049640E+01
Ga   -1.6174210317011157E+00    2.7278567000876728E+00    1.3576817709991724E+01
N   -1.6450170618371387E+00    2.7119064386142249E+00    1.5541113250943466E+01
Ga   -1.4719457273794021E+00    4.4879569965525992E+00    1.6436232692072171E+01
N   -2.8904777027746513E-02    3.6457096860208935E+00    1.7570287319619244E+01
N   -3.2401228132134086E+00    7.4705522415629675E+00    2.4625164463241207E+00
Ga   -3.1941935222797349E+00    5.5011143646783411E+00    2.8107675711040323E+00
N   -3.2380555333894621E+00    5.5028525107092632E+00    4.9902721330510573E+00
Ga   -3.2363762299374392E+00    7.3290290599328820E+00    5.7538572656389881E+00
N   -3.2379160043385538E+00    7.3555364957078808E+00    7.7504325806200320E+00
Ga   -3.2350842556423669E+00    5.5093617954241774E+00    8.4045036007839435E+00
N   -3.2375213082124330E+00    5.5083283603697542E+00    1.0378942598473825E+01
Ga   -3.2374947306936805E+00    7.3469010126128955E+00    1.1029148487473108E+01
N   -3.2370194921364348E+00    7.3276518324180833E+00    1.3023585593234385E+01
Ga   -3.2371407609458562E+00    5.5068574547270979E+00    1.3825009240542069E+01
N   -3.2382680242089998E+00    5.5060544862057323E+00    1.6027446405655088E+01
Ga   -3.2366458662472386E+00    7.5449274929767505E+00    1.6437395141305046E+01
Ga   -3.2315161593408201E+00    9.2760084444581175E+00    1.2044388678074669E+00
N   -4.7583340411440247E+00    1.0094924510743663E+01    2.4559972867702049E+00
Ga   -4.8430572338659319E+00    8.3057593690197660E+00    3.2449940589004509E+00
N   -4.8559580143740293E+00    8.2853443931445572E+00    5.1936134361565935E+00
Ga   -4.8762614481984050E+00    1.0173247009359189E+01    5.7468925702181508E+00
N   -4.8552839907263108E+00    1.0151762411463070E+01    7.7498149403628558E+00
Ga   -4.8337189522713118E+00    8.3014500860273674E+00    8.3972522159706635E+00
N   -4.8345957184270940E+00    8.2976558325443577E+00    1.0390515583945499E+01
Ga   -4.8596799975130072E+00    1.0157942186986634E+01    1.1026008691774091E+01
N   -4.8760491648765871E+00    1.0167061165173740E+01    1.3021733537191224E+01
Ga   -4.8334908112463246E+00    8.2993606757155618E+00    1.3579421546072036E+01
N   -4.8616658523347045E+00    8.2829703030869766E+00    1.5542993105779857E+01
Ga   -4.6871033898689394E+00    1.0058423335516251E+01    1.6437267460510082E+01
N   -3.2441547837119549E+00    9.2159553275908088E+00    1.7571287486712222E+01
N    3.1804447593850758E+00    1.7943266875439179E+00    2.5830952352235292E+00
Ga    3.1851517197617385E+00    2.7231516159255589E-02    3.2033036073028058E+00
N    3.1938182282174776E+00   -6.9422727745828611E-02    5.1933648703467137E+00
Ga    3.1841930130057730E+00    1.7863954964819984E+00    5.8185086728434792E+00
N    3.1954046665376938E+00    1.7914173482580740E+00    7.8028147526223162E+00
Ga    3.1943365378258428E+00   -7.5329458847965519E-02    8.3875530514355798E+00
N    3.1947397744826480E+00   -7.7645988739761182E-02    1.0385861352383467E+01
Ga    3.1935874340164436E+00    1.7912715516409641E+00    1.0981808444524564E+01
N    3.1952107771898177E+00    1.7923678781155412E+00    1.2955798982600424E+01
Ga    3.1957259779706439E+00   -7.6146224077002750E-02    1.3577859924314215E+01
N    3.1969317199351170E+00   -4.5220893137729326E-02    1.5540502705968684E+01
Ga    3.1953273868472092E+00    1.7932137406687527E+00    1.5818789437955648E+01
N    1.4720057936152424E+00    4.5172843010167654E+00    2.4749070759448810E+00
Ga    1.6457748110280757E+00    2.6787207824088917E+00    3.2171722276460879E+00
N    1.5861587325590563E+00    2.7195696390929962E+00    5.2094339504046179E+00
Ga    1.6097742378513140E+00    4.5815915321599050E+00    5.7629336563142717E+00
N    1.5947194371969218E+00    4.5845728247022439E+00    7.7615575091349198E+00
Ga    1.5770302018062694E+00    2.7238076317673565E+00    8.3913687848919469E+00
N    1.5765459830645547E+00    2.7273373346717595E+00    1.0389243932328439E+01
Ga    1.6019056384885708E+00    4.5853412867297632E+00    1.1025838165537030E+01
N    1.6192349989284487E+00    4.5965640922746855E+00    1.3021326413255167E+01
Ga    1.5767900190726731E+00    2.7279290661304567E+00    1.3576868534643516E+01
N    1.6041866744923488E+00    2.7137904722550625E+00    1.5539790453751531E+01
Ga    1.4233505629851957E+00    4.4834680902433997E+00    1.6437459184287903E+01
N   -1.5879697474824171E-02    7.3637806744738601E+00    2.6345171646443242E+00
Ga   -1.4588924174874295E-02    5.5072163466478461E+00    3.2678379563712050E+00
N   -2.0573664556292608E-02    5.5244664767945073E+00    5.2144507753178564E+00
Ga   -1.8117552012103421E-02    7.3667438038796540E+00    5.8459562265878846E+00
N   -2.1252676247357459E-02    7.3655463066049869E+00    7.8137130019333023E+00
Ga   -2.1108859856249423E-02    5.4952509333313655E+00    8.4002522631196950E+00
N   -2.1212774796205962E-02    5.4947010889663703E+00    1.0393508801897466E+01
Ga   -2.1961664272178660E-02    7.3634654344179218E+00    1.0984975559738071E+01
N   -2.1037828937628750E-02    7.3642135532550412E+00    1.2957856392456426E+01
Ga   -2.0091614894502768E-02    5.4939991052523398E+00    1.3577489368790646E+01
N   -1.8707968251238768E-02    5.5254528083248786E+00    1.5540315579912596E+01
Ga   -2.0712544969665396E-02    7.3635476960753987E+00    1.5819528387230944E+01
N   -1.7235313571485749E+00    1.0092506677585952E+01    2.4685622923597603E+00
Ga   -1.6230351075004639E+00    8.2889727634001602E+00    3.2391254576270581E+00
N   -1.6184574284448403E+00    8.2836704776376013E+00    5.1913744927369994E+00
Ga   -1.6065968562626571E+00    1.0167074256951683E+01    5.7487014682760496E+00
N   -1.6202281208727087E+00    1.0151539577421493E+01    7.7501279451422294E+00
Ga   -1.6401351490664551E+00    8.2999500729382802E+00    8.3969232716659548E+00
N   -1.6411035995113687E+00    8.2979937144476921E+00    1.0390345756991731E+01
Ga   -1.6156550265371934E+00    1.0157708220866349E+01    1.1025874578999241E+01
N   -1.5976984227987190E+00    1.0167169386153006E+01    1.3021069519783003E+01
Ga   -1.6396972995313406E+00    8.2994131228733270E+00    1.3578533449029250E+01
N   -1.6117224725929700E+00    8.2845239023211459E+00    1.5541084367601652E+01
Ga   -1.7928370918944625E+00    1.0054560512751813E+01    1.6437835724153459E+01
N    6.4135309687383089E+00    1.9097495160441484E+00    2.5047438601186820E+00
Ga    6.4259135335814648E+00   -8.9758144785544947E-02    2.8207168371334470E+00
N    6.4141656565888345E+00   -6.2469178981965849E-02    4.9902336157417855E+00
Ga    6.4113734551548021E+00    1.7608545490129224E+00    5.7658855654464283E+00
N    6.4112717272366488E+00    1.7814655641932509E+00    7.7629324870792988E+00
Ga    6.4102695289142533E+00   -6.6838058168289693E-02    8.4014968581081515E+00
N    6.4105697691800252E+00   -6.5039327051580401E-02    1.0377691227257252E+01
Ga    6.4102851797555731E+00    1.7751393771186743E+00    1.1026719764133272E+01
N    6.4112914369814238E+00    1.7565323577440448E+00    1.3022276438144056E+01
Ga    6.4104534856758759E+00   -6.3604815616125715E-02    1.3822487424375343E+01
N    6.4097322127822434E+00   -6.4059330915334167E-02    1.6026934833928912E+01
Ga    6.4113986319188596E+00    1.9755422714558151E+00    1.6437047307733412E+01
Ga    6.4100681787718132E+00    3.6121768479082226E+00    1.4971016540981088E+00
N    4.9171184913306156E+00    4.5199087025973643E+00    2.4938045070513617E+00
Ga    4.6853125490629290E+00    2.6496276664528047E+00    3.2597900655291028E+00
N    4.8048829739752783E+00    2.7216153504513017E+00    5.2192596247566119E+00
Ga    4.7721645333335667E+00    4.5872187708799190E+00    5.7759885025420363E+00
N    4.7969044205446174E+00    4.5840667067669632E+00    7.7653492479059683E+00
Ga    4.8101781148443896E+00    2.7224088305919936E+00    8.3966092616692034E+00
N    4.8129842684550477E+00    2.7271561347628563E+00    1.0391531859873213E+01
Ga    4.7872877069648601E+00    4.5857729051771097E+00    1.1027892221279600E+01
N    4.7718903196789624E+00    4.5966307358469765E+00    1.3022819364809315E+01
Ga    4.8140875527207188E+00    2.7275097858921651E+00    1.3577633942835984E+01
N    4.7868634228227558E+00    2.7119848654208485E+00    1.5541326869186507E+01
Ga    4.9616577021266615E+00    4.4865468090124301E+00    1.6437861755512451E+01
N    6.4039828794064944E+00    3.6448703512785761E+00    1.7571985964533642E+01
N    3.1895081683329023E+00    7.4476190426302313E+00    2.4473001524268168E+00
N    3.1987525842529343E+00    5.4976063689602572E+00    5.0064267060839605E+00
Ga    3.1947943515930572E+00    7.3302425898113199E+00    5.7571334000932195E+00
N    3.1958959212251177E+00    7.3545607574474650E+00    7.7536201989641649E+00
Ga    3.1930204554487882E+00    5.5075458360192302E+00    8.4034525841439276E+00
N    3.1952711154608777E+00    5.5073865772684014E+00    1.0378317236656992E+01
Ga    3.1946367412583676E+00    7.3453648952555710E+00    1.1030295801870693E+01
N    3.1955690047687173E+00    7.3269392368545647E+00    1.3024742990595200E+01
Ga    3.1948838638290709E+00    5.5056390135852151E+00    1.3824065626573651E+01
N    3.1940815185772933E+00    5.5055670902312448E+00    1.6027886629572521E+01
Ga    3.1954328384707882E+00    7.5425975574368147E+00    1.6435464575647341E+01
Ga    3.1850754098993441E+00    9.4191188526599667E+00    1.2176120703611599E+00
N    1.7097248326703824E+00    1.0099206604305031E+01    2.4808863311085716E+00
Ga    1.6028792661493991E+00    8.2858379776561790E+00    3.2352627262147187E+00
N    1.5782912973736645E+00    8.2832377518035631E+00    5.1935783842128300E+00
Ga    1.5623588932016874E+00    1.0161903642180063E+01    5.7587217567169073E+00
N    1.5764096042398454E+00    1.0150000529237891E+01    7.7581239093779821E+00
Ga    1.5977790592954813E+00    8.2982948808683190E+00    8.4002234942240293E+00
N    1.5982330664397029E+00    8.2970011712509830E+00    1.0393185830675439E+01
Ga    1.5724593710845107E+00    1.0157475413096815E+01    1.1026591089473303E+01
N    1.5555968336385495E+00    1.0167274955782206E+01    1.3022636202243701E+01
Ga    1.5984267393030960E+00    8.2989741342044141E+00    1.3578507779051270E+01
N    1.5714114986358449E+00    8.2832138955633337E+00    1.5543083580203062E+01
Ga    1.7417532747315743E+00    1.0060259184951557E+01    1.6434921891262970E+01
N    3.1870235722672016E+00    9.2164876375269422E+00    1.7568951949236386E+01
N    9.6389750882007021E+00    1.7916266010919211E+00    2.6020660953518076E+00
Ga    9.6297701404622416E+00    3.6937013676363414E-02    3.2614281953202391E+00
N    9.6282075691353448E+00   -6.3031626834751886E-02    5.2309239271810259E+00
Ga    9.6352799631441872E+00    1.7944008760342285E+00    5.8378102534169720E+00
N    9.6258294704871066E+00    1.7946100696622493E+00    7.8161413766806049E+00
Ga    9.6272420734866504E+00   -7.5681652997248300E-02    8.3912433475582251E+00
N    9.6269844037948875E+00   -7.7601827857151556E-02    1.0389097220631163E+01
Ga    9.6273558530104992E+00    1.7919279049124794E+00    1.0982109380550577E+01
N    9.6274275318876743E+00    1.7925916009051570E+00    1.2956523588822515E+01
Ga    9.6280803334709137E+00   -7.6296432406473519E-02    1.3577382509458907E+01
N    9.6292034826519206E+00   -4.5886263100835011E-02    1.5540958069343384E+01
Ga    9.6277396932267827E+00    1.7933313286456443E+00    1.5818589933972094E+01
N    7.9078371028334393E+00    4.5258358707917106E+00    2.4862218727908787E+00
Ga    8.1353752617827890E+00    2.6576317949970503E+00    3.2655280980501611E+00
N    8.0170536069957095E+00    2.7264093268421354E+00    5.2244928132295332E+00
Ga    8.0536852345511356E+00    4.5939659301903184E+00    5.7725305998106329E+00
N    8.0266861554927580E+00    4.5866379259663974E+00    7.7640019331446757E+00
Ga    8.0095419195698092E+00    2.7258430679960775E+00    8.4000135357332191E+00
N    8.0073454460170232E+00    2.7286041699440147E+00    1.0393779065132760E+01
Ga    8.0347472890949696E+00    4.5870095143252874E+00    1.1028900110741978E+01
N    8.0512916761116884E+00    4.5971608782124260E+00    1.3023038905839940E+01
Ga    8.0089023099480858E+00    2.7279610135083647E+00    1.3577281731209379E+01
N    8.0363164659526518E+00    2.7134034149720390E+00    1.5539962012723420E+01
Ga    7.8550112240651169E+00    4.4830825435812702E+00    1.6438349719857541E+01
N    6.4062921746962616E+00    7.3782961939891276E+00    2.6369455226716654E+00
Ga    6.4106794784564265E+00    5.5526941742845803E+00    3.2977461329309916E+00
N    6.4109166527618333E+00    5.5241866077833297E+00    5.2212448935465110E+00
Ga    6.4060375875198972E+00    7.3798366847327168E+00    5.8491714234361476E+00
N    6.4099113477021676E+00    7.3657031681508434E+00    7.8128119042869457E+00
Ga    6.4114247310256314E+00    5.4967067430304741E+00    8.4050235265160502E+00
N    6.4110259486056780E+00    5.4951674616947148E+00    1.0394999437589748E+01
Ga    6.4109882751598297E+00    7.3643692267207896E+00    1.0987076014641891E+01
N    6.4115547208622683E+00    7.3641896937455407E+00    1.2959070783545751E+01
Ga    6.4117459162770478E+00    5.4941432369706034E+00    1.3578841953593713E+01
N    6.4127297087160029E+00    5.5255361097729976E+00    1.5541142727681589E+01
Ga    6.4115031711801338E+00    7.3636264088317436E+00    1.5820054760356555E+01
N    4.6726752401178473E+00    1.0095898590996091E+01    2.4415981396713518E+00
Ga    4.7715412606777310E+00    8.2944145483989935E+00    3.2262136689614529E+00
N    4.8100077403907244E+00    8.2859227919084120E+00    5.1839550744497336E+00
Ga    4.8332127815181858E+00    1.0166607422195970E+01    5.7575084251331718E+00
N    4.8133372291563408E+00    1.0149240275498920E+01    7.7579443313674110E+00
Ga    4.7904571379153111E+00    8.2997368908967051E+00    8.4026558924383039E+00
N    4.7914710480889298E+00    8.2970469578637509E+00    1.0393997081840704E+01
Ga    4.8176654779375170E+00    1.0158143492775061E+01    1.1026317041256757E+01
N    4.8351021547608211E+00    1.0167121876336319E+01    1.3021911870109232E+01
Ga    4.7926392267241349E+00    8.2994262412938884E+00    1.3578873564423295E+01
N    4.8197930905563773E+00    8.2848668225317734E+00    1.5542126109448750E+01
Ga    4.6417921860329594E+00    1.0056104644344376E+01    1.6435942474397248E+01
O   -1.5920094259746088E-02    3.8074453018517804E+00   -5.1813056071418062E-01
H    2.4061828252108466E+00    7.0311879647513065E+00    4.5034445877850404E-01
C    1.2726184968899723E+00    3.7579434939764496E+00   -1.1518611309687532E+00
H    2.0369752545645907E+00    4.3360049888434755E+00   -6.0595642354843748E-01
H    1.6314023620428053E+00    2.7218882663252053E+00   -1.2607658600337508E+00
H    1.1637706971742698E+00    4.2019518889303011E+00   -2.1518144330126838E+00
Ga    3.1538674720545945E+00    5.5020576220824147E+00    2.8579403459076675E+00
O    1.9991075674637324E+00    7.4729402688312909E+00   -3.2777685103443638E-01
H    4.8587558774327837E-03    7.3522759167731326E+00    1.6055186804865131E+00
C    2.7955560273893285E+00    8.6383268973941369E+00   -5.8089955350994482E-01
H    2.1976093900377167E+00    9.3372340118226891E+00   -1.1774395436144816E+00
H    6.4147438798860179E+00    7.3543800172405920E+00    1.6107408718380503E+00
H    3.7232313514306239E+00    8.4042860190969382E+00   -1.1243174059169727E+00
     &END COORD
     &KIND C
       BASIS_SET DZVP-MOLOPT-SR-GTH-q4
       POTENTIAL GTH-PBE-q4
       &POTENTIAL
2 2
0.3384712400000000E+00 2 -0.8803673979999999E+01  0.1339210850000000E+01
2
0.3025757500000000E+00 1  0.9622486650000001E+01
0.2915069400000000E+00 0
       &END POTENTIAL
     &END KIND
     &KIND O
       BASIS_SET DZVP-MOLOPT-SR-GTH-q6
       POTENTIAL GTH-PBE-q6
       &POTENTIAL
2 4
0.2445543000000000E+00 2 -0.1666721480000000E+02  0.2487311320000000E+01
2
0.2209559200000000E+00 1  0.1833745811000000E+02
0.2113324700000000E+00 0
       &END POTENTIAL
     &END KIND
     &KIND H
       BASIS_SET DZVP-MOLOPT-SR-GTH-q1
       POTENTIAL GTH-PBE-q1
       &POTENTIAL
1
0.2000000000000000E+00 2 -0.4178900440000000E+01  0.7244633100000000E+00
0
       &END POTENTIAL
     &END KIND
     &KIND N
       BASIS_SET DZVP-MOLOPT-SR-GTH
       POTENTIAL GTH-PBE-q5
       &POTENTIAL
2 3
0.2837905100000000E+00 2 -0.1241522559000000E+02  0.1868095920000000E+01
2
0.2554050000000000E+00 1  0.1363026257000000E+02
0.2454945300000000E+00 0
       &END POTENTIAL
     &END KIND
     &KIND Ga
       BASIS_SET DZVP-MOLOPT-SR-GTH
       POTENTIAL GTH-PBE-q13
       &POTENTIAL
2 1 10
0.4900000000000000E+00 0
3
0.4167772300000000E+00 3  0.1047568975000000E+02 -0.4921768140000000E+01  0.8707055900000000E+00
0.7770178090000000E+01 -0.2248152160000000E+01
0.1784415450000000E+01
0.5696265200000000E+00 2  0.1777985340000000E+01  0.1958597600000000E+00
-0.2317443900000000E+00
0.2381265000000000E+00 1 -0.1624868022000000E+02
       &END POTENTIAL
     &END KIND
     &TOPOLOGY
       NUMBER_OF_ATOMS  212
       MULTIPLE_UNIT_CELL  1 1 1
     &END TOPOLOGY
     &COLVAR
       &DISTANCE
         ATOMS  127 211
       &END DISTANCE
       &PRINT
       &END PRINT
     &END COLVAR
   &END SUBSYS
 &END FORCE_EVAL
