 # Version information for this restart file 
 # current date 2019-07-19 07:36:57.368
 # current working dir /lustre04/scratch/rzk/rzk/GaN-carbene/443-adatoms-both-2x2/09-BondBreaking-CH/02-0401-CH-to-NTop-PES/Phase04-OptimizeAdjustedIntermed909
 # Program compiled at                              Sun Apr  7 00:48:11 EDT 2019
 # Program compiled on                          beluga2.int.ets1.calculquebec.ca
 # Program compiled for                        Beluga-Linux-x86-64-intel-openmpi
 # Source code revision number                                         svn:18619
 &GLOBAL
   PRINT_LEVEL  MEDIUM
   PROJECT_NAME TEST
   RUN_TYPE  GEO_OPT
 &END GLOBAL
 &MOTION
   &GEO_OPT
     MAX_ITER  500
     STEP_START_VAL  180
   &END GEO_OPT
 &END MOTION
 &FORCE_EVAL
   METHOD  QS
   STRESS_TENSOR  ANALYTICAL
   &DFT
     BASIS_SET_FILE_NAME BASIS_MOLOPT
     POTENTIAL_FILE_NAME GTH_POTENTIALS
     UKS  T
     SURFACE_DIPOLE_CORRECTION  T
     SURF_DIP_DIR  Z
     &SCF
       MAX_SCF  80
       EPS_SCF     5.0000000000000004E-06
       &OT  T
         PRECONDITIONER  FULL_ALL
       &END OT
       &OUTER_SCF  T
         OPTIMIZER  NONE
         EPS_SCF     5.0000000000000004E-06
         MAX_SCF  4
       &END OUTER_SCF
       &PRINT
         &RESTART  OFF
           BACKUP_COPIES  1
           &EACH
             JUST_ENERGY  0
             QS_SCF  0
             MD  20
           &END EACH
         &END RESTART
       &END PRINT
     &END SCF
     &QS
       EPS_DEFAULT     1.0000000000000000E-14
       METHOD  GPW
     &END QS
     &MGRID
       NGRIDS  5
       CUTOFF     1.2000000000000000E+03
     &END MGRID
     &XC
       DENSITY_CUTOFF     1.0000000000000000E-10
       GRADIENT_CUTOFF     1.0000000000000000E-10
       TAU_CUTOFF     1.0000000000000000E-10
       &XC_FUNCTIONAL  NO_SHORTCUT
         &PBE  T
         &END PBE
       &END XC_FUNCTIONAL
       &VDW_POTENTIAL
         POTENTIAL_TYPE  PAIR_POTENTIAL
         &PAIR_POTENTIAL
           R_CUTOFF     1.0000000000000009E+01
           TYPE  DFTD3
           PARAMETER_FILE_NAME dftd3.dat
           REFERENCE_FUNCTIONAL PBE
           EPS_CN     9.9999999999999995E-07
           CALCULATE_C9_TERM  T
           REFERENCE_C9_TERM  T
           LONG_RANGE_CORRECTION  F
           VERBOSE_OUTPUT  F
         &END PAIR_POTENTIAL
       &END VDW_POTENTIAL
     &END XC
   &END DFT
   &SUBSYS
     &CELL
       A     1.2864472766435110E+01    0.0000000000000000E+00    0.0000000000000000E+00
       B    -6.4322363581020028E+00    1.1140960178524477E+01    0.0000000000000000E+00
       C     0.0000000000000000E+00    0.0000000000000000E+00    3.2000000000000000E+01
       MULTIPLE_UNIT_CELL  1 1 1
       &CELL_REF
         A     1.2982353780853531E+01    0.0000000000000000E+00    0.0000000000000000E+00
         B    -6.4911768904267628E+00    1.1243048175136114E+01    0.0000000000000000E+00
         C     0.0000000000000000E+00    0.0000000000000000E+00    3.2000000000000000E+01
         MULTIPLE_UNIT_CELL  1 1 1
       &END CELL_REF
     &END CELL
     &COORD
N   -2.9792880162401825E-02    1.9363525577287120E+00    2.4684145285904191E+00
Ga   -3.8025636553841731E-02   -3.0162311214308353E-02    2.7811220197992879E+00
N   -2.7344511968006743E-02   -6.3499282497217466E-02    4.9877396928071285E+00
Ga   -2.1658545364288889E-02    1.7647266558565842E+00    5.7569432841934649E+00
N   -2.1080305405439346E-02    1.7806501717615300E+00    7.7647042729901310E+00
Ga   -1.9882433884266672E-02   -6.4339824021107189E-02    8.4048565033482170E+00
N   -1.9344059704173019E-02   -6.5569213764321607E-02    1.0381960992435751E+01
Ga   -1.9559481208543384E-02    1.7749965892811101E+00    1.1028288191360996E+01
N   -1.9147563721403093E-02    1.7556219509843680E+00    1.3024963287678883E+01
Ga   -1.8481845036819662E-02   -6.5132584672972213E-02    1.3823957869666092E+01
N   -1.9720025080490779E-02   -6.6580065682819697E-02    1.6029995819674589E+01
Ga   -1.8486554205292043E-02    1.9717165424983132E+00    1.6436447682443106E+01
Ga   -4.7681729148296326E-02    3.6323858382412113E+00    1.2846987631279416E+00
N   -1.5077021398938133E+00    4.5117932652063333E+00    2.4740493066669011E+00
Ga   -1.6938801945046800E+00    2.6776315247365337E+00    3.2405690927721866E+00
N   -1.6311525670605762E+00    2.7240904169634956E+00    5.2251847402470091E+00
Ga   -1.6530005258778928E+00    4.5888674295256697E+00    5.7667749211404473E+00
N   -1.6367592723429785E+00    4.5868102344252923E+00    7.7664640845418873E+00
Ga   -1.6172277987021286E+00    2.7267897272553170E+00    8.3999626972857815E+00
N   -1.6172804178135987E+00    2.7277630451236377E+00    1.0397102953741886E+01
Ga   -1.6429724839665263E+00    4.5859349852595832E+00    1.1031386720576787E+01
N   -1.6596793524397204E+00    4.5962924895293860E+00    1.3026957550255046E+01
Ga   -1.6159397240956559E+00    2.7269121202128015E+00    1.3579550710676486E+01
N   -1.6430972590865647E+00    2.7103728678849057E+00    1.5544617083105130E+01
Ga   -1.4713331788910433E+00    4.4871892502656854E+00    1.6436828384646990E+01
N   -2.6829628913237747E-02    3.6442337977401409E+00    1.7570146188021933E+01
N   -3.2405084245986755E+00    7.4696459548473797E+00    2.4674489080312432E+00
Ga   -3.1946067327644232E+00    5.5007831872382500E+00    2.8151640582035062E+00
N   -3.2378859198989294E+00    5.5023927607771217E+00    4.9953201248385026E+00
Ga   -3.2358782226276182E+00    7.3286797580221350E+00    5.7586822123273365E+00
N   -3.2371572264623083E+00    7.3554562070150213E+00    7.7552311047611635E+00
Ga   -3.2342399577702734E+00    5.5094012450406993E+00    8.4093081540626091E+00
N   -3.2362627096204757E+00    5.5077629640923700E+00    1.0383683314985973E+01
Ga   -3.2361578016636270E+00    7.3463606599709355E+00    1.1032577106070208E+01
N   -3.2353276795346271E+00    7.3265228737648274E+00    1.3026487611831305E+01
Ga   -3.2363038389481180E+00    5.5063459731207427E+00    1.3827157908215806E+01
N   -3.2369044689492079E+00    5.5050760594409605E+00    1.6030617888493833E+01
Ga   -3.2350874633826483E+00    7.5460549122442506E+00    1.6440107359791440E+01
Ga   -3.2314659384211013E+00    9.2761869954691765E+00    1.2063860782741380E+00
N   -4.7593562024001042E+00    1.0094616109889619E+01    2.4604723105575466E+00
Ga   -4.8429590490313723E+00    8.3051247774792181E+00    3.2495299819468264E+00
N   -4.8556687014595408E+00    8.2851116046179882E+00    5.1986801118267847E+00
Ga   -4.8762195657361129E+00    1.0173140861079611E+01    5.7519836879579627E+00
N   -4.8544398219241138E+00    1.0151183213778257E+01    7.7549955729227911E+00
Ga   -4.8329404903109907E+00    8.3008918015676372E+00    8.4022608816273312E+00
N   -4.8333096533606117E+00    8.2971326469241653E+00    1.0395009659598605E+01
Ga   -4.8583526637676524E+00    1.0157287878307923E+01    1.1029615101309652E+01
N   -4.8740733195182360E+00    1.0165651428615451E+01    1.3024752680022051E+01
Ga   -4.8315656544822776E+00    8.2981807023285192E+00    1.3581844091623717E+01
N   -4.8598137850467182E+00    8.2812195130453610E+00    1.5544692432936438E+01
Ga   -4.6840715864518270E+00    1.0056171985578576E+01    1.6439789465844907E+01
N   -3.2418055046567629E+00    9.2156573674982774E+00    1.7574672422722195E+01
N    3.1803400640983650E+00    1.7939097805053805E+00    2.5879218596573907E+00
Ga    3.1847806968299577E+00    2.6241276597165065E-02    3.2080001247945966E+00
N    3.1940873643688912E+00   -6.9967419196832928E-02    5.1984607065124626E+00
Ga    3.1843930545657346E+00    1.7857061133962719E+00    5.8235668219526762E+00
N    3.1960833164895290E+00    1.7908877250410580E+00    7.8079309352964774E+00
Ga    3.1951596751164715E+00   -7.5910650091128767E-02    8.3931238020028101E+00
N    3.1960518154441933E+00   -7.8256640956526236E-02    1.0391005583967548E+01
Ga    3.1948925411622699E+00    1.7904300236886141E+00    1.0986223147960228E+01
N    3.1968062625514522E+00    1.7914276176209813E+00    1.2959835945910674E+01
Ga    3.1973123666459573E+00   -7.7694044621739691E-02    1.3580171829283600E+01
N    3.1984263667978339E+00   -4.6462757253100666E-02    1.5542219750480013E+01
Ga    3.1973444052737112E+00    1.7911908945657236E+00    1.5820157481547669E+01
N    1.4717616287814912E+00    4.5172494024656897E+00    2.4776518980205657E+00
Ga    1.6454081980138089E+00    2.6785719185194470E+00    3.2214898224539290E+00
N    1.5866333360275506E+00    2.7194947570423320E+00    5.2138120834093158E+00
Ga    1.6100375261211479E+00    4.5814523139049435E+00    5.7669193253707034E+00
N    1.5955737821923472E+00    4.5841642879868658E+00    7.7657778453167081E+00
Ga    1.5778571346126860E+00    2.7234518592454768E+00    8.3964397254217307E+00
N    1.5778554859825691E+00    2.7266798959746494E+00    1.0394264743221838E+01
Ga    1.6032598890341672E+00    4.5847697163506487E+00    1.1029848654726081E+01
N    1.6206161665749426E+00    4.5953777109163481E+00    1.3025428593479207E+01
Ga    1.5781212815347916E+00    2.7265951218503797E+00    1.3579195442904778E+01
N    1.6057472843071168E+00    2.7118760327796512E+00    1.5542801447545211E+01
Ga    1.4266544251758766E+00    4.4826765372939770E+00    1.6437679761241959E+01
N   -1.6428702236201055E-02    7.3650019172756984E+00    2.6395407935776825E+00
Ga   -1.5105000591422191E-02    5.5076495308502880E+00    3.2712151262881148E+00
N   -2.0215517540611832E-02    5.5243459758894842E+00    5.2183224660989653E+00
Ga   -1.8226346173393648E-02    7.3663911677516385E+00    5.8505243672483624E+00
N   -2.0527200764664112E-02    7.3649963859282250E+00    7.8183589583418529E+00
Ga   -2.0156107105334945E-02    5.4948632739551044E+00    8.4050823056125452E+00
N   -1.9797016996606763E-02    5.4940776732895156E+00    1.0398329418899049E+01
Ga   -2.0744308233386865E-02    7.3629543068009911E+00    1.0988902652115067E+01
N   -2.0109491594345601E-02    7.3626755760386304E+00    1.2961549606057183E+01
Ga   -1.8787398948380163E-02    5.4924166707034514E+00    1.3580190079561220E+01
N   -1.7335250724423146E-02    5.5236524090876271E+00    1.5543578700153276E+01
Ga   -1.9929695632153053E-02    7.3619970510848169E+00    1.5820189656778188E+01
N   -1.7237901330008845E+00    1.0092359242271849E+01    2.4738752955958798E+00
Ga   -1.6242076855611705E+00    8.2889453206823429E+00    3.2440730289273532E+00
N   -1.6184229000345514E+00    8.2835587681062570E+00    5.1965672915569243E+00
Ga   -1.6062811344298493E+00    1.0166705593674278E+01    5.7540719575860901E+00
N   -1.6196073267626880E+00    1.0150893884355973E+01    7.7554501351143008E+00
Ga   -1.6392593702419804E+00    8.2994073867029989E+00    8.4021250342568088E+00
N   -1.6397483085450129E+00    8.2974565897669201E+00    1.0395100202161901E+01
Ga   -1.6142764343797182E+00    1.0157045536364855E+01    1.1030015004236880E+01
N   -1.5962353126622024E+00    1.0165954336921518E+01    1.3024479720477141E+01
Ga   -1.6386392295859471E+00    8.2984867583769848E+00    1.3581140827683154E+01
N   -1.6103594220863260E+00    8.2827671732131449E+00    1.5543121287270319E+01
Ga   -1.7918143505441628E+00    1.0052980373919050E+01    1.6440339451743956E+01
N    6.4131737067783368E+00    1.9095232304549583E+00    2.5114066271409046E+00
Ga    6.4260801246483723E+00   -8.9938357487735654E-02    2.8260801832011699E+00
N    6.4138754569975216E+00   -6.2504466673778000E-02    4.9960123230474318E+00
Ga    6.4115255629826855E+00    1.7605028729765455E+00    5.7713482512527818E+00
N    6.4119568968996168E+00    1.7813826755125037E+00    7.7683923836974111E+00
Ga    6.4107863466345849E+00   -6.7187923799370691E-02    8.4064791689261416E+00
N    6.4115391936804498E+00   -6.5275963269283727E-02    1.0382570103985271E+01
Ga    6.4114218384096109E+00    1.7745600989671817E+00    1.1031118163501491E+01
N    6.4128044005607787E+00    1.7556896066951155E+00    1.3026113369905010E+01
Ga    6.4112574869675134E+00   -6.4466369618693578E-02    1.3825598196046260E+01
N    6.4109997125049221E+00   -6.5826096889137209E-02    1.6030075188270448E+01
Ga    6.4134843417394816E+00    1.9736982395295402E+00    1.6438643320599343E+01
Ga    6.4100496605401442E+00    3.6112968477093963E+00    1.5013697171623841E+00
N    4.9168116716683965E+00    4.5194413705798775E+00    2.4992322959805584E+00
Ga    4.6851761602322215E+00    2.6490249527658092E+00    3.2656541321791956E+00
N    4.8049264401931726E+00    2.7213932016843012E+00    5.2249274105021168E+00
Ga    4.7722625171040658E+00    4.5869358807976948E+00    5.7814136838116044E+00
N    4.7975971599672347E+00    4.5836756612858478E+00    7.7704597148142200E+00
Ga    4.8107993992497278E+00    2.7219908749340251E+00    8.4020355173500878E+00
N    4.8140359520327225E+00    2.7264966493262670E+00    1.0396706226471810E+01
Ga    4.7884781849972446E+00    4.5851121648705258E+00    1.1031850071577143E+01
N    4.7736983529988501E+00    4.5952039954000234E+00    1.3026516865825883E+01
Ga    4.8158746087487927E+00    2.7264049824767960E+00    1.3580896232360843E+01
N    4.7882790863945051E+00    2.7106673753723451E+00    1.5544674403260363E+01
Ga    4.9635525275087886E+00    4.4858965812612439E+00    1.6439470953509378E+01
N    6.4067525002651751E+00    3.6443494390921169E+00    1.7573618025632719E+01
N    3.1892725936016659E+00    7.4494312446520086E+00    2.4527263738436211E+00
N    3.1991475776526910E+00    5.4973657294849758E+00    5.0108189658843969E+00
Ga    3.1947221059816782E+00    7.3297044493753205E+00    5.7618503421723535E+00
N    3.1965080252974976E+00    7.3541772159346150E+00    7.7584147207124268E+00
Ga    3.1937978663345379E+00    5.5070989707687499E+00    8.4083237999291125E+00
N    3.1964872063969625E+00    5.5065335494538106E+00    1.0382983089705355E+01
Ga    3.1957340080016552E+00    7.3446786411753306E+00    1.1033617567155339E+01
N    3.1967767561417437E+00    7.3257408396721795E+00    1.3027764909495611E+01
Ga    3.1970330828683924E+00    5.5044221156655748E+00    1.3827082220076882E+01
N    3.1960151270318322E+00    5.5037584543655580E+00    1.6031156802728365E+01
Ga    3.1978213323439530E+00    7.5433279283672912E+00    1.6437704129440341E+01
Ga    3.1853636771544775E+00    9.4191765942670909E+00    1.2235278878599924E+00
N    1.7089672785721643E+00    1.0099726652352564E+01    2.4879873593959867E+00
Ga    1.6020760209181895E+00    8.2869439091036785E+00    3.2412906677582192E+00
N    1.5783185761184457E+00    8.2835439021700612E+00    5.1994680293659954E+00
Ga    1.5624896307080591E+00    1.0162673025095954E+01    5.7632985567330417E+00
N    1.5771223927223152E+00    1.0149966188043106E+01    7.7630188215346543E+00
Ga    1.5983021337403176E+00    8.2981825482743634E+00    8.4046920104014120E+00
N    1.5992591992831580E+00    8.2965932968111566E+00    1.0397669140756271E+01
Ga    1.5733466168427399E+00    1.0157184795534850E+01    1.1030413434692234E+01
N    1.5565635033311433E+00    1.0166506950713186E+01    1.3026041949711813E+01
Ga    1.5993940761347039E+00    8.2978193172384263E+00    1.3580991653817209E+01
N    1.5724737854115511E+00    8.2807308061004505E+00    1.5545693894917086E+01
Ga    1.7452578407437731E+00    1.0058040989911662E+01    1.6437198108332577E+01
N    3.1894159919109275E+00    9.2156679822144589E+00    1.7569767641797892E+01
N    9.6384418897459749E+00    1.7920435759192477E+00    2.6066860621816521E+00
Ga    9.6288603841246143E+00    3.7195340866720113E-02    3.2668205616406434E+00
N    9.6281783955903251E+00   -6.2420046911452677E-02    5.2362090455933590E+00
Ga    9.6355389707464205E+00    1.7947564926972213E+00    5.8424392198877184E+00
N    9.6265869564926909E+00    1.7949275424976379E+00    7.8209560793051027E+00
Ga    9.6278123633869832E+00   -7.5428915007476213E-02    8.3961050493464118E+00
N    9.6280270616375798E+00   -7.7551699238058963E-02    1.0393895440564503E+01
Ga    9.6283507692237524E+00    1.7918842599333000E+00    1.0986475243650231E+01
N    9.6286553861221549E+00    1.7925025764755633E+00    1.2960538919186908E+01
Ga    9.6293651824417932E+00   -7.6909099019581609E-02    1.3579521667488697E+01
N    9.6312461765588484E+00   -4.6421931471619736E-02    1.5543026749928096E+01
Ga    9.6288858259523433E+00    1.7918842964256727E+00    1.5820393773612793E+01
N    7.9072989580446853E+00    4.5255587632056269E+00    2.4919232541130460E+00
Ga    8.1350628141821879E+00    2.6575380534121047E+00    3.2719458554443448E+00
N    8.0170207558231432E+00    2.7262785502057625E+00    5.2303016487651117E+00
Ga    8.0541091042281572E+00    4.5938103196842484E+00    5.7780222124932017E+00
N    8.0273232294070951E+00    4.5868121418026071E+00    7.7692560500197398E+00
Ga    8.0102515379846171E+00    2.7260045625672178E+00    8.4050795253539086E+00
N    8.0082633711420694E+00    2.7282298217426861E+00    1.0398755987118271E+01
Ga    8.0360350547994379E+00    4.5865466518567644E+00    1.1033055764231634E+01
N    8.0527728391105864E+00    4.5959771922985020E+00    1.3026875602536789E+01
Ga    8.0098802701780922E+00    2.7272792121961733E+00    1.3580537999119487E+01
N    8.0383333386257352E+00    2.7123695949259172E+00    1.5542947017306652E+01
Ga    7.8578986826815402E+00    4.4827322610244096E+00    1.6440102610986301E+01
N    6.4050262215755005E+00    7.3786208920044887E+00    2.6430656628270977E+00
Ga    6.4104394525407393E+00    5.5528069690023365E+00    3.3029951626502694E+00
N    6.4110749983614665E+00    5.5236926667863990E+00    5.2266352883249398E+00
Ga    6.4062997176312866E+00    7.3794345439092410E+00    5.8538892665252629E+00
N    6.4106497641342655E+00    7.3655002756919332E+00    7.8175277096514328E+00
Ga    6.4120823922013024E+00    5.4967231799707994E+00    8.4099843313698752E+00
N    6.4121483082082369E+00    5.4945879118206031E+00    1.0399831107544790E+01
Ga    6.4123579543495204E+00    7.3638903462179437E+00    1.0990577658291738E+01
N    6.4135983469011961E+00    7.3626039397536722E+00    1.2962180785090684E+01
Ga    6.4134021903484877E+00    5.4924457790938197E+00    1.3581664140968439E+01
N    6.4147890467804105E+00    5.5241376579938803E+00    1.5543493197722050E+01
Ga    6.4138977036664837E+00    7.3616602520541896E+00    1.5820586244698811E+01
N    4.6718278377772675E+00    1.0095482725913703E+01    2.4476663769257749E+00
Ga    4.7706059912280487E+00    8.2951706224915149E+00    3.2331296761618273E+00
N    4.8098978652204529E+00    8.2863734776743652E+00    5.1901685043639993E+00
Ga    4.8329775472913141E+00    1.0167679685080246E+01    5.7624586621598235E+00
N    4.8138318263987001E+00    1.0149336363020280E+01    7.7629644300541987E+00
Ga    4.7913931820292106E+00    8.2996147220979957E+00    8.4071490756727485E+00
N    4.7926938044697946E+00    8.2966747444376807E+00    1.0398489828023305E+01
Ga    4.8191005199526922E+00    1.0158032986122249E+01    1.1029871397514883E+01
N    4.8364489506842343E+00    1.0166212444277873E+01    1.3025171688902358E+01
Ga    4.7945191809570504E+00    8.2980453432500703E+00    1.3580751789502507E+01
N    4.8224652241800703E+00    8.2824923931597247E+00    1.5543687104908193E+01
Ga    4.6425888351687803E+00    1.0053498388915857E+01    1.6438067423421991E+01
O   -1.6192087598299702E-02    3.8108825065022556E+00   -5.1745337479197251E-01
H    2.3965618017201473E+00    7.0295342743522271E+00    4.5238890395082554E-01
C    1.2696426143906068E+00    3.7572667198963061E+00   -1.1540690996085294E+00
H    2.0425548873216401E+00    4.3163354285123878E+00   -5.9984633250469399E-01
H    1.6164253702187612E+00    2.7188345653443182E+00   -1.2809346693896282E+00
H    1.1651311923698162E+00    4.2187567580552514E+00   -2.1469494790883616E+00
Ga    3.1540620431448869E+00    5.5020881118398908E+00    2.8618901421185554E+00
O    1.9864682312255439E+00    7.4782224631727487E+00   -3.1961804526748289E-01
H    4.2845517722862481E-03    7.3556931502592091E+00    1.6100467379027246E+00
C    2.7863371452374173E+00    8.6402147138905541E+00   -5.7477358918210741E-01
H    2.1864971509166935E+00    9.3413910710555701E+00   -1.1677435642226779E+00
H    6.4119568561843021E+00    7.3556055723335962E+00    1.6163031367535643E+00
H    3.7107526694777460E+00    8.4035632512947362E+00   -1.1235721816082045E+00
     &END COORD
     &KIND C
       BASIS_SET DZVP-MOLOPT-SR-GTH-q4
       POTENTIAL GTH-PBE-q4
       &POTENTIAL
2 2
0.3384712400000000E+00 2 -0.8803673979999999E+01  0.1339210850000000E+01
2
0.3025757500000000E+00 1  0.9622486650000001E+01
0.2915069400000000E+00 0
       &END POTENTIAL
     &END KIND
     &KIND O
       BASIS_SET DZVP-MOLOPT-SR-GTH-q6
       POTENTIAL GTH-PBE-q6
       &POTENTIAL
2 4
0.2445543000000000E+00 2 -0.1666721480000000E+02  0.2487311320000000E+01
2
0.2209559200000000E+00 1  0.1833745811000000E+02
0.2113324700000000E+00 0
       &END POTENTIAL
     &END KIND
     &KIND H
       BASIS_SET DZVP-MOLOPT-SR-GTH-q1
       POTENTIAL GTH-PBE-q1
       &POTENTIAL
1
0.2000000000000000E+00 2 -0.4178900440000000E+01  0.7244633100000000E+00
0
       &END POTENTIAL
     &END KIND
     &KIND N
       BASIS_SET DZVP-MOLOPT-SR-GTH
       POTENTIAL GTH-PBE-q5
       &POTENTIAL
2 3
0.2837905100000000E+00 2 -0.1241522559000000E+02  0.1868095920000000E+01
2
0.2554050000000000E+00 1  0.1363026257000000E+02
0.2454945300000000E+00 0
       &END POTENTIAL
     &END KIND
     &KIND Ga
       BASIS_SET DZVP-MOLOPT-SR-GTH
       POTENTIAL GTH-PBE-q13
       &POTENTIAL
2 1 10
0.4900000000000000E+00 0
3
0.4167772300000000E+00 3  0.1047568975000000E+02 -0.4921768140000000E+01  0.8707055900000000E+00
0.7770178090000000E+01 -0.2248152160000000E+01
0.1784415450000000E+01
0.5696265200000000E+00 2  0.1777985340000000E+01  0.1958597600000000E+00
-0.2317443900000000E+00
0.2381265000000000E+00 1 -0.1624868022000000E+02
       &END POTENTIAL
     &END KIND
     &TOPOLOGY
       NUMBER_OF_ATOMS  212
       MULTIPLE_UNIT_CELL  1 1 1
     &END TOPOLOGY
     &COLVAR
       &DISTANCE
         ATOMS  127 211
       &END DISTANCE
       &PRINT
       &END PRINT
     &END COLVAR
   &END SUBSYS
 &END FORCE_EVAL
