 # Version information for this restart file 
 # current date 2019-07-18 23:12:13.579
 # current working dir /lustre04/scratch/rzk/rzk/GaN-carbene/443-adatoms-both-2x2/09-BondBreaking-CH/02-0401-CH-to-NTop-PES/Phase04-OptimizeAdjustedIntermed909
 # Program compiled at                              Sun Apr  7 00:48:11 EDT 2019
 # Program compiled on                          beluga2.int.ets1.calculquebec.ca
 # Program compiled for                        Beluga-Linux-x86-64-intel-openmpi
 # Source code revision number                                         svn:18619
 &GLOBAL
   PRINT_LEVEL  MEDIUM
   PROJECT_NAME TEST
   RUN_TYPE  GEO_OPT
 &END GLOBAL
 &MOTION
   &GEO_OPT
     MAX_ITER  500
     STEP_START_VAL  24
   &END GEO_OPT
 &END MOTION
 &FORCE_EVAL
   METHOD  QS
   STRESS_TENSOR  ANALYTICAL
   &DFT
     BASIS_SET_FILE_NAME BASIS_MOLOPT
     POTENTIAL_FILE_NAME GTH_POTENTIALS
     UKS  T
     SURFACE_DIPOLE_CORRECTION  T
     SURF_DIP_DIR  Z
     &SCF
       MAX_SCF  80
       EPS_SCF     5.0000000000000004E-06
       &OT  T
         PRECONDITIONER  FULL_ALL
       &END OT
       &OUTER_SCF  T
         OPTIMIZER  NONE
         EPS_SCF     5.0000000000000004E-06
         MAX_SCF  4
       &END OUTER_SCF
       &PRINT
         &RESTART  OFF
           BACKUP_COPIES  1
           &EACH
             JUST_ENERGY  0
             QS_SCF  0
             MD  20
           &END EACH
         &END RESTART
       &END PRINT
     &END SCF
     &QS
       EPS_DEFAULT     1.0000000000000000E-14
       METHOD  GPW
     &END QS
     &MGRID
       NGRIDS  5
       CUTOFF     1.2000000000000000E+03
     &END MGRID
     &XC
       DENSITY_CUTOFF     1.0000000000000000E-10
       GRADIENT_CUTOFF     1.0000000000000000E-10
       TAU_CUTOFF     1.0000000000000000E-10
       &XC_FUNCTIONAL  NO_SHORTCUT
         &PBE  T
         &END PBE
       &END XC_FUNCTIONAL
       &VDW_POTENTIAL
         POTENTIAL_TYPE  PAIR_POTENTIAL
         &PAIR_POTENTIAL
           R_CUTOFF     1.0000000000000009E+01
           TYPE  DFTD3
           PARAMETER_FILE_NAME dftd3.dat
           REFERENCE_FUNCTIONAL PBE
           EPS_CN     9.9999999999999995E-07
           CALCULATE_C9_TERM  T
           REFERENCE_C9_TERM  T
           LONG_RANGE_CORRECTION  F
           VERBOSE_OUTPUT  F
         &END PAIR_POTENTIAL
       &END VDW_POTENTIAL
     &END XC
   &END DFT
   &SUBSYS
     &CELL
       A     1.2864472766435110E+01    0.0000000000000000E+00    0.0000000000000000E+00
       B    -6.4322363581020028E+00    1.1140960178524477E+01    0.0000000000000000E+00
       C     0.0000000000000000E+00    0.0000000000000000E+00    3.2000000000000000E+01
       MULTIPLE_UNIT_CELL  1 1 1
       &CELL_REF
         A     1.2982353780853531E+01    0.0000000000000000E+00    0.0000000000000000E+00
         B    -6.4911768904267628E+00    1.1243048175136114E+01    0.0000000000000000E+00
         C     0.0000000000000000E+00    0.0000000000000000E+00    3.2000000000000000E+01
         MULTIPLE_UNIT_CELL  1 1 1
       &END CELL_REF
     &END CELL
     &COORD
N   -3.9400502478883787E-03    1.9607405986126416E+00    2.5118021412046798E+00
Ga   -2.2686405833274720E-02   -2.8549149353907875E-02    2.8341436972981242E+00
N    1.9421070684011235E-03   -1.6263456474035154E-02    5.0103510702551723E+00
Ga    1.1400726139067471E-03    1.8027696308105920E+00    5.7930804723778042E+00
N    5.3772492751177478E-03    1.8289071024551111E+00    7.7879594484514429E+00
Ga    1.6964242224280601E-03   -2.1512740838372537E-02    8.4155268481402370E+00
N    4.6277512902107142E-03   -1.5385942560170191E-02    1.0391949233994605E+01
Ga    5.0248234893114311E-03    1.8240898067079274E+00    1.1050124936566659E+01
N    5.2770646286638195E-03    1.8080981711786246E+00    1.3044772625524304E+01
Ga    5.8061899442774728E-03   -1.3811813016589949E-02    1.3847404904877303E+01
N    4.6945851697388647E-03   -1.1638083902017572E-02    1.6045586916084503E+01
Ga    5.7076023490807912E-03    2.0178927927421362E+00    1.6452281138840920E+01
Ga   -2.9171347906609291E-02    3.6530898987998044E+00    1.4945867895560032E+00
N   -1.4896697870847164E+00    4.5521664533952295E+00    2.5094163984217426E+00
Ga   -1.7055944166526178E+00    2.6825261353537737E+00    3.2923982990420528E+00
N   -1.6095158404870458E+00    2.7623645569045734E+00    5.2502430263834174E+00
Ga   -1.6352490647266740E+00    4.6274545831923932E+00    5.8001871189970915E+00
N   -1.6124786296253502E+00    4.6306928091946338E+00    7.7875084666834287E+00
Ga   -1.5950615194451623E+00    2.7689770373866316E+00    8.4208257530369419E+00
N   -1.5924199888351132E+00    2.7780274241214680E+00    1.0413705284566584E+01
Ga   -1.6189124714102645E+00    4.6379415100919124E+00    1.1052627184589385E+01
N   -1.6353482406663191E+00    4.6503720521030001E+00    1.3045755034651739E+01
Ga   -1.5916032338755226E+00    2.7806395105324140E+00    1.3599352874761520E+01
N   -1.6176812955773587E+00    2.7684682458436560E+00    1.5565979901406642E+01
Ga   -1.4568123822270109E+00    4.5506589072894812E+00    1.6451141121794155E+01
N   -3.0935871264439318E-03    3.7017802530273447E+00    1.7579291968056250E+01
N   -3.2177162618345738E+00    7.5112797625988756E+00    2.4854960702530713E+00
Ga   -3.2027517944060722E+00    5.5502396546222208E+00    2.8631332350367478E+00
N   -3.2121185177202474E+00    5.5439821159866707E+00    5.0090917880947075E+00
Ga   -3.2159130290079325E+00    7.3747181842933163E+00    5.7744232164566238E+00
N   -3.2122463577147360E+00    7.4010553933522196E+00    7.7652329336060602E+00
Ga   -3.2116937674890536E+00    5.5557652333164471E+00    8.4247739569840405E+00
N   -3.2109518644218009E+00    5.5590425661629705E+00    1.0396102502206828E+01
Ga   -3.2113179182679898E+00    7.3987699442994499E+00    1.1047853129251266E+01
N   -3.2111858684480103E+00    7.3811163564042106E+00    1.3038684645835882E+01
Ga   -3.2130522270940340E+00    5.5631763007623283E+00    1.3848663697479230E+01
N   -3.2136086994295869E+00    5.5643052635612733E+00    1.6045171835258930E+01
Ga   -3.2120769376067870E+00    7.6151313423232674E+00    1.6469084867143568E+01
Ga   -3.2102934945053772E+00    9.3253707355147402E+00    1.2460276940243180E+00
N   -4.7269395000098067E+00    1.0138809132694201E+01    2.4820595749975261E+00
Ga   -4.8293874652728874E+00    8.3430895435052275E+00    3.2611119059395302E+00
N   -4.8341057912789855E+00    8.3280685645014429E+00    5.2060227952509823E+00
Ga   -4.8514009656546255E+00    1.0214507986188867E+01    5.7690731334147003E+00
N   -4.8271745683660585E+00    1.0199361426016653E+01    7.7666352046936753E+00
Ga   -4.8095775897992246E+00    8.3479227157162281E+00    8.4129547153009216E+00
N   -4.8076090901416553E+00    8.3492925584018867E+00    1.0402995977990059E+01
Ga   -4.8342733653255419E+00    1.0209452561516894E+01    1.1044804068059264E+01
N   -4.8503287635647672E+00    1.0220733904099914E+01    1.3037139519626436E+01
Ga   -4.8087053990548725E+00    8.3525192541539219E+00    1.3594875578045935E+01
N   -4.8367958768966597E+00    8.3372267073888686E+00    1.5555125331871537E+01
Ga   -4.6492551164534346E+00    1.0104576468896749E+01    1.6469605597047956E+01
N   -3.2163071564115246E+00    9.2718939750882008E+00    1.7609935085222716E+01
N    3.2035183514502084E+00    1.8392721967525028E+00    2.5882695113334155E+00
Ga    3.2108348818453614E+00    7.3340522588672186E-02    3.2384730479549546E+00
N    3.2168204038621422E+00   -1.9217282260683418E-02    5.2183577191374946E+00
Ga    3.2153142476996504E+00    1.8313812157825828E+00    5.8630364769860934E+00
N    3.2226991112179566E+00    1.8417673443090943E+00    7.8340598372112655E+00
Ga    3.2204329024011114E+00   -2.7937033439981614E-02    8.4146999063402905E+00
N    3.2209499594410507E+00   -2.4165750338326214E-02    1.0407103739445541E+01
Ga    3.2218488547597550E+00    1.8440729863215841E+00    1.1007754501526877E+01
N    3.2214323673016114E+00    1.8467280208169712E+00    1.2977698194524205E+01
Ga    3.2216721078515023E+00   -2.3389017415954852E-02    1.3598324468934209E+01
N    3.2217837006347425E+00    1.0789842952840807E-02    1.5557314704435212E+01
Ga    3.2225857629692980E+00    1.8465365315100795E+00    1.5845162771372090E+01
N    1.4824783393057630E+00    4.5461492843941471E+00    2.5216937373579786E+00
Ga    1.6904682688216197E+00    2.7004415441948959E+00    3.2943198436238577E+00
N    1.6111862665483272E+00    2.7617743940124480E+00    5.2547467217805002E+00
Ga    1.6396257420710514E+00    4.6297085839627874E+00    5.8056291434090008E+00
N    1.6202651226533027E+00    4.6327148018316651E+00    7.7921539480912685E+00
Ga    1.6030794717360783E+00    2.7730971801127118E+00    8.4263714837965633E+00
N    1.6029383918530720E+00    2.7794012095993721E+00    1.0416647590862272E+01
Ga    1.6294191397986046E+00    4.6397694821886839E+00    1.1050975891983605E+01
N    1.6450614834081236E+00    4.6500072384099287E+00    1.3044397304615888E+01
Ga    1.6027826254273203E+00    2.7806052446014449E+00    1.3598886925364214E+01
N    1.6292596574875011E+00    2.7697902348201162E+00    1.5564845136561265E+01
Ga    1.4596079942944442E+00    4.5446969126410171E+00    1.6452426305661486E+01
N   -7.8072509125185771E-03    7.3955664783172459E+00    2.6589364131837177E+00
Ga    8.7885805593269604E-03    5.5720912251288883E+00    3.3366984049378456E+00
N    2.6834851890869413E-04    5.5642834540477111E+00    5.2600689767212403E+00
Ga    9.4592893699585370E-03    7.4200756040336788E+00    5.8689430586534064E+00
N    4.7899999335504007E-03    7.4149737774879600E+00    7.8314210902616503E+00
Ga    3.4464506813949836E-03    5.5456575986880106E+00    8.4269070314832693E+00
N    4.1497920338707025E-03    5.5468172545358554E+00    1.0415687424111640E+01
Ga    4.7484902593522699E-03    7.4173198015635364E+00    1.1005452009226605E+01
N    5.1201707158362881E-03    7.4176677696265347E+00    1.2975319993623799E+01
Ga    5.5579043338586888E-03    5.5490459389772386E+00    1.3598235556664955E+01
N    8.0807398020449894E-03    5.5787690439630184E+00    1.5563494078686755E+01
Ga    5.0545744354485644E-03    7.4196572696798455E+00    1.5845212067297899E+01
N   -1.7096156250222057E+00    1.0134935603420130E+01    2.4985488814572103E+00
Ga   -1.6054113453286705E+00    8.3341002602546794E+00    3.2715043322573081E+00
N   -1.5970431004451027E+00    8.3280043635302778E+00    5.2161939287393819E+00
Ga   -1.5829152324026441E+00    1.0213283816681686E+01    5.7754276941013902E+00
N   -1.5961938251543675E+00    1.0200264770125397E+01    7.7701555871975811E+00
Ga   -1.6151909746068034E+00    8.3484114028095835E+00    8.4165976987158775E+00
N   -1.6154824269770951E+00    8.3498194191768533E+00    1.0406585484918972E+01
Ga   -1.5876170185567249E+00    1.0210161715474859E+01    1.1045761112166304E+01
N   -1.5716067202221173E+00    1.0220634087213103E+01    1.3037818738423276E+01
Ga   -1.6142159228839921E+00    8.3530791543724128E+00    1.3598199353839819E+01
N   -1.5849362875264064E+00    8.3372869708092896E+00    1.5557186557046137E+01
Ga   -1.7759838347429426E+00    1.0103691666275228E+01    1.6470175449464879E+01
N    6.4282149351156725E+00    1.9505193050537448E+00    2.5265375432875969E+00
Ga    6.4424206699182838E+00   -4.8038120404706008E-02    2.8646130192616530E+00
N    6.4300643235310231E+00   -1.4812732806861838E-02    5.0166116046625193E+00
Ga    6.4339616782231461E+00    1.8064636810402717E+00    5.7892936546863991E+00
N    6.4371006735509591E+00    1.8317704059940483E+00    7.7812435095064352E+00
Ga    6.4405290428446458E+00   -1.9456746960946292E-02    8.4139991049863418E+00
N    6.4381691716275533E+00   -1.3977038193749300E-02    1.0390001560094216E+01
Ga    6.4395357545367302E+00    1.8250782630960782E+00    1.1047242796020745E+01
N    6.4383124164480687E+00    1.8087085163194005E+00    1.3040633425247504E+01
Ga    6.4354786614928701E+00   -1.1784086277690292E-02    1.3851396462610607E+01
N    6.4358224593682749E+00   -9.7630884847688965E-03    1.6043071195483719E+01
Ga    6.4381088596045410E+00    2.0296089156771946E+00    1.6458716788998359E+01
Ga    6.4358368538765465E+00    3.6454722991807387E+00    1.4977285509895639E+00
N    4.9283425662987854E+00    4.5572343948202994E+00    2.4994714110696274E+00
Ga    4.7129253942829266E+00    2.6951606607625029E+00    3.2837804225776037E+00
N    4.8246535601540144E+00    2.7674141257258458E+00    5.2384576875137769E+00
Ga    4.7941317626608315E+00    4.6360532709538225E+00    5.7962220711061265E+00
N    4.8236996430642485E+00    4.6330799922124779E+00    7.7822922607831195E+00
Ga    4.8402070101122732E+00    2.7745386737656341E+00    8.4236018695635355E+00
N    4.8411793057596526E+00    2.7798590142343040E+00    1.0413632726617728E+01
Ga    4.8144214423261982E+00    4.6397663025463416E+00    1.1047511286030963E+01
N    4.7973970128340060E+00    4.6498640351681670E+00    1.3039822428115350E+01
Ga    4.8414909328120723E+00    2.7807633637233975E+00    1.3596771548112999E+01
N    4.8128598121065744E+00    2.7690327807349000E+00    1.5560235593573193E+01
Ga    4.9909971670112663E+00    4.5419399673909728E+00    1.6457916006565529E+01
N    6.4329425567372018E+00    3.7010542291619273E+00    1.7591057671278765E+01
N    3.2055768501394364E+00    7.4691405142984406E+00    2.4662349311416931E+00
N    3.2153480311835447E+00    5.5362555747567344E+00    5.0282008413978572E+00
Ga    3.2163111201968877E+00    7.3788315105038276E+00    5.7528746374432940E+00
N    3.2203033733259181E+00    7.4041305651158389E+00    7.7572443926234076E+00
Ga    3.2219851743849253E+00    5.5625388430253757E+00    8.4214085929826599E+00
N    3.2221322875823342E+00    5.5606142196206170E+00    1.0395130058204460E+01
Ga    3.2204686333949035E+00    7.3995127873586313E+00    1.1046708460505299E+01
N    3.2199004937838209E+00    7.3804908513706069E+00    1.3039398330047193E+01
Ga    3.2220540121344383E+00    5.5603783686191326E+00    1.3844748920069076E+01
N    3.2215374724439991E+00    5.5619077691767833E+00    1.6045693153377151E+01
Ga    3.2226579148025514E+00    7.6038284223044945E+00    1.6456994555699488E+01
Ga    3.1769170883542071E+00    9.3006858519081721E+00    1.0189096718257256E+00
N    1.6836628046074353E+00    1.0135145794475379E+01    2.4520904836442337E+00
Ga    1.6269367153021144E+00    8.3432665650121560E+00    3.2163060239315797E+00
N    1.5965462393971150E+00    8.3264867425601174E+00    5.1869316209739518E+00
Ga    1.5927497360843497E+00    1.0206470549183782E+01    5.7538854702036630E+00
N    1.6053082315064329E+00    1.0198666793608535E+01    7.7581828884556412E+00
Ga    1.6265192017014396E+00    8.3499328561304278E+00    8.4126198714506923E+00
N    1.6241218606773726E+00    8.3499262570231512E+00    1.0405588961648398E+01
Ga    1.5979292366741376E+00    1.0208999201169698E+01    1.1045906569565414E+01
N    1.5811774466876429E+00    1.0220519469348361E+01    1.3039635346156601E+01
Ga    1.6236796385501708E+00    8.3524458301684383E+00    1.3596712004400855E+01
N    1.5987049232182136E+00    8.3364416541751449E+00    1.5560120825470213E+01
Ga    1.7685935809518416E+00    1.0114954109611331E+01    1.6457628733971003E+01
N    3.2140220745883736E+00    9.2746648448915980E+00    1.7589781934914146E+01
N    9.6513664673840402E+00    1.8300905130609650E+00    2.5899969160966410E+00
Ga    9.6441915545334780E+00    3.3022501726030440E-02    3.1708118536381833E+00
N    9.6481685470275718E+00   -2.5440436025164992E-02    5.1831963884856336E+00
Ga    9.6515707999666116E+00    1.8139589063637565E+00    5.8457610098419739E+00
N    9.6525376550867428E+00    1.8354765180120352E+00    7.8229560155205684E+00
Ga    9.6533094002176885E+00   -3.1949195226958431E-02    8.4072609422473032E+00
N    9.6534851920303648E+00   -2.6813820501386879E-02    1.0403208261094177E+01
Ga    9.6541927202082114E+00    1.8415429581909286E+00    1.1005163361028126E+01
N    9.6541618257578197E+00    1.8456779538822670E+00    1.2976399594027786E+01
Ga    9.6533537216898555E+00   -2.3554833742909956E-02    1.3596756537222609E+01
N    9.6562976944096732E+00    1.0029778068733650E-02    1.5559079606029606E+01
Ga    9.6535426379309524E+00    1.8482341160451912E+00    1.5846456216555294E+01
N    7.9292206090093034E+00    4.5626856051170614E+00    2.5141452807347968E+00
Ga    8.1505944248584612E+00    2.6865291718833197E+00    3.2826605200789731E+00
N    8.0415195427687003E+00    2.7665810467385681E+00    5.2378507003974555E+00
Ga    8.0707389429346286E+00    4.6338081347413924E+00    5.7866665284988716E+00
N    8.0532867760559483E+00    4.6323182046728677E+00    7.7752909209158059E+00
Ga    8.0388561324990988E+00    2.7711075856921448E+00    8.4165900779693530E+00
N    8.0371340352497089E+00    2.7786885190756223E+00    1.0409103530205249E+01
Ga    8.0621131866239129E+00    4.6376332467868835E+00    1.1048425450687592E+01
N    8.0775299820741164E+00    4.6497729106153072E+00    1.3039730906848579E+01
Ga    8.0348644976535528E+00    2.7809092675596889E+00    1.3597010031296731E+01
N    8.0636238347979639E+00    2.7703652123422202E+00    1.5559124955134266E+01
Ga    7.8809188825198815E+00    4.5412749765265081E+00    1.6457967622716478E+01
N    6.4260932843289975E+00    7.4149011893079075E+00    2.6326018993323212E+00
Ga    6.4210229016005318E+00    5.5924163264706319E+00    3.3058957895633534E+00
N    6.4313780678877048E+00    5.5669189534058470E+00    5.2292637696822828E+00
Ga    6.4218963068912647E+00    7.4250049441106221E+00    5.8556472856602220E+00
N    6.4352837791059159E+00    7.4140917157437034E+00    7.8194367977747525E+00
Ga    6.4393306958327790E+00    5.5467295750693513E+00    8.4201332915495009E+00
N    6.4392412092088769E+00    5.5462582481527392E+00    1.0408158712598823E+01
Ga    6.4363518981651460E+00    7.4168148876301787E+00    1.0999855401805650E+01
N    6.4360534595748646E+00    7.4178453448419255E+00    1.2969142357961395E+01
Ga    6.4372929248944866E+00    5.5489639087334552E+00    1.3592445102943639E+01
N    6.4375854424129599E+00    5.5797327367638747E+00    1.5554310424527223E+01
Ga    6.4378721212897334E+00    7.4190399399260576E+00    1.5837338121922105E+01
N    4.7318136195891611E+00    1.0137978107266518E+01    2.4359980425874896E+00
Ga    4.7861023013252222E+00    8.3520295702632730E+00    3.2055466208482239E+00
N    4.8316556452068644E+00    8.3284975818713534E+00    5.1756659112287746E+00
Ga    4.8440774182964867E+00    1.0207984757250228E+01    5.7491315150378917E+00
N    4.8361844343212006E+00    1.0198168122893053E+01    7.7563302264112588E+00
Ga    4.8141029861888924E+00    8.3493251109835889E+00    8.4097133216003108E+00
N    4.8172396828138249E+00    8.3491738526175414E+00    1.0402269705648138E+01
Ga    4.8435970591643773E+00    1.0208203774738982E+01    1.1043881093314104E+01
N    4.8599268618795142E+00    1.0220356739300309E+01    1.3037592968549983E+01
Ga    4.8177264177269770E+00    8.3519955895082383E+00    1.3592845056833509E+01
N    4.8445153038626403E+00    8.3388831964298067E+00    1.5555343915887883E+01
Ga    4.6669981845685253E+00    1.0109128944224299E+01    1.6457917750236536E+01
O    4.6995641915484754E-01    3.6588842268117978E+00   -4.5699689816224343E-01
H    6.9392672929856747E-01    4.6353454724690177E+00   -6.0085361941241122E-01
C    1.6727607879938371E+00    2.8295397373804003E+00   -6.7429146862318101E-01
H    2.4495714603283081E+00    3.0751835839294914E+00    6.3603247248420147E-02
H    1.3664665426256528E+00    1.7878187773118583E+00   -5.3927025529211980E-01
H    2.0150177062336994E+00    3.0011863827938825E+00   -1.6989589833293441E+00
Ga    3.1853396610295186E+00    5.5515207381784597E+00    2.8705467472441506E+00
O    6.8053547247525126E-01    6.2827813944994579E+00   -4.2002924540515757E-01
H   -3.0635339219940171E-02    7.3136097569053238E+00    1.6362293501379142E+00
C    1.3194105374310876E+00    7.2160109722409009E+00   -9.3592032128292668E-01
H    1.0494153983463479E+00    8.2678473595560185E+00   -7.2254871050461433E-01
H    6.4429424614674122E+00    7.3867725737532988E+00    1.6072223530939589E+00
H    2.1580858235935305E+00    7.0351393664862174E+00   -1.6355214078283562E+00
     &END COORD
     &KIND C
       BASIS_SET DZVP-MOLOPT-SR-GTH-q4
       POTENTIAL GTH-PBE-q4
       &POTENTIAL
2 2
0.3384712400000000E+00 2 -0.8803673979999999E+01  0.1339210850000000E+01
2
0.3025757500000000E+00 1  0.9622486650000001E+01
0.2915069400000000E+00 0
       &END POTENTIAL
     &END KIND
     &KIND O
       BASIS_SET DZVP-MOLOPT-SR-GTH-q6
       POTENTIAL GTH-PBE-q6
       &POTENTIAL
2 4
0.2445543000000000E+00 2 -0.1666721480000000E+02  0.2487311320000000E+01
2
0.2209559200000000E+00 1  0.1833745811000000E+02
0.2113324700000000E+00 0
       &END POTENTIAL
     &END KIND
     &KIND H
       BASIS_SET DZVP-MOLOPT-SR-GTH-q1
       POTENTIAL GTH-PBE-q1
       &POTENTIAL
1
0.2000000000000000E+00 2 -0.4178900440000000E+01  0.7244633100000000E+00
0
       &END POTENTIAL
     &END KIND
     &KIND N
       BASIS_SET DZVP-MOLOPT-SR-GTH
       POTENTIAL GTH-PBE-q5
       &POTENTIAL
2 3
0.2837905100000000E+00 2 -0.1241522559000000E+02  0.1868095920000000E+01
2
0.2554050000000000E+00 1  0.1363026257000000E+02
0.2454945300000000E+00 0
       &END POTENTIAL
     &END KIND
     &KIND Ga
       BASIS_SET DZVP-MOLOPT-SR-GTH
       POTENTIAL GTH-PBE-q13
       &POTENTIAL
2 1 10
0.4900000000000000E+00 0
3
0.4167772300000000E+00 3  0.1047568975000000E+02 -0.4921768140000000E+01  0.8707055900000000E+00
0.7770178090000000E+01 -0.2248152160000000E+01
0.1784415450000000E+01
0.5696265200000000E+00 2  0.1777985340000000E+01  0.1958597600000000E+00
-0.2317443900000000E+00
0.2381265000000000E+00 1 -0.1624868022000000E+02
       &END POTENTIAL
     &END KIND
     &TOPOLOGY
       NUMBER_OF_ATOMS  212
       MULTIPLE_UNIT_CELL  1 1 1
     &END TOPOLOGY
     &COLVAR
       &DISTANCE
         ATOMS  127 211
       &END DISTANCE
       &PRINT
       &END PRINT
     &END COLVAR
   &END SUBSYS
 &END FORCE_EVAL
