 # Version information for this restart file 
 # current date 2019-07-18 23:20:13.197
 # current working dir /lustre04/scratch/rzk/rzk/GaN-carbene/443-adatoms-both-2x2/09-BondBreaking-CH/02-0401-CH-to-NTop-PES/Phase04-OptimizeAdjustedIntermed909
 # Program compiled at                              Sun Apr  7 00:48:11 EDT 2019
 # Program compiled on                          beluga2.int.ets1.calculquebec.ca
 # Program compiled for                        Beluga-Linux-x86-64-intel-openmpi
 # Source code revision number                                         svn:18619
 &GLOBAL
   PRINT_LEVEL  MEDIUM
   PROJECT_NAME TEST
   RUN_TYPE  GEO_OPT
 &END GLOBAL
 &MOTION
   &GEO_OPT
     MAX_ITER  500
     STEP_START_VAL  25
   &END GEO_OPT
 &END MOTION
 &FORCE_EVAL
   METHOD  QS
   STRESS_TENSOR  ANALYTICAL
   &DFT
     BASIS_SET_FILE_NAME BASIS_MOLOPT
     POTENTIAL_FILE_NAME GTH_POTENTIALS
     UKS  T
     SURFACE_DIPOLE_CORRECTION  T
     SURF_DIP_DIR  Z
     &SCF
       MAX_SCF  80
       EPS_SCF     5.0000000000000004E-06
       &OT  T
         PRECONDITIONER  FULL_ALL
       &END OT
       &OUTER_SCF  T
         OPTIMIZER  NONE
         EPS_SCF     5.0000000000000004E-06
         MAX_SCF  4
       &END OUTER_SCF
       &PRINT
         &RESTART  OFF
           BACKUP_COPIES  1
           &EACH
             JUST_ENERGY  0
             QS_SCF  0
             MD  20
           &END EACH
         &END RESTART
       &END PRINT
     &END SCF
     &QS
       EPS_DEFAULT     1.0000000000000000E-14
       METHOD  GPW
     &END QS
     &MGRID
       NGRIDS  5
       CUTOFF     1.2000000000000000E+03
     &END MGRID
     &XC
       DENSITY_CUTOFF     1.0000000000000000E-10
       GRADIENT_CUTOFF     1.0000000000000000E-10
       TAU_CUTOFF     1.0000000000000000E-10
       &XC_FUNCTIONAL  NO_SHORTCUT
         &PBE  T
         &END PBE
       &END XC_FUNCTIONAL
       &VDW_POTENTIAL
         POTENTIAL_TYPE  PAIR_POTENTIAL
         &PAIR_POTENTIAL
           R_CUTOFF     1.0000000000000009E+01
           TYPE  DFTD3
           PARAMETER_FILE_NAME dftd3.dat
           REFERENCE_FUNCTIONAL PBE
           EPS_CN     9.9999999999999995E-07
           CALCULATE_C9_TERM  T
           REFERENCE_C9_TERM  T
           LONG_RANGE_CORRECTION  F
           VERBOSE_OUTPUT  F
         &END PAIR_POTENTIAL
       &END VDW_POTENTIAL
     &END XC
   &END DFT
   &SUBSYS
     &CELL
       A     1.2864472766435110E+01    0.0000000000000000E+00    0.0000000000000000E+00
       B    -6.4322363581020028E+00    1.1140960178524477E+01    0.0000000000000000E+00
       C     0.0000000000000000E+00    0.0000000000000000E+00    3.2000000000000000E+01
       MULTIPLE_UNIT_CELL  1 1 1
       &CELL_REF
         A     1.2982353780853531E+01    0.0000000000000000E+00    0.0000000000000000E+00
         B    -6.4911768904267628E+00    1.1243048175136114E+01    0.0000000000000000E+00
         C     0.0000000000000000E+00    0.0000000000000000E+00    3.2000000000000000E+01
         MULTIPLE_UNIT_CELL  1 1 1
       &END CELL_REF
     &END CELL
     &COORD
N   -4.9693713721163249E-03    1.9633244983597884E+00    2.5040676506191959E+00
Ga   -1.7350206930082716E-02   -2.8754788551484101E-02    2.8352218263877811E+00
N    7.0309699577633189E-04   -1.5051415719112378E-02    5.0123790275683993E+00
Ga   -8.2501254423148623E-04    1.8031457907981741E+00    5.7915134191783233E+00
N    2.6069284267388150E-03    1.8300169913481874E+00    7.7862026299071907E+00
Ga    4.5696429227099113E-04   -2.0246896471685549E-02    8.4159179480314403E+00
N    4.9403603231112014E-03   -1.4298068821137338E-02    1.0393207159853635E+01
Ga    3.9833728380010234E-03    1.8249870075686250E+00    1.1047250920310463E+01
N    5.8845812917354282E-03    1.8082748832963627E+00    1.3044662293578982E+01
Ga    6.5365631204708143E-03   -1.4260217094569936E-02    1.3843153827538512E+01
N    5.0951644791991119E-03   -1.3132018256122261E-02    1.6050181136436255E+01
Ga    6.4120538398409989E-03    2.0172254953642779E+00    1.6450680489521595E+01
Ga   -2.5755369674526594E-02    3.6580803316668868E+00    1.4840780664919806E+00
N   -1.4883119264924338E+00    4.5521063568957310E+00    2.5038733161637854E+00
Ga   -1.7041740758864512E+00    2.6859081399776490E+00    3.2856591971078566E+00
N   -1.6115074972498200E+00    2.7625565587560050E+00    5.2460722859309437E+00
Ga   -1.6366088169033397E+00    4.6274516663273824E+00    5.8005109899610900E+00
N   -1.6140683477207391E+00    4.6307340003381645E+00    7.7884601553775239E+00
Ga   -1.5983507968541339E+00    2.7685959358933463E+00    8.4187360746521787E+00
N   -1.5934284856849328E+00    2.7770905121589182E+00    1.0412904762887848E+01
Ga   -1.6185048581200439E+00    4.6360795431159270E+00    1.1050219318855380E+01
N   -1.6345049187098561E+00    4.6493145566892684E+00    1.3046096438019164E+01
Ga   -1.5911059723668506E+00    2.7801230277194948E+00    1.3599428303926578E+01
N   -1.6170285809639411E+00    2.7674158944343383E+00    1.5567180084217645E+01
Ga   -1.4557820087157289E+00    4.5489315015010368E+00    1.6450040448267906E+01
N   -3.2033650141844662E-03    3.7005329746733193E+00    1.7580379113176068E+01
N   -3.2203833560669963E+00    7.5068299548535125E+00    2.4849146218379454E+00
Ga   -3.2026932663022403E+00    5.5507790905599066E+00    2.8615853105062565E+00
N   -3.2125695099041267E+00    5.5423698016416081E+00    5.0095751307249463E+00
Ga   -3.2145780656290133E+00    7.3744824329628713E+00    5.7762186658889636E+00
N   -3.2129648120872298E+00    7.4016349471563139E+00    7.7692429782382719E+00
Ga   -3.2121859870513902E+00    5.5563669462841867E+00    8.4265935176793825E+00
N   -3.2109466536584605E+00    5.5580841965569956E+00    1.0399116758458591E+01
Ga   -3.2112930475128292E+00    7.3975099745811450E+00    1.1048549796908764E+01
N   -3.2105288033572625E+00    7.3801930511058949E+00    1.3041303007187393E+01
Ga   -3.2126293281661789E+00    5.5617215056482996E+00    1.3846170082531385E+01
N   -3.2144272289649503E+00    5.5630899275348638E+00    1.6050110922966851E+01
Ga   -3.2115613929694122E+00    7.6103959742621230E+00    1.6468478237127925E+01
Ga   -3.2157998388101885E+00    9.3188906905958415E+00    1.2102792811134111E+00
N   -4.7295474191783278E+00    1.0137447022136817E+01    2.4795918838673332E+00
Ga   -4.8236513807182479E+00    8.3459320521981741E+00    3.2616822691701222E+00
N   -4.8349188845510600E+00    8.3282599928489844E+00    5.2095061415260409E+00
Ga   -4.8522056982685378E+00    1.0215507478505362E+01    5.7726147671531214E+00
N   -4.8296043545521181E+00    1.0198489424872065E+01    7.7714552027618984E+00
Ga   -4.8107007793317766E+00    8.3470788397718589E+00    8.4153352205091050E+00
N   -4.8085236640492797E+00    8.3469230059125188E+00    1.0406741793047736E+01
Ga   -4.8339741383548276E+00    1.0208145309636672E+01    1.1043673532148118E+01
N   -4.8495429384887503E+00    1.0219448511301481E+01    1.3038560360144345E+01
Ga   -4.8068199248197132E+00    8.3522896585193909E+00    1.3598914823542749E+01
N   -4.8359830070732608E+00    8.3370890403295181E+00    1.5560828878199350E+01
Ga   -4.6528899039095197E+00    1.0107200517171012E+01    1.6468490246545787E+01
N   -3.2172491501540059E+00    9.2710759150975779E+00    1.7608427844360985E+01
N    3.2016867523726877E+00    1.8360025372931039E+00    2.5900684008213988E+00
Ga    3.2100962338012811E+00    6.3776889092988356E-02    3.2281289894017715E+00
N    3.2157661646154216E+00   -2.2474910214503038E-02    5.2154907610869641E+00
Ga    3.2153030074250823E+00    1.8263945267161610E+00    5.8551315665484092E+00
N    3.2202682863804313E+00    1.8383155881414786E+00    7.8314730906732093E+00
Ga    3.2191831388095542E+00   -2.9588987201992160E-02    8.4146365622987460E+00
N    3.2211780522267865E+00   -2.6175871856862647E-02    1.0409347289304835E+01
Ga    3.2209654822070810E+00    1.8420956551906702E+00    1.1007441111452662E+01
N    3.2209796984050514E+00    1.8467055906982217E+00    1.2979243047397874E+01
Ga    3.2217523308426568E+00   -2.3812825632071894E-02    1.3599006258067551E+01
N    3.2209509457103316E+00    1.0440365187736779E-02    1.5560616147590553E+01
Ga    3.2232593485562244E+00    1.8463968647152453E+00    1.5841812198619394E+01
N    1.4813930279424781E+00    4.5465463617512736E+00    2.5196199212567687E+00
Ga    1.6892026122557728E+00    2.6996883123279964E+00    3.2877818209265728E+00
N    1.6097694162918983E+00    2.7601484223735824E+00    5.2502020557323146E+00
Ga    1.6375195083940302E+00    4.6264605234038649E+00    5.8036326325661109E+00
N    1.6190416874857121E+00    4.6292447692875545E+00    7.7918712975649864E+00
Ga    1.6018102039913313E+00    2.7702758491589257E+00    8.4234454577804918E+00
N    1.6021092167147826E+00    2.7783446753805694E+00    1.0415473253637893E+01
Ga    1.6285877338895174E+00    4.6379828765496729E+00    1.1049172539794480E+01
N    1.6452409211974146E+00    4.6503226487281282E+00    1.3045153232930064E+01
Ga    1.6027690850141376E+00    2.7810199194740344E+00    1.3599128207941607E+01
N    1.6294477565751955E+00    2.7697426069605795E+00    1.5565570620048481E+01
Ga    1.4585227380266035E+00    4.5442187107586633E+00    1.6450708600911877E+01
N   -6.8787181948402878E-03    7.3965740158347355E+00    2.6648690542748930E+00
Ga    5.9373523515269307E-03    5.5697693957555350E+00    3.3338427370452521E+00
N   -8.9450498775938770E-04    5.5634427324881548E+00    5.2582649489181144E+00
Ga    7.6312515358017393E-03    7.4207440406105549E+00    5.8686128273510372E+00
N    4.8580090136869283E-03    7.4124500240912994E+00    7.8332132298261410E+00
Ga    3.7377536440135815E-03    5.5434095682073279E+00    8.4255039502851048E+00
N    4.6807509141596100E-03    5.5449456067048324E+00    1.0415302459796887E+01
Ga    4.7887119087809543E-03    7.4155458311391973E+00    1.1005327333829449E+01
N    5.0571666620560585E-03    7.4165733206789080E+00    1.2976672881613949E+01
Ga    5.3571480537175781E-03    5.5484663378111998E+00    1.3598740605942538E+01
N    7.0626992933215367E-03    5.5790710039723201E+00    1.5565127252883972E+01
Ga    4.6205577879217478E-03    7.4205282026897379E+00    1.5842775335670398E+01
N   -1.7107959350499704E+00    1.0133715951692750E+01    2.4898399047532616E+00
Ga   -1.6107457838893033E+00    8.3374705038999863E+00    3.2637761350495507E+00
N   -1.5973825219627478E+00    8.3277248214871520E+00    5.2144011948649762E+00
Ga   -1.5834426985986796E+00    1.0211655830001900E+01    5.7756187369623522E+00
N   -1.5969861614427436E+00    1.0197769180718183E+01    7.7734934155619460E+00
Ga   -1.6148677632664243E+00    8.3467446745588312E+00    8.4180419001726214E+00
N   -1.6143579018990681E+00    8.3476971736130885E+00    1.0409242787046312E+01
Ga   -1.5877949688196396E+00    1.0208727069561119E+01    1.1044408908162426E+01
N   -1.5710463410478774E+00    1.0220207451581995E+01    1.3039596458598247E+01
Ga   -1.6137737740976781E+00    8.3523142457609882E+00    1.3598915324345587E+01
N   -1.5861731963910166E+00    8.3368428391602833E+00    1.5560528640370865E+01
Ga   -1.7739323195576258E+00    1.0105042588521863E+01    1.6467433009245934E+01
N    6.4262845849673162E+00    1.9498744331841986E+00    2.5201984607299912E+00
Ga    6.4365139310754600E+00   -5.1006668568512388E-02    2.8499504274504881E+00
N    6.4289056553883333E+00   -1.7515053289071544E-02    5.0175626345365183E+00
Ga    6.4307325533995154E+00    1.8035024932801049E+00    5.7880067900357002E+00
N    6.4344429040771862E+00    1.8311226750320566E+00    7.7817982141311903E+00
Ga    6.4378275116610642E+00   -2.0668139252692487E-02    8.4147277159598612E+00
N    6.4379563966777820E+00   -1.4021664257612166E-02    1.0391393487739599E+01
Ga    6.4385555719422616E+00    1.8255808312368682E+00    1.1044787781261206E+01
N    6.4384306726989928E+00    1.8089092841112102E+00    1.3040425625708535E+01
Ga    6.4366018054227920E+00   -1.1608623241295749E-02    1.3845394972316200E+01
N    6.4350464095030162E+00   -1.0182915302456340E-02    1.6047429270884066E+01
Ga    6.4379661105680324E+00    2.0286221992638467E+00    1.6456664938671452E+01
Ga    6.4379399009007141E+00    3.6522576562980515E+00    1.4861762327180716E+00
N    4.9283155259044289E+00    4.5589007367311174E+00    2.5019428243867048E+00
Ga    4.7128866805913541E+00    2.6951736167474092E+00    3.2748538171022870E+00
N    4.8235525783470443E+00    2.7664279434141821E+00    5.2360628229063186E+00
Ga    4.7903438405140752E+00    4.6325820327575302E+00    5.7977199412262372E+00
N    4.8206511795602331E+00    4.6309879426198881E+00    7.7850493833232104E+00
Ga    4.8365153338474780E+00    2.7718072051261649E+00    8.4221327325950668E+00
N    4.8390412317011107E+00    2.7785760758787448E+00    1.0414082658681242E+01
Ga    4.8140692444504483E+00    4.6385875402241128E+00    1.1046787634837514E+01
N    4.7991104402331759E+00    4.6503818088886959E+00    1.3040267915237385E+01
Ga    4.8415752810468744E+00    2.7812639422766501E+00    1.3596480161964410E+01
N    4.8122521387050430E+00    2.7690473472945181E+00    1.5560944111287149E+01
Ga    4.9897643487617165E+00    4.5417792235257357E+00    1.6457999477806396E+01
N    6.4319444532149941E+00    3.6995905861143163E+00    1.7593228021052262E+01
N    3.2107728150378887E+00    7.4746830808653826E+00    2.4688764412815591E+00
N    3.2128881010367056E+00    5.5370883918854865E+00    5.0265945790668738E+00
Ga    3.2156693168992838E+00    7.3768564340640239E+00    5.7632745699144028E+00
N    3.2193010853522459E+00    7.4030176693135248E+00    7.7634713773321042E+00
Ga    3.2188483859410386E+00    5.5588773278893253E+00    8.4231039534900152E+00
N    3.2211700651398956E+00    5.5593369864501421E+00    1.0397417127503100E+01
Ga    3.2218091187984927E+00    7.3989650279947350E+00    1.1046129765277266E+01
N    3.2217753386057719E+00    7.3811343659149591E+00    1.3039691878650437E+01
Ga    3.2233418863794516E+00    5.5616234923865555E+00    1.3842219432950319E+01
N    3.2222355152013042E+00    5.5623424618793766E+00    1.6049504297127346E+01
Ga    3.2217328852448541E+00    7.6035314479190692E+00    1.6458427743844354E+01
Ga    3.1934046544608510E+00    9.2912196498147939E+00    1.0414757383703723E+00
N    1.6844361282891889E+00    1.0131723181260149E+01    2.4531633874042367E+00
Ga    1.6263169452887021E+00    8.3401873297092752E+00    3.2261274980245034E+00
N    1.5971913134631317E+00    8.3260489262560053E+00    5.1925229455658011E+00
Ga    1.5892970903444348E+00    1.0208403242479067E+01    5.7577896028465982E+00
N    1.6034309267244611E+00    1.0196257842244393E+01    7.7643198035536489E+00
Ga    1.6248779906272806E+00    8.3483827518723324E+00    8.4149313773441907E+00
N    1.6238403256009879E+00    8.3484287786215887E+00    1.0408405424415902E+01
Ga    1.5986015026741260E+00    1.0208669782098744E+01    1.1043368038533005E+01
N    1.5818780681036422E+00    1.0220545355285491E+01    1.3039409551103136E+01
Ga    1.6246630550965169E+00    8.3519718862934429E+00    1.3596330105663197E+01
N    1.5977391036051256E+00    8.3352281622930704E+00    1.5560765734380466E+01
Ga    1.7692703492512389E+00    1.0113976738352285E+01    1.6456284161800948E+01
N    3.2130303431109111E+00    9.2738306538157556E+00    1.7593071090847999E+01
N    9.6487066497796530E+00    1.8302908125434976E+00    2.5953509874623304E+00
Ga    9.6437519876759268E+00    3.5075006129089696E-02    3.1700108585130233E+00
N    9.6461664936172333E+00   -2.5700996975293801E-02    5.1892717840890246E+00
Ga    9.6483950304077251E+00    1.8151336002670435E+00    5.8429198355434275E+00
N    9.6497625485771312E+00    1.8356199161853437E+00    7.8236417400554750E+00
Ga    9.6517632886147009E+00   -3.2338008441056075E-02    8.4074025849073148E+00
N    9.6537033392964524E+00   -2.7274537220819475E-02    1.0404845564055140E+01
Ga    9.6528495546506132E+00    1.8406055341695351E+00    1.1003690844665787E+01
N    9.6546423010848237E+00    1.8458111608288574E+00    1.2976528814657904E+01
Ga    9.6548122460750196E+00   -2.3682069395743365E-02    1.3596073836141114E+01
N    9.6570119723702277E+00    9.6124266545681448E-03    1.5559149724286641E+01
Ga    9.6533125642575879E+00    1.8465755315146433E+00    1.5842365290806338E+01
N    7.9259245257013191E+00    4.5626571933862214E+00    2.5123263601699390E+00
Ga    8.1431040727238884E+00    2.6862818307013319E+00    3.2804758769125493E+00
N    8.0387673795571004E+00    2.7662910521258919E+00    5.2390183857269914E+00
Ga    8.0713186718515484E+00    4.6334462872912683E+00    5.7907735252182242E+00
N    8.0513143183896254E+00    4.6334667649760606E+00    7.7791419994076891E+00
Ga    8.0361335845635384E+00    2.7705403422712851E+00    8.4157305507648168E+00
N    8.0356068464123425E+00    2.7785624982139741E+00    1.0409594620349017E+01
Ga    8.0610982504692252E+00    4.6368142488491193E+00    1.1047507847069097E+01
N    8.0777292827170317E+00    4.6491647478335940E+00    1.3040249674910926E+01
Ga    8.0356656958550658E+00    2.7807693765430419E+00    1.3596849700003611E+01
N    8.0642890884061007E+00    2.7696926166792757E+00    1.5560587468981883E+01
Ga    7.8811323708258803E+00    4.5391003082223413E+00    1.6459320279096364E+01
N    6.4296302685997988E+00    7.4145502744335667E+00    2.6492325874962073E+00
Ga    6.4223129765655829E+00    5.5895991723694198E+00    3.3101813930012161E+00
N    6.4306303532206508E+00    5.5662413056032491E+00    5.2345550609816769E+00
Ga    6.4240527547241371E+00    7.4241715616745463E+00    5.8600878179605429E+00
N    6.4337212496402900E+00    7.4128643621336208E+00    7.8243270539562682E+00
Ga    6.4356117351308191E+00    5.5456651796183216E+00    8.4217342103016026E+00
N    6.4380166230982869E+00    5.5463802754324290E+00    1.0410418656599356E+01
Ga    6.4375195706539623E+00    7.4155411735528380E+00    1.1003130663866722E+01
N    6.4381137315513675E+00    7.4168843317269584E+00    1.2973585731353404E+01
Ga    6.4389500904760970E+00    5.5475014068569211E+00    1.3596116434504406E+01
N    6.4388609250988180E+00    5.5796560108007860E+00    1.5558584582342728E+01
Ga    6.4376373269314975E+00    7.4187207332006215E+00    1.5837399072380807E+01
N    4.7312018598592909E+00    1.0133094842786663E+01    2.4438887973871855E+00
Ga    4.7900648141069970E+00    8.3478790216746184E+00    3.2184931954263263E+00
N    4.8333071666766303E+00    8.3256797161341591E+00    5.1847470325303160E+00
Ga    4.8436275280867065E+00    1.0210702123241290E+01    5.7532259778244494E+00
N    4.8353977579690151E+00    1.0197398624160098E+01    7.7605467514573938E+00
Ga    4.8142942482258029E+00    8.3493555736979008E+00    8.4123596540141978E+00
N    4.8194944262018691E+00    8.3484193377319738E+00    1.0404613908190781E+01
Ga    4.8444398121349597E+00    1.0208396091505131E+01    1.1042577561469942E+01
N    4.8616630103464793E+00    1.0220068653834458E+01    1.3037503568468267E+01
Ga    4.8186129177513655E+00    8.3525032386884828E+00    1.3595677321140672E+01
N    4.8450728980823481E+00    8.3382814171845503E+00    1.5558426858800880E+01
Ga    4.6653096635106719E+00    1.0108335115057844E+01    1.6458715023998636E+01
O    4.8702999527743246E-01    3.6908629245654172E+00   -4.6737585318271135E-01
H    7.2558023900602553E-01    4.6713712065585762E+00   -5.9665194232188468E-01
C    1.6740531526609834E+00    2.8421826984738532E+00   -6.8184821636130100E-01
H    2.4551813155990918E+00    3.0778331232074083E+00    5.6288929739063118E-02
H    1.3493871648332032E+00    1.8048223389772167E+00   -5.3815277863656497E-01
H    2.0250505949270874E+00    2.9963988448889318E+00   -1.7086193245180381E+00
Ga    3.1864702780145975E+00    5.5515120269725271E+00    2.8728605122449062E+00
O    6.9660837950280163E-01    6.2978719014339033E+00   -4.1663038662349222E-01
H   -2.5805689316132641E-02    7.3194197966300125E+00    1.6406087794860702E+00
C    1.3212440715841127E+00    7.2259237062488531E+00   -9.4373396683516297E-01
H    1.0521659403570993E+00    8.2691999284827133E+00   -7.4505148807220356E-01
H    6.4506548151663869E+00    7.3881520460673409E+00    1.6235739450493927E+00
H    2.1558661521853364E+00    7.0422017278452245E+00   -1.6374925855151450E+00
     &END COORD
     &KIND C
       BASIS_SET DZVP-MOLOPT-SR-GTH-q4
       POTENTIAL GTH-PBE-q4
       &POTENTIAL
2 2
0.3384712400000000E+00 2 -0.8803673979999999E+01  0.1339210850000000E+01
2
0.3025757500000000E+00 1  0.9622486650000001E+01
0.2915069400000000E+00 0
       &END POTENTIAL
     &END KIND
     &KIND O
       BASIS_SET DZVP-MOLOPT-SR-GTH-q6
       POTENTIAL GTH-PBE-q6
       &POTENTIAL
2 4
0.2445543000000000E+00 2 -0.1666721480000000E+02  0.2487311320000000E+01
2
0.2209559200000000E+00 1  0.1833745811000000E+02
0.2113324700000000E+00 0
       &END POTENTIAL
     &END KIND
     &KIND H
       BASIS_SET DZVP-MOLOPT-SR-GTH-q1
       POTENTIAL GTH-PBE-q1
       &POTENTIAL
1
0.2000000000000000E+00 2 -0.4178900440000000E+01  0.7244633100000000E+00
0
       &END POTENTIAL
     &END KIND
     &KIND N
       BASIS_SET DZVP-MOLOPT-SR-GTH
       POTENTIAL GTH-PBE-q5
       &POTENTIAL
2 3
0.2837905100000000E+00 2 -0.1241522559000000E+02  0.1868095920000000E+01
2
0.2554050000000000E+00 1  0.1363026257000000E+02
0.2454945300000000E+00 0
       &END POTENTIAL
     &END KIND
     &KIND Ga
       BASIS_SET DZVP-MOLOPT-SR-GTH
       POTENTIAL GTH-PBE-q13
       &POTENTIAL
2 1 10
0.4900000000000000E+00 0
3
0.4167772300000000E+00 3  0.1047568975000000E+02 -0.4921768140000000E+01  0.8707055900000000E+00
0.7770178090000000E+01 -0.2248152160000000E+01
0.1784415450000000E+01
0.5696265200000000E+00 2  0.1777985340000000E+01  0.1958597600000000E+00
-0.2317443900000000E+00
0.2381265000000000E+00 1 -0.1624868022000000E+02
       &END POTENTIAL
     &END KIND
     &TOPOLOGY
       NUMBER_OF_ATOMS  212
       MULTIPLE_UNIT_CELL  1 1 1
     &END TOPOLOGY
     &COLVAR
       &DISTANCE
         ATOMS  127 211
       &END DISTANCE
       &PRINT
       &END PRINT
     &END COLVAR
   &END SUBSYS
 &END FORCE_EVAL
