 # Version information for this restart file 
 # current date 2019-07-18 21:41:53.028
 # current working dir /lustre04/scratch/rzk/rzk/GaN-carbene/443-adatoms-both-2x2/09-BondBreaking-CH/02-0401-CH-to-NTop-PES/Phase04-OptimizeAdjustedIntermed909
 # Program compiled at                              Sun Apr  7 00:48:11 EDT 2019
 # Program compiled on                          beluga2.int.ets1.calculquebec.ca
 # Program compiled for                        Beluga-Linux-x86-64-intel-openmpi
 # Source code revision number                                         svn:18619
 &GLOBAL
   PRINT_LEVEL  MEDIUM
   PROJECT_NAME TEST
   RUN_TYPE  GEO_OPT
 &END GLOBAL
 &MOTION
   &GEO_OPT
     MAX_ITER  500
     STEP_START_VAL  6
   &END GEO_OPT
 &END MOTION
 &FORCE_EVAL
   METHOD  QS
   STRESS_TENSOR  ANALYTICAL
   &DFT
     BASIS_SET_FILE_NAME BASIS_MOLOPT
     POTENTIAL_FILE_NAME GTH_POTENTIALS
     UKS  T
     SURFACE_DIPOLE_CORRECTION  T
     SURF_DIP_DIR  Z
     &SCF
       MAX_SCF  80
       EPS_SCF     5.0000000000000004E-06
       &OT  T
         PRECONDITIONER  FULL_ALL
       &END OT
       &OUTER_SCF  T
         OPTIMIZER  NONE
         EPS_SCF     5.0000000000000004E-06
         MAX_SCF  4
       &END OUTER_SCF
       &PRINT
         &RESTART  OFF
           BACKUP_COPIES  1
           &EACH
             JUST_ENERGY  0
             QS_SCF  0
             MD  20
           &END EACH
         &END RESTART
       &END PRINT
     &END SCF
     &QS
       EPS_DEFAULT     1.0000000000000000E-14
       METHOD  GPW
     &END QS
     &MGRID
       NGRIDS  5
       CUTOFF     1.2000000000000000E+03
     &END MGRID
     &XC
       DENSITY_CUTOFF     1.0000000000000000E-10
       GRADIENT_CUTOFF     1.0000000000000000E-10
       TAU_CUTOFF     1.0000000000000000E-10
       &XC_FUNCTIONAL  NO_SHORTCUT
         &PBE  T
         &END PBE
       &END XC_FUNCTIONAL
       &VDW_POTENTIAL
         POTENTIAL_TYPE  PAIR_POTENTIAL
         &PAIR_POTENTIAL
           R_CUTOFF     1.0000000000000009E+01
           TYPE  DFTD3
           PARAMETER_FILE_NAME dftd3.dat
           REFERENCE_FUNCTIONAL PBE
           EPS_CN     9.9999999999999995E-07
           CALCULATE_C9_TERM  T
           REFERENCE_C9_TERM  T
           LONG_RANGE_CORRECTION  F
           VERBOSE_OUTPUT  F
         &END PAIR_POTENTIAL
       &END VDW_POTENTIAL
     &END XC
   &END DFT
   &SUBSYS
     &CELL
       A     1.2864472766435110E+01    0.0000000000000000E+00    0.0000000000000000E+00
       B    -6.4322363581020028E+00    1.1140960178524477E+01    0.0000000000000000E+00
       C     0.0000000000000000E+00    0.0000000000000000E+00    3.2000000000000000E+01
       MULTIPLE_UNIT_CELL  1 1 1
       &CELL_REF
         A     1.2982353780853531E+01    0.0000000000000000E+00    0.0000000000000000E+00
         B    -6.4911768904267628E+00    1.1243048175136114E+01    0.0000000000000000E+00
         C     0.0000000000000000E+00    0.0000000000000000E+00    3.2000000000000000E+01
         MULTIPLE_UNIT_CELL  1 1 1
       &END CELL_REF
     &END CELL
     &COORD
N    1.0490776772963346E-02    1.9820125748824939E+00    2.5195069544547399E+00
Ga   -7.6297405419320995E-04   -8.3270617782940145E-03    2.8672886248609197E+00
N    1.3792888021710040E-02   -5.6811637765552094E-03    5.0337592502794717E+00
Ga    1.2096795566254022E-02    1.8141171253691883E+00    5.8213614629992723E+00
N    1.3327244873820081E-02    1.8333523789907713E+00    7.8113429736984257E+00
Ga    1.1708796329835959E-02   -1.6174320832235568E-02    8.4520687027780532E+00
N    1.3631452977006221E-02   -1.5584329518957088E-02    1.0422091338930729E+01
Ga    1.3430016884244805E-02    1.8238288999120782E+00    1.1081498726707210E+01
N    1.4153630554691267E-02    1.8044332855083569E+00    1.3071137050764126E+01
Ga    1.4254253008388503E-02   -1.6420254530712070E-02    1.3888419619984047E+01
N    1.4509592640070389E-02   -1.8689509449313156E-02    1.6074418800662475E+01
Ga    1.4678487922911921E-02    2.0228970519936307E+00    1.6481938276874811E+01
Ga   -2.3276160621367699E-03    3.6779929914389951E+00    1.5075329344633051E+00
N   -1.4752578949227673E+00    4.5723135838776523E+00    2.5227976329376078E+00
Ga   -1.6907983391282160E+00    2.7047917320619592E+00    3.3097973457844034E+00
N   -1.5975612765135698E+00    2.7736444983026027E+00    5.2677450984240721E+00
Ga   -1.6252172282088742E+00    4.6381284756625201E+00    5.8300877897067291E+00
N   -1.6044305084113140E+00    4.6361190375494825E+00    7.8128417567816593E+00
Ga   -1.5870543493004106E+00    2.7740661244504552E+00    8.4534635477719142E+00
N   -1.5840527262860475E+00    2.7781301666881113E+00    1.0439600460492001E+01
Ga   -1.6106526815398652E+00    4.6371576068617086E+00    1.1084496778365562E+01
N   -1.6267341405710605E+00    4.6468633758372579E+00    1.3073014373264748E+01
Ga   -1.5831370070644004E+00    2.7766427933739211E+00    1.3630071357055305E+01
N   -1.6107435759974460E+00    2.7609598579930354E+00    1.5589982669866190E+01
Ga   -1.4376608896234844E+00    4.5379467699051332E+00    1.6481918254113200E+01
N    1.4473609292134322E-02    3.6996486663673460E+00    1.7603999675720797E+01
N   -3.2032627194073027E+00    7.5185538547073216E+00    2.4991677949183631E+00
Ga   -3.1922318861152084E+00    5.5585661117017660E+00    2.8892300583989390E+00
N   -3.2027869332247847E+00    5.5536745038768238E+00    5.0329457430449906E+00
Ga   -3.2038605523500716E+00    7.3843667036588831E+00    5.8089512354910777E+00
N   -3.2031534418459455E+00    7.4062737673733068E+00    7.7953456630796918E+00
Ga   -3.2032818886991365E+00    5.5610913286713783E+00    8.4602755394409499E+00
N   -3.2030323446775326E+00    5.5592935682312028E+00    1.0426114317012502E+01
Ga   -3.2029340499664576E+00    7.3969992297876290E+00    1.1086182079066345E+01
N   -3.2018247666177477E+00    7.3762406811770509E+00    1.3071211432174405E+01
Ga   -3.2036296197415592E+00    5.5572698571742016E+00    1.3891178620627588E+01
N   -3.2055901691038855E+00    5.5585116499711473E+00    1.6074910896818785E+01
Ga   -3.2030922753602540E+00    7.6097276339847504E+00    1.6498968757263697E+01
Ga   -3.1963675585670517E+00    9.3405647849489082E+00    1.2554015337115874E+00
N   -4.7180794744942185E+00    1.0152011356430565E+01    2.4944876049565297E+00
Ga   -4.8109924063368217E+00    8.3553368997758390E+00    3.2883930169498941E+00
N   -4.8189698798766969E+00    8.3405851940913074E+00    5.2328924944328348E+00
Ga   -4.8384928470088173E+00    1.0224652791121262E+01    5.8044721016077077E+00
N   -4.8184826901362925E+00    1.0203332711838947E+01    7.7966950748383219E+00
Ga   -4.8016170389657873E+00    8.3509754050920169E+00    8.4495353176828996E+00
N   -4.7991635304571600E+00    8.3481060131510727E+00    1.0434742762358194E+01
Ga   -4.8264133875227531E+00    1.0207729412933070E+01    1.1082769974192090E+01
N   -4.8420909018373912E+00    1.0216800472730574E+01    1.3069171588288178E+01
Ga   -4.7992390048922342E+00    8.3480822708660209E+00    1.3632379456624186E+01
N   -4.8270046144187013E+00    8.3316826262639427E+00    1.5586017671681624E+01
Ga   -4.6400258545382140E+00    1.0098715250327993E+01    1.6499011530683038E+01
N   -3.1975479272831873E+00    9.2720713463258058E+00    1.7641791335801845E+01
N    3.2136964164561581E+00    1.8556478998244452E+00    2.5982004325030852E+00
Ga    3.2212394349986910E+00    8.8815719087496747E-02    3.2504466997240571E+00
N    3.2277436540697968E+00   -1.1571270605998184E-02    5.2325693765842960E+00
Ga    3.2267890236706189E+00    1.8367618119122677E+00    5.8888948777355052E+00
N    3.2313631911398875E+00    1.8411263904102348E+00    7.8576695943307815E+00
Ga    3.2294037411350058E+00   -2.6463549796416963E-02    8.4521027703063751E+00
N    3.2298394270180131E+00   -2.7584986847654432E-02    1.0437876187912593E+01
Ga    3.2305262547740794E+00    1.8419791551313494E+00    1.1039155053384818E+01
N    3.2304265000729426E+00    1.8424135867323990E+00    1.3003101173331562E+01
Ga    3.2301925587637115E+00   -2.7350013574374724E-02    1.3631944428044243E+01
N    3.2277981870777599E+00    4.8912777819619868E-03    1.5587424036153593E+01
Ga    3.2327715761627944E+00    1.8413341818382927E+00    1.5870044217814772E+01
N    1.4954545939907069E+00    4.5689004947641063E+00    2.5329867584097139E+00
Ga    1.7065165591076692E+00    2.7181190566668203E+00    3.3140963571306554E+00
N    1.6232038938334414E+00    2.7731704615560444E+00    5.2709361317641532E+00
Ga    1.6496182921865503E+00    4.6401102714434908E+00    5.8295213077690073E+00
N    1.6299627769461933E+00    4.6357936731076297E+00    7.8132861308090940E+00
Ga    1.6124437345809164E+00    2.7748431594499805E+00    8.4550089929522443E+00
N    1.6115940022692055E+00    2.7778085536108503E+00    1.0440480997551393E+01
Ga    1.6379631887542938E+00    4.6368265247406999E+00    1.1085416543167085E+01
N    1.6552280008600475E+00    4.6466829711552773E+00    1.3073710800310041E+01
Ga    1.6116782931014335E+00    2.7763388185951459E+00    1.3630203128012234E+01
N    1.6397234834369030E+00    2.7611079496523860E+00    1.5589947944766593E+01
Ga    1.4664342953545062E+00    4.5376110127531781E+00    1.6481741373689012E+01
N    1.4509805634132547E-02    7.4211236521644084E+00    2.6840646499399781E+00
Ga    1.5789050441260468E-02    5.5911193837229574E+00    3.3563274205414002E+00
N    9.9471440291351715E-03    5.5757845420492069E+00    5.2783371288838232E+00
Ga    1.7275285218193423E-02    7.4304964689852611E+00    5.8997616188156643E+00
N    1.3306057659369734E-02    7.4189886744262106E+00    7.8586463286998809E+00
Ga    1.3301806155926932E-02    5.5482999041403627E+00    8.4580617089372669E+00
N    1.3948789357263373E-02    5.5447526479693785E+00    1.0441257219757127E+01
Ga    1.4311014091192391E-02    7.4152757834109684E+00    1.1038831383433720E+01
N    1.4530019557693452E-02    7.4134750730655892E+00    1.3002651331175603E+01
Ga    1.4246374282575563E-02    5.5446202317868964E+00    1.3630469735408980E+01
N    1.4682570215793545E-02    5.5762889048128459E+00    1.5590150875162458E+01
Ga    1.4851680328888421E-02    7.4154753010799581E+00    1.5870975815176994E+01
N   -1.6952186879974829E+00    1.0149116052851573E+01    2.5035035109018122E+00
Ga   -1.5956479322688959E+00    8.3485285776795202E+00    3.2892365325912523E+00
N   -1.5875908099560814E+00    8.3384332688222020E+00    5.2343463271638031E+00
Ga   -1.5730602932499280E+00    1.0221669566732933E+01    5.8057662135575301E+00
N   -1.5882527622115006E+00    1.0202528299418494E+01    7.7975884569001801E+00
Ga   -1.6065838154177525E+00    8.3520393007283289E+00    8.4542040633891631E+00
N   -1.6064707706268082E+00    8.3486049556652784E+00    1.0437828151979810E+01
Ga   -1.5781403859314116E+00    1.0208500534274412E+01    1.1083443794963536E+01
N   -1.5611457035941920E+00    1.0217140929630546E+01    1.3070190452171792E+01
Ga   -1.6045436492590470E+00    8.3480020706488478E+00    1.3632327074237280E+01
N   -1.5778842725779743E+00    8.3293613757754965E+00    1.5587697707670856E+01
Ga   -1.7602852442821419E+00    1.0102074023942205E+01    1.6498850153060882E+01
N    6.4388760650084969E+00    1.9628767301736179E+00    2.5436248933650720E+00
Ga    6.4518482631704854E+00   -2.8223215371203154E-02    2.8887230521794245E+00
N    6.4412278278987349E+00   -7.8396266254719699E-03    5.0393730414651356E+00
Ga    6.4427001527056849E+00    1.8141696215961696E+00    5.8188392819591161E+00
N    6.4454665687736847E+00    1.8353326669010082E+00    7.8077126829041017E+00
Ga    6.4470878727719461E+00   -1.5829396681726265E-02    8.4495910147728939E+00
N    6.4462693287170421E+00   -1.4860359836284580E-02    1.0420087263030174E+01
Ga    6.4469786885749611E+00    1.8240778819781727E+00    1.1081762304325830E+01
N    6.4468022574646122E+00    1.8047318691899490E+00    1.3069312141727451E+01
Ga    6.4465845275616616E+00   -1.4220717854049951E-02    1.3889960561910470E+01
N    6.4463884876514097E+00   -1.4313401521463029E-02    1.6073306950744058E+01
Ga    6.4466594487219275E+00    2.0341238317607564E+00    1.6497617574344048E+01
Ga    6.4450466950988661E+00    3.6598831234024440E+00    1.5094319194496815E+00
N    4.9418650719435631E+00    4.5718078193323786E+00    2.5212705300875888E+00
Ga    4.7226531902064171E+00    2.7092443015504331E+00    3.3016112495532099E+00
N    4.8336851758908201E+00    2.7753926208543267E+00    5.2578007434495158E+00
Ga    4.8037134901889393E+00    4.6417434849999673E+00    5.8253143329556520E+00
N    4.8297959780881587E+00    4.6352152881432307E+00    7.8082903783673139E+00
Ga    4.8478652466838517E+00    2.7755884780171063E+00    8.4561122516618124E+00
N    4.8492495052503148E+00    2.7784355215464385E+00    1.0440440654091718E+01
Ga    4.8230566511177591E+00    4.6374201887411290E+00    1.1085145940298153E+01
N    4.8066036549947286E+00    4.6463964491442971E+00    1.3070877310812696E+01
Ga    4.8500091165176444E+00    2.7771051943281808E+00    1.3631349783876232E+01
N    4.8208916860425388E+00    2.7639167198478036E+00    1.5587211614428726E+01
Ga    5.0090173505051698E+00    4.5309882880651697E+00    1.6497700789890370E+01
N    6.4465810947426450E+00    3.6945778677108962E+00    1.7639668501331293E+01
N    3.2240917046198825E+00    7.4995008350340795E+00    2.4875266424421452E+00
N    3.2269419994178197E+00    5.5514453274058626E+00    5.0435471434656458E+00
Ga    3.2265594722989714E+00    7.3851735883858032E+00    5.8050856220284999E+00
N    3.2285091326571900E+00    7.4052851825587194E+00    7.7946627856801953E+00
Ga    3.2298190137827634E+00    5.5600486036695420E+00    8.4605590934378831E+00
N    3.2306146646604694E+00    5.5577378483964672E+00    1.0426836474756042E+01
Ga    3.2305726115471005E+00    7.3969699220517526E+00    1.1084387432302817E+01
N    3.2304479023586663E+00    7.3762665773384750E+00    1.3070577921442981E+01
Ga    3.2324602076674291E+00    5.5572786522733022E+00    1.3890049643707345E+01
N    3.2343110807924904E+00    5.5584549858741648E+00    1.6075068325370090E+01
Ga    3.2318673354066578E+00    7.6078343029358706E+00    1.6497059279471173E+01
Ga    3.2113301037675654E+00    9.3538332894400877E+00    1.1161086425466802E+00
N    1.7039101163019241E+00    1.0155866320963593E+01    2.4871649466287398E+00
Ga    1.6422581839753210E+00    8.3595233490778007E+00    3.2626101542254671E+00
N    1.6115455258855802E+00    8.3386177650661661E+00    5.2217254551098362E+00
Ga    1.5998515299150495E+00    1.0219590439047160E+01    5.7970883725572762E+00
N    1.6138058694887809E+00    1.0202124579752407E+01    7.7937002058650817E+00
Ga    1.6335529289332278E+00    8.3535713690389741E+00    8.4533812090802396E+00
N    1.6338385309211236E+00    8.3491309338223392E+00    1.0437864685564408E+01
Ga    1.6067822155642073E+00    1.0208861783947821E+01    1.1081998278443645E+01
N    1.5898766629342673E+00    1.0217364029087442E+01    1.3069489083676519E+01
Ga    1.6336674539785969E+00    8.3483911327978380E+00    1.3631299475650605E+01
N    1.6079341205246294E+00    8.3298174325124990E+00    1.5587387695849872E+01
Ga    1.7869129470751677E+00    1.0103449280278529E+01    1.6496752034782684E+01
N    3.2259332210976757E+00    9.2727409310195075E+00    1.7638823661014133E+01
N    9.6650561912795538E+00    1.8452823900158146E+00    2.6106764682291805E+00
Ga    9.6593304748203312E+00    6.3670034682133558E-02    3.2236960024685906E+00
N    9.6588673792773481E+00   -1.5002977822811283E-02    5.2244281603809286E+00
Ga    9.6621251190021482E+00    1.8291115775447404E+00    5.8781066002369169E+00
N    9.6607710026696552E+00    1.8414117237641050E+00    7.8519877858572213E+00
Ga    9.6616971259860946E+00   -2.6719224558009763E-02    8.4449686951409877E+00
N    9.6622966609041399E+00   -2.7149828275746021E-02    1.0433824945361396E+01
Ga    9.6619505729130708E+00    1.8416355227057801E+00    1.1037826664645857E+01
N    9.6626205207131424E+00    1.8421648150845402E+00    1.3002427951052077E+01
Ga    9.6626240248274247E+00   -2.7308157603418363E-02    1.3631312490555544E+01
N    9.6653940035177772E+00    4.3163484124966456E-03    1.5587417111305081E+01
Ga    9.6609075099924908E+00    1.8412606441918602E+00    1.5870300221337313E+01
N    7.9411731314172629E+00    4.5716749903810197E+00    2.5316088033424604E+00
Ga    8.1589084506688199E+00    2.6995689581079296E+00    3.3041284623659353E+00
N    8.0513708280915406E+00    2.7734483626451363E+00    5.2603322176999274E+00
Ga    8.0827911943667718E+00    4.6394807195411083E+00    5.8231478437491067E+00
N    8.0622934049878516E+00    4.6361238373423310E+00    7.8061579325159265E+00
Ga    8.0459698307734762E+00    2.7748020263376056E+00    8.4528598625927156E+00
N    8.0438705961583139E+00    2.7786489487464419E+00    1.0438459102598651E+01
Ga    8.0695880098793911E+00    4.6372575792490967E+00    1.1084222609955793E+01
N    8.0868656933859562E+00    4.6464675839999199E+00    1.3070261858322889E+01
Ga    8.0434883147849234E+00    2.7771861069129207E+00    1.3631201113960758E+01
N    8.0726405845524685E+00    2.7636374704958735E+00    1.5587196555165406E+01
Ga    7.8842364998102816E+00    4.5310406988822578E+00    1.6497851108051275E+01
N    6.4419809500165446E+00    7.4271878483768567E+00    2.6841103801967368E+00
Ga    6.4388253676425791E+00    5.5985950543358394E+00    3.3386559245084486E+00
N    6.4441044543845960E+00    5.5713769819945993E+00    5.2609474551093598E+00
Ga    6.4379070836838448E+00    7.4311474759163358E+00    5.8880191536394086E+00
N    6.4448553233119945E+00    7.4170945416856870E+00    7.8489557044202716E+00
Ga    6.4459150187250005E+00    5.5496388127906568E+00    8.4540676366178840E+00
N    6.4462190255449521E+00    5.5454405843069967E+00    1.0437640631136590E+01
Ga    6.4459418628101242E+00    7.4147960051202535E+00    1.1038217524049449E+01
N    6.4465698233412612E+00    7.4134480379100447E+00    1.3001951084950241E+01
Ga    6.4467331972373918E+00    5.5440844375668137E+00    1.3631695185855536E+01
N    6.4464585835959944E+00    5.5756793389476282E+00    1.5585725528302763E+01
Ga    6.4464629296699876E+00    7.4130828202815326E+00    1.5866696183719210E+01
N    4.7435492033238704E+00    1.0154762448469118E+01    2.4818912149832841E+00
Ga    4.8077525096522447E+00    8.3623373253208246E+00    3.2609520023293133E+00
N    4.8396100349472118E+00    8.3390775559992232E+00    5.2185569719342348E+00
Ga    4.8569097507664987E+00    1.0221522912156020E+01    5.7940416751151176E+00
N    4.8457266181190137E+00    1.0202820123719157E+01    7.7919811532917986E+00
Ga    4.8265383262179391E+00    8.3523881377830733E+00    8.4490644024290571E+00
N    4.8272529233576869E+00    8.3484805778572664E+00    1.0435024666491303E+01
Ga    4.8530582199009711E+00    1.0208059115095233E+01    1.1081705483410698E+01
N    4.8702565335603429E+00    1.0217022324932604E+01    1.3068828039657040E+01
Ga    4.8276460846416089E+00    8.3481817207455986E+00    1.3631349018585652E+01
N    4.8547714793421299E+00    8.3319058291200427E+00    1.5585728572917068E+01
Ga    4.6706801178816040E+00    1.0099848553638584E+01    1.6496671137642998E+01
O    3.6866232076009553E-01    3.8492768875558094E+00   -4.8052670941881559E-01
H    6.6339011459364161E-01    4.8173598708454746E+00   -6.0681711879081102E-01
C    1.4475822501129649E+00    2.9570996317959199E+00   -9.2552784010233058E-01
H    2.2677808140019895E+00    2.9301908103565539E+00   -1.9258234880410380E-01
H    1.0059559357943586E+00    1.9606174881737699E+00   -1.0274741180737321E+00
H    1.8022085615171661E+00    3.3118028576738290E+00   -1.8999174050078440E+00
Ga    3.2024863061958131E+00    5.5666712325530519E+00    2.8941826776541846E+00
O    1.0247330652312163E+00    6.3675792915482656E+00   -7.4810360371654827E-01
H    2.7688803389107633E-02    7.3826983484939346E+00    1.6586008063500517E+00
C    1.2417070152913581E+00    6.8927770341163708E+00   -1.8476892048736673E+00
H    1.4998070300904121E+00    7.9642354327379810E+00   -1.9177978630183041E+00
H    6.4468171279336630E+00    7.4048914714962626E+00    1.6571676672298812E+00
H    1.1907538833272571E+00    6.3075515631032077E+00   -2.7860818627401223E+00
     &END COORD
     &KIND C
       BASIS_SET DZVP-MOLOPT-SR-GTH-q4
       POTENTIAL GTH-PBE-q4
       &POTENTIAL
2 2
0.3384712400000000E+00 2 -0.8803673979999999E+01  0.1339210850000000E+01
2
0.3025757500000000E+00 1  0.9622486650000001E+01
0.2915069400000000E+00 0
       &END POTENTIAL
     &END KIND
     &KIND O
       BASIS_SET DZVP-MOLOPT-SR-GTH-q6
       POTENTIAL GTH-PBE-q6
       &POTENTIAL
2 4
0.2445543000000000E+00 2 -0.1666721480000000E+02  0.2487311320000000E+01
2
0.2209559200000000E+00 1  0.1833745811000000E+02
0.2113324700000000E+00 0
       &END POTENTIAL
     &END KIND
     &KIND H
       BASIS_SET DZVP-MOLOPT-SR-GTH-q1
       POTENTIAL GTH-PBE-q1
       &POTENTIAL
1
0.2000000000000000E+00 2 -0.4178900440000000E+01  0.7244633100000000E+00
0
       &END POTENTIAL
     &END KIND
     &KIND N
       BASIS_SET DZVP-MOLOPT-SR-GTH
       POTENTIAL GTH-PBE-q5
       &POTENTIAL
2 3
0.2837905100000000E+00 2 -0.1241522559000000E+02  0.1868095920000000E+01
2
0.2554050000000000E+00 1  0.1363026257000000E+02
0.2454945300000000E+00 0
       &END POTENTIAL
     &END KIND
     &KIND Ga
       BASIS_SET DZVP-MOLOPT-SR-GTH
       POTENTIAL GTH-PBE-q13
       &POTENTIAL
2 1 10
0.4900000000000000E+00 0
3
0.4167772300000000E+00 3  0.1047568975000000E+02 -0.4921768140000000E+01  0.8707055900000000E+00
0.7770178090000000E+01 -0.2248152160000000E+01
0.1784415450000000E+01
0.5696265200000000E+00 2  0.1777985340000000E+01  0.1958597600000000E+00
-0.2317443900000000E+00
0.2381265000000000E+00 1 -0.1624868022000000E+02
       &END POTENTIAL
     &END KIND
     &TOPOLOGY
       NUMBER_OF_ATOMS  212
       MULTIPLE_UNIT_CELL  1 1 1
     &END TOPOLOGY
     &COLVAR
       &DISTANCE
         ATOMS  127 211
       &END DISTANCE
       &PRINT
       &END PRINT
     &END COLVAR
   &END SUBSYS
 &END FORCE_EVAL
