 # Version information for this restart file 
 # current date 2019-07-19 07:48:56.432
 # current working dir /lustre04/scratch/rzk/rzk/GaN-carbene/443-adatoms-both-2x2/09-BondBreaking-CH/02-0401-CH-to-NTop-PES/Phase04-OptimizeAdjustedIntermed909
 # Program compiled at                              Sun Apr  7 00:48:11 EDT 2019
 # Program compiled on                          beluga2.int.ets1.calculquebec.ca
 # Program compiled for                        Beluga-Linux-x86-64-intel-openmpi
 # Source code revision number                                         svn:18619
 &GLOBAL
   PRINT_LEVEL  MEDIUM
   PROJECT_NAME TEST
   RUN_TYPE  GEO_OPT
 &END GLOBAL
 &MOTION
   &GEO_OPT
     MAX_ITER  500
     STEP_START_VAL  183
   &END GEO_OPT
 &END MOTION
 &FORCE_EVAL
   METHOD  QS
   STRESS_TENSOR  ANALYTICAL
   &DFT
     BASIS_SET_FILE_NAME BASIS_MOLOPT
     POTENTIAL_FILE_NAME GTH_POTENTIALS
     UKS  T
     SURFACE_DIPOLE_CORRECTION  T
     SURF_DIP_DIR  Z
     &SCF
       MAX_SCF  80
       EPS_SCF     5.0000000000000004E-06
       &OT  T
         PRECONDITIONER  FULL_ALL
       &END OT
       &OUTER_SCF  T
         OPTIMIZER  NONE
         EPS_SCF     5.0000000000000004E-06
         MAX_SCF  4
       &END OUTER_SCF
       &PRINT
         &RESTART  OFF
           BACKUP_COPIES  1
           &EACH
             JUST_ENERGY  0
             QS_SCF  0
             MD  20
           &END EACH
         &END RESTART
       &END PRINT
     &END SCF
     &QS
       EPS_DEFAULT     1.0000000000000000E-14
       METHOD  GPW
     &END QS
     &MGRID
       NGRIDS  5
       CUTOFF     1.2000000000000000E+03
     &END MGRID
     &XC
       DENSITY_CUTOFF     1.0000000000000000E-10
       GRADIENT_CUTOFF     1.0000000000000000E-10
       TAU_CUTOFF     1.0000000000000000E-10
       &XC_FUNCTIONAL  NO_SHORTCUT
         &PBE  T
         &END PBE
       &END XC_FUNCTIONAL
       &VDW_POTENTIAL
         POTENTIAL_TYPE  PAIR_POTENTIAL
         &PAIR_POTENTIAL
           R_CUTOFF     1.0000000000000009E+01
           TYPE  DFTD3
           PARAMETER_FILE_NAME dftd3.dat
           REFERENCE_FUNCTIONAL PBE
           EPS_CN     9.9999999999999995E-07
           CALCULATE_C9_TERM  T
           REFERENCE_C9_TERM  T
           LONG_RANGE_CORRECTION  F
           VERBOSE_OUTPUT  F
         &END PAIR_POTENTIAL
       &END VDW_POTENTIAL
     &END XC
   &END DFT
   &SUBSYS
     &CELL
       A     1.2864472766435110E+01    0.0000000000000000E+00    0.0000000000000000E+00
       B    -6.4322363581020028E+00    1.1140960178524477E+01    0.0000000000000000E+00
       C     0.0000000000000000E+00    0.0000000000000000E+00    3.2000000000000000E+01
       MULTIPLE_UNIT_CELL  1 1 1
       &CELL_REF
         A     1.2982353780853531E+01    0.0000000000000000E+00    0.0000000000000000E+00
         B    -6.4911768904267628E+00    1.1243048175136114E+01    0.0000000000000000E+00
         C     0.0000000000000000E+00    0.0000000000000000E+00    3.2000000000000000E+01
         MULTIPLE_UNIT_CELL  1 1 1
       &END CELL_REF
     &END CELL
     &COORD
N   -2.9501960490930745E-02    1.9357262423324089E+00    2.4674315016842816E+00
Ga   -3.7110348354472161E-02   -3.0702714025494824E-02    2.7801329933553744E+00
N   -2.7091328408687970E-02   -6.3735594229240994E-02    4.9860226407217336E+00
Ga   -2.1221649076985941E-02    1.7642444111147513E+00    5.7558300978469159E+00
N   -2.0853082738415556E-02    1.7803773627918509E+00    7.7635699791635133E+00
Ga   -1.9934084753971366E-02   -6.4306407260867407E-02    8.4037799572491210E+00
N   -1.9727381087147389E-02   -6.5810784799883670E-02    1.0380929576592214E+01
Ga   -1.9580736972309491E-02    1.7749493492586621E+00    1.1027877691136451E+01
N   -1.9094599033177610E-02    1.7552217890118182E+00    1.3024451585503316E+01
Ga   -1.9633585736608103E-02   -6.4932416522642894E-02    1.3824697473765283E+01
N   -2.0072337859179116E-02   -6.6239738598072181E-02    1.6029694721180689E+01
Ga   -1.8713514825858913E-02    1.9714755477589969E+00    1.6435893819362679E+01
Ga   -4.8601313057998932E-02    3.6318882252369558E+00    1.2853180371084951E+00
N   -1.5079063274875122E+00    4.5115034237966594E+00    2.4738810704650351E+00
Ga   -1.6936264949785915E+00    2.6769261220875213E+00    3.2399031823245905E+00
N   -1.6307097757167728E+00    2.7236878336244730E+00    5.2241443163535646E+00
Ga   -1.6528806157261906E+00    4.5888011423740434E+00    5.7654374078018531E+00
N   -1.6367223618750113E+00    4.5861687072117601E+00    7.7652352053489313E+00
Ga   -1.6169424951580929E+00    2.7262019956722021E+00    8.3988812840559923E+00
N   -1.6172687634394500E+00    2.7275758647138639E+00    1.0395853505328704E+01
Ga   -1.6429210604451205E+00    4.5856462800865394E+00    1.1030589933309473E+01
N   -1.6593950520381371E+00    4.5959998479832160E+00    1.3026030774969017E+01
Ga   -1.6159701822721184E+00    2.7265866880988079E+00    1.3579263352251102E+01
N   -1.6431979919990662E+00    2.7105432719460421E+00    1.5543713897930198E+01
Ga   -1.4707993855696619E+00    4.4865448397814109E+00    1.6436693632156199E+01
N   -2.6506884906117373E-02    3.6433716557958724E+00    1.7569436604321851E+01
N   -3.2405369510526976E+00    7.4704083167400350E+00    2.4656788973889032E+00
Ga   -3.1941143336184425E+00    5.5011146062878549E+00    2.8135031672290678E+00
N   -3.2377226813952760E+00    5.5024149258237092E+00    4.9934377987642602E+00
Ga   -3.2363070918500512E+00    7.3288124005963375E+00    5.7567613780753435E+00
N   -3.2372634123190527E+00    7.3549732045724001E+00    7.7537071453711413E+00
Ga   -3.2341006052608448E+00    5.5088687199186284E+00    8.4076141296651627E+00
N   -3.2362146466907946E+00    5.5075214999488313E+00    1.0381957800488017E+01
Ga   -3.2363067801644925E+00    7.3460690011846843E+00    1.1032175421302636E+01
N   -3.2355285993059586E+00    7.3264125603306534E+00    1.3026417516942976E+01
Ga   -3.2358223724232262E+00    5.5056593098628106E+00    1.3827188534255626E+01
N   -3.2368839547310024E+00    5.5050857957259653E+00    1.6030465930811925E+01
Ga   -3.2349298078569064E+00    7.5445743761320045E+00    1.6440047560600402E+01
Ga   -3.2316811652195452E+00    9.2763452104791391E+00    1.2056664613185772E+00
N   -4.7583961431533952E+00    1.0094745499145056E+01    2.4589416113092453E+00
Ga   -4.8432917043632706E+00    8.3056431559296211E+00    3.2475574793618982E+00
N   -4.8558915906770812E+00    8.2850646755260104E+00    5.1967439092557237E+00
Ga   -4.8760547901166467E+00    1.0172868979489829E+01    5.7502159530966654E+00
N   -4.8546396403297694E+00    1.0151362328167453E+01    7.7533705323902771E+00
Ga   -4.8328987519640991E+00    8.3010600938298378E+00    8.4006613581642924E+00
N   -4.8334570183502450E+00    8.2968991589203291E+00    1.0393791846713230E+01
Ga   -4.8586435338009171E+00    1.0157171418509467E+01    1.1029113066419338E+01
N   -4.8749738606545892E+00    1.0166066106879203E+01    1.3024600836271064E+01
Ga   -4.8319678253519456E+00    8.2983599801213561E+00    1.3581903277559046E+01
N   -4.8597253987318760E+00    8.2815223906127091E+00    1.5545327923114327E+01
Ga   -4.6856173359839479E+00    1.0057157755089275E+01    1.6439165866721783E+01
N   -3.2428050997181921E+00    9.2151667604088647E+00    1.7573567263922165E+01
N    3.1808898677313842E+00    1.7941840837889562E+00    2.5864622918403080E+00
Ga    3.1851213520886299E+00    2.6721541334531383E-02    3.2063841635862436E+00
N    3.1938906657610779E+00   -6.9612089623149395E-02    5.1967855742156477E+00
Ga    3.1843513845415110E+00    1.7858845890302086E+00    5.8225008427522376E+00
N    3.1960225314723187E+00    1.7909434653977006E+00    7.8068303275647528E+00
Ga    3.1949819284237031E+00   -7.5886542407232152E-02    8.3913996126163966E+00
N    3.1958027006365639E+00   -7.8316800185638497E-02    1.0389425502753193E+01
Ga    3.1946806181102803E+00    1.7906000762600931E+00    1.0985161209579582E+01
N    3.1965073311170951E+00    1.7912534777213462E+00    1.2959142364572051E+01
Ga    3.1970322514252953E+00   -7.7682091606127796E-02    1.3580401898652216E+01
N    3.1985008356912332E+00   -4.6504166036217237E-02    1.5542740621254675E+01
Ga    3.1971533433602528E+00    1.7916584735838783E+00    1.5819894292226365E+01
N    1.4723720628171530E+00    4.5172634916299401E+00    2.4773105427909354E+00
Ga    1.6459614694206230E+00    2.6786172994635886E+00    3.2201449852957613E+00
N    1.5866672431234936E+00    2.7193373261526772E+00    5.2124795113213302E+00
Ga    1.6101067472416357E+00    4.5814086362605098E+00    5.7658364343015593E+00
N    1.5954940151510020E+00    4.5840351379096003E+00    7.7648125872679685E+00
Ga    1.5778260259731640E+00    2.7233907839769738E+00    8.3952985626423278E+00
N    1.5776386147476478E+00    2.7266839764178861E+00    1.0392951088254181E+01
Ga    1.6031838059600731E+00    4.5846567240022233E+00    1.1029180635667416E+01
N    1.6208027339293869E+00    4.5954320778069180E+00    1.3024452728292912E+01
Ga    1.5779160367903338E+00    2.7267524282217486E+00    1.3579150813218554E+01
N    1.6058476786624940E+00    2.7122324775400273E+00    1.5542242542461185E+01
Ga    1.4268562513156873E+00    4.4826323034372830E+00    1.6437356773062007E+01
N   -1.6145892708897804E-02    7.3643667624938525E+00    2.6381359829751787E+00
Ga   -1.4384459008132015E-02    5.5076486776952320E+00    3.2701636595571615E+00
N   -2.0055770961316458E-02    5.5243563376381601E+00    5.2170625561801387E+00
Ga   -1.8390732752237713E-02    7.3662663030724458E+00    5.8495159254478688E+00
N   -2.0669750015810111E-02    7.3649964788857467E+00    7.8173880445173536E+00
Ga   -2.0234211268055663E-02    5.4947121103641745E+00    8.4036415184547533E+00
N   -1.9966870605510278E-02    5.4938735983043090E+00    1.0396890314588818E+01
Ga   -2.0826605253925306E-02    7.3626075996971059E+00    1.0988200282822817E+01
N   -1.9482935280126477E-02    7.3629014914812627E+00    1.2960925425368286E+01
Ga   -1.8624940332008972E-02    5.4926485882545215E+00    1.3579730495027725E+01
N   -1.7036533852452036E-02    5.5235441457528047E+00    1.5542812847619322E+01
Ga   -1.9168201120986786E-02    7.3620849011982310E+00    1.5820480335204108E+01
N   -1.7238211465450954E+00    1.0092375453472492E+01    2.4721267888080312E+00
Ga   -1.6237250205358393E+00    8.2889895510156286E+00    3.2423251251790273E+00
N   -1.6184250155158153E+00    8.2834449680469149E+00    5.1949129823402744E+00
Ga   -1.6066100499200380E+00    1.0166771773532828E+01    5.7521782791846574E+00
N   -1.6196158291274982E+00    1.0151154715308429E+01    7.7538115891615593E+00
Ga   -1.6395000058442537E+00    8.2994731286345065E+00    8.4002973563288919E+00
N   -1.6399783566772581E+00    8.2972314756790944E+00    1.0393643648715049E+01
Ga   -1.6143909854907670E+00    1.0157001119661501E+01    1.1028980385895780E+01
N   -1.5960411700155201E+00    1.0166119344250445E+01    1.3024005140911559E+01
Ga   -1.6381770995536471E+00    8.2982577767841228E+00    1.3581115157023882E+01
N   -1.6102136424040840E+00    8.2829239493158529E+00    1.5543429262460437E+01
Ga   -1.7910143911238634E+00    1.0053279902028590E+01    1.6440251252331102E+01
N    6.4138474129186740E+00    1.9093777555116682E+00    2.5094628791231801E+00
Ga    6.4259897321811383E+00   -9.0336243167990257E-02    2.8243634925440220E+00
N    6.4144533159751616E+00   -6.2763942630783900E-02    4.9942185710576794E+00
Ga    6.4116187897658925E+00    1.7603582882947737E+00    5.7699727311650948E+00
N    6.4119933752956406E+00    1.7810859779247159E+00    7.7669611684626867E+00
Ga    6.4108820130629240E+00   -6.7292243822999989E-02    8.4052305270632726E+00
N    6.4117141663740913E+00   -6.5723233608695253E-02    1.0381091532621900E+01
Ga    6.4114405159138919E+00    1.7743681964643889E+00    1.1030087184985893E+01
N    6.4127643840772670E+00    1.7552315469472783E+00    1.3025562879295544E+01
Ga    6.4123434783353268E+00   -6.5035006671954276E-02    1.3825978807019411E+01
N    6.4117562954950902E+00   -6.5686465711317851E-02    1.6030140816477669E+01
Ga    6.4132336908892826E+00    1.9730051203513956E+00    1.6438758476489234E+01
Ga    6.4104744442512818E+00    3.6112186538779518E+00    1.5006411521939911E+00
N    4.9171645328739091E+00    4.5195763836787650E+00    2.4976835846268930E+00
Ga    4.6856700926982793E+00    2.6492372307032479E+00    3.2642850851054686E+00
N    4.8050984497950182E+00    2.7212646752659242E+00    5.2235855394846755E+00
Ga    4.7726222358495711E+00    4.5869380621495397E+00    5.7801515141501838E+00
N    4.7975465426211192E+00    4.5835372609578018E+00    7.7692806729447073E+00
Ga    4.8108276381017632E+00    2.7218460989283053E+00    8.4005728592056812E+00
N    4.8140526750667032E+00    2.7264590234051469E+00    1.0395211398418500E+01
Ga    4.7883374175954003E+00    4.5850713136619632E+00    1.1031209946206166E+01
N    4.7729483833381599E+00    4.5956281380284638E+00    1.3025938267789247E+01
Ga    4.8157353374658509E+00    2.7265700380711979E+00    1.3580338909562821E+01
N    4.7883555555581374E+00    2.7107936520974145E+00    1.5544157381044162E+01
Ga    4.9624117592420935E+00    4.4859585734207394E+00    1.6439045769951633E+01
N    6.4050329620047002E+00    3.6431949261203975E+00    1.7574067460934579E+01
N    3.1896884595988331E+00    7.4491720812836650E+00    2.4528486349499481E+00
N    3.1992965751045483E+00    5.4973790333700068E+00    5.0097503577049576E+00
Ga    3.1949577705393044E+00    7.3297761560480978E+00    5.7613610635109378E+00
N    3.1964838351634492E+00    7.3539367815322541E+00    7.7577267878879654E+00
Ga    3.1936265554167909E+00    5.5069267672141056E+00    8.4071029404996427E+00
N    3.1963399668652963E+00    5.5066527947698276E+00    1.0381712784396550E+01
Ga    3.1957042243027836E+00    7.3446031053727214E+00    1.1033656106221633E+01
N    3.1968924822122200E+00    7.3258044588346651E+00    1.3027404981334957E+01
Ga    3.1963197503637391E+00    5.5049615225845026E+00    1.3826915800879794E+01
N    3.1962549327791865E+00    5.5046706106660839E+00    1.6030153220854292E+01
Ga    3.1972432050071977E+00    7.5441498812180985E+00    1.6438255997898178E+01
Ga    3.1835697116363146E+00    9.4122382862148992E+00    1.2240190670404469E+00
N    1.7097460110099345E+00    1.0098413472350282E+01    2.4863574695556037E+00
Ga    1.6016816019710038E+00    8.2860306655129996E+00    3.2410232700838586E+00
N    1.5784184437933793E+00    8.2830782750851917E+00    5.1989197010401869E+00
Ga    1.5627563625799281E+00    1.0162108260996638E+01    5.7628187398373809E+00
N    1.5772112615803808E+00    1.0149824336860076E+01    7.7622562466238945E+00
Ga    1.5983621848145415E+00    8.2978863414550847E+00    8.4038225501034951E+00
N    1.5992792812791186E+00    8.2962617752930505E+00    1.0396624332436957E+01
Ga    1.5735154517315548E+00    1.0156709226267321E+01    1.1030089835304272E+01
N    1.5570695710711679E+00    1.0166053521274939E+01    1.3025499731670330E+01
Ga    1.6000423629303924E+00    8.2978419553590594E+00    1.3581214551251835E+01
N    1.5723914301424191E+00    8.2808460576845810E+00    1.5544800530534197E+01
Ga    1.7465125112223157E+00    1.0056720114989702E+01    1.6438261193405012E+01
N    3.1894411492574566E+00    9.2147860539984254E+00    1.7571720092514976E+01
N    9.6389124724109934E+00    1.7914393596775422E+00    2.6053303032244699E+00
Ga    9.6298772460619837E+00    3.6594190470305224E-02    3.2649630228659809E+00
N    9.6286286890529311E+00   -6.3090675831023998E-02    5.2347837631047724E+00
Ga    9.6361606618792877E+00    1.7941878736215136E+00    5.8416247356314033E+00
N    9.6268399347679310E+00    1.7942910804943069E+00    7.8201065894796846E+00
Ga    9.6279942918822776E+00   -7.5939654523814126E-02    8.3956482776961785E+00
N    9.6280797283882240E+00   -7.8181973505216190E-02    1.0392950587543879E+01
Ga    9.6285691873133281E+00    1.7914128916509442E+00    1.0985505525314373E+01
N    9.6290525828332179E+00    1.7914773272354498E+00    1.2959546491113379E+01
Ga    9.6295182533679959E+00   -7.7582883896140403E-02    1.3580085061902295E+01
N    9.6311295682762825E+00   -4.6492718035965240E-02    1.5542814568704886E+01
Ga    9.6292624853201971E+00    1.7919417992298794E+00    1.5819750025509673E+01
N    7.9079616062776319E+00    4.5254571365861915E+00    2.4904517119499880E+00
Ga    8.1356307765320395E+00    2.6574205943635030E+00    3.2703753356884335E+00
N    8.0175141454221368E+00    2.7261056607402061E+00    5.2291254051693743E+00
Ga    8.0541154225438536E+00    4.5938905668248173E+00    5.7764477464395751E+00
N    8.0274536071925571E+00    4.5861260674262549E+00    7.7678118994976746E+00
Ga    8.0104089791401147E+00    2.7253418877807083E+00    8.4038013935667486E+00
N    8.0084951659096095E+00    2.7279041393063617E+00    1.0397330641750342E+01
Ga    8.0359562277903684E+00    4.5863013443814271E+00    1.1031818947687761E+01
N    8.0528643291257449E+00    4.5960247163879613E+00    1.3025811762301633E+01
Ga    8.0104420488456967E+00    2.7267973105395527E+00    1.3580034088651294E+01
N    8.0380708126895524E+00    2.7123186323935475E+00    1.5542596338354119E+01
Ga    7.8569411492334860E+00    4.4819984654096929E+00    1.6439984386524298E+01
N    6.4052900488154911E+00    7.3783143788513499E+00    2.6412317671877594E+00
Ga    6.4106245773158381E+00    5.5525287482145762E+00    3.3013775195517128E+00
N    6.4112128723832322E+00    5.5238461981653151E+00    5.2251640116136846E+00
Ga    6.4068374343611856E+00    7.3794092526276716E+00    5.8531218446308797E+00
N    6.4106721299095977E+00    7.3651728934850578E+00    7.8167390356168998E+00
Ga    6.4121399117982794E+00    5.4961804039238737E+00    8.4086366207053036E+00
N    6.4120691513934931E+00    5.4943618527876446E+00    1.0398442544064642E+01
Ga    6.4120827163944139E+00    7.3635657026246246E+00    1.0990368277264762E+01
N    6.4129458418888685E+00    7.3630979971647763E+00    1.2961993509880431E+01
Ga    6.4131124463424314E+00    5.4927138795776722E+00    1.3581178988813800E+01
N    6.4144325957561517E+00    5.5239839281748688E+00    1.5543298782018081E+01
Ga    6.4134213671243865E+00    7.3620861321802380E+00    1.5820617792567829E+01
N    4.6727510363995357E+00    1.0095108646680577E+01    2.4460367882697440E+00
Ga    4.7721022019923431E+00    8.2949969863075754E+00    3.2331297950573492E+00
N    4.8102903557974388E+00    8.2858895243337365E+00    5.1900181259557989E+00
Ga    4.8337162720783224E+00    1.0167041935534664E+01    5.7616210672792185E+00
N    4.8139569526678185E+00    1.0149151011182875E+01    7.7620543696502384E+00
Ga    4.7911535562338026E+00    8.2993746729538671E+00    8.4061586277183444E+00
N    4.7925144923937975E+00    8.2963367510872796E+00    1.0397366954043333E+01
Ga    4.8188072509721076E+00    1.0157390679166387E+01    1.1029602361051454E+01
N    4.8364041209093216E+00    1.0165956967149077E+01    1.3024505364537463E+01
Ga    4.7938048284143386E+00    8.2983318320742967E+00    1.3581239823953451E+01
N    4.8222474690616233E+00    8.2826737988528087E+00    1.5543521150423908E+01
Ga    4.6413817733701643E+00    1.0052908745728006E+01    1.6438748079263910E+01
O   -1.5799230787209871E-02    3.8114950713681495E+00   -5.1619287853514839E-01
H    2.3967948163215440E+00    7.0236850949002809E+00    4.4574084553622989E-01
C    1.2713412400209301E+00    3.7565197432863173E+00   -1.1525936148090714E+00
H    2.0446491325269407E+00    4.3147041331073348E+00   -5.9706988524069826E-01
H    1.6160235275574091E+00    2.7176731476606828E+00   -1.2799402841130112E+00
H    1.1673943879927748E+00    4.2200106351692419E+00   -2.1450973508553637E+00
Ga    3.1541537399552890E+00    5.5022821132687367E+00    2.8613795104667621E+00
O    1.9845188281711998E+00    7.4759763800944841E+00   -3.2415222647335412E-01
H    5.9586279572729824E-03    7.3553533957559001E+00    1.6087396340697351E+00
C    2.7854118273131303E+00    8.6403095601587641E+00   -5.7562873733142050E-01
H    2.1861037261934828E+00    9.3438759398958151E+00   -1.1661465179481596E+00
H    6.4108641207394950E+00    7.3555780132681257E+00    1.6147758158559204E+00
H    3.7093731821183620E+00    8.4043603317176210E+00   -1.1259428656232284E+00
     &END COORD
     &KIND C
       BASIS_SET DZVP-MOLOPT-SR-GTH-q4
       POTENTIAL GTH-PBE-q4
       &POTENTIAL
2 2
0.3384712400000000E+00 2 -0.8803673979999999E+01  0.1339210850000000E+01
2
0.3025757500000000E+00 1  0.9622486650000001E+01
0.2915069400000000E+00 0
       &END POTENTIAL
     &END KIND
     &KIND O
       BASIS_SET DZVP-MOLOPT-SR-GTH-q6
       POTENTIAL GTH-PBE-q6
       &POTENTIAL
2 4
0.2445543000000000E+00 2 -0.1666721480000000E+02  0.2487311320000000E+01
2
0.2209559200000000E+00 1  0.1833745811000000E+02
0.2113324700000000E+00 0
       &END POTENTIAL
     &END KIND
     &KIND H
       BASIS_SET DZVP-MOLOPT-SR-GTH-q1
       POTENTIAL GTH-PBE-q1
       &POTENTIAL
1
0.2000000000000000E+00 2 -0.4178900440000000E+01  0.7244633100000000E+00
0
       &END POTENTIAL
     &END KIND
     &KIND N
       BASIS_SET DZVP-MOLOPT-SR-GTH
       POTENTIAL GTH-PBE-q5
       &POTENTIAL
2 3
0.2837905100000000E+00 2 -0.1241522559000000E+02  0.1868095920000000E+01
2
0.2554050000000000E+00 1  0.1363026257000000E+02
0.2454945300000000E+00 0
       &END POTENTIAL
     &END KIND
     &KIND Ga
       BASIS_SET DZVP-MOLOPT-SR-GTH
       POTENTIAL GTH-PBE-q13
       &POTENTIAL
2 1 10
0.4900000000000000E+00 0
3
0.4167772300000000E+00 3  0.1047568975000000E+02 -0.4921768140000000E+01  0.8707055900000000E+00
0.7770178090000000E+01 -0.2248152160000000E+01
0.1784415450000000E+01
0.5696265200000000E+00 2  0.1777985340000000E+01  0.1958597600000000E+00
-0.2317443900000000E+00
0.2381265000000000E+00 1 -0.1624868022000000E+02
       &END POTENTIAL
     &END KIND
     &TOPOLOGY
       NUMBER_OF_ATOMS  212
       MULTIPLE_UNIT_CELL  1 1 1
     &END TOPOLOGY
     &COLVAR
       &DISTANCE
         ATOMS  127 211
       &END DISTANCE
       &PRINT
       &END PRINT
     &END COLVAR
   &END SUBSYS
 &END FORCE_EVAL
