 # Version information for this restart file 
 # current date 2019-07-19 08:26:47.674
 # current working dir /lustre04/scratch/rzk/rzk/GaN-carbene/443-adatoms-both-2x2/09-BondBreaking-CH/02-0401-CH-to-NTop-PES/Phase04-OptimizeAdjustedIntermed909
 # Program compiled at                              Sun Apr  7 00:48:11 EDT 2019
 # Program compiled on                          beluga2.int.ets1.calculquebec.ca
 # Program compiled for                        Beluga-Linux-x86-64-intel-openmpi
 # Source code revision number                                         svn:18619
 &GLOBAL
   PRINT_LEVEL  MEDIUM
   PROJECT_NAME TEST
   RUN_TYPE  GEO_OPT
 &END GLOBAL
 &MOTION
   &GEO_OPT
     MAX_ITER  500
     STEP_START_VAL  200
   &END GEO_OPT
 &END MOTION
 &FORCE_EVAL
   METHOD  QS
   STRESS_TENSOR  ANALYTICAL
   &DFT
     BASIS_SET_FILE_NAME BASIS_MOLOPT
     POTENTIAL_FILE_NAME GTH_POTENTIALS
     UKS  T
     SURFACE_DIPOLE_CORRECTION  T
     SURF_DIP_DIR  Z
     &SCF
       MAX_SCF  80
       EPS_SCF     5.0000000000000004E-06
       &OT  T
         PRECONDITIONER  FULL_ALL
       &END OT
       &OUTER_SCF  T
         OPTIMIZER  NONE
         EPS_SCF     5.0000000000000004E-06
         MAX_SCF  4
       &END OUTER_SCF
       &PRINT
         &RESTART  OFF
           BACKUP_COPIES  1
           &EACH
             JUST_ENERGY  0
             QS_SCF  0
             MD  20
           &END EACH
         &END RESTART
       &END PRINT
     &END SCF
     &QS
       EPS_DEFAULT     1.0000000000000000E-14
       METHOD  GPW
     &END QS
     &MGRID
       NGRIDS  5
       CUTOFF     1.2000000000000000E+03
     &END MGRID
     &XC
       DENSITY_CUTOFF     1.0000000000000000E-10
       GRADIENT_CUTOFF     1.0000000000000000E-10
       TAU_CUTOFF     1.0000000000000000E-10
       &XC_FUNCTIONAL  NO_SHORTCUT
         &PBE  T
         &END PBE
       &END XC_FUNCTIONAL
       &VDW_POTENTIAL
         POTENTIAL_TYPE  PAIR_POTENTIAL
         &PAIR_POTENTIAL
           R_CUTOFF     1.0000000000000009E+01
           TYPE  DFTD3
           PARAMETER_FILE_NAME dftd3.dat
           REFERENCE_FUNCTIONAL PBE
           EPS_CN     9.9999999999999995E-07
           CALCULATE_C9_TERM  T
           REFERENCE_C9_TERM  T
           LONG_RANGE_CORRECTION  F
           VERBOSE_OUTPUT  F
         &END PAIR_POTENTIAL
       &END VDW_POTENTIAL
     &END XC
   &END DFT
   &SUBSYS
     &CELL
       A     1.2864472766435110E+01    0.0000000000000000E+00    0.0000000000000000E+00
       B    -6.4322363581020028E+00    1.1140960178524477E+01    0.0000000000000000E+00
       C     0.0000000000000000E+00    0.0000000000000000E+00    3.2000000000000000E+01
       MULTIPLE_UNIT_CELL  1 1 1
       &CELL_REF
         A     1.2982353780853531E+01    0.0000000000000000E+00    0.0000000000000000E+00
         B    -6.4911768904267628E+00    1.1243048175136114E+01    0.0000000000000000E+00
         C     0.0000000000000000E+00    0.0000000000000000E+00    3.2000000000000000E+01
         MULTIPLE_UNIT_CELL  1 1 1
       &END CELL_REF
     &END CELL
     &COORD
N   -2.9730973661704685E-02    1.9360243233525376E+00    2.4648700265769050E+00
Ga   -3.7202245036803805E-02   -3.0061288381775502E-02    2.7776471915714649E+00
N   -2.7306919297673173E-02   -6.3641751721434242E-02    4.9821991782749562E+00
Ga   -2.1804278097150177E-02    1.7646133932372619E+00    5.7522673418053296E+00
N   -2.1788976834806861E-02    1.7806918572925163E+00    7.7596899411346900E+00
Ga   -2.0694170941436184E-02   -6.4082616464629955E-02    8.3996715519120944E+00
N   -2.0992653987036567E-02   -6.5061193782504093E-02    1.0377087130366640E+01
Ga   -2.0874821891150832E-02    1.7758806536566800E+00    1.1024171895831259E+01
N   -2.0778324086759795E-02    1.7567576759153345E+00    1.3020903686569635E+01
Ga   -2.0914128138266343E-02   -6.3056579674901539E-02    1.3821299232798431E+01
N   -2.1888860304750287E-02   -6.3779125098802528E-02    1.6026823079814669E+01
Ga   -2.0938539913076083E-02    1.9754647571494626E+00    1.6435759984254130E+01
Ga   -4.8668848835035514E-02    3.6319468558476222E+00    1.2832832673193590E+00
N   -1.5080658721316034E+00    4.5117682306074496E+00    2.4708962804033918E+00
Ga   -1.6940798366462362E+00    2.6771270966894418E+00    3.2368782060100827E+00
N   -1.6313481368319520E+00    2.7240889054285669E+00    5.2208965149792341E+00
Ga   -1.6535556769481705E+00    4.5891663379344232E+00    5.7622097473936007E+00
N   -1.6378222261059994E+00    4.5868339103547280E+00    7.7616383664321136E+00
Ga   -1.6180820490633785E+00    2.7266611005278061E+00    8.3946579975211044E+00
N   -1.6186955405706795E+00    2.7282992083033695E+00    1.0391889637834414E+01
Ga   -1.6443868909471906E+00    4.5864526867759396E+00    1.1027166325718106E+01
N   -1.6609533847734563E+00    4.5972046838928895E+00    1.3022644390671680E+01
Ga   -1.6177333865406929E+00    2.7279492782088384E+00    1.3576402638385458E+01
N   -1.6453519682273852E+00    2.7119638895525289E+00    1.5540630927935986E+01
Ga   -1.4722358265099291E+00    4.4878800043344871E+00    1.6435831801516247E+01
N   -2.9070362706855417E-02    3.6459722587751116E+00    1.7569946512644609E+01
N   -3.2401697809133347E+00    7.4705295429319127E+00    2.4623277230011205E+00
Ga   -3.1943028218980292E+00    5.5011471571498376E+00    2.8106501994471995E+00
N   -3.2381961351285868E+00    5.5028893837840940E+00    4.9899113016365124E+00
Ga   -3.2364578447074006E+00    7.3290460673887585E+00    5.7533986138099866E+00
N   -3.2380010186098693E+00    7.3555330617864891E+00    7.7498240169171932E+00
Ga   -3.2352778132919409E+00    5.5094813649355094E+00    8.4040440566859012E+00
N   -3.2376552706360160E+00    5.5083144489360647E+00    1.0378456827510202E+01
Ga   -3.2375877852158590E+00    7.3469096362805226E+00    1.1028527291363275E+01
N   -3.2371594520597271E+00    7.3276287130082789E+00    1.3023043643139506E+01
Ga   -3.2373724779734157E+00    5.5067112259727002E+00    1.3824398714527602E+01
N   -3.2385567622255964E+00    5.5061876810893908E+00    1.6026961839595280E+01
Ga   -3.2369581887848891E+00    7.5450194223702889E+00    1.6437049538925169E+01
Ga   -3.2315286762597792E+00    9.2760182859523717E+00    1.2045557462282985E+00
N   -4.7584888079315251E+00    1.0094851376535484E+01    2.4557357769813857E+00
Ga   -4.8431359480848188E+00    8.3055644058239846E+00    3.2447730103367891E+00
N   -4.8560283178868344E+00    8.2853079637382994E+00    5.1932033896479268E+00
Ga   -4.8762528944095429E+00    1.0173115478083570E+01    5.7465107543272849E+00
N   -4.8552524798032346E+00    1.0151741117562267E+01    7.7492788500557790E+00
Ga   -4.8337146255045917E+00    8.3014595826023587E+00    8.3965588138232441E+00
N   -4.8346928850053343E+00    8.2977091182419240E+00    1.0389861729149455E+01
Ga   -4.8597129618684232E+00    1.0158036425608790E+01    1.1025315008634053E+01
N   -4.8763881357986794E+00    1.0167199350092060E+01    1.3021194462464075E+01
Ga   -4.8336592213722982E+00    8.2994037760892585E+00    1.3578780555899820E+01
N   -4.8619319843311146E+00    8.2831453856992709E+00    1.5542451832204996E+01
Ga   -4.6874930767745671E+00    1.0058580460721943E+01    1.6436975618056938E+01
N   -3.2444386455582430E+00    9.2161249526106310E+00    1.7570686720314992E+01
N    3.1804952441641716E+00    1.7942101428951669E+00    2.5826373485652376E+00
Ga    3.1851745633741739E+00    2.7085094372191688E-02    3.2030622563175108E+00
N    3.1937641116451023E+00   -6.9520663459953155E-02    5.1929378521101199E+00
Ga    3.1842601046097649E+00    1.7862785658227356E+00    5.8181308991865475E+00
N    3.1954009386563715E+00    1.7913616403260788E+00    7.8022987641657053E+00
Ga    3.1943331644554864E+00   -7.5341962253165917E-02    8.3868934534926627E+00
N    3.1946432450896562E+00   -7.7518693516710674E-02    1.0385186826857032E+01
Ga    3.1935101191898734E+00    1.7913497430133798E+00    1.0981176516539648E+01
N    3.1950140268471969E+00    1.7926296126903327E+00    1.2955273335697068E+01
Ga    3.1955238755054300E+00   -7.6014480940312573E-02    1.3577195798785249E+01
N    3.1965822445701755E+00   -4.5039326513705721E-02    1.5540004332544413E+01
Ga    3.1951455259547070E+00    1.7935273728049914E+00    1.5818569889970448E+01
N    1.4720667306298214E+00    4.5173472871955553E+00    2.4744622449653155E+00
Ga    1.6458371971584751E+00    2.6787830683760814E+00    3.2167613262881640E+00
N    1.5862535446602513E+00    2.7195834034535120E+00    5.2090093249614231E+00
Ga    1.6097296480401384E+00    4.5817019972430177E+00    5.7624294917095860E+00
N    1.5946406744972470E+00    4.5845467402174860E+00    7.7610573748369651E+00
Ga    1.5770928448846626E+00    2.7237381509691416E+00    8.3908761606496167E+00
N    1.5764258775343518E+00    2.7273766947378171E+00    1.0388790710010712E+01
Ga    1.6017126768545331E+00    4.5853471602071290E+00    1.1025457024094798E+01
N    1.6190423184126728E+00    4.5967404602431277E+00    1.3020991536297442E+01
Ga    1.5764022122573138E+00    2.7280420755011208E+00    1.3576249819714498E+01
N    1.6038254102244420E+00    2.7138522550341162E+00    1.5539319882944131E+01
Ga    1.4230597254617916E+00    4.4836143304942757E+00    1.6437118607380810E+01
N   -1.5850943101154754E-02    7.3639737957135933E+00    2.6340864209604802E+00
Ga   -1.4557920232564442E-02    5.5073712749966024E+00    3.2673836687341198E+00
N   -2.0600215418411415E-02    5.5245686448170197E+00    5.2139567737543411E+00
Ga   -1.8240532123846197E-02    7.3667962144224699E+00    5.8453431313398232E+00
N   -2.1430622352610420E-02    7.3655878951823377E+00    7.8131005204840713E+00
Ga   -2.1216044273369671E-02    5.4953147318687865E+00    8.3997673253517000E+00
N   -2.1376487670908498E-02    5.4947175878928736E+00    1.0393074044312215E+01
Ga   -2.2205037784449714E-02    7.3635013575974249E+00    1.0984489374985237E+01
N   -2.1094942847750677E-02    7.3643274558094989E+00    1.2957401245614614E+01
Ga   -2.0386927472749800E-02    5.4940975787591864E+00    1.3576957692918793E+01
N   -1.9028890823963168E-02    5.5256479189275778E+00    1.5539918813292307E+01
Ga   -2.0831705007606085E-02    7.3637222938762870E+00    1.5819230223241259E+01
N   -1.7234531402764266E+00    1.0092415771794826E+01    2.4683345765249713E+00
Ga   -1.6230677860358931E+00    8.2888628150904626E+00    3.2388681354590196E+00
N   -1.6185972920382357E+00    8.2836614981914707E+00    5.1909803449348857E+00
Ga   -1.6066830778230470E+00    1.0166974168528620E+01    5.7481952545312458E+00
N   -1.6203172247352426E+00    1.0151526451870730E+01    7.7494739114474571E+00
Ga   -1.6403340432449967E+00    8.3000189077713191E+00    8.3962548299593003E+00
N   -1.6412423249010111E+00    8.2980492673210282E+00    1.0389682840175899E+01
Ga   -1.6157949994490073E+00    1.0157791286146985E+01    1.1025128080468056E+01
N   -1.5977211515930057E+00    1.0167320169151521E+01    1.3020474331744076E+01
Ga   -1.6398459377930397E+00    8.2994588614963032E+00    1.3577937101701606E+01
N   -1.6119388101018490E+00    8.2846419120861654E+00    1.5540641566601087E+01
Ga   -1.7930683561028846E+00    1.0054752857509223E+01    1.6437524023859076E+01
N    6.4135221703666181E+00    1.9097062976182055E+00    2.5044646598476414E+00
Ga    6.4261257832159178E+00   -8.9785479710316793E-02    2.8206280289189141E+00
N    6.4139843905268998E+00   -6.2530751052020481E-02    4.9897880903820289E+00
Ga    6.4112783152542683E+00    1.7607949859735865E+00    5.7653863341938321E+00
N    6.4111814662322946E+00    1.7814781826657724E+00    7.7623705506677636E+00
Ga    6.4099978055067952E+00   -6.6779189014550988E-02    8.4008900583751736E+00
N    6.4104333659687036E+00   -6.4897321839277697E-02    1.0377097409972167E+01
Ga    6.4101598327815656E+00    1.7752732901330799E+00    1.1026130122963446E+01
N    6.4112216572284879E+00    1.7567289511445716E+00    1.3021588352856085E+01
Ga    6.4105397211304744E+00   -6.3252935003845850E-02    1.3821899663606750E+01
N    6.4094218572569481E+00   -6.3706660979099217E-02    1.6026524053076116E+01
Ga    6.4112781209518790E+00    1.9762401044790514E+00    1.6436846424934423E+01
Ga    6.4100802095939251E+00    3.6121340162905571E+00    1.4968971807358418E+00
N    4.9170951692035088E+00    4.5199325098211895E+00    2.4935028357499367E+00
Ga    4.6853592020534407E+00    2.6496167735357008E+00    3.2594887430169828E+00
N    4.8048094504446821E+00    2.7216421048202997E+00    5.2188563505340841E+00
Ga    4.7722004152973394E+00    4.5872626633073930E+00    5.7754689970145225E+00
N    4.7968792695265767E+00    4.5840030613451921E+00    7.7647860861553193E+00
Ga    4.8100858818353140E+00    2.7223590525102521E+00    8.3960508272217051E+00
N    4.8128783358494696E+00    2.7271909798903016E+00    1.0390921705371866E+01
Ga    4.7872414593302048E+00    4.5857515760001446E+00    1.1027313541543881E+01
N    4.7716672881857987E+00    4.5967707275080576E+00    1.3022238323099236E+01
Ga    4.8141062808904866E+00    2.7276799295990251E+00    1.3577077534703147E+01
N    4.7866325776768468E+00    2.7121790986320211E+00    1.5540752456926949E+01
Ga    4.9616901836742091E+00    4.4866264346192546E+00    1.6437723301118393E+01
N    6.4036961250320470E+00    3.6451726677007108E+00    1.7572184398731302E+01
N    3.1895643207767068E+00    7.4478385866207679E+00    2.4468614945613427E+00
N    3.1987730460031845E+00    5.4975980183494189E+00    5.0059613839581116E+00
Ga    3.1947518812515665E+00    7.3303044684340186E+00    5.7563957818501752E+00
N    3.1957503724599405E+00    7.3545687553615702E+00    7.7529808607100188E+00
Ga    3.1930231559375564E+00    5.5074725655239929E+00    8.4029514460126435E+00
N    3.1951070376326451E+00    5.5073970214459340E+00    1.0377870526581029E+01
Ga    3.1944401426267568E+00    7.3454072614461987E+00    1.1029878751824327E+01
N    3.1952880464625122E+00    7.3270833917374718E+00    1.3024280776912015E+01
Ga    3.1947880514217406E+00    5.5058047705578792E+00    1.3823584161198173E+01
N    3.1939463283313181E+00    5.5055973625671708E+00    1.6027339475695861E+01
Ga    3.1951042095489841E+00    7.5424513107447488E+00    1.6434565127790755E+01
Ga    3.1849261820513424E+00    9.4193278700192700E+00    1.2171615974122483E+00
N    1.7097182822719788E+00    1.0099139731258482E+01    2.4804755509865974E+00
Ga    1.6029011875178054E+00    8.2860374973710105E+00    3.2348569263015654E+00
N    1.5781954862202268E+00    8.2833312116596662E+00    5.1931111740982736E+00
Ga    1.5622631729159637E+00    1.0161950127086289E+01    5.7580721637922663E+00
N    1.5761946683178241E+00    1.0150086072097995E+01    7.7574832379210088E+00
Ga    1.5975508641952210E+00    8.2983352608542287E+00    8.3996335924424734E+00
N    1.5980335708277313E+00    8.2970907719052605E+00    1.0392683713823487E+01
Ga    1.5722373540154206E+00    1.0157644807918018E+01    1.1026120248435879E+01
N    1.5555288698968535E+00    1.0167374576742143E+01    1.3022073798839708E+01
Ga    1.5982768334055575E+00    8.2991960020377444E+00    1.3578019804585191E+01
N    1.5712156650046509E+00    8.2833991928839428E+00    1.5542647933459339E+01
Ga    1.7413839385486607E+00    1.0060488706232768E+01    1.6433967316999428E+01
N    3.1868642605950499E+00    9.2165992966421193E+00    1.7568176758080440E+01
N    9.6389579477597067E+00    1.7916565277963477E+00    2.6014020983598218E+00
Ga    9.6296047610988786E+00    3.6950431414768857E-02    3.2610484659838219E+00
N    9.6281831139118133E+00   -6.3106916395137297E-02    5.2303701499643740E+00
Ga    9.6351501911131319E+00    1.7943780721010929E+00    5.8370938114362900E+00
N    9.6257013753727900E+00    1.7947368358614593E+00    7.8155047637857633E+00
Ga    9.6270826496002524E+00   -7.5589666193278809E-02    8.3905860967926369E+00
N    9.6267901470133950E+00   -7.7417933160746660E-02    1.0388526893017543E+01
Ga    9.6271255486809793E+00    1.7921430821108584E+00    1.0981716038407905E+01
N    9.6272626705080153E+00    1.7927636218612635E+00    1.2956039636783752E+01
Ga    9.6278063071612312E+00   -7.5978618185384261E-02    1.3576847004987387E+01
N    9.6289902927847564E+00   -4.5717845622904506E-02    1.5540529772106629E+01
Ga    9.6274403485898929E+00    1.7935628776022845E+00    1.5818039373991118E+01
N    7.9077972661400047E+00    4.5259181730811715E+00    2.4859778683823248E+00
Ga    8.1354500865594321E+00    2.6576190720304100E+00    3.2652755603807639E+00
N    8.0168749949426807E+00    2.7265306697582385E+00    5.2241331140157561E+00
Ga    8.0535159329325303E+00    4.5941193978382620E+00    5.7720349901421555E+00
N    8.0265956501530216E+00    4.5866901604828527E+00    7.7634530168196605E+00
Ga    8.0093578842723545E+00    2.7259359126380156E+00    8.3994797498344376E+00
N    8.0071853973051947E+00    2.7286731332075513E+00    1.0393164074066746E+01
Ga    8.0346093475123670E+00    4.5870044165058488E+00    1.1028407273196997E+01
N    8.0511067982374378E+00    4.5971388732566991E+00    1.3022454038655265E+01
Ga    8.0087667149070647E+00    2.7280733742803696E+00    1.3576854269540249E+01
N    8.0361759744394092E+00    2.7135452207535167E+00    1.5539409430785897E+01
Ga    7.8545216352598670E+00    4.4830429591821712E+00    1.6438136230499534E+01
N    6.4061485529297943E+00    7.3783487886171306E+00    2.6366084536495649E+00
Ga    6.4106042829570606E+00    5.5527928896353940E+00    3.2974436377986085E+00
N    6.4108218184283752E+00    5.5242485566989732E+00    5.2207664079510581E+00
Ga    6.4059806362833021E+00    7.3797988419344902E+00    5.8486586615679235E+00
N    6.4098950044438014E+00    7.3657137218775999E+00    7.8122185998525104E+00
Ga    6.4113418183601434E+00    5.4967287488093328E+00    8.4044752008868659E+00
N    6.4109398842883891E+00    5.4951301559306689E+00    1.0394394573092670E+01
Ga    6.4109024882079062E+00    7.3643109683169667E+00    1.0986380670451528E+01
N    6.4112812956921204E+00    7.3643024119713179E+00    1.2958469748911977E+01
Ga    6.4116419157287146E+00    5.4941090808595749E+00    1.3578254208084960E+01
N    6.4124825076547278E+00    5.5257205422752387E+00    1.5540521151094131E+01
Ga    6.4112214245578123E+00    7.3636599812328347E+00    1.5819641669986929E+01
N    4.6725941124803549E+00    1.0095875374579240E+01    2.4411069605111688E+00
Ga    4.7714051379933098E+00    8.2945036145302105E+00    3.2257416829150314E+00
N    4.8100527262569743E+00    8.2859504901388608E+00    5.1834128554583918E+00
Ga    4.8331320541675389E+00    1.0166564752006058E+01    5.7568981792114648E+00
N    4.8132698671390388E+00    1.0149301193621326E+01    7.7573395968384400E+00
Ga    4.7904443737137461E+00    8.2997262820944631E+00    8.4020451390405562E+00
N    4.7912916489112538E+00    8.2971344108279350E+00    1.0393470927943637E+01
Ga    4.8174503997347191E+00    1.0158289874362572E+01    1.1025864821762442E+01
N    4.8347665336550891E+00    1.0167294550022731E+01    1.3021474204259231E+01
Ga    4.7923439577330162E+00    8.2995743325766824E+00    1.3578213902058302E+01
N    4.8194821238432795E+00    8.2850439946580305E+00    1.5541627875214761E+01
Ga    4.6417823408578105E+00    1.0056456487234774E+01    1.6435042033032257E+01
O   -1.4930378787140165E-02    3.8074122372637427E+00   -5.1827314430433935E-01
H    2.4065788755639459E+00    7.0312252192454316E+00    4.5089584020741830E-01
C    1.2737210567849948E+00    3.7584320588940572E+00   -1.1518794591159935E+00
H    2.0369310363302575E+00    4.3385468610420430E+00   -6.0675882162669681E-01
H    1.6340889834479428E+00    2.7228573790866788E+00   -1.2588814419589891E+00
H    1.1643290362301761E+00    4.2007933072981603E+00   -2.1525317188286777E+00
Ga    3.1538329201990103E+00    5.5021045764590024E+00    2.8574408906712860E+00
O    2.0001231598275431E+00    7.4722114609433694E+00   -3.2790806055458621E-01
H    4.9315937089055894E-03    7.3522981342844025E+00    1.6051292886821089E+00
C    2.7962451177183318E+00    8.6378943289888248E+00   -5.8102730817029824E-01
H    2.1983172824725385E+00    9.3362378217225324E+00   -1.1782722704937107E+00
H    6.4145504679494474E+00    7.3545894787165338E+00    1.6104740581978365E+00
H    3.7244290745827024E+00    8.4040019506474906E+00   -1.1236642247244977E+00
     &END COORD
     &KIND C
       BASIS_SET DZVP-MOLOPT-SR-GTH-q4
       POTENTIAL GTH-PBE-q4
       &POTENTIAL
2 2
0.3384712400000000E+00 2 -0.8803673979999999E+01  0.1339210850000000E+01
2
0.3025757500000000E+00 1  0.9622486650000001E+01
0.2915069400000000E+00 0
       &END POTENTIAL
     &END KIND
     &KIND O
       BASIS_SET DZVP-MOLOPT-SR-GTH-q6
       POTENTIAL GTH-PBE-q6
       &POTENTIAL
2 4
0.2445543000000000E+00 2 -0.1666721480000000E+02  0.2487311320000000E+01
2
0.2209559200000000E+00 1  0.1833745811000000E+02
0.2113324700000000E+00 0
       &END POTENTIAL
     &END KIND
     &KIND H
       BASIS_SET DZVP-MOLOPT-SR-GTH-q1
       POTENTIAL GTH-PBE-q1
       &POTENTIAL
1
0.2000000000000000E+00 2 -0.4178900440000000E+01  0.7244633100000000E+00
0
       &END POTENTIAL
     &END KIND
     &KIND N
       BASIS_SET DZVP-MOLOPT-SR-GTH
       POTENTIAL GTH-PBE-q5
       &POTENTIAL
2 3
0.2837905100000000E+00 2 -0.1241522559000000E+02  0.1868095920000000E+01
2
0.2554050000000000E+00 1  0.1363026257000000E+02
0.2454945300000000E+00 0
       &END POTENTIAL
     &END KIND
     &KIND Ga
       BASIS_SET DZVP-MOLOPT-SR-GTH
       POTENTIAL GTH-PBE-q13
       &POTENTIAL
2 1 10
0.4900000000000000E+00 0
3
0.4167772300000000E+00 3  0.1047568975000000E+02 -0.4921768140000000E+01  0.8707055900000000E+00
0.7770178090000000E+01 -0.2248152160000000E+01
0.1784415450000000E+01
0.5696265200000000E+00 2  0.1777985340000000E+01  0.1958597600000000E+00
-0.2317443900000000E+00
0.2381265000000000E+00 1 -0.1624868022000000E+02
       &END POTENTIAL
     &END KIND
     &TOPOLOGY
       NUMBER_OF_ATOMS  212
       MULTIPLE_UNIT_CELL  1 1 1
     &END TOPOLOGY
     &COLVAR
       &DISTANCE
         ATOMS  127 211
       &END DISTANCE
       &PRINT
       &END PRINT
     &END COLVAR
   &END SUBSYS
 &END FORCE_EVAL
