 # Version information for this restart file 
 # current date 2019-07-19 07:44:58.342
 # current working dir /lustre04/scratch/rzk/rzk/GaN-carbene/443-adatoms-both-2x2/09-BondBreaking-CH/02-0401-CH-to-NTop-PES/Phase04-OptimizeAdjustedIntermed909
 # Program compiled at                              Sun Apr  7 00:48:11 EDT 2019
 # Program compiled on                          beluga2.int.ets1.calculquebec.ca
 # Program compiled for                        Beluga-Linux-x86-64-intel-openmpi
 # Source code revision number                                         svn:18619
 &GLOBAL
   PRINT_LEVEL  MEDIUM
   PROJECT_NAME TEST
   RUN_TYPE  GEO_OPT
 &END GLOBAL
 &MOTION
   &GEO_OPT
     MAX_ITER  500
     STEP_START_VAL  182
   &END GEO_OPT
 &END MOTION
 &FORCE_EVAL
   METHOD  QS
   STRESS_TENSOR  ANALYTICAL
   &DFT
     BASIS_SET_FILE_NAME BASIS_MOLOPT
     POTENTIAL_FILE_NAME GTH_POTENTIALS
     UKS  T
     SURFACE_DIPOLE_CORRECTION  T
     SURF_DIP_DIR  Z
     &SCF
       MAX_SCF  80
       EPS_SCF     5.0000000000000004E-06
       &OT  T
         PRECONDITIONER  FULL_ALL
       &END OT
       &OUTER_SCF  T
         OPTIMIZER  NONE
         EPS_SCF     5.0000000000000004E-06
         MAX_SCF  4
       &END OUTER_SCF
       &PRINT
         &RESTART  OFF
           BACKUP_COPIES  1
           &EACH
             JUST_ENERGY  0
             QS_SCF  0
             MD  20
           &END EACH
         &END RESTART
       &END PRINT
     &END SCF
     &QS
       EPS_DEFAULT     1.0000000000000000E-14
       METHOD  GPW
     &END QS
     &MGRID
       NGRIDS  5
       CUTOFF     1.2000000000000000E+03
     &END MGRID
     &XC
       DENSITY_CUTOFF     1.0000000000000000E-10
       GRADIENT_CUTOFF     1.0000000000000000E-10
       TAU_CUTOFF     1.0000000000000000E-10
       &XC_FUNCTIONAL  NO_SHORTCUT
         &PBE  T
         &END PBE
       &END XC_FUNCTIONAL
       &VDW_POTENTIAL
         POTENTIAL_TYPE  PAIR_POTENTIAL
         &PAIR_POTENTIAL
           R_CUTOFF     1.0000000000000009E+01
           TYPE  DFTD3
           PARAMETER_FILE_NAME dftd3.dat
           REFERENCE_FUNCTIONAL PBE
           EPS_CN     9.9999999999999995E-07
           CALCULATE_C9_TERM  T
           REFERENCE_C9_TERM  T
           LONG_RANGE_CORRECTION  F
           VERBOSE_OUTPUT  F
         &END PAIR_POTENTIAL
       &END VDW_POTENTIAL
     &END XC
   &END DFT
   &SUBSYS
     &CELL
       A     1.2864472766435110E+01    0.0000000000000000E+00    0.0000000000000000E+00
       B    -6.4322363581020028E+00    1.1140960178524477E+01    0.0000000000000000E+00
       C     0.0000000000000000E+00    0.0000000000000000E+00    3.2000000000000000E+01
       MULTIPLE_UNIT_CELL  1 1 1
       &CELL_REF
         A     1.2982353780853531E+01    0.0000000000000000E+00    0.0000000000000000E+00
         B    -6.4911768904267628E+00    1.1243048175136114E+01    0.0000000000000000E+00
         C     0.0000000000000000E+00    0.0000000000000000E+00    3.2000000000000000E+01
         MULTIPLE_UNIT_CELL  1 1 1
       &END CELL_REF
     &END CELL
     &COORD
N   -2.8415686567595560E-02    1.9323991531150355E+00    2.4636825192208813E+00
Ga   -3.3484047393256784E-02   -3.3561877369588183E-02    2.7757637868006104E+00
N   -2.5943267748152261E-02   -6.4735492309395681E-02    4.9785602197535628E+00
Ga   -1.9183073748776883E-02    1.7619915768895364E+00    5.7511971878010426E+00
N   -1.9671421928256293E-02    1.7790320177652443E+00    7.7590275859059163E+00
Ga   -2.0039731584786145E-02   -6.4342510729495123E-02    8.3998393449802595E+00
N   -2.1288802225707365E-02   -6.7037264270857017E-02    1.0377008502454695E+01
Ga   -1.9007897397891004E-02    1.7742740839810311E+00    1.1026958212312261E+01
N   -1.8161035512091386E-02    1.7526517831124477E+00    1.3022377310291464E+01
Ga   -2.4532847038992431E-02   -6.4154114936865375E-02    1.3828629190745243E+01
N   -2.1549681805306808E-02   -6.6401256096263614E-02    1.6028902451401294E+01
Ga   -1.9001353161787814E-02    1.9695502400675466E+00    1.6433936560066375E+01
Ga   -5.2155769021000782E-02    3.6292618449608738E+00    1.2895484312737462E+00
N   -1.5086350960971537E+00    4.5097960525407066E+00    2.4742789285728817E+00
Ga   -1.6925299054849041E+00    2.6732277772453226E+00    3.2383730752368352E+00
N   -1.6286702804652633E+00    2.7221427770549878E+00    5.2201971733267056E+00
Ga   -1.6522636334493606E+00    4.5888496648064505E+00    5.7602840219314562E+00
N   -1.6363939603904192E+00    4.5830266096201751E+00    7.7605144935404322E+00
Ga   -1.6155180049787772E+00    2.7234876905622052E+00    8.3947866565395621E+00
N   -1.6165032862296400E+00    2.7261577506296608E+00    1.0391056138314442E+01
Ga   -1.6418961043918421E+00    4.5836585036397306E+00    1.1027026891176897E+01
N   -1.6574708531824092E+00    4.5937649636336877E+00    1.3022041531595486E+01
Ga   -1.6151731743885687E+00    2.7238026086412175E+00    1.3578078548048666E+01
N   -1.6430359461205244E+00    2.7102841188967020E+00    1.5539839664174597E+01
Ga   -1.4666396468984397E+00    4.4823789677684935E+00    1.6437940872323257E+01
N   -2.3018699294951470E-02    3.6384047335850407E+00    1.7566700402159000E+01
N   -3.2408661726773844E+00    7.4743636821307478E+00    2.4583807033800333E+00
Ga   -3.1920635559923189E+00    5.5030166522306736E+00    2.8067314768717679E+00
N   -3.2368669794651215E+00    5.5023301707197003E+00    4.9856269050882656E+00
Ga   -3.2381685730165990E+00    7.3292801813115975E+00    5.7487149359899998E+00
N   -3.2376450939909791E+00    7.3525776631721556E+00    7.7476662213118672E+00
Ga   -3.2335102126435928E+00    5.5062631391108505E+00    8.4005616921912925E+00
N   -3.2356428316492738E+00    5.5056576515988604E+00    1.0374787265176138E+01
Ga   -3.2369796634574763E+00    7.3442889548326598E+00    1.1029961005262429E+01
N   -3.2364138216024116E+00    7.3254014724033532E+00    1.3025948188074334E+01
Ga   -3.2326573698968328E+00    5.5017661071127142E+00    1.3826683634963505E+01
N   -3.2360187968357046E+00    5.5046094079065258E+00    1.6029773165867070E+01
Ga   -3.2337422409821293E+00    7.5375419542394280E+00    1.6439186210011371E+01
Ga   -3.2328830180631258E+00    9.2779157091414604E+00    1.2021005665470494E+00
N   -4.7546351224813916E+00    1.0095571282707585E+01    2.4523319468444820E+00
Ga   -4.8452058007349823E+00    8.3082697278809405E+00    3.2391851792732056E+00
N   -4.8568092646643519E+00    8.2849235102034111E+00    5.1884971984253125E+00
Ga   -4.8753729012481450E+00    1.0171725116677001E+01    5.7424062521202535E+00
N   -4.8555721503002811E+00    1.0151923274646425E+01    7.7464101891760704E+00
Ga   -4.8327495453608247E+00    8.3015843165339707E+00    8.3942918081611548E+00
N   -4.8343619788376113E+00    8.2954922892493368E+00    1.0388989592733736E+01
Ga   -4.8600633382741725E+00    1.0156316582120001E+01    1.1027606673301682E+01
N   -4.8790108692261809E+00    1.0167508817372751E+01    1.3024325460458000E+01
Ga   -4.8340164806424433E+00    8.2988208102471557E+00    1.3581984600118725E+01
N   -4.8586572557086969E+00    8.2821602534825107E+00    1.5548074522960457E+01
Ga   -4.6929696081021577E+00    1.0062187180913519E+01    1.6434969293739833E+01
N   -3.2476411945794825E+00    9.2135079099253812E+00    1.7566401986448298E+01
N    3.1828993247677140E+00    1.7952996376987305E+00    2.5806683982412335E+00
Ga    3.1864474853435079E+00    2.8514797328007727E-02    3.1998466796101011E+00
N    3.1929847268205505E+00   -6.8103467227460246E-02    5.1895570570659899E+00
Ga    3.1842297477812616E+00    1.7862627022426771E+00    5.8186145806692053E+00
N    3.1957419986632840E+00    1.7906313080759351E+00    7.8026537644556822E+00
Ga    3.1941567827285735E+00   -7.6474586177234571E-02    8.3848995884665456E+00
N    3.1946071858327567E+00   -7.8898056521982396E-02    1.0383344981613194E+01
Ga    3.1936019065979631E+00    1.7910641625497974E+00    1.0981116409987068E+01
N    3.1957588861824862E+00    1.7902155682707819E+00    1.2956372732497904E+01
Ga    3.1952664410282741E+00   -7.7673922913489249E-02    1.3580821912074994E+01
N    3.1991419929247278E+00   -4.7126067607222731E-02    1.5544373628944847E+01
Ga    3.1964883263124375E+00    1.7927821600630354E+00    1.5818281406531487E+01
N    1.4749163625439967E+00    4.5170502536940145E+00    2.4775338758930077E+00
Ga    1.6479612485202715E+00    2.6785075585057880E+00    3.2156276684053968E+00
N    1.5870330153787382E+00    2.7183286406232923E+00    5.2072979286309264E+00
Ga    1.6104398459105334E+00    4.5808314170133357E+00    5.7619324853170903E+00
N    1.5952193826579377E+00    4.5829294914275209E+00    7.7611957794857984E+00
Ga    1.5779184431121347E+00    2.7226385036061265E+00    8.3912242934932610E+00
N    1.5768225661971411E+00    2.7262002018628788E+00    1.0387911741099458E+01
Ga    1.6034527617080891E+00    4.5833075076353227E+00    1.1027156890408923E+01
N    1.6228780786896568E+00    4.5947642935199688E+00    1.3021036338798206E+01
Ga    1.5771486205436924E+00    2.7263575380943244E+00    1.3579240082366528E+01
N    1.6068144343108197E+00    2.7125281989033718E+00    1.5540095136927222E+01
Ga    1.4284339465109996E+00    4.4817694934115249E+00    1.6437168589447055E+01
N   -1.4834415700195525E-02    7.3623102701840084E+00    2.6325091397734020E+00
Ga   -1.1327125535196046E-02    5.5085358259593677E+00    3.2663255732698828E+00
N   -1.8973708743301454E-02    5.5241606103391172E+00    5.2121722230351839E+00
Ga   -1.9086973047092986E-02    7.3655069071529571E+00    5.8456157511878866E+00
N   -2.1110176979013989E-02    7.3646418828759854E+00    7.8136510901653571E+00
Ga   -2.0423600979872985E-02    5.4936933670333730E+00    8.3980860408390949E+00
N   -1.9983960045316707E-02    5.4922331369165907E+00    1.0391287161740513E+01
Ga   -2.0399648912197286E-02    7.3601620483472345E+00    1.0985522445777034E+01
N   -1.5320074297645413E-02    7.3633013041008786E+00    1.2958516477803178E+01
Ga   -1.6991999379420041E-02    5.4927341101265021E+00    1.3577683039292644E+01
N   -1.5459521465565016E-02    5.5223942515962738E+00    1.5539313351720150E+01
Ga   -1.5118795222993945E-02    7.3616039519256500E+00    1.5821961131014413E+01
N   -1.7240767165086301E+00    1.0092620896474271E+01    2.4646247078117174E+00
Ga   -1.6216700988648618E+00    8.2893996375084757E+00    3.2353832842572334E+00
N   -1.6183983443772116E+00    8.2830937555157309E+00    5.1882142371999445E+00
Ga   -1.6079999550163360E+00    1.0167195444001882E+01    5.7440468883064497E+00
N   -1.6197335417328744E+00    1.0151684537304305E+01    7.7469357824045737E+00
Ga   -1.6403400535631074E+00    8.2990925572467997E+00    8.3932840185872379E+00
N   -1.6404108444528778E+00    8.2953846426591529E+00    1.0388099326146316E+01
Ga   -1.6147961686768044E+00    1.0156330626552771E+01    1.1024240682365996E+01
N   -1.5949299496300928E+00    1.0166658883685274E+01    1.3022269879188478E+01
Ga   -1.6352642485669606E+00    8.2961068857523870E+00    1.3580287698679877E+01
N   -1.6094411795130661E+00    8.2828605611491959E+00    1.5544287205581101E+01
Ga   -1.7870348213095033E+00    1.0054783408847998E+01    1.6439742656633353E+01
N    6.4165479029495653E+00    1.9082852894159485E+00    2.5010567868023403E+00
Ga    6.4266210391882170E+00   -9.2972714209396443E-02    2.8175417160507692E+00
N    6.4168806834470979E+00   -6.3840259618397718E-02    4.9867435663546029E+00
Ga    6.4120110099524270E+00    1.7596163546990846E+00    5.7638787482827034E+00
N    6.4122638495587205E+00    1.7797847033867034E+00    7.7608643059081501E+00
Ga    6.4114174754149662E+00   -6.8148492156092699E-02    8.3999837638975396E+00
N    6.4131496823061616E+00   -6.8164807333168861E-02    1.0375055371714430E+01
Ga    6.4116355708536545E+00    1.7733925726506288E+00    1.1025426512760351E+01
N    6.4125442973949225E+00    1.7528117754245702E+00    1.3023034234116718E+01
Ga    6.4184068509790686E+00   -6.7986648414348302E-02    1.3827578124866145E+01
N    6.4160906260118331E+00   -6.6612654475632443E-02    1.6030983228094080E+01
Ga    6.4130127852076511E+00    1.9683607283042905E+00    1.6437012749971768E+01
Ga    6.4122301344633259E+00    3.6103073536601036E+00    1.4982124257455471E+00
N    4.9186964703257345E+00    4.5200220546495444E+00    2.4910708875866510E+00
Ga    4.6880458075786215E+00    2.6495205932834498E+00    3.2587984737500006E+00
N    4.8055975076003410E+00    2.7204738301488991E+00    5.2178040987395491E+00
Ga    4.7742575324763052E+00    4.5867105655838287E+00    5.7749846374079015E+00
N    4.7974350702583157E+00    4.5825730111081349E+00    7.7644823772078881E+00
Ga    4.8107331120087187E+00    2.7207777526123289E+00    8.3947100503761938E+00
N    4.8140752218294285E+00    2.7262248512683427E+00    1.0389308368951745E+01
Ga    4.7875380098442353E+00    4.5848295051106218E+00    1.1029285520991156E+01
N    4.7692660478659654E+00    4.5970771925539813E+00    1.3024064528399535E+01
Ga    4.8150602978434609E+00    2.7270227882429876E+00    1.3578273177210978E+01
N    4.7892251661913763E+00    2.7107461340609587E+00    1.5542691339270064E+01
Ga    4.9562793119275135E+00    4.4879080261725042E+00    1.6434143128208227E+01
N    6.3973906378330279E+00    3.6386818719214449E+00    1.7574467392676798E+01
N    3.1917017376630001E+00    7.4492785296911608E+00    2.4558039644616341E+00
N    3.1999233743346442E+00    5.4970465049799300E+00    5.0050379507317064E+00
Ga    3.1958799194821723E+00    7.3300251728671908E+00    5.7594388765111466E+00
N    3.1965639017432665E+00    7.3525396604213871E+00    7.7550818481048394E+00
Ga    3.1928623055643608E+00    5.5054731868246440E+00    8.4024367695613407E+00
N    3.1958497381980449E+00    5.5068669440523879E+00    1.0376673746247294E+01
Ga    3.1962669299936888E+00    7.3436671982264698E+00    1.1034936356456081E+01
N    3.1980665428511243E+00    7.3251098615353323E+00    1.3026258948094677E+01
Ga    3.1934864273983083E+00    5.5072998178792023E+00    1.3827902511180136E+01
N    3.1978325440167876E+00    5.5087360761557713E+00    1.6026368158898411E+01
Ga    3.1957183417853643E+00    7.5484767568320574E+00    1.6441193403256971E+01
Ga    3.1765609744135905E+00    9.3803224315360136E+00    1.2277012061868673E+00
N    1.7130478901232065E+00    1.0093269303903197E+01    2.4804327076050194E+00
Ga    1.5994708794369872E+00    8.2834875336530214E+00    3.2407328451254340E+00
N    1.5789356882160814E+00    8.2813915317499269E+00    5.1973361296909193E+00
Ga    1.5640052812147769E+00    1.0160286223644302E+01    5.7603727329455108E+00
N    1.5781520417167632E+00    1.0149176574760942E+01    7.7587672024579755E+00
Ga    1.5985888737049869E+00    8.2964377306517960E+00    8.4004427410740981E+00
N    1.6001465288637491E+00    8.2941737444074182E+00    1.0392343076774514E+01
Ga    1.5751336508678697E+00    1.0154053936736204E+01    1.1029183808498587E+01
N    1.5600484989870251E+00    1.0163243011295432E+01    1.3023143085647414E+01
Ga    1.6041744471573003E+00    8.2970750814199477E+00    1.3582813014213226E+01
N    1.5727562825220718E+00    8.2804728567113361E+00    1.5541076704423519E+01
Ga    1.7553943524468334E+00    1.0048979472451675E+01    1.6444390068227179E+01
N    3.1920776604403578E+00    9.2100890980820616E+00    1.7581243944211028E+01
N    9.6410028852972509E+00    1.7893178030518573E+00    2.5991475861205600E+00
Ga    9.6337164231613741E+00    3.4097894167416029E-02    3.2574968306537242E+00
N    9.6304767687332653E+00   -6.5665716619853265E-02    5.2289427779015538E+00
Ga    9.6386130463536119E+00    1.7919164843415476E+00    5.8378629256644041E+00
N    9.6281166730004379E+00    1.7916171726567462E+00    7.8163839383121925E+00
Ga    9.6290730204867572E+00   -7.7879859084151556E-02    8.3941888319049340E+00
N    9.6289820194441198E+00   -8.1168278278928530E-02    1.0389331287496034E+01
Ga    9.6302768327514041E+00    1.7891264181138198E+00    1.0981705371837061E+01
N    9.6314732871171902E+00    1.7862224045778279E+00    1.2955305160289214E+01
Ga    9.6312624253028147E+00   -8.1299422812461802E-02    1.3582614652017464E+01
N    9.6311809427125645E+00   -4.7633982549297058E-02    1.5541604434183570E+01
Ga    9.6314790335914822E+00    1.7908495552554466E+00    1.5817073966557112E+01
N    7.9107625575420828E+00    4.5249176065847125E+00    2.4837903517727367E+00
Ga    8.1380330742631468E+00    2.6569686526155136E+00    3.2638674386936763E+00
N    8.0195401361571896E+00    2.7255071984614845E+00    5.2239970162854128E+00
Ga    8.0540940391570430E+00    4.5942272480209674E+00    5.7696014735576897E+00
N    8.0278520161604838E+00    4.5829371783561683E+00    7.7616804856889399E+00
Ga    8.0113822680626559E+00    2.7224912395921672E+00    8.3986953361861953E+00
N    8.0099640842103561E+00    2.7262438029633831E+00    1.0391800025095471E+01
Ga    8.0355415259288723E+00    4.5851531153972136E+00    1.1026194877294392E+01
N    8.0535852833225672E+00    4.5960037486475569E+00    1.3021288241018709E+01
Ga    8.0136994550612854E+00    2.7237351376129340E+00    1.3577452043076805E+01
N    8.0373646905509641E+00    2.7113416198234646E+00    1.5540898432577032E+01
Ga    7.8545781088746454E+00    4.4795878811693584E+00    1.6437258031504591E+01
N    6.4055857388228192E+00    7.3780739851513362E+00    2.6340846628515906E+00
Ga    6.4117559373871735E+00    5.5520683304485106E+00    3.2939474457650779E+00
N    6.4116671971295469E+00    5.5244825798894786E+00    5.2185464969735689E+00
Ga    6.4093390772170640E+00    7.3791041202876793E+00    5.8503063069411496E+00
N    6.4107263797236902E+00    7.3635900080543184E+00    7.8137924313846971E+00
Ga    6.4124012756623374E+00    5.4937993450580658E+00    8.4032194413281918E+00
N    6.4114350344954207E+00    5.4931511369830703E+00    1.0392932723012569E+01
Ga    6.4106507309333223E+00    7.3619726049077094E+00    1.0990079858465444E+01
N    6.4099712844078915E+00    7.3648477362504190E+00    1.2961853188974944E+01
Ga    6.4115751255457285E+00    5.4934708156221150E+00    1.3578887997722614E+01
N    6.4134564024481895E+00    5.5231095445649769E+00    1.5542017937394762E+01
Ga    6.4116644170652020E+00    7.3632580163699322E+00    1.5819495423380458E+01
N    4.6754746769296940E+00    1.0093367504079302E+01    2.4394442707743624E+00
Ga    4.7784040554215652E+00    8.2957653340333462E+00    3.2351716454802886E+00
N    4.8118407353509998E+00    8.2844072257129717E+00    5.1907469831891166E+00
Ga    4.8367267471958026E+00    1.0165277368179410E+01    5.7579730276049830E+00
N    4.8144274167735333E+00    1.0148567207097935E+01    7.7579891348079046E+00
Ga    4.7904170276240619E+00    8.2984806955038568E+00    8.4024162555664468E+00
N    4.7918083662321598E+00    8.2947160908075634E+00    1.0392841850036994E+01
Ga    4.8181226689640875E+00    1.0154226951590246E+01    1.1029687853311005E+01
N    4.8371780392347459E+00    1.0164243077455797E+01    1.3022169608809357E+01
Ga    4.7906492961511304E+00    8.2992239352257844E+00    1.3584027713867028E+01
N    4.8221289965729639E+00    8.2823754045121554E+00    1.5543042144318605E+01
Ga    4.6360771867574968E+00    1.0049229374725559E+01    1.6442586194306973E+01
O   -1.3841276570313046E-02    3.8164240555670252E+00   -5.0993852161398623E-01
H    2.3973772583092159E+00    6.9928657666579142E+00    4.1054878673030676E-01
C    1.2785935012029446E+00    3.7518631311901816E+00   -1.1439945097217796E+00
H    2.0561023748633889E+00    4.3003561939626813E+00   -5.8036615212183829E-01
H    1.6095261715181786E+00    2.7106445233163341E+00   -1.2769661518019888E+00
H    1.1789210549710585E+00    4.2290504506995266E+00   -2.1332062339856228E+00
Ga    3.1544849051357735E+00    5.5035796421665619E+00    2.8605946841912342E+00
O    1.9719556951703188E+00    7.4657722149520538E+00   -3.4431536190251466E-01
H    1.3479461288043764E-02    7.3548731239090248E+00    1.6036582722610546E+00
C    2.7788509253986855E+00    8.6420189403705745E+00   -5.7774841915295938E-01
H    2.1822006817117368E+00    9.3573755189722192E+00   -1.1567626917794949E+00
H    6.4039544599173679E+00    7.3576623800901908E+00    1.6089599396110632E+00
H    3.7006859043079881E+00    8.4093277525282772E+00   -1.1355386681762016E+00
     &END COORD
     &KIND C
       BASIS_SET DZVP-MOLOPT-SR-GTH-q4
       POTENTIAL GTH-PBE-q4
       &POTENTIAL
2 2
0.3384712400000000E+00 2 -0.8803673979999999E+01  0.1339210850000000E+01
2
0.3025757500000000E+00 1  0.9622486650000001E+01
0.2915069400000000E+00 0
       &END POTENTIAL
     &END KIND
     &KIND O
       BASIS_SET DZVP-MOLOPT-SR-GTH-q6
       POTENTIAL GTH-PBE-q6
       &POTENTIAL
2 4
0.2445543000000000E+00 2 -0.1666721480000000E+02  0.2487311320000000E+01
2
0.2209559200000000E+00 1  0.1833745811000000E+02
0.2113324700000000E+00 0
       &END POTENTIAL
     &END KIND
     &KIND H
       BASIS_SET DZVP-MOLOPT-SR-GTH-q1
       POTENTIAL GTH-PBE-q1
       &POTENTIAL
1
0.2000000000000000E+00 2 -0.4178900440000000E+01  0.7244633100000000E+00
0
       &END POTENTIAL
     &END KIND
     &KIND N
       BASIS_SET DZVP-MOLOPT-SR-GTH
       POTENTIAL GTH-PBE-q5
       &POTENTIAL
2 3
0.2837905100000000E+00 2 -0.1241522559000000E+02  0.1868095920000000E+01
2
0.2554050000000000E+00 1  0.1363026257000000E+02
0.2454945300000000E+00 0
       &END POTENTIAL
     &END KIND
     &KIND Ga
       BASIS_SET DZVP-MOLOPT-SR-GTH
       POTENTIAL GTH-PBE-q13
       &POTENTIAL
2 1 10
0.4900000000000000E+00 0
3
0.4167772300000000E+00 3  0.1047568975000000E+02 -0.4921768140000000E+01  0.8707055900000000E+00
0.7770178090000000E+01 -0.2248152160000000E+01
0.1784415450000000E+01
0.5696265200000000E+00 2  0.1777985340000000E+01  0.1958597600000000E+00
-0.2317443900000000E+00
0.2381265000000000E+00 1 -0.1624868022000000E+02
       &END POTENTIAL
     &END KIND
     &TOPOLOGY
       NUMBER_OF_ATOMS  212
       MULTIPLE_UNIT_CELL  1 1 1
     &END TOPOLOGY
     &COLVAR
       &DISTANCE
         ATOMS  127 211
       &END DISTANCE
       &PRINT
       &END PRINT
     &END COLVAR
   &END SUBSYS
 &END FORCE_EVAL
