 # Version information for this restart file 
 # current date 2019-07-03 07:47:40.137
 # current working dir /lustre04/scratch/rzk/rzk/GaN-carbene/443-adatoms-both-2x2/02-Methanol/03-H-NSur
 # Program compiled at                              Sun Apr  7 00:48:11 EDT 2019
 # Program compiled on                          beluga2.int.ets1.calculquebec.ca
 # Program compiled for                        Beluga-Linux-x86-64-intel-openmpi
 # Source code revision number                                         svn:18619
 &GLOBAL
   PRINT_LEVEL  MEDIUM
   PROJECT_NAME TEST
   RUN_TYPE  GEO_OPT
 &END GLOBAL
 &MOTION
   &GEO_OPT
     MAX_ITER  500
     STEP_START_VAL  89
   &END GEO_OPT
 &END MOTION
 &FORCE_EVAL
   METHOD  QS
   STRESS_TENSOR  ANALYTICAL
   &DFT
     BASIS_SET_FILE_NAME BASIS_MOLOPT
     POTENTIAL_FILE_NAME GTH_POTENTIALS
     UKS  T
     SURFACE_DIPOLE_CORRECTION  T
     SURF_DIP_DIR  Z
     &SCF
       MAX_SCF  80
       EPS_SCF     5.0000000000000004E-06
       &OT  T
         PRECONDITIONER  FULL_ALL
       &END OT
       &OUTER_SCF  T
         OPTIMIZER  NONE
         EPS_SCF     5.0000000000000004E-06
         MAX_SCF  4
       &END OUTER_SCF
       &PRINT
         &RESTART  OFF
           BACKUP_COPIES  1
           &EACH
             JUST_ENERGY  0
             QS_SCF  0
             MD  20
           &END EACH
         &END RESTART
       &END PRINT
     &END SCF
     &QS
       EPS_DEFAULT     1.0000000000000000E-14
       METHOD  GPW
     &END QS
     &MGRID
       NGRIDS  5
       CUTOFF     1.2000000000000000E+03
     &END MGRID
     &XC
       DENSITY_CUTOFF     1.0000000000000000E-10
       GRADIENT_CUTOFF     1.0000000000000000E-10
       TAU_CUTOFF     1.0000000000000000E-10
       &XC_FUNCTIONAL  NO_SHORTCUT
         &PBE  T
         &END PBE
       &END XC_FUNCTIONAL
       &VDW_POTENTIAL
         POTENTIAL_TYPE  PAIR_POTENTIAL
         &PAIR_POTENTIAL
           R_CUTOFF     1.0000000000000004E+01
           TYPE  DFTD3
           PARAMETER_FILE_NAME dftd3.dat
           REFERENCE_FUNCTIONAL PBE
           EPS_CN     9.9999999999999995E-07
           CALCULATE_C9_TERM  T
           REFERENCE_C9_TERM  T
           LONG_RANGE_CORRECTION  F
           VERBOSE_OUTPUT  F
         &END PAIR_POTENTIAL
       &END VDW_POTENTIAL
     &END XC
   &END DFT
   &SUBSYS
     &CELL
       A     1.2864472766435110E+01    0.0000000000000000E+00    0.0000000000000000E+00
       B    -6.4322363581020028E+00    1.1140960178524473E+01    0.0000000000000000E+00
       C     0.0000000000000000E+00    0.0000000000000000E+00    3.2000000000000000E+01
       MULTIPLE_UNIT_CELL  1 1 1
       &CELL_REF
         A     1.2982353780853531E+01    0.0000000000000000E+00    0.0000000000000000E+00
         B    -6.4911768904267628E+00    1.1243048175136114E+01    0.0000000000000000E+00
         C     0.0000000000000000E+00    0.0000000000000000E+00    3.2000000000000000E+01
         MULTIPLE_UNIT_CELL  1 1 1
       &END CELL_REF
     &END CELL
     &COORD
N    6.8899295603311345E-02    1.9312428749150850E+00    2.5132836662848823E+00
Ga    2.5282522757131852E-02   -4.0244520347519505E-02    2.8316092154892103E+00
N    6.9142271734949176E-02   -4.4939621881435611E-02    5.0223147120910649E+00
Ga    7.0458684106016481E-02    1.7872079230589091E+00    5.7869836736197042E+00
N    7.1723884628671117E-02    1.8062859341333450E+00    7.7945445535015248E+00
Ga    6.9092981272493942E-02   -3.8047953339405763E-02    8.4442891000199580E+00
N    7.0912348641280445E-02   -3.8757838128708304E-02    1.0421629176472241E+01
Ga    7.0658152924980636E-02    1.7995535779059160E+00    1.1069018487712775E+01
N    7.0381900283433899E-02    1.7791708945340390E+00    1.3070345786217093E+01
Ga    7.0107268115999807E-02   -5.0735982219992891E-02    1.3862054716484311E+01
N    6.9571405519123178E-02   -5.3372216381337566E-02    1.6071087838921187E+01
Ga    6.9418450728218603E-02    1.9451397494341660E+00    1.6434532075925652E+01
Ga    5.9877959927878761E-02    3.6351337063277436E+00    1.3053410023012535E+00
N   -1.4369526181917125E+00    4.5470501500422378E+00    2.5175703838212562E+00
Ga   -1.6141448413399995E+00    2.6918581033976068E+00    3.2604672844160882E+00
N   -1.5372540555541643E+00    2.7475872558030869E+00    5.2453461878754126E+00
Ga   -1.5642775742614008E+00    4.6106470138071467E+00    5.8019989680513238E+00
N   -1.5450277189210908E+00    4.6092013017705273E+00    7.8005440553085510E+00
Ga   -1.5263135022131611E+00    2.7488109563846903E+00    8.4345692166211901E+00
N   -1.5255209879221003E+00    2.7525569007788788E+00    1.0434008827049126E+01
Ga   -1.5532660260449649E+00    4.6099003112689241E+00    1.1072051925983962E+01
N   -1.5712605215399886E+00    4.6219643975581945E+00    1.3071894807892596E+01
Ga   -1.5269361834595514E+00    2.7518831866009505E+00    1.3616221897764241E+01
N   -1.5438902862071204E+00    2.7434176493906399E+00    1.5595068918755320E+01
Ga   -1.4268757504301610E+00    4.5387344614520710E+00    1.6434944974657810E+01
N    6.9077856561091569E-02    3.6731687167038638E+00    1.7558530573917167E+01
N   -3.1385842438353793E+00    7.5100011066710932E+00    2.5364314261192664E+00
Ga   -3.1349170918921341E+00    5.5120964355344224E+00    2.8716723594710882E+00
N   -3.1486271910251968E+00    5.5336199922383127E+00    5.0331402077029752E+00
Ga   -3.1538539560807037E+00    7.3527740079020925E+00    5.8181881500149890E+00
N   -3.1441081903121617E+00    7.3774320551942250E+00    7.8079903719869588E+00
Ga   -3.1441655846452372E+00    5.5286160624395144E+00    8.4509377835525985E+00
N   -3.1447582141047610E+00    5.5310448455333612E+00    1.0424835657421831E+01
Ga   -3.1466704636233351E+00    7.3717705314462201E+00    1.1072807548026171E+01
N   -3.1466734782386419E+00    7.3531885197245606E+00    1.3065022526563471E+01
Ga   -3.1558383158591892E+00    5.5370101451002984E+00    1.3863186517076349E+01
N   -3.1585011228876900E+00    5.5384683190434538E+00    1.6071887642373916E+01
Ga   -3.1487337387500083E+00    7.5964839382222378E+00    1.6501763433174290E+01
Ga   -3.1582682290543240E+00    9.2494884654894118E+00    1.5217126094471634E+00
N   -4.6500639116681297E+00    1.0109424310413312E+01    2.5256368310785495E+00
Ga   -4.8701815069590246E+00    8.2601032937851802E+00    3.2992399505633223E+00
N   -4.7519475272834848E+00    8.3156591553154531E+00    5.2599879554591586E+00
Ga   -4.7862404604922961E+00    1.0190535085113625E+01    5.8041225744317479E+00
N   -4.7621893125722652E+00    1.0178569173765379E+01    7.8021776604140856E+00
Ga   -4.7463057415869798E+00    8.3230147329262856E+00    8.4421983762998796E+00
N   -4.7424753888212132E+00    8.3227820686001035E+00    1.0434625962891538E+01
Ga   -4.7681271647909602E+00    1.0181885876021024E+01    1.1070091607519691E+01
N   -4.7843525403162657E+00    1.0190315473430601E+01    1.3063433686169954E+01
Ga   -4.7445077995820952E+00    8.3224454574322273E+00    1.3625297627782265E+01
N   -4.7717705218498851E+00    8.3065367910891119E+00    1.5583021506403966E+01
Ga   -4.5761628811952857E+00    1.0067925923365092E+01    1.6501164914151079E+01
N   -3.1389500957680285E+00    9.2499476308179425E+00    1.7645375498567496E+01
N    3.2807989359569252E+00    1.8199167138069374E+00    2.6124774809993534E+00
Ga    3.2768181950354087E+00    8.5327595366556208E-02    3.2949383281946192E+00
N    3.2865548992665015E+00   -4.1790825724891303E-02    5.2559196583017336E+00
Ga    3.2771423196185072E+00    1.8215345024598872E+00    5.8721650464404309E+00
N    3.2857142117627243E+00    1.8172414530628549E+00    7.8498836503250953E+00
Ga    3.2852582904856114E+00   -4.9021344892070766E-02    8.4407964092238981E+00
N    3.2877874505784779E+00   -5.1487073180207801E-02    1.0435014669420299E+01
Ga    3.2867292609314145E+00    1.8175948876446006E+00    1.1028650381113110E+01
N    3.2839828317714193E+00    1.8190876995134553E+00    1.3003177608125164E+01
Ga    3.2855256880004537E+00   -5.2728710561363919E-02    1.3626714412682198E+01
N    3.2790394685844957E+00   -1.6365111432486690E-02    1.5585490186987270E+01
Ga    3.2870499837383980E+00    1.8165085513584243E+00    1.5866270466085789E+01
N    1.5791323946936435E+00    4.5526588133505008E+00    2.5041062864004897E+00
Ga    1.7505972028248971E+00    2.7035061627394885E+00    3.2503973512314457E+00
N    1.6779998421162514E+00    2.7475876239732919E+00    5.2376570847309640E+00
Ga    1.7092979200346032E+00    4.6125240570360280E+00    5.7994627663190705E+00
N    1.6867355279181360E+00    4.6082053458693668E+00    7.7993354236765828E+00
Ga    1.6670392274902062E+00    2.7499551400914264E+00    8.4361392557438606E+00
N    1.6676807861569791E+00    2.7523802192033973E+00    1.0434418586332495E+01
Ga    1.6951588627575573E+00    4.6103071614365740E+00    1.1072006426523258E+01
N    1.7118475914814795E+00    4.6218876670440778E+00    1.3071921949534346E+01
Ga    1.6671958010104624E+00    2.7520481718173913E+00    1.3616715423492725E+01
N    1.6831911269864341E+00    2.7433221638800962E+00    1.5595484943419455E+01
Ga    1.5655470885659146E+00    4.5385765294765772E+00    1.6435077742459537E+01
N    7.7655761459062139E-02    7.3835058312919175E+00    2.7087254537752803E+00
Ga    7.5801119409286535E-02    5.5287281035405611E+00    3.3025294310758011E+00
N    7.0464990627157720E-02    5.5426794847124237E+00    5.2494426283080919E+00
Ga    8.0367717145974127E-02    7.3810626643229220E+00    5.9066832214380343E+00
N    7.0669412910392373E-02    7.3859727410051299E+00    7.8677459842396615E+00
Ga    7.1276556200521368E-02    5.5148712432465334E+00    8.4474333436981919E+00
N    7.0817721284170368E-02    5.5173999437535697E+00    1.0440428247456847E+01
Ga    7.1108145267551923E-02    7.3880991719641633E+00    1.1032224892788710E+01
N    7.0022717707753188E-02    7.3853636558030402E+00    1.3005235938066853E+01
Ga    7.0241665496055053E-02    5.5184314860118207E+00    1.3617246452603565E+01
N    6.9621327369030317E-02    5.5376845321154207E+00    1.5595382901929161E+01
Ga    6.9721894975933327E-02    7.3903465814116212E+00    1.5865723443341045E+01
N   -1.6392178935403261E+00    1.0101800681295227E+01    2.5344866894128288E+00
Ga   -1.4974637491051235E+00    8.2916599873704921E+00    3.3518337242601381E+00
N   -1.5268635139840798E+00    8.3084438632390061E+00    5.2745634341627374E+00
Ga   -1.5098240100564941E+00    1.0197296113385667E+01    5.8128786853898236E+00
N   -1.5273765366975460E+00    1.0177791141760377E+01    7.8040989831430077E+00
Ga   -1.5478997536983810E+00    8.3231932714501031E+00    8.4501028550929966E+00
N   -1.5478426043333555E+00    8.3236535639828535E+00    1.0439951346138338E+01
Ga   -1.5222814225409795E+00    1.0183622772698696E+01    1.1077570335170082E+01
N   -1.5058462009339439E+00    1.0192134212490208E+01    1.3070682997754700E+01
Ga   -1.5503744868045157E+00    8.3232955631223042E+00    1.3627497575482352E+01
N   -1.5221521052549876E+00    8.2994728405626734E+00    1.5586166018121826E+01
Ga   -1.7055739018811198E+00    1.0077018314116458E+01    1.6500672732587667E+01
N    6.5027358894614702E+00    1.9375786519898306E+00    2.5419888396016010E+00
Ga    6.5461141511101237E+00   -5.4870602576619680E-02    2.8548377026295193E+00
N    6.5018170696871138E+00   -4.2174474230021144E-02    5.0244392734723684E+00
Ga    6.5023342275672329E+00    1.7877810185405001E+00    5.8048972882952841E+00
N    6.5024864036811545E+00    1.8043514043232090E+00    7.8026763427630845E+00
Ga    6.5048594015187939E+00   -3.9510110126054945E-02    8.4526654404475874E+00
N    6.5026982138174478E+00   -3.9619484067831889E-02    1.0425713429299149E+01
Ga    6.5031796848293464E+00    1.7999578908694405E+00    1.1075556701469900E+01
N    6.5025450802937046E+00    1.7804777350513861E+00    1.3070066235769062E+01
Ga    6.5027155270539510E+00   -3.9486996922246692E-02    1.3883600809293762E+01
N    6.5018855440443151E+00   -3.9858997900360467E-02    1.6074072807996078E+01
Ga    6.5019286402645795E+00    2.0048168103232324E+00    1.6495622458674802E+01
Ga    6.5062916438176712E+00    3.6721814977237983E+00    1.5465343118643395E+00
N    5.0016170218304472E+00    4.5408787723570461E+00    2.5370719246635143E+00
Ga    4.7836805180999686E+00    2.6871093948851330E+00    3.3001231917218590E+00
N    4.8920282350186612E+00    2.7442182908744508E+00    5.2606642254380223E+00
Ga    4.8672128231532987E+00    4.6175197161534145E+00    5.8080666680441730E+00
N    4.8851207107234060E+00    4.6069987139096638E+00    7.8055561066571757E+00
Ga    4.9038632908389470E+00    2.7496268462498867E+00    8.4404834701526514E+00
N    4.9058233039782548E+00    2.7507303001892924E+00    1.0435479111121705E+01
Ga    4.8811091945972453E+00    4.6103446251907858E+00    1.1070394244334018E+01
N    4.8645493303762120E+00    4.6205116738465950E+00    1.3064086711768493E+01
Ga    4.9060391420421912E+00    2.7530646583971317E+00    1.3625803173985336E+01
N    4.8710436573529190E+00    2.7406474548617759E+00    1.5585935760931248E+01
Ga    5.0715371182824009E+00    4.5025256380788106E+00    1.6496722883973064E+01
N    6.5017985490096146E+00    3.6633902020889426E+00    1.7638101429313060E+01
N    3.2795524711851503E+00    7.5239375110471585E+00    2.4926609276856078E+00
N    3.2885980954777465E+00    5.5327126336998012E+00    5.0321410322603581E+00
Ga    3.2921065398753373E+00    7.3578125924582709E+00    5.8074343788434648E+00
N    3.2846558222823794E+00    7.3768935915626841E+00    7.8057119447301782E+00
Ga    3.2858943889945489E+00    5.5306359130494496E+00    8.4486759567043581E+00
N    3.2861995444928809E+00    5.5306751074888618E+00    1.0423972824175161E+01
Ga    3.2882186913968607E+00    7.3716115586171238E+00    1.1071670907396591E+01
N    3.2871991012342652E+00    7.3528795269215630E+00    1.3064576614639803E+01
Ga    3.2963542098481948E+00    5.5369445154926575E+00    1.3862843509642998E+01
N    3.2976817139957180E+00    5.5383431114626971E+00    1.6071784797851265E+01
Ga    3.2879751053959247E+00    7.5960284592513059E+00    1.6500519585501252E+01
Ga    3.3224893586776592E+00    9.2774868726124176E+00    1.3106263569332306E+00
N    1.7983501808599220E+00    1.0096921054639525E+01    2.5051361291818512E+00
Ga    1.6900670542768943E+00    8.3146694669803356E+00    3.3115498006236477E+00
N    1.6652208860187931E+00    8.3067779566694533E+00    5.2588604906560628E+00
Ga    1.6575823400469640E+00    1.0189413453348077E+01    5.8050777479721125E+00
N    1.6671944580580906E+00    1.0176322608269077E+01    7.8032783887887849E+00
Ga    1.6913663703487845E+00    8.3235339921513098E+00    8.4489666117301852E+00
N    1.6891092426194321E+00    8.3233555366043550E+00    1.0440306352426637E+01
Ga    1.6643250196029857E+00    1.0183480426707808E+01    1.1076430087391964E+01
N    1.6463829460206079E+00    1.0192059753121933E+01    1.3070213380063922E+01
Ga    1.6907717469195465E+00    8.3231159846528868E+00    1.3626586573180591E+01
N    1.6615514683959067E+00    8.2993840001445509E+00    1.5585503466768939E+01
Ga    1.8442525228598909E+00    1.0077373177420263E+01    1.6499268215345939E+01
N    3.2777403784891792E+00    9.2500750399417893E+00    1.7643770239875693E+01
N    9.7246320537844468E+00    1.8043562278745813E+00    2.6332622093244713E+00
Ga    9.7234040943399673E+00    3.8359272678007254E-02    3.2745438833350238E+00
N    9.7166305133811441E+00   -4.0268237870455595E-02    5.2583395025607480E+00
Ga    9.7268949821127464E+00    1.8114653904019833E+00    5.8694786181225833E+00
N    9.7202364560040611E+00    1.8177991734314836E+00    7.8513346576708338E+00
Ga    9.7204582813847278E+00   -5.0171643398632726E-02    8.4358265603558138E+00
N    9.7179785627569739E+00   -5.1822238320753063E-02    1.0433649937457703E+01
Ga    9.7195473141945534E+00    1.8167560635540532E+00    1.1026886207672188E+01
N    9.7210868239974548E+00    1.8191119775096320E+00    1.3002290734551234E+01
Ga    9.7196477351249726E+00   -5.2719570916715981E-02    1.3625595929962692E+01
N    9.7248936140227471E+00   -1.6344596488139462E-02    1.5584728668966607E+01
Ga    9.7168374426641453E+00    1.8165271929934188E+00    1.5865760630484839E+01
N    8.0028002869688475E+00    4.5404956669150964E+00    2.5460701046432703E+00
Ga    8.2242806189976534E+00    2.6771573940150528E+00    3.3050980222668738E+00
N    8.1115349344393994E+00    2.7444637875412474E+00    5.2650375339242261E+00
Ga    8.1329681685219537E+00    4.6149363465749556E+00    5.8098497117474786E+00
N    8.1212291826843863E+00    4.6077320945590232E+00    7.8062555140223022E+00
Ga    8.1034548593036266E+00    2.7487633692301703E+00    8.4394710355685429E+00
N    8.1000144026603014E+00    2.7509355571514416E+00    1.0435290076456921E+01
Ga    8.1244572284015710E+00    4.6099326159516716E+00    1.1070721793613247E+01
N    8.1406475292319715E+00    4.6207164354477346E+00    1.3064297208809935E+01
Ga    8.0991614440484963E+00    2.7530911288788120E+00    1.3625449669496660E+01
N    8.1328195295629619E+00    2.7407317649781904E+00    1.5585764078679025E+01
Ga    7.9320399663156653E+00    4.5024580693069955E+00    1.6496709451229506E+01
N    6.4891607189780354E+00    7.3923415888512949E+00    2.6263022233699611E+00
Ga    6.4952953654192633E+00    5.6548979077327939E+00    3.3055686038461807E+00
N    6.5020101233327745E+00    5.5320380384973822E+00    5.2655541751723378E+00
Ga    6.4934049088780608E+00    7.3925729084557936E+00    5.8783806475818077E+00
N    6.5036024312159757E+00    7.3875569665414504E+00    7.8548135087455551E+00
Ga    6.5029523545969186E+00    5.5202715090302199E+00    8.4416577063441434E+00
N    6.5030790465427479E+00    5.5183638492750200E+00    1.0434840894502694E+01
Ga    6.5024300751904676E+00    7.3879614095741424E+00    1.1028482570576012E+01
N    6.5025068667177868E+00    7.3877608875613214E+00    1.2998944778560723E+01
Ga    6.5025061478736133E+00    5.5196772083817445E+00    1.3624289644246458E+01
N    6.5018886320179785E+00    5.5504483855566864E+00    1.5583127687078905E+01
Ga    6.5019403888259193E+00    7.3882452259757487E+00    1.5861985674338230E+01
N    4.7678657819790287E+00    1.0098365976747434E+01    2.5054765748463357E+00
Ga    4.9545255643852739E+00    8.2763537635830016E+00    3.2673793708762000E+00
N    4.8933429461339113E+00    8.3127783283676848E+00    5.2542088165082843E+00
Ga    4.9168702152796824E+00    1.0184224133066936E+01    5.7969687164959156E+00
N    4.9049660154460657E+00    1.0178053445319160E+01    7.8019770644180504E+00
Ga    4.8854115779106424E+00    8.3232840107066970E+00    8.4387567506703132E+00
N    4.8840996456892301E+00    8.3221925957114760E+00    1.0433651725293966E+01
Ga    4.9086042937318677E+00    1.0181307918511466E+01    1.1068390411698754E+01
N    4.9251563889779124E+00    1.0190263449959371E+01    1.3062677144682997E+01
Ga    4.8847102385643568E+00    8.3225750152613713E+00    1.3624624806420004E+01
N    4.9111746941763057E+00    8.3065017070570573E+00    1.5582593141836817E+01
Ga    4.7156030226592307E+00    1.0068103556787230E+01    1.6500019052943042E+01
Ga    3.2762667925303970E+00    5.5610175742662538E+00    2.8575448864582542E+00
O    6.3723586499887875E-03    7.7455717716423109E+00   -2.6410380989824023E-01
H    3.8234418489770876E-02    7.4120523730966088E+00    1.6761292149707405E+00
C    1.0826684423781587E+00    7.4623326569392949E+00   -7.7409437516628188E-01
H    3.2528986091722247E+00    9.2167385126210970E+00   -2.4019972559019009E-01
H    1.8499640025019384E+00    6.8789648035938979E+00   -2.2483528013975648E-01
H    1.3335149693454305E+00    7.7763974629972150E+00   -1.8059486373670679E+00
     &END COORD
     &KIND C
       BASIS_SET DZVP-MOLOPT-SR-GTH-q4
       POTENTIAL GTH-PBE-q4
       &POTENTIAL
 2 2
  0.3384712400000000E+00 2 -0.8803673979999999E+01  0.1339210850000000E+01
 2
  0.3025757500000000E+00 1  0.9622486650000001E+01
  0.2915069400000000E+00 0
         # Potential name:  GTH-PBE-Q4  for symbol:  C
         # Potential read from the potential filename: GTH_POTENTIALS
       &END POTENTIAL
     &END KIND
     &KIND O
       BASIS_SET DZVP-MOLOPT-SR-GTH-q6
       POTENTIAL GTH-PBE-q6
       &POTENTIAL
 2 4
  0.2445543000000000E+00 2 -0.1666721480000000E+02  0.2487311320000000E+01
 2
  0.2209559200000000E+00 1  0.1833745811000000E+02
  0.2113324700000000E+00 0
         # Potential name:  GTH-PBE-Q6  for symbol:  O
         # Potential read from the potential filename: GTH_POTENTIALS
       &END POTENTIAL
     &END KIND
     &KIND H
       BASIS_SET DZVP-MOLOPT-SR-GTH-q1
       POTENTIAL GTH-PBE-q1
       &POTENTIAL
 1
  0.2000000000000000E+00 2 -0.4178900440000000E+01  0.7244633100000000E+00
 0
         # Potential name:  GTH-PBE-Q1  for symbol:  H
         # Potential read from the potential filename: GTH_POTENTIALS
       &END POTENTIAL
     &END KIND
     &KIND N
       BASIS_SET DZVP-MOLOPT-SR-GTH
       POTENTIAL GTH-PBE-q5
       &POTENTIAL
 2 3
  0.2837905100000000E+00 2 -0.1241522559000000E+02  0.1868095920000000E+01
 2
  0.2554050000000000E+00 1  0.1363026257000000E+02
  0.2454945300000000E+00 0
         # Potential name:  GTH-PBE-Q5  for symbol:  N
         # Potential read from the potential filename: GTH_POTENTIALS
       &END POTENTIAL
     &END KIND
     &KIND Ga
       BASIS_SET DZVP-MOLOPT-SR-GTH
       POTENTIAL GTH-PBE-q13
       &POTENTIAL
 2 1 10
  0.4900000000000000E+00 0
 3
  0.4167772300000000E+00 3  0.1047568975000000E+02 -0.4921768140000000E+01  0.8707055900000000E+00
  0.7770178090000000E+01 -0.2248152160000000E+01
  0.1784415450000000E+01
  0.5696265200000000E+00 2  0.1777985340000000E+01  0.1958597600000000E+00
 -0.2317443900000000E+00
  0.2381265000000000E+00 1 -0.1624868022000000E+02
         # Potential name:  GTH-PBE-Q13  for symbol:  GA
         # Potential read from the potential filename: GTH_POTENTIALS
       &END POTENTIAL
     &END KIND
     &TOPOLOGY
       NUMBER_OF_ATOMS  206
       MULTIPLE_UNIT_CELL  1 1 1
     &END TOPOLOGY
   &END SUBSYS
 &END FORCE_EVAL
