 # Version information for this restart file 
 # current date 2019-07-03 07:51:31.546
 # current working dir /lustre04/scratch/rzk/rzk/GaN-carbene/443-adatoms-both-2x2/02-Methanol/03-H-NSur
 # Program compiled at                              Sun Apr  7 00:48:11 EDT 2019
 # Program compiled on                          beluga2.int.ets1.calculquebec.ca
 # Program compiled for                        Beluga-Linux-x86-64-intel-openmpi
 # Source code revision number                                         svn:18619
 &GLOBAL
   PRINT_LEVEL  MEDIUM
   PROJECT_NAME TEST
   RUN_TYPE  GEO_OPT
 &END GLOBAL
 &MOTION
   &GEO_OPT
     MAX_ITER  500
     STEP_START_VAL  90
   &END GEO_OPT
 &END MOTION
 &FORCE_EVAL
   METHOD  QS
   STRESS_TENSOR  ANALYTICAL
   &DFT
     BASIS_SET_FILE_NAME BASIS_MOLOPT
     POTENTIAL_FILE_NAME GTH_POTENTIALS
     UKS  T
     SURFACE_DIPOLE_CORRECTION  T
     SURF_DIP_DIR  Z
     &SCF
       MAX_SCF  80
       EPS_SCF     5.0000000000000004E-06
       &OT  T
         PRECONDITIONER  FULL_ALL
       &END OT
       &OUTER_SCF  T
         OPTIMIZER  NONE
         EPS_SCF     5.0000000000000004E-06
         MAX_SCF  4
       &END OUTER_SCF
       &PRINT
         &RESTART  OFF
           BACKUP_COPIES  1
           &EACH
             JUST_ENERGY  0
             QS_SCF  0
             MD  20
           &END EACH
         &END RESTART
       &END PRINT
     &END SCF
     &QS
       EPS_DEFAULT     1.0000000000000000E-14
       METHOD  GPW
     &END QS
     &MGRID
       NGRIDS  5
       CUTOFF     1.2000000000000000E+03
     &END MGRID
     &XC
       DENSITY_CUTOFF     1.0000000000000000E-10
       GRADIENT_CUTOFF     1.0000000000000000E-10
       TAU_CUTOFF     1.0000000000000000E-10
       &XC_FUNCTIONAL  NO_SHORTCUT
         &PBE  T
         &END PBE
       &END XC_FUNCTIONAL
       &VDW_POTENTIAL
         POTENTIAL_TYPE  PAIR_POTENTIAL
         &PAIR_POTENTIAL
           R_CUTOFF     1.0000000000000004E+01
           TYPE  DFTD3
           PARAMETER_FILE_NAME dftd3.dat
           REFERENCE_FUNCTIONAL PBE
           EPS_CN     9.9999999999999995E-07
           CALCULATE_C9_TERM  T
           REFERENCE_C9_TERM  T
           LONG_RANGE_CORRECTION  F
           VERBOSE_OUTPUT  F
         &END PAIR_POTENTIAL
       &END VDW_POTENTIAL
     &END XC
   &END DFT
   &SUBSYS
     &CELL
       A     1.2864472766435110E+01    0.0000000000000000E+00    0.0000000000000000E+00
       B    -6.4322363581020028E+00    1.1140960178524473E+01    0.0000000000000000E+00
       C     0.0000000000000000E+00    0.0000000000000000E+00    3.2000000000000000E+01
       MULTIPLE_UNIT_CELL  1 1 1
       &CELL_REF
         A     1.2982353780853531E+01    0.0000000000000000E+00    0.0000000000000000E+00
         B    -6.4911768904267628E+00    1.1243048175136114E+01    0.0000000000000000E+00
         C     0.0000000000000000E+00    0.0000000000000000E+00    3.2000000000000000E+01
         MULTIPLE_UNIT_CELL  1 1 1
       &END CELL_REF
     &END CELL
     &COORD
N    6.7706810023259928E-02    1.9308902452474488E+00    2.5107009489263614E+00
Ga    2.1787000978876786E-02   -3.8617244937985212E-02    2.8298244595468449E+00
N    6.8082799052693654E-02   -4.3437966325991360E-02    5.0164036394229417E+00
Ga    6.9076184848692129E-02    1.7890027934270889E+00    5.7827790144385887E+00
N    7.0297694776267516E-02    1.8063421583123518E+00    7.7904580935828722E+00
Ga    6.7344233374667786E-02   -3.8372064126119848E-02    8.4391608603722243E+00
N    6.7958889497370042E-02   -3.9706351157507452E-02    1.0417007858486098E+01
Ga    6.7761433473636196E-02    1.7975088284878915E+00    1.1065081511385459E+01
N    6.7120916475530049E-02    1.7779459256596677E+00    1.3068647518904477E+01
Ga    6.5386778898129494E-02   -5.3803679029752693E-02    1.3854681629566590E+01
N    6.6804642059152874E-02   -5.6978100279582153E-02    1.6065505838635882E+01
Ga    6.6300584463117901E-02    1.9371637603752034E+00    1.6425417402492826E+01
Ga    5.7570085741121539E-02    3.6310270287244384E+00    1.3049696084335904E+00
N   -1.4407593851679492E+00    4.5483319029650255E+00    2.5100597544302050E+00
Ga   -1.6144683503578767E+00    2.6937409994248900E+00    3.2559919109502258E+00
N   -1.5391729179216305E+00    2.7484018764244964E+00    5.2397300972149274E+00
Ga   -1.5651086488860810E+00    4.6123976855090874E+00    5.7980132873375041E+00
N   -1.5470800200008312E+00    4.6080938786643362E+00    7.7962354138881347E+00
Ga   -1.5281612437745045E+00    2.7476524387655314E+00    8.4301611098579432E+00
N   -1.5276195420038643E+00    2.7508915951749673E+00    1.0430479190649583E+01
Ga   -1.5561069702284982E+00    4.6080028223063811E+00    1.1067606788533292E+01
N   -1.5756537880324681E+00    4.6214800403336689E+00    1.3070398711646693E+01
Ga   -1.5300685056125631E+00    2.7511496786153113E+00    1.3612221498760062E+01
N   -1.5441810125411652E+00    2.7467981041404506E+00    1.5596698133171353E+01
Ga   -1.4403446225910868E+00    4.5476615021471627E+00    1.6427972899143256E+01
N    6.6734392803427592E-02    3.6778484096749122E+00    1.7554019776499622E+01
N   -3.1409274024736806E+00    7.5106480540044425E+00    2.5305904626182039E+00
Ga   -3.1383998129158015E+00    5.5109753747732499E+00    2.8702900411767196E+00
N   -3.1501513145834132E+00    5.5348795439058733E+00    5.0285958864540268E+00
Ga   -3.1557734231765528E+00    7.3536913544267515E+00    5.8139757312958800E+00
N   -3.1461156294343597E+00    7.3773237441654835E+00    7.8037978454934187E+00
Ga   -3.1464312951879028E+00    5.5278564422974661E+00    8.4477437308569012E+00
N   -3.1473673605664030E+00    5.5287855448124086E+00    1.0422354564113549E+01
Ga   -3.1491773588981209E+00    7.3696496231359712E+00    1.1068000085197886E+01
N   -3.1503525147187204E+00    7.3505080401153888E+00    1.3060875307678740E+01
Ga   -3.1628922066476766E+00    5.5357447870264673E+00    1.3859225465064911E+01
N   -3.1663390790977886E+00    5.5422703665254902E+00    1.6069120374621313E+01
Ga   -3.1498570989754104E+00    7.5956111363836243E+00    1.6496441997932486E+01
Ga   -3.1631594084194172E+00    9.2522274764013623E+00    1.5218380792112518E+00
N   -4.6526185479169113E+00    1.0113516598690932E+01    2.5201430449954851E+00
Ga   -4.8737298630937831E+00    8.2613575635318881E+00    3.2959022057788867E+00
N   -4.7541009994876102E+00    8.3167340860807180E+00    5.2551325089440901E+00
Ga   -4.7864503570579373E+00    1.0191938847654841E+01    5.7990696433469928E+00
N   -4.7629924787959954E+00    1.0179250627408248E+01    7.7977091198044572E+00
Ga   -4.7482411567541485E+00    8.3238910169320466E+00    8.4379055963767300E+00
N   -4.7446084627292553E+00    8.3215341288607760E+00    1.0430996492147202E+01
Ga   -4.7715068717552498E+00    1.0180704756552586E+01    1.1065501827557297E+01
N   -4.7885499224492616E+00    1.0189556188517415E+01    1.3058950296283179E+01
Ga   -4.7475458989623691E+00    8.3215517087688333E+00    1.3621337698599145E+01
N   -4.7732614821939796E+00    8.3074493822555766E+00    1.5581156091741123E+01
Ga   -4.5789272692861411E+00    1.0070685412364339E+01    1.6493122245259404E+01
N   -3.1377579131808755E+00    9.2536463851796835E+00    1.7634196659133565E+01
N    3.2812486368648237E+00    1.8248861132343210E+00    2.6095035253815899E+00
Ga    3.2768209714308170E+00    9.0211815548008265E-02    3.2901011896599739E+00
N    3.2852526727736260E+00   -3.8224159079492462E-02    5.2500553242432497E+00
Ga    3.2771236527194518E+00    1.8243910899580829E+00    5.8702750753900323E+00
N    3.2844684980887338E+00    1.8177848652567432E+00    7.8469336820111675E+00
Ga    3.2839417291073025E+00   -4.8230709231862672E-02    8.4370414285988051E+00
N    3.2853869844295871E+00   -5.2929839636065165E-02    1.0432147916066080E+01
Ga    3.2841678227029427E+00    1.8168679476002096E+00    1.1024881581891911E+01
N    3.2794795366949838E+00    1.8188563492352239E+00    1.3001290582838127E+01
Ga    3.2818700291113685E+00   -5.3837600151353610E-02    1.3621539186177698E+01
N    3.2762461999541266E+00   -1.3462609229446859E-02    1.5581467126918081E+01
Ga    3.2850432371443210E+00    1.8192656970204444E+00    1.5874060181036162E+01
N    1.5783346280640866E+00    4.5550254972758299E+00    2.4951676435008814E+00
Ga    1.7483542069958329E+00    2.7069798779455190E+00    3.2462289390284860E+00
N    1.6769788358282853E+00    2.7490638548763826E+00    5.2327941544625354E+00
Ga    1.7071955702167767E+00    4.6143393411056035E+00    5.7957793851030210E+00
N    1.6847793576728083E+00    4.6075660169269517E+00    7.7955403732421917E+00
Ga    1.6659439813757608E+00    2.7493105137001623E+00    8.4329587665622050E+00
N    1.6640664940983407E+00    2.7514476248279607E+00    1.0431702388255774E+01
Ga    1.6930381176011471E+00    4.6092074440771302E+00    1.1068548936584433E+01
N    1.7102237213796720E+00    4.6217457613349540E+00    1.3071347964552528E+01
Ga    1.6631291181910990E+00    2.7515866391698265E+00    1.3613273860376962E+01
N    1.6770211188191437E+00    2.7471978882962054E+00    1.5597527795404172E+01
Ga    1.5743917068360500E+00    4.5486036951426714E+00    1.6429252347355636E+01
N    7.5716710549357816E-02    7.3864817153796238E+00    2.7018295758236457E+00
Ga    7.2808337871872339E-02    5.5304925725448877E+00    3.2937707452175884E+00
N    6.9037682821851548E-02    5.5451352900742581E+00    5.2409844062861435E+00
Ga    7.8326859726269391E-02    7.3834022862864517E+00    5.8992253838974493E+00
N    6.8077672001022480E-02    7.3864882652007733E+00    7.8604832023075062E+00
Ga    6.9491226957743527E-02    5.5157532031674030E+00    8.4412498275190142E+00
N    6.8390462069489275E-02    5.5149332016305648E+00    1.0435776147272538E+01
Ga    6.8405968901898845E-02    7.3858460980006599E+00    1.1026502822037752E+01
N    6.7479270677381534E-02    7.3837053135721753E+00    1.3001924345578786E+01
Ga    6.6739136653641173E-02    5.5163963434182204E+00    1.3612125041111881E+01
N    6.6758890166586080E-02    5.5361702885789343E+00    1.5595582423706924E+01
Ga    6.7495245414759472E-02    7.3923332927277023E+00    1.5869760247973877E+01
N   -1.6388493663970329E+00    1.0105178775145026E+01    2.5260006610976569E+00
Ga   -1.4979646510220590E+00    8.2937025018499124E+00    3.3469298491867487E+00
N   -1.5296505913027509E+00    8.3108370418800721E+00    5.2691396772583277E+00
Ga   -1.5105745161067610E+00    1.0200106681424396E+01    5.8061459498511940E+00
N   -1.5289065217636761E+00    1.0178377908824084E+01    7.7984121417183419E+00
Ga   -1.5492866197717678E+00    8.3233965568236492E+00    8.4436731838702812E+00
N   -1.5503876700555157E+00    8.3218555095524565E+00    1.0435133854417572E+01
Ga   -1.5241022252676142E+00    1.0181986676777637E+01    1.1073422839212743E+01
N   -1.5076427292439893E+00    1.0192152332380715E+01    1.3067397223816174E+01
Ga   -1.5546834738721931E+00    8.3224385338550864E+00    1.3621256468641276E+01
N   -1.5247149963829227E+00    8.2998117536042635E+00    1.5580777799056456E+01
Ga   -1.7019657903007377E+00    1.0081614769373877E+01    1.6491581617037124E+01
N    6.5019051496457632E+00    1.9413656978343961E+00    2.5354378386661121E+00
Ga    6.5462237444845837E+00   -4.9401508766218814E-02    2.8472342053431823E+00
N    6.5008377045038506E+00   -3.9044241945532410E-02    5.0167868709889394E+00
Ga    6.5019464441568946E+00    1.7908424984543099E+00    5.8016994192692675E+00
N    6.5010145384696507E+00    1.8046209870442991E+00    7.7996598550160208E+00
Ga    6.5030741330494122E+00   -3.9080918592173747E-02    8.4487903113284890E+00
N    6.5008863421426906E+00   -4.1477581594395643E-02    1.0421931809205450E+01
Ga    6.5006458289888078E+00    1.7981719576746171E+00    1.1072764983223859E+01
N    6.4999511796984937E+00    1.7802613277711987E+00    1.3067920826989187E+01
Ga    6.5014678054169091E+00   -3.7872132386583338E-02    1.3880958319095042E+01
N    6.4994282740695288E+00   -3.7870193541102902E-02    1.6070001430653207E+01
Ga    6.4992577241893468E+00    2.0145042100637767E+00    1.6508365599583495E+01
Ga    6.5047953795398259E+00    3.6798003776548471E+00    1.5429339059619263E+00
N    4.9991621489638396E+00    4.5440359351733086E+00    2.5338049002798853E+00
Ga    4.7858999543410246E+00    2.6909045264517171E+00    3.2966665233210222E+00
N    4.8911522378614336E+00    2.7460363911911521E+00    5.2564790263890657E+00
Ga    4.8662659712770218E+00    4.6193836815625646E+00    5.8050577427516004E+00
N    4.8842180132695727E+00    4.6068985930429589E+00    7.8028664550431239E+00
Ga    4.9019906452838313E+00    2.7493112819037289E+00    8.4383503285022208E+00
N    4.9036891023803468E+00    2.7493341905921045E+00    1.0433434708666940E+01
Ga    4.8789613945788002E+00    4.6087232082534264E+00    1.1067495846984862E+01
N    4.8624735244551047E+00    4.6202786133606999E+00    1.3062133429889943E+01
Ga    4.9033661157145225E+00    2.7529141972237148E+00    1.3628542231998857E+01
N    4.8665351385222024E+00    2.7424364835391457E+00    1.5588280394743411E+01
Ga    5.0761249957445038E+00    4.5000378868228870E+00    1.6513617243133794E+01
N    6.4998149455884366E+00    3.6647167920701538E+00    1.7664379141989762E+01
N    3.2780075405750893E+00    7.5242181268948789E+00    2.4850882999441706E+00
N    3.2863594649514525E+00    5.5340277096026185E+00    5.0269724471441064E+00
Ga    3.2900199723305330E+00    7.3580923431850405E+00    5.8038569774207698E+00
N    3.2825205744232782E+00    7.3766475930707873E+00    7.8019217828526619E+00
Ga    3.2846836601094935E+00    5.5295682004023892E+00    8.4459777789529600E+00
N    3.2836197287025271E+00    5.5286976236286414E+00    1.0421926013899299E+01
Ga    3.2859491133963337E+00    7.3696718187893406E+00    1.1066929890317880E+01
N    3.2855162754270753E+00    7.3511181061856492E+00    1.3060225680499837E+01
Ga    3.2974180058890958E+00    5.5374189821742945E+00    1.3860078479627903E+01
N    3.2998541264117525E+00    5.5421318611163146E+00    1.6069564452010599E+01
Ga    3.2848481660551143E+00    7.5993207699227074E+00    1.6500456097865030E+01
Ga    3.3287555719688227E+00    9.2798558570799585E+00    1.3067440073017369E+00
N    1.7982625730745327E+00    1.0099076065144658E+01    2.4923114015949488E+00
Ga    1.6886739594423517E+00    8.3166060086417417E+00    3.3021820309423893E+00
N    1.6642141683230709E+00    8.3084447479350150E+00    5.2507917944414517E+00
Ga    1.6547956991398927E+00    1.0190381709142438E+01    5.7995505236168974E+00
N    1.6652955121947066E+00    1.0175769732411418E+01    7.7982493541090978E+00
Ga    1.6883094947994763E+00    8.3223280132997566E+00    8.4431155419390063E+00
N    1.6866797959467845E+00    8.3209915011253788E+00    1.0435835082047660E+01
Ga    1.6624753167019615E+00    1.0181509342087203E+01    1.1071622703095580E+01
N    1.6437657217367880E+00    1.0191789262221517E+01    1.3065783368360197E+01
Ga    1.6898856626438366E+00    8.3228233353605887E+00    1.3621610247905807E+01
N    1.6585744349235987E+00    8.2991053217583257E+00    1.5580416809785412E+01
Ga    1.8412113293009265E+00    1.0079017450857407E+01    1.6495278002089940E+01
N    3.2733952465388194E+00    9.2537194095607109E+00    1.7641350402355894E+01
N    9.7222088419150516E+00    1.8062970738410717E+00    2.6298111200855101E+00
Ga    9.7205426945488078E+00    3.9983250177119789E-02    3.2703426260789423E+00
N    9.7147388221893802E+00   -3.8051970883680744E-02    5.2520504946943234E+00
Ga    9.7247135599568004E+00    1.8136808411167131E+00    5.8679245754945004E+00
N    9.7177539324841167E+00    1.8178889781603360E+00    7.8481522141385271E+00
Ga    9.7187448165183792E+00   -5.0579916749920267E-02    8.4304006502821203E+00
N    9.7158783808109259E+00   -5.3333949886680061E-02    1.0428991862329431E+01
Ga    9.7163694624141552E+00    1.8154031931447594E+00    1.1022666048330020E+01
N    9.7192470065305834E+00    1.8180653717955804E+00    1.2999809572630369E+01
Ga    9.7177742040359547E+00   -5.4003407591618924E-02    1.3621459458685797E+01
N    9.7232594498284914E+00   -1.3612599273984458E-02    1.5580591628779251E+01
Ga    9.7120728542753376E+00    1.8182152600373740E+00    1.5872558618234136E+01
N    8.0023623509963251E+00    4.5431014924817141E+00    2.5424632484861007E+00
Ga    8.2203228054407962E+00    2.6799457140715202E+00    3.3001751926114156E+00
N    8.1115772515344915E+00    2.7463214948656796E+00    5.2599827907482881E+00
Ga    8.1317034926933740E+00    4.6164068698144201E+00    5.8077433089436186E+00
N    8.1192387143892333E+00    4.6072992741099208E+00    7.8040890609107443E+00
Ga    8.1011196317772800E+00    2.7486854694796596E+00    8.4367896966686615E+00
N    8.0969555055160498E+00    2.7498062897544737E+00    1.0432332409083941E+01
Ga    8.1214051477717959E+00    4.6081297978803137E+00    1.1068344843461471E+01
N    8.1368932921617532E+00    4.6199641267652138E+00    1.3062291110898657E+01
Ga    8.0967906168756514E+00    2.7526386344137590E+00    1.3628015111294291E+01
N    8.1311551983746462E+00    2.7430300835304480E+00    1.5588027885060924E+01
Ga    7.9216368182363892E+00    4.4997764635099715E+00    1.6512866787468948E+01
N    6.4866955107919937E+00    7.3914573760487041E+00    2.6232306352119599E+00
Ga    6.4937509479800370E+00    5.6537877554648173E+00    3.3045331161183502E+00
N    6.5014063071004689E+00    5.5347260183837648E+00    5.2630910148624057E+00
Ga    6.4925497397392071E+00    7.3937079578948453E+00    5.8772386659798626E+00
N    6.5023787646555107E+00    7.3883339582763501E+00    7.8518802387393443E+00
Ga    6.5013390467289733E+00    5.5206462602746544E+00    8.4373066028026482E+00
N    6.5009071820083024E+00    5.5161956729793573E+00    1.0431324562713391E+01
Ga    6.4995992663137967E+00    7.3855647521802750E+00    1.1023330808409481E+01
N    6.4994183838269581E+00    7.3870460768795807E+00    1.2995264295015266E+01
Ga    6.4998634218396134E+00    5.5191904056977439E+00    1.3628913983204489E+01
N    6.4993784956775835E+00    5.5529262328444728E+00    1.5587698197878950E+01
Ga    6.4990038463164153E+00    7.3892084986145941E+00    1.5866588889207994E+01
N    4.7658880680674969E+00    1.0101189936506206E+01    2.5027463670432057E+00
Ga    4.9515297420790727E+00    8.2762264304625202E+00    3.2630502592808819E+00
N    4.8922643767499991E+00    8.3123910487667469E+00    5.2487577914364012E+00
Ga    4.9154015006106428E+00    1.0184682382512175E+01    5.7913786418103550E+00
N    4.9030449392413313E+00    1.0177713682425074E+01    7.7964945177567122E+00
Ga    4.8840285396989565E+00    8.3229328784724910E+00    8.4337746766232673E+00
N    4.8812120374846550E+00    8.3208129481421675E+00    1.0429213321362166E+01
Ga    4.9061507092826169E+00    1.0179591008241028E+01    1.1063301562242463E+01
N    4.9224554345106650E+00    1.0189012725069423E+01    1.3057020181499137E+01
Ga    4.8819017574628907E+00    8.3223376453164501E+00    1.3621915008278114E+01
N    4.9086002170381553E+00    8.3073872700147362E+00    1.5580302734533751E+01
Ga    4.7103348211888019E+00    1.0068215783877525E+01    1.6496443386484088E+01
Ga    3.2774056010342640E+00    5.5618032782539188E+00    2.8546614942852049E+00
O    1.0437971420188458E-01    7.7557242395347998E+00   -2.6259070690205499E-01
H    4.4332624955906230E-02    7.4111303887155495E+00    1.6669763090769358E+00
C    1.1825191109201314E+00    7.4512806229745356E+00   -7.6959392576597174E-01
H    3.2651462557273012E+00    9.2186027720015158E+00   -2.4851483164291627E-01
H    1.9387782335593755E+00    6.8571595955982465E+00   -2.0689132545098579E-01
H    1.4369255362192239E+00    7.7552482799492299E+00   -1.8035667914474258E+00
     &END COORD
     &KIND C
       BASIS_SET DZVP-MOLOPT-SR-GTH-q4
       POTENTIAL GTH-PBE-q4
       &POTENTIAL
 2 2
  0.3384712400000000E+00 2 -0.8803673979999999E+01  0.1339210850000000E+01
 2
  0.3025757500000000E+00 1  0.9622486650000001E+01
  0.2915069400000000E+00 0
         # Potential name:  GTH-PBE-Q4  for symbol:  C
         # Potential read from the potential filename: GTH_POTENTIALS
       &END POTENTIAL
     &END KIND
     &KIND O
       BASIS_SET DZVP-MOLOPT-SR-GTH-q6
       POTENTIAL GTH-PBE-q6
       &POTENTIAL
 2 4
  0.2445543000000000E+00 2 -0.1666721480000000E+02  0.2487311320000000E+01
 2
  0.2209559200000000E+00 1  0.1833745811000000E+02
  0.2113324700000000E+00 0
         # Potential name:  GTH-PBE-Q6  for symbol:  O
         # Potential read from the potential filename: GTH_POTENTIALS
       &END POTENTIAL
     &END KIND
     &KIND H
       BASIS_SET DZVP-MOLOPT-SR-GTH-q1
       POTENTIAL GTH-PBE-q1
       &POTENTIAL
 1
  0.2000000000000000E+00 2 -0.4178900440000000E+01  0.7244633100000000E+00
 0
         # Potential name:  GTH-PBE-Q1  for symbol:  H
         # Potential read from the potential filename: GTH_POTENTIALS
       &END POTENTIAL
     &END KIND
     &KIND N
       BASIS_SET DZVP-MOLOPT-SR-GTH
       POTENTIAL GTH-PBE-q5
       &POTENTIAL
 2 3
  0.2837905100000000E+00 2 -0.1241522559000000E+02  0.1868095920000000E+01
 2
  0.2554050000000000E+00 1  0.1363026257000000E+02
  0.2454945300000000E+00 0
         # Potential name:  GTH-PBE-Q5  for symbol:  N
         # Potential read from the potential filename: GTH_POTENTIALS
       &END POTENTIAL
     &END KIND
     &KIND Ga
       BASIS_SET DZVP-MOLOPT-SR-GTH
       POTENTIAL GTH-PBE-q13
       &POTENTIAL
 2 1 10
  0.4900000000000000E+00 0
 3
  0.4167772300000000E+00 3  0.1047568975000000E+02 -0.4921768140000000E+01  0.8707055900000000E+00
  0.7770178090000000E+01 -0.2248152160000000E+01
  0.1784415450000000E+01
  0.5696265200000000E+00 2  0.1777985340000000E+01  0.1958597600000000E+00
 -0.2317443900000000E+00
  0.2381265000000000E+00 1 -0.1624868022000000E+02
         # Potential name:  GTH-PBE-Q13  for symbol:  GA
         # Potential read from the potential filename: GTH_POTENTIALS
       &END POTENTIAL
     &END KIND
     &TOPOLOGY
       NUMBER_OF_ATOMS  206
       MULTIPLE_UNIT_CELL  1 1 1
     &END TOPOLOGY
   &END SUBSYS
 &END FORCE_EVAL
