 # Version information for this restart file 
 # current date 2019-07-03 07:45:42.779
 # current working dir /lustre04/scratch/rzk/rzk/GaN-carbene/443-adatoms-both-2x2/02-Methanol/03-H-NSur
 # Program compiled at                              Sun Apr  7 00:48:11 EDT 2019
 # Program compiled on                          beluga2.int.ets1.calculquebec.ca
 # Program compiled for                        Beluga-Linux-x86-64-intel-openmpi
 # Source code revision number                                         svn:18619
 &GLOBAL
   PRINT_LEVEL  MEDIUM
   PROJECT_NAME TEST
   RUN_TYPE  GEO_OPT
 &END GLOBAL
 &MOTION
   &GEO_OPT
     MAX_ITER  500
     STEP_START_VAL  88
   &END GEO_OPT
 &END MOTION
 &FORCE_EVAL
   METHOD  QS
   STRESS_TENSOR  ANALYTICAL
   &DFT
     BASIS_SET_FILE_NAME BASIS_MOLOPT
     POTENTIAL_FILE_NAME GTH_POTENTIALS
     UKS  T
     SURFACE_DIPOLE_CORRECTION  T
     SURF_DIP_DIR  Z
     &SCF
       MAX_SCF  80
       EPS_SCF     5.0000000000000004E-06
       &OT  T
         PRECONDITIONER  FULL_ALL
       &END OT
       &OUTER_SCF  T
         OPTIMIZER  NONE
         EPS_SCF     5.0000000000000004E-06
         MAX_SCF  4
       &END OUTER_SCF
       &PRINT
         &RESTART  OFF
           BACKUP_COPIES  1
           &EACH
             JUST_ENERGY  0
             QS_SCF  0
             MD  20
           &END EACH
         &END RESTART
       &END PRINT
     &END SCF
     &QS
       EPS_DEFAULT     1.0000000000000000E-14
       METHOD  GPW
     &END QS
     &MGRID
       NGRIDS  5
       CUTOFF     1.2000000000000000E+03
     &END MGRID
     &XC
       DENSITY_CUTOFF     1.0000000000000000E-10
       GRADIENT_CUTOFF     1.0000000000000000E-10
       TAU_CUTOFF     1.0000000000000000E-10
       &XC_FUNCTIONAL  NO_SHORTCUT
         &PBE  T
         &END PBE
       &END XC_FUNCTIONAL
       &VDW_POTENTIAL
         POTENTIAL_TYPE  PAIR_POTENTIAL
         &PAIR_POTENTIAL
           R_CUTOFF     1.0000000000000004E+01
           TYPE  DFTD3
           PARAMETER_FILE_NAME dftd3.dat
           REFERENCE_FUNCTIONAL PBE
           EPS_CN     9.9999999999999995E-07
           CALCULATE_C9_TERM  T
           REFERENCE_C9_TERM  T
           LONG_RANGE_CORRECTION  F
           VERBOSE_OUTPUT  F
         &END PAIR_POTENTIAL
       &END VDW_POTENTIAL
     &END XC
   &END DFT
   &SUBSYS
     &CELL
       A     1.2864472766435110E+01    0.0000000000000000E+00    0.0000000000000000E+00
       B    -6.4322363581020028E+00    1.1140960178524473E+01    0.0000000000000000E+00
       C     0.0000000000000000E+00    0.0000000000000000E+00    3.2000000000000000E+01
       MULTIPLE_UNIT_CELL  1 1 1
       &CELL_REF
         A     1.2982353780853531E+01    0.0000000000000000E+00    0.0000000000000000E+00
         B    -6.4911768904267628E+00    1.1243048175136114E+01    0.0000000000000000E+00
         C     0.0000000000000000E+00    0.0000000000000000E+00    3.2000000000000000E+01
         MULTIPLE_UNIT_CELL  1 1 1
       &END CELL_REF
     &END CELL
     &COORD
N    6.9014880273933918E-02    1.9313100973290702E+00    2.5132856941507122E+00
Ga    2.5594027908092898E-02   -4.0385204642778137E-02    2.8315421205361861E+00
N    6.9189308798914509E-02   -4.5033045723311273E-02    5.0226327593177231E+00
Ga    7.0532145427032636E-02    1.7870505216736259E+00    5.7872438574014726E+00
N    7.1780126154919258E-02    1.8062359715682812E+00    7.7948015296359037E+00
Ga    6.9171945278925326E-02   -3.8070494354467493E-02    8.4446635728917574E+00
N    7.1087538665431965E-02   -3.8726685286238141E-02    1.0421964042710560E+01
Ga    7.0839801296051677E-02    1.7996657457658143E+00    1.1069300757087179E+01
N    7.0612276399770649E-02    1.7792404015894643E+00    1.3070495340525955E+01
Ga    7.0430443004196000E-02   -5.0521449578904136E-02    1.3862522317730878E+01
N    6.9784937367366920E-02   -5.3089795573570464E-02    1.6071419750443916E+01
Ga    6.9665623411396385E-02    1.9457133782967828E+00    1.6435379473094084E+01
Ga    6.0119105825022966E-02    3.6354665587496529E+00    1.3050352671688465E+00
N   -1.4366651959704182E+00    4.5469832824781387E+00    2.5179074242108830E+00
Ga   -1.6140413358601204E+00    2.6917555522044929E+00    3.2605769374902702E+00
N   -1.5370952817407757E+00    2.7475264229172720E+00    5.2455945984954724E+00
Ga   -1.5642575351194550E+00    4.6104914992416308E+00    5.8021925952704292E+00
N   -1.5449239976842928E+00    4.6092270253166090E+00    7.8007740538145773E+00
Ga   -1.5262104607595157E+00    2.7488564355532072E+00    8.4348627319802976E+00
N   -1.5253904102998392E+00    2.7526505159016748E+00    1.0434252536785445E+01
Ga   -1.5530869811285348E+00    4.6100035700506883E+00    1.1072383432157366E+01
N   -1.5709643532768283E+00    4.6220155418995299E+00    1.3072047355734846E+01
Ga   -1.5266868686237780E+00    2.7519548252243764E+00    1.3616542157583542E+01
N   -1.5437860580727230E+00    2.7432736756286569E+00    1.5595054666730501E+01
Ga   -1.4259902601700527E+00    4.5382340145686024E+00    1.6435643083380160E+01
N    6.9302818362407967E-02    3.6729691030708977E+00    1.7559097814504312E+01
N   -3.1384123066682910E+00    7.5099944150311213E+00    2.5367474235176970E+00
Ga   -3.1346571993783838E+00    5.5122874815051972E+00    2.8716198460249296E+00
N   -3.1485398587547349E+00    5.5334968929282224E+00    5.0333331929876080E+00
Ga   -3.1537429190244084E+00    7.3526954088111598E+00    5.8184318385913452E+00
N   -3.1440020177202728E+00    7.3773864671155529E+00    7.8082599229598557E+00
Ga   -3.1440173695479610E+00    5.5286276382123685E+00    8.4511808746071466E+00
N   -3.1445812541431422E+00    5.5311728566496816E+00    1.0425019198485106E+01
Ga   -3.1465207554225909E+00    7.3718856567285167E+00    1.1073177162476522E+01
N   -3.1464196779728968E+00    7.3533662916503681E+00    1.3065348861331335E+01
Ga   -3.1553425819360932E+00    5.5371130585653452E+00    1.3863489714071664E+01
N   -3.1579175750006181E+00    5.5382731433696311E+00    1.6072028076412657E+01
Ga   -3.1486361914296057E+00    7.5964847268889928E+00    1.6502221297491491E+01
Ga   -3.1579477210327545E+00    9.2493312797730827E+00    1.5209037591925687E+00
N   -4.6498754126752679E+00    1.0109176294177358E+01    2.5259299346805189E+00
Ga   -4.8698526460716449E+00    8.2601017244118271E+00    3.2993523422583717E+00
N   -4.7518230398999020E+00    8.3155949913222624E+00    5.2602950994927440E+00
Ga   -4.7862591427310974E+00    1.0190445180043108E+01    5.8044708079333907E+00
N   -4.7621738213548035E+00    1.0178489909162476E+01    7.8025036181740477E+00
Ga   -4.7461914497133630E+00    8.3229246931205054E+00    8.4425216368004126E+00
N   -4.7423351207274305E+00    8.3228435528318148E+00    1.0434892812835709E+01
Ga   -4.7679161955771683E+00    1.0181938311894424E+01    1.1070436059205296E+01
N   -4.7840684754879890E+00    1.0190374756586214E+01    1.3063768517626702E+01
Ga   -4.7442901917057894E+00    8.3225181241267254E+00    1.3625579235692648E+01
N   -4.7715934120032371E+00    8.3065405462590274E+00    1.5583185252485944E+01
Ga   -4.5760464241557699E+00    1.0067839968110292E+01    1.6501801453038031E+01
N   -3.1389961344616784E+00    9.2497776718758917E+00    1.7646238616870136E+01
N    3.2807914130539162E+00    1.8195462766820831E+00    2.6125320882297989E+00
Ga    3.2768473887643568E+00    8.4910071454679714E-02    3.2951228800302652E+00
N    3.2866323917884839E+00   -4.2068578703874281E-02    5.2562608760649496E+00
Ga    3.2771076103108325E+00    1.8212905842451654E+00    5.8722612016455447E+00
N    3.2857607808905489E+00    1.8171630923903233E+00    7.8500715807365840E+00
Ga    3.2853150391936441E+00   -4.9120152895767148E-02    8.4410659120424807E+00
N    3.2879359010437663E+00   -5.1425705458651522E-02    1.0435227843370660E+01
Ga    3.2868740652310264E+00    1.8176094829719045E+00    1.1028925910784167E+01
N    3.2842616934248481E+00    1.8191211164437353E+00    1.3003340512722561E+01
Ga    3.2857725554664761E+00   -5.2639982973325547E-02    1.3627070838830189E+01
N    3.2792537728136932E+00   -1.6557515859214902E-02    1.5585802103855654E+01
Ga    3.2872160870804459E+00    1.8163761319318530E+00    1.5865970972803304E+01
N    1.5792652169405332E+00    4.5525065732129173E+00    2.5046756378616619E+00
Ga    1.7507367560539084E+00    2.7032245177414089E+00    3.2505671596989005E+00
N    1.6780435225166732E+00    2.7474559541007784E+00    5.2379121895813068E+00
Ga    1.7094203882209413E+00    4.6123704933755523E+00    5.7996274211997294E+00
N    1.6868239624526244E+00    4.6082097646233180E+00    7.7995319064335238E+00
Ga    1.6670741885568026E+00    2.7499697356060002E+00    8.4363414771170948E+00
N    1.6678998655763864E+00    2.7524276731497364E+00    1.0434605473392367E+01
Ga    1.6952787132918379E+00    4.6103574708690616E+00    1.1072264142552527E+01
N    1.7119785699349739E+00    4.6219148665183045E+00    1.3072005297783781E+01
Ga    1.6674526124756877E+00    2.7521023447473567E+00    1.3617005555063097E+01
N    1.6835931217116440E+00    2.7431370268215440E+00    1.5595442808010212E+01
Ga    1.5650756238710590E+00    4.5380126486021144E+00    1.6435686136012691E+01
N    7.7767080289834478E-02    7.3832933305145687E+00    2.7090239885200118E+00
Ga    7.5992604394813368E-02    5.5286329915215466E+00    3.3030242460815047E+00
N    7.0532013832621240E-02    5.5424921873568858E+00    5.2499312819648418E+00
Ga    8.0438417055967520E-02    7.3808876009894826E+00    5.9071651047285458E+00
N    7.0792277778086971E-02    7.3858914364333543E+00    7.8682343415262830E+00
Ga    7.1358886953799883E-02    5.5147566199238121E+00    8.4478352982656766E+00
N    7.0957509098405147E-02    5.5175344258616468E+00    1.0440747756535641E+01
Ga    7.1270858465461301E-02    7.3882238553446111E+00    1.1032653657824646E+01
N    7.0201363315626167E-02    7.3854532033154578E+00    1.3005527876508944E+01
Ga    7.0490761356628448E-02    5.5185516803265653E+00    1.3617669286386656E+01
N    6.9845363881140057E-02    5.5377976502346549E+00    1.5595473855607253E+01
Ga    6.9903715162503446E-02    7.3902530505598030E+00    1.5865760399238583E+01
N   -1.6392092905927380E+00    1.0101600114627685E+01    2.5349390904937690E+00
Ga   -1.4974482585672939E+00    8.2915718097639726E+00    3.3520037547785453E+00
N   -1.5266965039342264E+00    8.3082787822658979E+00    5.2748641680510744E+00
Ga   -1.5097757868238237E+00    1.0197089185835011E+01    5.8133097868938952E+00
N   -1.5273045104014178E+00    1.0177706450461830E+01    7.8044841498928426E+00
Ga   -1.5478521885850669E+00    8.3231395388794418E+00    8.4505586482442308E+00
N   -1.5476938324212552E+00    8.3237410786044244E+00    1.0440306924011479E+01
Ga   -1.5221786992801887E+00    1.0183698817775490E+01    1.1077887360990351E+01
N   -1.5057190993249119E+00    1.0192139240148242E+01    1.3070949718996657E+01
Ga   -1.5500771099489339E+00    8.3233565059363812E+00    1.3627946154597256E+01
N   -1.5219849503991594E+00    8.2995085273617395E+00    1.5586594818876209E+01
Ga   -1.7056826442514168E+00    1.0076823727169188E+01    1.6501374566534555E+01
N    6.5028361906909433E+00    1.9373423258928473E+00    2.5424033604412077E+00
Ga    6.5460585464443017E+00   -5.5281609921220554E-02    2.8551357658359686E+00
N    6.5018753831945340E+00   -4.2395574724848679E-02    5.0248474183763339E+00
Ga    6.5023471356779741E+00    1.7875233074192676E+00    5.8051060113113531E+00
N    6.5025586507910225E+00    1.8042834547879465E+00    7.8028783118484499E+00
Ga    6.5049471209844842E+00   -3.9599371676173251E-02    8.4529563514544908E+00
N    6.5028038192485198E+00   -3.9544661461817468E-02    1.0425994956760006E+01
Ga    6.5033337192073724E+00    1.8000332223699014E+00    1.1075758707612914E+01
N    6.5027264373058351E+00    1.7804586321181097E+00    1.3070213069135644E+01
Ga    6.5028134974897780E+00   -3.9601153886791793E-02    1.3883794809979038E+01
N    6.5020898665885287E+00   -3.9971011386454716E-02    1.6074267369909244E+01
Ga    6.5021491478088329E+00    2.0042580479234289E+00    1.6495011149169439E+01
Ga    6.5064240113250777E+00    3.6716961818824099E+00    1.5468269358238627E+00
N    5.0018766306413864E+00    4.5406503869644368E+00    2.5373382152432651E+00
Ga    4.7835040784247207E+00    2.6867985284804567E+00    3.3003426977911512E+00
N    4.8920643217704649E+00    2.7440666114028915E+00    5.2609439872803936E+00
Ga    4.8672507189826995E+00    4.6173619069299354E+00    5.8083013892170108E+00
N    4.8851356630857037E+00    4.6069686203122675E+00    7.8057642891897059E+00
Ga    4.9039533246568947E+00    2.7495941530872612E+00    8.4406415270007376E+00
N    4.9059479798318826E+00    2.7507822732414788E+00    1.0435618494100888E+01
Ga    4.8812169121101521E+00    4.6104243892040921E+00    1.1070605588604865E+01
N    4.8646688762004828E+00    4.6205405727892588E+00    1.3064230098188236E+01
Ga    4.9062197117373545E+00    2.7530684823221634E+00    1.3625648938483272E+01
N    4.8714393925881305E+00    2.7405912173474709E+00    1.5585843831244668E+01
Ga    5.0712568594884404E+00    4.5027490389122313E+00    1.6495814287041192E+01
N    6.5019834006090003E+00    3.6634075088275124E+00    1.7636600871711664E+01
N    3.2796904795068689E+00    7.5239795613978151E+00    2.4931647803973376E+00
N    3.2887496608222690E+00    5.5325948516669570E+00    5.0324275203032620E+00
Ga    3.2922411441246058E+00    7.3577771287755009E+00    5.8076490026297813E+00
N    3.2847623434826394E+00    7.3768632214854675E+00    7.8059572289776886E+00
Ga    3.2859070954275578E+00    5.5306717118835591E+00    8.4488783244778123E+00
N    3.2863319621674645E+00    5.5307841236710802E+00    1.0424126195320058E+01
Ga    3.2883467745506487E+00    7.3717139204237236E+00    1.1072032948382565E+01
N    3.2873168621542246E+00    7.3529962010812389E+00    1.3064915007503169E+01
Ga    3.2962872734346873E+00    5.5369332727723259E+00    1.3863085409101410E+01
N    3.2975628881127506E+00    5.5381532359046188E+00    1.6071888555873176E+01
Ga    3.2882239407785900E+00    7.5957947096997929E+00    1.6500688297328175E+01
Ga    3.3220164331507602E+00    9.2772125703242470E+00    1.3107713391385338E+00
N    1.7983747738506195E+00    1.0096750533919646E+01    2.5058880144725459E+00
Ga    1.6900648161463343E+00    8.3145356950791545E+00    3.3121706418996473E+00
N    1.6652536775483573E+00    8.3066609147679706E+00    5.2594146585267811E+00
Ga    1.6577455914158357E+00    1.0189368620040701E+01    5.8054238518810157E+00
N    1.6672950912596274E+00    1.0176327482442280E+01    7.8036031656676679E+00
Ga    1.6915347556346354E+00    8.3235727219715585E+00    8.4493629789412221E+00
N    1.6892459992358713E+00    8.3234790224689412E+00    1.0440633723640422E+01
Ga    1.6644377338022003E+00    1.0183573180061796E+01    1.1076790230454279E+01
N    1.6465697994876678E+00    1.0192078115566360E+01    1.3070553614926196E+01
Ga    1.6908396388199947E+00    8.3231379192387198E+00    1.3626968333741678E+01
N    1.6618125902845455E+00    8.2994676101341831E+00    1.5585923779176589E+01
Ga    1.8444408784334103E+00    1.0077339315488254E+01    1.6499698533918043E+01
N    3.2780891218261425E+00    9.2498967079885848E+00    1.7644135609928043E+01
N    9.7248387574068254E+00    1.8042230669513402E+00    2.6333073729310770E+00
Ga    9.7236554927595602E+00    3.8201304054359855E-02    3.2746736588483567E+00
N    9.7167537020988917E+00   -4.0459271101436982E-02    5.2586727714114971E+00
Ga    9.7270817951108342E+00    1.8112854873493529E+00    5.8694876234051421E+00
N    9.7204003654832665E+00    1.8177456672827177E+00    7.8514897896942228E+00
Ga    9.7205481219493688E+00   -5.0189693858716168E-02    8.4361773810169929E+00
N    9.7181013201827611E+00   -5.1765387290025298E-02    1.0433957721616308E+01
Ga    9.7197633388029381E+00    1.8168016906456668E+00    1.1027192583845896E+01
N    9.7212536870439195E+00    1.8191937841556387E+00    1.3002491451774006E+01
Ga    9.7197847480179753E+00   -5.2619695747110812E-02    1.3625894809059806E+01
N    9.7250277987782550E+00   -1.6528006049324848E-02    1.5585052795280603E+01
Ga    9.7172012660744205E+00    1.8164636117379176E+00    1.5865537172985485E+01
N    8.0028530667828992E+00    4.5403111729586687E+00    2.5463259758327794E+00
Ga    8.2246354238772135E+00    2.6769533487684534E+00    3.3054155991097560E+00
N    8.1115270761747524E+00    2.7443223441000812E+00    5.2653754552551089E+00
Ga    8.1330698667475616E+00    4.6148184969083230E+00    5.8100340874541203E+00
N    8.1213431293435949E+00    4.6077165600146888E+00    7.8064419127422680E+00
Ga    8.1036001882677056E+00    2.7487004323698807E+00    8.4396552525921091E+00
N    8.1002100220398994E+00    2.7509612503895857E+00    1.0435486231915586E+01
Ga    8.1246606817390514E+00    4.6100217575976004E+00    1.1070893126137429E+01
N    8.1409326938612576E+00    4.6207783777098550E+00    1.3064437903657254E+01
Ga    8.0993429843865137E+00    2.7531098258646094E+00    1.3625299944906137E+01
N    8.1329161019974556E+00    2.7406440869637247E+00    1.5585665181232267E+01
Ga    7.9328060855856739E+00    4.5027002379979013E+00    1.6495846692799692E+01
N    6.4893900741858994E+00    7.3924231215299487E+00    2.6264166682505596E+00
Ga    6.4954777571518632E+00    5.6550528591125753E+00    3.3057061857326442E+00
N    6.5020444526068211E+00    5.5318397078446448E+00    5.2657914495768097E+00
Ga    6.4934825287009295E+00    7.3925015631664399E+00    5.8785018138586871E+00
N    6.5036582744505846E+00    7.3874790018283907E+00    7.8550585795818417E+00
Ga    6.5030249752653067E+00    5.5202176145079802E+00    8.4419945674293011E+00
N    6.5032041696958993E+00    5.5184856720412352E+00    1.0435107301025289E+01
Ga    6.5026016527789787E+00    7.3881245229656916E+00    1.1028846009543985E+01
N    6.5027188356076584E+00    7.3878250243387003E+00    1.2999212100509856E+01
Ga    6.5026916647208850E+00    5.5197221981152254E+00    1.3624015140097958E+01
N    6.5021003898203809E+00    5.5502660511669815E+00    1.5582871248298147E+01
Ga    6.5021688001252462E+00    7.3882181237641777E+00    1.5861850119293708E+01
N    4.7680206380771093E+00    1.0098145355122652E+01    2.5055594445580129E+00
Ga    4.9548169099177564E+00    8.2764452281504379E+00    3.2676497645506237E+00
N    4.8934365883420385E+00    8.3127986988650235E+00    5.2545860270171563E+00
Ga    4.9169666548466573E+00    1.0184197583473230E+01    5.7973328741472638E+00
N    4.9050626434315658E+00    1.0178040952442645E+01    7.8023357884257063E+00
Ga    4.8854599031957298E+00    8.3232736173590443E+00    8.4391069352727026E+00
N    4.8842538716180881E+00    8.3222646771306259E+00    1.0433958381517934E+01
Ga    4.9087494356701233E+00    1.0181391758456492E+01    1.1068772918379127E+01
N    4.9253427750378211E+00    1.0190351632165717E+01    1.3063089221183011E+01
Ga    4.8849025899367007E+00    8.3225992438934924E+00    1.3624840850499284E+01
N    4.9113347996746910E+00    8.3065119484772403E+00    1.5582796541668719E+01
Ga    4.7160468984850779E+00    1.0068178562186711E+01    1.6500423132609590E+01
Ga    3.2762395999864826E+00    5.5609531262004630E+00    2.8576897587271106E+00
O   -4.4249552408718277E-04    7.7448526734715530E+00   -2.6411981193641088E-01
H    3.7743101881119831E-02    7.4121378262955862E+00    1.6764947528964640E+00
C    1.0757965777282443E+00    7.4630629911371953E+00   -7.7418400387147712E-01
H    3.2521275403875194E+00    9.2167929513983609E+00   -2.3987861901788649E-01
H    1.8439274745648724E+00    6.8804160837786936E+00   -2.2583352738577162E-01
H    1.3263966488325998E+00    7.7778427601549023E+00   -1.8060569893130398E+00
     &END COORD
     &KIND C
       BASIS_SET DZVP-MOLOPT-SR-GTH-q4
       POTENTIAL GTH-PBE-q4
       &POTENTIAL
 2 2
  0.3384712400000000E+00 2 -0.8803673979999999E+01  0.1339210850000000E+01
 2
  0.3025757500000000E+00 1  0.9622486650000001E+01
  0.2915069400000000E+00 0
         # Potential name:  GTH-PBE-Q4  for symbol:  C
         # Potential read from the potential filename: GTH_POTENTIALS
       &END POTENTIAL
     &END KIND
     &KIND O
       BASIS_SET DZVP-MOLOPT-SR-GTH-q6
       POTENTIAL GTH-PBE-q6
       &POTENTIAL
 2 4
  0.2445543000000000E+00 2 -0.1666721480000000E+02  0.2487311320000000E+01
 2
  0.2209559200000000E+00 1  0.1833745811000000E+02
  0.2113324700000000E+00 0
         # Potential name:  GTH-PBE-Q6  for symbol:  O
         # Potential read from the potential filename: GTH_POTENTIALS
       &END POTENTIAL
     &END KIND
     &KIND H
       BASIS_SET DZVP-MOLOPT-SR-GTH-q1
       POTENTIAL GTH-PBE-q1
       &POTENTIAL
 1
  0.2000000000000000E+00 2 -0.4178900440000000E+01  0.7244633100000000E+00
 0
         # Potential name:  GTH-PBE-Q1  for symbol:  H
         # Potential read from the potential filename: GTH_POTENTIALS
       &END POTENTIAL
     &END KIND
     &KIND N
       BASIS_SET DZVP-MOLOPT-SR-GTH
       POTENTIAL GTH-PBE-q5
       &POTENTIAL
 2 3
  0.2837905100000000E+00 2 -0.1241522559000000E+02  0.1868095920000000E+01
 2
  0.2554050000000000E+00 1  0.1363026257000000E+02
  0.2454945300000000E+00 0
         # Potential name:  GTH-PBE-Q5  for symbol:  N
         # Potential read from the potential filename: GTH_POTENTIALS
       &END POTENTIAL
     &END KIND
     &KIND Ga
       BASIS_SET DZVP-MOLOPT-SR-GTH
       POTENTIAL GTH-PBE-q13
       &POTENTIAL
 2 1 10
  0.4900000000000000E+00 0
 3
  0.4167772300000000E+00 3  0.1047568975000000E+02 -0.4921768140000000E+01  0.8707055900000000E+00
  0.7770178090000000E+01 -0.2248152160000000E+01
  0.1784415450000000E+01
  0.5696265200000000E+00 2  0.1777985340000000E+01  0.1958597600000000E+00
 -0.2317443900000000E+00
  0.2381265000000000E+00 1 -0.1624868022000000E+02
         # Potential name:  GTH-PBE-Q13  for symbol:  GA
         # Potential read from the potential filename: GTH_POTENTIALS
       &END POTENTIAL
     &END KIND
     &TOPOLOGY
       NUMBER_OF_ATOMS  206
       MULTIPLE_UNIT_CELL  1 1 1
     &END TOPOLOGY
   &END SUBSYS
 &END FORCE_EVAL
