 # Version information for this restart file 
 # current date 2019-07-03 09:36:21.247
 # current working dir /lustre04/scratch/rzk/rzk/GaN-carbene/443-adatoms-both-2x2/02-Methanol/03-H-NSur
 # Program compiled at                              Sun Apr  7 00:48:11 EDT 2019
 # Program compiled on                          beluga2.int.ets1.calculquebec.ca
 # Program compiled for                        Beluga-Linux-x86-64-intel-openmpi
 # Source code revision number                                         svn:18619
 &GLOBAL
   PRINT_LEVEL  MEDIUM
   PROJECT_NAME TEST
   RUN_TYPE  GEO_OPT
 &END GLOBAL
 &MOTION
   &GEO_OPT
     MAX_ITER  500
     STEP_START_VAL  124
   &END GEO_OPT
 &END MOTION
 &FORCE_EVAL
   METHOD  QS
   STRESS_TENSOR  ANALYTICAL
   &DFT
     BASIS_SET_FILE_NAME BASIS_MOLOPT
     POTENTIAL_FILE_NAME GTH_POTENTIALS
     UKS  T
     SURFACE_DIPOLE_CORRECTION  T
     SURF_DIP_DIR  Z
     &SCF
       MAX_SCF  80
       EPS_SCF     5.0000000000000004E-06
       &OT  T
         PRECONDITIONER  FULL_ALL
       &END OT
       &OUTER_SCF  T
         OPTIMIZER  NONE
         EPS_SCF     5.0000000000000004E-06
         MAX_SCF  4
       &END OUTER_SCF
       &PRINT
         &RESTART  OFF
           BACKUP_COPIES  1
           &EACH
             JUST_ENERGY  0
             QS_SCF  0
             MD  20
           &END EACH
         &END RESTART
       &END PRINT
     &END SCF
     &QS
       EPS_DEFAULT     1.0000000000000000E-14
       METHOD  GPW
     &END QS
     &MGRID
       NGRIDS  5
       CUTOFF     1.2000000000000000E+03
     &END MGRID
     &XC
       DENSITY_CUTOFF     1.0000000000000000E-10
       GRADIENT_CUTOFF     1.0000000000000000E-10
       TAU_CUTOFF     1.0000000000000000E-10
       &XC_FUNCTIONAL  NO_SHORTCUT
         &PBE  T
         &END PBE
       &END XC_FUNCTIONAL
       &VDW_POTENTIAL
         POTENTIAL_TYPE  PAIR_POTENTIAL
         &PAIR_POTENTIAL
           R_CUTOFF     1.0000000000000004E+01
           TYPE  DFTD3
           PARAMETER_FILE_NAME dftd3.dat
           REFERENCE_FUNCTIONAL PBE
           EPS_CN     9.9999999999999995E-07
           CALCULATE_C9_TERM  T
           REFERENCE_C9_TERM  T
           LONG_RANGE_CORRECTION  F
           VERBOSE_OUTPUT  F
         &END PAIR_POTENTIAL
       &END VDW_POTENTIAL
     &END XC
   &END DFT
   &SUBSYS
     &CELL
       A     1.2864472766435110E+01    0.0000000000000000E+00    0.0000000000000000E+00
       B    -6.4322363581020028E+00    1.1140960178524473E+01    0.0000000000000000E+00
       C     0.0000000000000000E+00    0.0000000000000000E+00    3.2000000000000000E+01
       MULTIPLE_UNIT_CELL  1 1 1
       &CELL_REF
         A     1.2982353780853531E+01    0.0000000000000000E+00    0.0000000000000000E+00
         B    -6.4911768904267628E+00    1.1243048175136114E+01    0.0000000000000000E+00
         C     0.0000000000000000E+00    0.0000000000000000E+00    3.2000000000000000E+01
         MULTIPLE_UNIT_CELL  1 1 1
       &END CELL_REF
     &END CELL
     &COORD
N    6.7972137781928815E-02    1.9400293208906783E+00    2.5051115226021978E+00
Ga    2.3415852296615518E-02   -3.2224822524361263E-02    2.8226036017835314E+00
N    6.7069103691670073E-02   -3.8170919962316745E-02    5.0118251511569003E+00
Ga    6.8058735191980524E-02    1.7935248696690915E+00    5.7774318921591199E+00
N    6.7750182479596341E-02    1.8118323214865821E+00    7.7840058871156783E+00
Ga    6.4920887791947213E-02   -3.3003007157300909E-02    8.4323879719692805E+00
N    6.6226539519767716E-02   -3.5527163268564955E-02    1.0410194109822021E+01
Ga    6.5928418096308561E-02    1.8030413440428223E+00    1.1057640086980266E+01
N    6.5424526625577378E-02    1.7817488107211603E+00    1.3059374843969852E+01
Ga    6.5150715846692242E-02   -4.8566007721276519E-02    1.3850954492830871E+01
N    6.6052706122613256E-02   -5.3889143492282000E-02    1.6060385142987034E+01
Ga    6.4341150676363257E-02    1.9460785840198502E+00    1.6427038963423438E+01
Ga    5.9295274683628135E-02    3.6427543454896023E+00    1.2991090140077646E+00
N   -1.4364405422103739E+00    4.5550591743923823E+00    2.5091515889048144E+00
Ga   -1.6172796621694763E+00    2.6992821527075637E+00    3.2530908936713585E+00
N   -1.5389234260691143E+00    2.7549673000845281E+00    5.2363112682090813E+00
Ga   -1.5664055998081801E+00    4.6179798951264033E+00    5.7928819676626162E+00
N   -1.5487496165237482E+00    4.6148910324623538E+00    7.7906914494565056E+00
Ga   -1.5303091388795949E+00    2.7542733833671504E+00    8.4242703071829492E+00
N   -1.5307069233105062E+00    2.7559032224978703E+00    1.0423466437702455E+01
Ga   -1.5576265675325445E+00    4.6129037478431609E+00    1.1061156592936555E+01
N   -1.5750251612369617E+00    4.6229020122622471E+00    1.3060717972551508E+01
Ga   -1.5324583360352633E+00    2.7532157391061989E+00    1.3604698259483547E+01
N   -1.5492488477100173E+00    2.7411628029810635E+00    1.5582377452312942E+01
Ga   -1.4281869822765203E+00    4.5343263783400829E+00    1.6426684423096578E+01
N    6.5458700794110425E-02    3.6700123430561900E+00    1.7554681209462117E+01
N   -3.1389966398387381E+00    7.5169105621532886E+00    2.5255667555764396E+00
Ga   -3.1371297195259742E+00    5.5190369156663914E+00    2.8633044507804839E+00
N   -3.1502868656690430E+00    5.5408408165286858E+00    5.0240789464746403E+00
Ga   -3.1551746739873203E+00    7.3601720478477208E+00    5.8087714458591941E+00
N   -3.1477626953596776E+00    7.3825841759701119E+00    7.7977088396722767E+00
Ga   -3.1481256394350008E+00    5.5339384688108080E+00    8.4408493814734946E+00
N   -3.1495508128127252E+00    5.5340066297929162E+00    1.0414368259494623E+01
Ga   -3.1517428612559248E+00    7.3744801008724483E+00    1.1062454632893655E+01
N   -3.1514743565234666E+00    7.3542793852606927E+00    1.3054610769879899E+01
Ga   -3.1598774442481279E+00    5.5368238373901972E+00    1.3850699090210293E+01
N   -3.1608133371025926E+00    5.5383250578648759E+00    1.6061367016707838E+01
Ga   -3.1534952668412073E+00    7.5959127062220295E+00    1.6491148724676464E+01
Ga   -3.1603546592546281E+00    9.2579408653704149E+00    1.5076799778023526E+00
N   -4.6518921054700710E+00    1.0117580389163296E+01    2.5145434015145742E+00
Ga   -4.8704388581801101E+00    8.2679358343407721E+00    3.2884867056996963E+00
N   -4.7533741366501987E+00    8.3223336735804203E+00    5.2494245548444791E+00
Ga   -4.7883575148843995E+00    1.0197007157832289E+01    5.7933822324342721E+00
N   -4.7662572043092331E+00    1.0183642697854133E+01    7.7908057537547286E+00
Ga   -4.7504844468036307E+00    8.3280489983933030E+00    8.4305575230919025E+00
N   -4.7474263581742591E+00    8.3254662024052770E+00    1.0423666270490488E+01
Ga   -4.7728714177544820E+00    1.0184523812824860E+01    1.1059539742189708E+01
N   -4.7890062014558428E+00    1.0190689554658176E+01    1.3053738206152129E+01
Ga   -4.7498514033901396E+00    8.3224135713570035E+00    1.3613576604128614E+01
N   -4.7767910723163594E+00    8.3058205082364971E+00    1.5570972234118589E+01
Ga   -4.5802394194421900E+00    1.0065937248917974E+01    1.6491244140342381E+01
N   -3.1434656906719902E+00    9.2483184789647837E+00    1.7636229064315369E+01
N    3.2802097723315349E+00    1.8270938490696513E+00    2.6033944300166385E+00
Ga    3.2757775607304427E+00    9.1691829607803310E-02    3.2853793405092815E+00
N    3.2850043564449471E+00   -3.5616642240625301E-02    5.2464571096557275E+00
Ga    3.2753391512385859E+00    1.8278614572274374E+00    5.8630281722953885E+00
N    3.2820776380354197E+00    1.8225923268538775E+00    7.8400844150671309E+00
Ga    3.2808406492733853E+00   -4.3971983388842110E-02    8.4295981417472472E+00
N    3.2830705601846035E+00   -4.8347982459383106E-02    1.0424200606921751E+01
Ga    3.2822169675802568E+00    1.8203624303064359E+00    1.1018706214913450E+01
N    3.2794328692862931E+00    1.8204174575808276E+00    1.2993050001630225E+01
Ga    3.2808953346835676E+00   -5.1757974124075401E-02    1.3614823203011309E+01
N    3.2743006727446140E+00   -1.7788011347371388E-02    1.5573911099276017E+01
Ga    3.2808656701895438E+00    1.8151639740738394E+00    1.5854817899298361E+01
N    1.5781110480075224E+00    4.5601501278174190E+00    2.4962544491751739E+00
Ga    1.7516382024263006E+00    2.7108211180463995E+00    3.2440234284156229E+00
N    1.6755686687721747E+00    2.7545625402149674E+00    5.2296019861656173E+00
Ga    1.7067466411727918E+00    4.6197482295289207E+00    5.7908785098420879E+00
N    1.6829084646776520E+00    4.6135966509770556E+00    7.7898418972300556E+00
Ga    1.6631644701615853E+00    2.7548478565005108E+00    8.4254822589530587E+00
N    1.6635315556856263E+00    2.7556717723993347E+00    1.0423878238689742E+01
Ga    1.6904226502884425E+00    4.6131236627049468E+00    1.1061397009969395E+01
N    1.7062319900488263E+00    4.6228892029583371E+00    1.3061038688206020E+01
Ga    1.6625086758221099E+00    2.7535671541744655E+00    1.3604963441666905E+01
N    1.6789744329965881E+00    2.7416682087708972E+00    1.5582736501100561E+01
Ga    1.5591265988740304E+00    4.5354505571906856E+00    1.6426761965553407E+01
N    7.7951921335749019E-02    7.3943399250121873E+00    2.6992955608348721E+00
Ga    7.5258983242499078E-02    5.5403771831720006E+00    3.2941093447700123E+00
N    6.8194773582098356E-02    5.5502627864182479E+00    5.2401953802656536E+00
Ga    7.7980169760260648E-02    7.3885132368719804E+00    5.8981830029832638E+00
N    6.6906910027691210E-02    7.3910604574293011E+00    7.8585160086218711E+00
Ga    6.7323984642236004E-02    5.5197432473653292E+00    8.4372543769815476E+00
N    6.6469196214856460E-02    5.5209492683124406E+00    1.0429911881006740E+01
Ga    6.6581952316250234E-02    7.3911358709179726E+00    1.1023035944895968E+01
N    6.5529397594903060E-02    7.3856502707911771E+00    1.2995250293039227E+01
Ga    6.5585886007948388E-02    5.5188067293964966E+00    1.3606202610417620E+01
N    6.5448924355797924E-02    5.5367963236304254E+00    1.5583776458131835E+01
Ga    6.4956746016756078E-02    7.3884124508277802E+00    1.5854134112334441E+01
N   -1.6395349525780951E+00    1.0110624017153448E+01    2.5225476011944803E+00
Ga   -1.4989361848064655E+00    8.3004920430283899E+00    3.3407837749715648E+00
N   -1.5284431471831912E+00    8.3153238208192750E+00    5.2637873906851507E+00
Ga   -1.5113302599429324E+00    1.0203598039886474E+01    5.8043900192982676E+00
N   -1.5312746739257712E+00    1.0182701567086552E+01    7.7946354200647043E+00
Ga   -1.5519857194110873E+00    8.3281054909249779E+00    8.4404128185767124E+00
N   -1.5523766260579399E+00    8.3262697784194089E+00    1.0429882099507823E+01
Ga   -1.5270598175760661E+00    1.0186368223853693E+01    1.1067189465583011E+01
N   -1.5108144565858421E+00    1.0192236601515797E+01    1.3060589108258196E+01
Ga   -1.5547597420305732E+00    8.3232754220411493E+00    1.3615541639195756E+01
N   -1.5268538306595139E+00    8.2985658946980685E+00    1.5574414802438818E+01
Ga   -1.7108469228306524E+00    1.0075008294889370E+01    1.6489321520404268E+01
N    6.5017921856127998E+00    1.9460076374689459E+00    2.5319193127516044E+00
Ga    6.5446248163550793E+00   -4.5699341158738173E-02    2.8418152234883793E+00
N    6.4993950053391849E+00   -3.5949492964745325E-02    5.0152849747766668E+00
Ga    6.5004311834855049E+00    1.7931806708022238E+00    5.7960735500019647E+00
N    6.4989413471677331E+00    1.8100314331796856E+00    7.7936301849065934E+00
Ga    6.5009295637182296E+00   -3.4129434469956400E-02    8.4428215466650194E+00
N    6.4984650752779798E+00   -3.6143785870242112E-02    1.0415907566343632E+01
Ga    6.4983397250119488E+00    1.8033886597122568E+00    1.1065349462259988E+01
N    6.4974882327515031E+00    1.7822814949646184E+00    1.3059274286851764E+01
Ga    6.4979916628983636E+00   -3.8306400423248343E-02    1.3871037823423899E+01
N    6.4965028279719865E+00   -4.2756177957436539E-02    1.6060787151617124E+01
Ga    6.4969020845376564E+00    1.9996288733339798E+00    1.6475721423845137E+01
Ga    6.5056561806559090E+00    3.6800468377278839E+00    1.5309981364459115E+00
N    5.0014831432419662E+00    4.5478100528809957E+00    2.5287976420121727E+00
Ga    4.7838740974611484E+00    2.6945216873758153E+00    3.2913608447537084E+00
N    4.8905682696595534E+00    2.7504690411284911E+00    5.2520508519983800E+00
Ga    4.8654771602735103E+00    4.6234048029554602E+00    5.8002668634278205E+00
N    4.8814857649998347E+00    4.6124501155221020E+00    7.7969143033379922E+00
Ga    4.9000645118154322E+00    2.7546647672740328E+00    8.4306063608496498E+00
N    4.9010421625320859E+00    2.7543220330982914E+00    1.0425825918967419E+01
Ga    4.8765863681954311E+00    4.6135326615833634E+00    1.1060469665000801E+01
N    4.8594752749010688E+00    4.6219076755936284E+00    1.3053775241439943E+01
Ga    4.9011098475726254E+00    2.7546863820155991E+00    1.3612805082311244E+01
N    4.8650082566185411E+00    2.7392464923137751E+00    1.5573417270451785E+01
Ga    5.0635609253561205E+00    4.5025521679452387E+00    1.6477077065613830E+01
N    6.4970362993189017E+00    3.6611888750167165E+00    1.7617393645323805E+01
N    3.2778540984488389E+00    7.5309161351263354E+00    2.4851842243101148E+00
N    3.2867161460223331E+00    5.5391612127210959E+00    5.0243718721372810E+00
Ga    3.2899956531040901E+00    7.3648234499611984E+00    5.7987764635004160E+00
N    3.2814614856614073E+00    7.3817473046343256E+00    7.7961553370847394E+00
Ga    3.2818935289328381E+00    5.5357188528092127E+00    8.4387033098948194E+00
N    3.2819699748885309E+00    5.5337238823204480E+00    1.0413706080932046E+01
Ga    3.2840553662016601E+00    7.3743254875377948E+00    1.1061907601623597E+01
N    3.2824371834136823E+00    7.3543212572431900E+00    1.3054985745052543E+01
Ga    3.2906245255754967E+00    5.5370063308632611E+00    1.3850602473410291E+01
N    3.2912932719491264E+00    5.5374732137143443E+00    1.6059897689933425E+01
Ga    3.2829332524127106E+00    7.5947961669905597E+00    1.6488366258129076E+01
Ga    3.3184338427021545E+00    9.2872663836925700E+00    1.3011618700800851E+00
N    1.7975991179675908E+00    1.0104837812997538E+01    2.4959670006441268E+00
Ga    1.6898847175212586E+00    8.3230775312043743E+00    3.3057973934580165E+00
N    1.6631587436290443E+00    8.3141474879199055E+00    5.2519488219733654E+00
Ga    1.6547426208636073E+00    1.0196838712020602E+01    5.7963199683560669E+00
N    1.6636300899812155E+00    1.0181939742773489E+01    7.7938345551068968E+00
Ga    1.6880273479477015E+00    8.3289041872923502E+00    8.4385393021216437E+00
N    1.6848079035906778E+00    8.3259882104786271E+00    1.0429965761061984E+01
Ga    1.6601089468552443E+00    1.0186234043492856E+01    1.1066334033593918E+01
N    1.6423307024761720E+00    1.0192163569891163E+01    1.3060481570246461E+01
Ga    1.6855304403760252E+00    8.3231765783762892E+00    1.3615186803314483E+01
N    1.6563169656937566E+00    8.2979985953791928E+00    1.5574072544003544E+01
Ga    1.8406588357758591E+00    1.0074918784676456E+01    1.6486816095710370E+01
N    3.2737559373798062E+00    9.2479065381304988E+00    1.7631776941127583E+01
N    9.7229771738302944E+00    1.8131239451686061E+00    2.6218042980397951E+00
Ga    9.7222250833845809E+00    4.7388896854549688E-02    3.2646730350600826E+00
N    9.7138829755945491E+00   -3.2834791782440496E-02    5.2480854254270719E+00
Ga    9.7245654582704333E+00    1.8186740592127528E+00    5.8603250753493565E+00
N    9.7166294025930977E+00    1.8234628297619075E+00    7.8411633915235077E+00
Ga    9.7170602264682415E+00   -4.4732008619142082E-02    8.4251617563891621E+00
N    9.7136147990863684E+00   -4.8277679220899657E-02    1.0423183013753150E+01
Ga    9.7143975455280849E+00    1.8201663941716681E+00    1.1016747247794989E+01
N    9.7158979833562800E+00    1.8206736484961057E+00    1.2991417466229484E+01
Ga    9.7145193139118149E+00   -5.0415635018549960E-02    1.3614487835902397E+01
N    9.7199611489554094E+00   -1.7232718533518713E-02    1.5573985515841311E+01
Ga    9.7129226150046879E+00    1.8152815120458958E+00    1.5855347773656538E+01
N    8.0009919168091201E+00    4.5475491889667925E+00    2.5368008142907299E+00
Ga    8.2224004446879864E+00    2.6853803880162639E+00    3.2960668217975901E+00
N    8.1091777636961950E+00    2.7509012750316071E+00    5.2559526388427988E+00
Ga    8.1310954560271274E+00    4.6210541887330088E+00    5.8011379141628749E+00
N    8.1175179073963744E+00    4.6132893877800738E+00    7.7969826499794950E+00
Ga    8.0998380184746104E+00    2.7541460211145288E+00    8.4296241617471406E+00
N    8.0951755785806370E+00    2.7546215938010494E+00    1.0425600534050757E+01
Ga    8.1195229096971975E+00    4.6134716653960774E+00    1.1060131330633123E+01
N    8.1354189400456427E+00    4.6220775836354182E+00    1.3053312892665252E+01
Ga    8.0943529166856951E+00    2.7544153744931581E+00    1.3612570462605557E+01
N    8.1283544137768970E+00    2.7390556823207288E+00    1.5573455854363241E+01
Ga    7.9303324059768991E+00    4.5025363529325206E+00    1.6476963731096387E+01
N    6.4888039555652153E+00    7.3997341360763604E+00    2.6150163622432396E+00
Ga    6.4948993994171866E+00    5.6621454022051276E+00    3.2961932148877424E+00
N    6.5001550489073878E+00    5.5382616140832495E+00    5.2564034125118031E+00
Ga    6.4913853260338366E+00    7.3993271446134070E+00    5.8663433542752745E+00
N    6.4999492002101995E+00    7.3928040604023639E+00    7.8431955605865484E+00
Ga    6.4992632162501360E+00    5.5260718271160396E+00    8.4312362322856043E+00
N    6.4981691664036765E+00    5.5219010259510775E+00    1.0424875735544068E+01
Ga    6.4978926812075555E+00    7.3909537699272878E+00    1.1018361513531213E+01
N    6.4976503255229927E+00    7.3882241076083472E+00    1.2988503726075109E+01
Ga    6.4973086284897024E+00    5.5206204664346723E+00    1.3611701152584478E+01
N    6.4965421230873188E+00    5.5504130893605126E+00    1.5571043648270166E+01
Ga    6.4968548710721299E+00    7.3882698138859766E+00    1.5851280605394663E+01
N    4.7656538865255236E+00    1.0106561596907548E+01    2.4954860141132547E+00
Ga    4.9539956839156485E+00    8.2844253335504785E+00    3.2559209442227455E+00
N    4.8912261237271917E+00    8.3192883117013690E+00    5.2430594344129169E+00
Ga    4.9138205257743062E+00    1.0190618992329048E+01    5.7849354319377877E+00
N    4.9011120905762739E+00    1.0183218480115269E+01    7.7900103573085584E+00
Ga    4.8822355981722296E+00    8.3286032453158736E+00    8.4274559014404034E+00
N    4.8798153836415361E+00    8.3251117859313606E+00    1.0423221951966079E+01
Ga    4.9043180219016840E+00    1.0184369239352700E+01    1.1058088123370492E+01
N    4.9195671824357570E+00    1.0190665640205442E+01    1.3053449664257268E+01
Ga    4.8808389455835126E+00    8.3223746428765768E+00    1.3613328882396639E+01
N    4.9066938631722561E+00    8.3054932821349521E+00    1.5571062917644145E+01
Ga    4.7102559464915226E+00    1.0066516122992859E+01    1.6488860929482886E+01
Ga    3.2773704529069310E+00    5.5679184932204722E+00    2.8532594980120423E+00
O    1.3667557613386613E-01    7.7008055430551696E+00   -2.9491415365663720E-01
H    5.0664856186941082E-02    7.4264867192041901E+00    1.6653763702220232E+00
C    1.2232274152381191E+00    7.3340560433648037E+00   -7.2984220234999286E-01
H    3.2575693181735321E+00    9.2194101742169501E+00   -2.5044889478392673E-01
H    1.9475809892298976E+00    6.7812968295850311E+00   -9.7518366846564911E-02
H    1.5272931866390627E+00    7.5433228322114259E+00   -1.7748357369562391E+00
     &END COORD
     &KIND C
       BASIS_SET DZVP-MOLOPT-SR-GTH-q4
       POTENTIAL GTH-PBE-q4
       &POTENTIAL
 2 2
  0.3384712400000000E+00 2 -0.8803673979999999E+01  0.1339210850000000E+01
 2
  0.3025757500000000E+00 1  0.9622486650000001E+01
  0.2915069400000000E+00 0
         # Potential name:  GTH-PBE-Q4  for symbol:  C
         # Potential read from the potential filename: GTH_POTENTIALS
       &END POTENTIAL
     &END KIND
     &KIND O
       BASIS_SET DZVP-MOLOPT-SR-GTH-q6
       POTENTIAL GTH-PBE-q6
       &POTENTIAL
 2 4
  0.2445543000000000E+00 2 -0.1666721480000000E+02  0.2487311320000000E+01
 2
  0.2209559200000000E+00 1  0.1833745811000000E+02
  0.2113324700000000E+00 0
         # Potential name:  GTH-PBE-Q6  for symbol:  O
         # Potential read from the potential filename: GTH_POTENTIALS
       &END POTENTIAL
     &END KIND
     &KIND H
       BASIS_SET DZVP-MOLOPT-SR-GTH-q1
       POTENTIAL GTH-PBE-q1
       &POTENTIAL
 1
  0.2000000000000000E+00 2 -0.4178900440000000E+01  0.7244633100000000E+00
 0
         # Potential name:  GTH-PBE-Q1  for symbol:  H
         # Potential read from the potential filename: GTH_POTENTIALS
       &END POTENTIAL
     &END KIND
     &KIND N
       BASIS_SET DZVP-MOLOPT-SR-GTH
       POTENTIAL GTH-PBE-q5
       &POTENTIAL
 2 3
  0.2837905100000000E+00 2 -0.1241522559000000E+02  0.1868095920000000E+01
 2
  0.2554050000000000E+00 1  0.1363026257000000E+02
  0.2454945300000000E+00 0
         # Potential name:  GTH-PBE-Q5  for symbol:  N
         # Potential read from the potential filename: GTH_POTENTIALS
       &END POTENTIAL
     &END KIND
     &KIND Ga
       BASIS_SET DZVP-MOLOPT-SR-GTH
       POTENTIAL GTH-PBE-q13
       &POTENTIAL
 2 1 10
  0.4900000000000000E+00 0
 3
  0.4167772300000000E+00 3  0.1047568975000000E+02 -0.4921768140000000E+01  0.8707055900000000E+00
  0.7770178090000000E+01 -0.2248152160000000E+01
  0.1784415450000000E+01
  0.5696265200000000E+00 2  0.1777985340000000E+01  0.1958597600000000E+00
 -0.2317443900000000E+00
  0.2381265000000000E+00 1 -0.1624868022000000E+02
         # Potential name:  GTH-PBE-Q13  for symbol:  GA
         # Potential read from the potential filename: GTH_POTENTIALS
       &END POTENTIAL
     &END KIND
     &TOPOLOGY
       NUMBER_OF_ATOMS  206
       MULTIPLE_UNIT_CELL  1 1 1
     &END TOPOLOGY
   &END SUBSYS
 &END FORCE_EVAL
