 # Version information for this restart file 
 # current date 2019-07-03 09:33:58.635
 # current working dir /lustre04/scratch/rzk/rzk/GaN-carbene/443-adatoms-both-2x2/02-Methanol/03-H-NSur
 # Program compiled at                              Sun Apr  7 00:48:11 EDT 2019
 # Program compiled on                          beluga2.int.ets1.calculquebec.ca
 # Program compiled for                        Beluga-Linux-x86-64-intel-openmpi
 # Source code revision number                                         svn:18619
 &GLOBAL
   PRINT_LEVEL  MEDIUM
   PROJECT_NAME TEST
   RUN_TYPE  GEO_OPT
 &END GLOBAL
 &MOTION
   &GEO_OPT
     MAX_ITER  500
     STEP_START_VAL  123
   &END GEO_OPT
 &END MOTION
 &FORCE_EVAL
   METHOD  QS
   STRESS_TENSOR  ANALYTICAL
   &DFT
     BASIS_SET_FILE_NAME BASIS_MOLOPT
     POTENTIAL_FILE_NAME GTH_POTENTIALS
     UKS  T
     SURFACE_DIPOLE_CORRECTION  T
     SURF_DIP_DIR  Z
     &SCF
       MAX_SCF  80
       EPS_SCF     5.0000000000000004E-06
       &OT  T
         PRECONDITIONER  FULL_ALL
       &END OT
       &OUTER_SCF  T
         OPTIMIZER  NONE
         EPS_SCF     5.0000000000000004E-06
         MAX_SCF  4
       &END OUTER_SCF
       &PRINT
         &RESTART  OFF
           BACKUP_COPIES  1
           &EACH
             JUST_ENERGY  0
             QS_SCF  0
             MD  20
           &END EACH
         &END RESTART
       &END PRINT
     &END SCF
     &QS
       EPS_DEFAULT     1.0000000000000000E-14
       METHOD  GPW
     &END QS
     &MGRID
       NGRIDS  5
       CUTOFF     1.2000000000000000E+03
     &END MGRID
     &XC
       DENSITY_CUTOFF     1.0000000000000000E-10
       GRADIENT_CUTOFF     1.0000000000000000E-10
       TAU_CUTOFF     1.0000000000000000E-10
       &XC_FUNCTIONAL  NO_SHORTCUT
         &PBE  T
         &END PBE
       &END XC_FUNCTIONAL
       &VDW_POTENTIAL
         POTENTIAL_TYPE  PAIR_POTENTIAL
         &PAIR_POTENTIAL
           R_CUTOFF     1.0000000000000004E+01
           TYPE  DFTD3
           PARAMETER_FILE_NAME dftd3.dat
           REFERENCE_FUNCTIONAL PBE
           EPS_CN     9.9999999999999995E-07
           CALCULATE_C9_TERM  T
           REFERENCE_C9_TERM  T
           LONG_RANGE_CORRECTION  F
           VERBOSE_OUTPUT  F
         &END PAIR_POTENTIAL
       &END VDW_POTENTIAL
     &END XC
   &END DFT
   &SUBSYS
     &CELL
       A     1.2864472766435110E+01    0.0000000000000000E+00    0.0000000000000000E+00
       B    -6.4322363581020028E+00    1.1140960178524473E+01    0.0000000000000000E+00
       C     0.0000000000000000E+00    0.0000000000000000E+00    3.2000000000000000E+01
       MULTIPLE_UNIT_CELL  1 1 1
       &CELL_REF
         A     1.2982353780853531E+01    0.0000000000000000E+00    0.0000000000000000E+00
         B    -6.4911768904267628E+00    1.1243048175136114E+01    0.0000000000000000E+00
         C     0.0000000000000000E+00    0.0000000000000000E+00    3.2000000000000000E+01
         MULTIPLE_UNIT_CELL  1 1 1
       &END CELL_REF
     &END CELL
     &COORD
N    6.8566244711352739E-02    1.9401393874140640E+00    2.5022061181452200E+00
Ga    2.4156591903994669E-02   -3.1141889972703785E-02    2.8210438075018813E+00
N    6.7052207081860618E-02   -3.8851977713662451E-02    5.0110965967947418E+00
Ga    6.7790555886876228E-02    1.7930170630943887E+00    5.7750556359516061E+00
N    6.7463144895595073E-02    1.8103974678088017E+00    7.7831740518903292E+00
Ga    6.4559985186997765E-02   -3.4001390433113336E-02    8.4331834405029191E+00
N    6.6452147261990474E-02   -3.6564633314102278E-02    1.0411237099263346E+01
Ga    6.5776931438404046E-02    1.8013320196449569E+00    1.1059883182500485E+01
N    6.5801043536931655E-02    1.7802381923022585E+00    1.3060921400979897E+01
Ga    6.5431502399669175E-02   -4.9142764006147741E-02    1.3853722914882468E+01
N    6.5516617299885477E-02   -5.2018448798351644E-02    1.6061969658750883E+01
Ga    6.5470474999475600E-02    1.9491116011948406E+00    1.6427668854252207E+01
Ga    6.0648903263776893E-02    3.6441052579298860E+00    1.2908327733050899E+00
N   -1.4372047359368052E+00    4.5561874696014639E+00    2.5070666183062684E+00
Ga   -1.6138542046173008E+00    2.7011411383788819E+00    3.2481760743391597E+00
N   -1.5394744377675484E+00    2.7539155398513864E+00    5.2337232145440415E+00
Ga   -1.5663938558104074E+00    4.6165908400682394E+00    5.7907978876044899E+00
N   -1.5490497341142664E+00    4.6133407230859680E+00    7.7895163121593951E+00
Ga   -1.5302134637474636E+00    2.7528998533998554E+00    8.4243575286531716E+00
N   -1.5302782774450865E+00    2.7547658709606546E+00    1.0424102306102569E+01
Ga   -1.5579489818800880E+00    4.6118136329681709E+00    1.1063371198665356E+01
N   -1.5757130287521597E+00    4.6226367753433060E+00    1.3062990585654804E+01
Ga   -1.5314915107162328E+00    2.7524497004482749E+00    1.3607011030389774E+01
N   -1.5490836538245405E+00    2.7422549266159972E+00    1.5584856493797037E+01
Ga   -1.4273736440686655E+00    4.5359679325759128E+00    1.6427907839154607E+01
N    6.6226649129391815E-02    3.6733328330030139E+00    1.7548718554531060E+01
N   -3.1391972664142522E+00    7.5179469867661028E+00    2.5256423278236007E+00
Ga   -3.1351020038135844E+00    5.5193402477760136E+00    2.8619469973988068E+00
N   -3.1508999431921030E+00    5.5395516778184950E+00    5.0225705130080449E+00
Ga   -3.1558123519184114E+00    7.3582881547574805E+00    5.8083448120987091E+00
N   -3.1478901136823363E+00    7.3813957197539537E+00    7.7979362697344250E+00
Ga   -3.1481280544587338E+00    5.5324575386366197E+00    8.4411797706511802E+00
N   -3.1491685523850714E+00    5.5332972876163309E+00    1.0415260749747080E+01
Ga   -3.1516172964601843E+00    7.3736320213243864E+00    1.1064393374924768E+01
N   -3.1510200744441712E+00    7.3536909883905386E+00    1.3056553494126501E+01
Ga   -3.1599286914701996E+00    5.5370635272636850E+00    1.3855297871158326E+01
N   -3.1615098391832532E+00    5.5372812608303539E+00    1.6063016561106078E+01
Ga   -3.1528121604188781E+00    7.5934501025141365E+00    1.6489519760229083E+01
Ga   -3.1607867300141650E+00    9.2582118379907676E+00    1.5107220605935927E+00
N   -4.6512796318986069E+00    1.0117513388948810E+01    2.5158347920391373E+00
Ga   -4.8708951880008566E+00    8.2674909840511539E+00    3.2894067963903977E+00
N   -4.7538849158848118E+00    8.3213062797194901E+00    5.2499457253734567E+00
Ga   -4.7891422498431906E+00    1.0196097930803187E+01    5.7941066251523443E+00
N   -4.7664319780389155E+00    1.0182407401655913E+01    7.7918353772236362E+00
Ga   -4.7504272288984737E+00    8.3268473789739321E+00    8.4319931949826561E+00
N   -4.7470671655629388E+00    8.3249691057013155E+00    1.0425015885587049E+01
Ga   -4.7729833493257852E+00    1.0183888185646117E+01    1.1061222122000629E+01
N   -4.7890870816243432E+00    1.0191454258194122E+01    1.3054674625067936E+01
Ga   -4.7487688322232557E+00    8.3234789551796382E+00    1.3615699502565995E+01
N   -4.7757970016345954E+00    8.3067262228367227E+00    1.5573867765967218E+01
Ga   -4.5823926620091679E+00    1.0069154403808911E+01    1.6489075232469755E+01
N   -3.1425605917473409E+00    9.2500188908058760E+00    1.7632966037094302E+01
N    3.2797967110529189E+00    1.8272657615729564E+00    2.6032600454121595E+00
Ga    3.2756610164994355E+00    9.2775042965476825E-02    3.2859360775892741E+00
N    3.2843778956077938E+00   -3.6667652167038885E-02    5.2463289953980308E+00
Ga    3.2741480911334588E+00    1.8268162018057816E+00    5.8620776135535193E+00
N    3.2813943993572505E+00    1.8207796506384830E+00    7.8396050032392690E+00
Ga    3.2808411220982805E+00   -4.5591561182936884E-02    8.4307037788392005E+00
N    3.2829923439305739E+00   -4.9649533561836906E-02    1.0425339693752163E+01
Ga    3.2817106638484241E+00    1.8192452828396721E+00    1.1019538761476458E+01
N    3.2794084832329227E+00    1.8197408887837296E+00    1.2993701901813688E+01
Ga    3.2807871900510932E+00   -5.1789618950730559E-02    1.3617516617273990E+01
N    3.2750151710373818E+00   -1.6460652990449888E-02    1.5576813095954426E+01
Ga    3.2833353667839615E+00    1.8170242856374461E+00    1.5857745988996683E+01
N    1.5795827622798606E+00    4.5613589219839215E+00    2.4947779804300576E+00
Ga    1.7489209048605232E+00    2.7121462128463536E+00    3.2399830430307537E+00
N    1.6756543101700436E+00    2.7534727422444334E+00    5.2273402620108156E+00
Ga    1.7063747809204626E+00    4.6180927155089790E+00    5.7890856595635194E+00
N    1.6824581984805496E+00    4.6120115050200496E+00    7.7888302243614103E+00
Ga    1.6625817397061553E+00    2.7534813929153814E+00    8.4257826369739277E+00
N    1.6627884641596524E+00    2.7543544961926711E+00    1.0424578490381474E+01
Ga    1.6903269349480980E+00    4.6121727082510429E+00    1.1063028454413770E+01
N    1.7073379476240416E+00    4.6226039346712460E+00    1.3062789816051172E+01
Ga    1.6627554794544064E+00    2.7525908010698990E+00    1.3607533338189530E+01
N    1.6804194547919540E+00    2.7422989497861310E+00    1.5585331552188691E+01
Ga    1.5595176813946534E+00    4.5366370016692725E+00    1.6427769878367741E+01
N    7.8604816251288387E-02    7.3922029802642628E+00    2.6976737567331202E+00
Ga    7.5286803170290961E-02    5.5370755975696433E+00    3.2920884087363165E+00
N    6.8285630609305620E-02    5.5494303327002878E+00    5.2392721823944655E+00
Ga    7.8127080554295153E-02    7.3871575579135138E+00    5.8975906015225625E+00
N    6.6756152104612651E-02    7.3900370194990508E+00    7.8583991658772199E+00
Ga    6.7037495561185614E-02    5.5185375337039906E+00    8.4374485768224368E+00
N    6.5995536900046933E-02    5.5195722661195932E+00    1.0430884226433873E+01
Ga    6.6222088062652201E-02    7.3901832035802508E+00    1.1023624527053947E+01
N    6.5513858136380970E-02    7.3860705299153997E+00    1.2996461127343258E+01
Ga    6.5790135883781353E-02    5.5188096497276762E+00    1.3608607820388109E+01
N    6.5717672594972895E-02    5.5389361079728925E+00    1.5586135634052356E+01
Ga    6.6040091111038368E-02    7.3900568389979941E+00    1.5857597363564521E+01
N   -1.6402850753588460E+00    1.0109596630679237E+01    2.5235921700073316E+00
Ga   -1.4972435169812981E+00    8.2987273341119057E+00    3.3403225090412780E+00
N   -1.5288319779980115E+00    8.3138696614096546E+00    5.2637579741399234E+00
Ga   -1.5119926277184785E+00    1.0202212423408927E+01    5.8036674808938766E+00
N   -1.5314370471358001E+00    1.0181256900808350E+01    7.7946004658447521E+00
Ga   -1.5520099990300598E+00    8.3267237432987482E+00    8.4412247244533916E+00
N   -1.5528413828247898E+00    8.3257362594933326E+00    1.0431151655149835E+01
Ga   -1.5272912681261874E+00    1.0185522973941113E+01    1.1068946259616361E+01
N   -1.5105749795237604E+00    1.0192883560282334E+01    1.3061925216508749E+01
Ga   -1.5548291473670801E+00    8.3239185899040873E+00    1.3618446692601953E+01
N   -1.5261635966301152E+00    8.2995866278233361E+00    1.5577570395715314E+01
Ga   -1.7074290828921961E+00    1.0078286013400142E+01    1.6488311843804567E+01
N    6.5022976446598735E+00    1.9450950810463938E+00    2.5323586877087250E+00
Ga    6.5456931624659163E+00   -4.7937675973457529E-02    2.8416128853735136E+00
N    6.4995530832068660E+00   -3.7223911426384336E-02    5.0134390883523361E+00
Ga    6.5001574790183616E+00    1.7922549400700687E+00    5.7947215738167825E+00
N    6.4984446702156049E+00    1.8077518393081617E+00    7.7922257875283938E+00
Ga    6.5005843949692821E+00   -3.6018283230665790E-02    8.4433590169955686E+00
N    6.4977909423993951E+00   -3.7810500730903383E-02    1.0416426509782085E+01
Ga    6.4982984611270371E+00    1.8019501812674472E+00    1.1065966004112481E+01
N    6.4979273215996667E+00    1.7815021585691972E+00    1.3060286061693779E+01
Ga    6.4981665943342550E+00   -3.8347673449673929E-02    1.3873778439524457E+01
N    6.4983392584797066E+00   -3.8988465643988467E-02    1.6064666089335912E+01
Ga    6.4982462158583232E+00    2.0068232554971326E+00    1.6485688449979794E+01
Ga    6.5060689023292655E+00    3.6800370375712208E+00    1.5393891777315807E+00
N    5.0016042680994071E+00    4.5475793492177266E+00    2.5286038785485094E+00
Ga    4.7828260810290875E+00    2.6935636007697106E+00    3.2916506690144645E+00
N    4.8898357341208296E+00    2.7493959360474811E+00    5.2517853929840852E+00
Ga    4.8650038431504568E+00    4.6227419983691069E+00    5.7988313850655100E+00
N    4.8809722815723546E+00    4.6109135255258407E+00    7.7954084759946110E+00
Ga    4.8994967149924564E+00    2.7530859693145797E+00    8.4299782413071664E+00
N    4.9007631992897229E+00    2.7526345105719026E+00    1.0425340817217695E+01
Ga    4.8762858782687744E+00    4.6123103404980688E+00    1.1060809638927051E+01
N    4.8595283905300253E+00    4.6214687806491357E+00    1.3054535127054299E+01
Ga    4.9012922914425889E+00    2.7539312430066953E+00    1.3616322701051603E+01
N    4.8669495438980022E+00    2.7404695723048942E+00    1.5575946458230508E+01
Ga    5.0681944758022501E+00    4.5022035521098598E+00    1.6486594099815520E+01
N    6.4981433706691423E+00    3.6641214858800297E+00    1.7627013618989597E+01
N    3.2793966546565749E+00    7.5305323784113254E+00    2.4843815393656064E+00
N    3.2867143451269101E+00    5.5382774445676084E+00    5.0229391646205022E+00
Ga    3.2901415500097810E+00    7.3636135575650563E+00    5.7979243096266542E+00
N    3.2807861601080481E+00    7.3808342371902365E+00    7.7955555645869588E+00
Ga    3.2813847084169421E+00    5.5343819813918484E+00    8.4386024541987990E+00
N    3.2813102734900084E+00    5.5327496323245091E+00    1.0414178279677188E+01
Ga    3.2835978907231360E+00    7.3736229265190953E+00    1.1062452287453542E+01
N    3.2824915779384796E+00    7.3533929940590532E+00    1.3055393686929698E+01
Ga    3.2914451621129168E+00    5.5372942229146815E+00    1.3855268186693358E+01
N    3.2932653104166443E+00    5.5376221901669185E+00    1.6062491866263603E+01
Ga    3.2841335376462739E+00    7.5946114800375293E+00    1.6489172114258245E+01
Ga    3.3223316158766312E+00    9.2845800824635241E+00    1.2995922144090610E+00
N    1.7987767023612957E+00    1.0104607992974280E+01    2.4938585304691507E+00
Ga    1.6902885592876313E+00    8.3227689134606901E+00    3.3025292524927821E+00
N    1.6633361278829417E+00    8.3128882566259410E+00    5.2499739544044957E+00
Ga    1.6555246736665548E+00    1.0195435593210844E+01    5.7952477738622274E+00
N    1.6630982780606849E+00    1.0180443435695913E+01    7.7931512561390042E+00
Ga    1.6874724208712848E+00    8.3275384879286474E+00    8.4392397424522319E+00
N    1.6843617629886709E+00    8.3255119254775778E+00    1.0430870321881525E+01
Ga    1.6598314120004758E+00    1.0185522277139793E+01    1.1067340352806829E+01
N    1.6418521097253473E+00    1.0192993038476951E+01    1.3060996231622935E+01
Ga    1.6863815026441076E+00    8.3239551211754552E+00    1.3617457409187937E+01
N    1.6574010034877458E+00    8.2996402282401895E+00    1.5576275128170272E+01
Ga    1.8404840121756874E+00    1.0077525706399447E+01    1.6488174166417149E+01
N    3.2743661817269305E+00    9.2498026159159732E+00    1.7632882894358481E+01
N    9.7244114712068495E+00    1.8129188260155231E+00    2.6210281607832004E+00
Ga    9.7230666947360902E+00    4.6805844974281467E-02    3.2623595772280294E+00
N    9.7141979749853054E+00   -3.3908866200084931E-02    5.2466617607743302E+00
Ga    9.7253936376332213E+00    1.8173534580016919E+00    5.8590503551268380E+00
N    9.7165346813979525E+00    1.8218768235198961E+00    7.8405702553060905E+00
Ga    9.7164899333214656E+00   -4.6369433346149638E-02    8.4253379051930963E+00
N    9.7133419477146088E+00   -4.9537350593609024E-02    1.0423489548653571E+01
Ga    9.7145926198852059E+00    1.8188719742417983E+00    1.1017612888596288E+01
N    9.7166471189014754E+00    1.8199938280141932E+00    1.2992570232474170E+01
Ga    9.7151896569460874E+00   -5.1633923952270656E-02    1.3616091293099485E+01
N    9.7207866003944901E+00   -1.6289925234090806E-02    1.5575166163796501E+01
Ga    9.7126051211275453E+00    1.8165581358962051E+00    1.5857213208659152E+01
N    8.0020697084872978E+00    4.5478217589643419E+00    2.5369342820016367E+00
Ga    8.2244666526945132E+00    2.6840737878002039E+00    3.2961024007216433E+00
N    8.1095480339088990E+00    2.7499936749758969E+00    5.2555039147691289E+00
Ga    8.1309525449309206E+00    4.6205845458510098E+00    5.8000351740395901E+00
N    8.1172771502996337E+00    4.6118441604976006E+00    7.7958898518535333E+00
Ga    8.0992896358613748E+00    2.7524829983564141E+00    8.4288181517291747E+00
N    8.0951281692521615E+00    2.7532198570235544E+00    1.0425010696331679E+01
Ga    8.1199216876390086E+00    4.6121741884057021E+00    1.1061310959756931E+01
N    8.1364090843295429E+00    4.6215922638760611E+00    1.3054811210217842E+01
Ga    8.0949084358486711E+00    2.7537966392355524E+00    1.3615786282398664E+01
N    8.1291878345810957E+00    2.7404419791164885E+00    1.5575479867684759E+01
Ga    7.9279312140721476E+00    4.5020379582941494E+00    1.6486624120763981E+01
N    6.4887660455621958E+00    7.3994961974712794E+00    2.6155415469096495E+00
Ga    6.4946526694246574E+00    5.6625153330808820E+00    3.2968512461224333E+00
N    6.4998740446464023E+00    5.5377180906135965E+00    5.2562494586299842E+00
Ga    6.4911158025627476E+00    7.3984892977774530E+00    5.8674826547354302E+00
N    6.4996981398809144E+00    7.3916788275409013E+00    7.8439656340335739E+00
Ga    6.4987242156439464E+00    5.5243581315016428E+00    8.4309885403795963E+00
N    6.4983707764808507E+00    5.5208797720482332E+00    1.0424779202621352E+01
Ga    6.4977274100166325E+00    7.3903971573839220E+00    1.1019283487478246E+01
N    6.4981572138518970E+00    7.3887692274229204E+00    1.2989988582282706E+01
Ga    6.4979085632334845E+00    5.5201705436724886E+00    1.3614569499492148E+01
N    6.4979966759037096E+00    5.5509342990960029E+00    1.5573007289358902E+01
Ga    6.4974118957636833E+00    7.3880488165429625E+00    1.5853373422970375E+01
N    4.7673272981003505E+00    1.0106249501634016E+01    2.4947208533666880E+00
Ga    4.9540211132192091E+00    8.2840995052785580E+00    3.2566456903849672E+00
N    4.8912862255256453E+00    8.3185243493168386E+00    5.2434968930155641E+00
Ga    4.9143045871649571E+00    1.0190139639469265E+01    5.7849547266840649E+00
N    4.9007678887282680E+00    1.0182091430704610E+01    7.7904268494357902E+00
Ga    4.8815479152029466E+00    8.3274555734395630E+00    8.4280506823786681E+00
N    4.8795051720670353E+00    8.3246391299675082E+00    1.0423632080585113E+01
Ga    4.9042001824005679E+00    1.0183800535938360E+01    1.1059049286274519E+01
N    4.9207267652014393E+00    1.0191523901417495E+01    1.3053373234148090E+01
Ga    4.8800083452496397E+00    8.3235973510681056E+00    1.3614687414097061E+01
N    4.9071297993787528E+00    8.3067941068452900E+00    1.5572553060123804E+01
Ga    4.7125356500133133E+00    1.0068700214251340E+01    1.6488939857473721E+01
Ga    3.2761145043028788E+00    5.5678448240518197E+00    2.8517556345031290E+00
O    1.3392604717041276E-01    7.7045267621799116E+00   -2.8346889762294014E-01
H    5.0295510069324978E-02    7.4237307916103656E+00    1.6637879440726904E+00
C    1.2174398376804825E+00    7.3488597350046883E+00   -7.2837311618324174E-01
H    3.2579854912771373E+00    9.2078422900905430E+00   -2.5077621023808089E-01
H    1.9488349451081675E+00    6.7927497138586785E+00   -1.0476376959516007E-01
H    1.5112060471833944E+00    7.5666875527556146E+00   -1.7750395956073399E+00
     &END COORD
     &KIND C
       BASIS_SET DZVP-MOLOPT-SR-GTH-q4
       POTENTIAL GTH-PBE-q4
       &POTENTIAL
 2 2
  0.3384712400000000E+00 2 -0.8803673979999999E+01  0.1339210850000000E+01
 2
  0.3025757500000000E+00 1  0.9622486650000001E+01
  0.2915069400000000E+00 0
         # Potential name:  GTH-PBE-Q4  for symbol:  C
         # Potential read from the potential filename: GTH_POTENTIALS
       &END POTENTIAL
     &END KIND
     &KIND O
       BASIS_SET DZVP-MOLOPT-SR-GTH-q6
       POTENTIAL GTH-PBE-q6
       &POTENTIAL
 2 4
  0.2445543000000000E+00 2 -0.1666721480000000E+02  0.2487311320000000E+01
 2
  0.2209559200000000E+00 1  0.1833745811000000E+02
  0.2113324700000000E+00 0
         # Potential name:  GTH-PBE-Q6  for symbol:  O
         # Potential read from the potential filename: GTH_POTENTIALS
       &END POTENTIAL
     &END KIND
     &KIND H
       BASIS_SET DZVP-MOLOPT-SR-GTH-q1
       POTENTIAL GTH-PBE-q1
       &POTENTIAL
 1
  0.2000000000000000E+00 2 -0.4178900440000000E+01  0.7244633100000000E+00
 0
         # Potential name:  GTH-PBE-Q1  for symbol:  H
         # Potential read from the potential filename: GTH_POTENTIALS
       &END POTENTIAL
     &END KIND
     &KIND N
       BASIS_SET DZVP-MOLOPT-SR-GTH
       POTENTIAL GTH-PBE-q5
       &POTENTIAL
 2 3
  0.2837905100000000E+00 2 -0.1241522559000000E+02  0.1868095920000000E+01
 2
  0.2554050000000000E+00 1  0.1363026257000000E+02
  0.2454945300000000E+00 0
         # Potential name:  GTH-PBE-Q5  for symbol:  N
         # Potential read from the potential filename: GTH_POTENTIALS
       &END POTENTIAL
     &END KIND
     &KIND Ga
       BASIS_SET DZVP-MOLOPT-SR-GTH
       POTENTIAL GTH-PBE-q13
       &POTENTIAL
 2 1 10
  0.4900000000000000E+00 0
 3
  0.4167772300000000E+00 3  0.1047568975000000E+02 -0.4921768140000000E+01  0.8707055900000000E+00
  0.7770178090000000E+01 -0.2248152160000000E+01
  0.1784415450000000E+01
  0.5696265200000000E+00 2  0.1777985340000000E+01  0.1958597600000000E+00
 -0.2317443900000000E+00
  0.2381265000000000E+00 1 -0.1624868022000000E+02
         # Potential name:  GTH-PBE-Q13  for symbol:  GA
         # Potential read from the potential filename: GTH_POTENTIALS
       &END POTENTIAL
     &END KIND
     &TOPOLOGY
       NUMBER_OF_ATOMS  206
       MULTIPLE_UNIT_CELL  1 1 1
     &END TOPOLOGY
   &END SUBSYS
 &END FORCE_EVAL
