 # Version information for this restart file 
 # current date 2019-07-03 07:43:24.601
 # current working dir /lustre04/scratch/rzk/rzk/GaN-carbene/443-adatoms-both-2x2/02-Methanol/03-H-NSur
 # Program compiled at                              Sun Apr  7 00:48:11 EDT 2019
 # Program compiled on                          beluga2.int.ets1.calculquebec.ca
 # Program compiled for                        Beluga-Linux-x86-64-intel-openmpi
 # Source code revision number                                         svn:18619
 &GLOBAL
   PRINT_LEVEL  MEDIUM
   PROJECT_NAME TEST
   RUN_TYPE  GEO_OPT
 &END GLOBAL
 &MOTION
   &GEO_OPT
     MAX_ITER  500
     STEP_START_VAL  87
   &END GEO_OPT
 &END MOTION
 &FORCE_EVAL
   METHOD  QS
   STRESS_TENSOR  ANALYTICAL
   &DFT
     BASIS_SET_FILE_NAME BASIS_MOLOPT
     POTENTIAL_FILE_NAME GTH_POTENTIALS
     UKS  T
     SURFACE_DIPOLE_CORRECTION  T
     SURF_DIP_DIR  Z
     &SCF
       MAX_SCF  80
       EPS_SCF     5.0000000000000004E-06
       &OT  T
         PRECONDITIONER  FULL_ALL
       &END OT
       &OUTER_SCF  T
         OPTIMIZER  NONE
         EPS_SCF     5.0000000000000004E-06
         MAX_SCF  4
       &END OUTER_SCF
       &PRINT
         &RESTART  OFF
           BACKUP_COPIES  1
           &EACH
             JUST_ENERGY  0
             QS_SCF  0
             MD  20
           &END EACH
         &END RESTART
       &END PRINT
     &END SCF
     &QS
       EPS_DEFAULT     1.0000000000000000E-14
       METHOD  GPW
     &END QS
     &MGRID
       NGRIDS  5
       CUTOFF     1.2000000000000000E+03
     &END MGRID
     &XC
       DENSITY_CUTOFF     1.0000000000000000E-10
       GRADIENT_CUTOFF     1.0000000000000000E-10
       TAU_CUTOFF     1.0000000000000000E-10
       &XC_FUNCTIONAL  NO_SHORTCUT
         &PBE  T
         &END PBE
       &END XC_FUNCTIONAL
       &VDW_POTENTIAL
         POTENTIAL_TYPE  PAIR_POTENTIAL
         &PAIR_POTENTIAL
           R_CUTOFF     1.0000000000000004E+01
           TYPE  DFTD3
           PARAMETER_FILE_NAME dftd3.dat
           REFERENCE_FUNCTIONAL PBE
           EPS_CN     9.9999999999999995E-07
           CALCULATE_C9_TERM  T
           REFERENCE_C9_TERM  T
           LONG_RANGE_CORRECTION  F
           VERBOSE_OUTPUT  F
         &END PAIR_POTENTIAL
       &END VDW_POTENTIAL
     &END XC
   &END DFT
   &SUBSYS
     &CELL
       A     1.2864472766435110E+01    0.0000000000000000E+00    0.0000000000000000E+00
       B    -6.4322363581020028E+00    1.1140960178524473E+01    0.0000000000000000E+00
       C     0.0000000000000000E+00    0.0000000000000000E+00    3.2000000000000000E+01
       MULTIPLE_UNIT_CELL  1 1 1
       &CELL_REF
         A     1.2982353780853531E+01    0.0000000000000000E+00    0.0000000000000000E+00
         B    -6.4911768904267628E+00    1.1243048175136114E+01    0.0000000000000000E+00
         C     0.0000000000000000E+00    0.0000000000000000E+00    3.2000000000000000E+01
         MULTIPLE_UNIT_CELL  1 1 1
       &END CELL_REF
     &END CELL
     &COORD
N    6.8586739531840066E-02    1.9315804589692107E+00    2.5133668195918255E+00
Ga    2.5898974922140054E-02   -4.0333060097787470E-02    2.8325172615240937E+00
N    6.9246509741267212E-02   -4.4748836566907063E-02    5.0229588595724639E+00
Ga    7.0529014679157953E-02    1.7873462495738304E+00    5.7869626865428039E+00
N    7.1874198479429940E-02    1.8064627289040789E+00    7.7944493813225710E+00
Ga    6.9269822025838493E-02   -3.7724182776487272E-02    8.4445994917091785E+00
N    7.1235537654084552E-02   -3.8628246183873234E-02    1.0421664266815934E+01
Ga    7.0918193554815115E-02    1.7998776842679882E+00    1.1069044112735268E+01
N    7.0462247616171800E-02    1.7790835909108047E+00    1.3069950678364117E+01
Ga    7.0400766496450440E-02   -5.0683679971226470E-02    1.3862545282582946E+01
N    6.9175495539504472E-02   -5.3394075867003926E-02    1.6070689143741973E+01
Ga    6.9083271313172434E-02    1.9441793144310999E+00    1.6434714573791368E+01
Ga    5.9598616237868787E-02    3.6359157048302273E+00    1.3056479350276171E+00
N   -1.4369266722375409E+00    4.5471594712440426E+00    2.5179877750442952E+00
Ga   -1.6145072509762894E+00    2.6922092461558580E+00    3.2608863755898199E+00
N   -1.5371446423244375E+00    2.7478554949456862E+00    5.2457727838920647E+00
Ga   -1.5643933123761107E+00    4.6107921026801453E+00    5.8015899519915504E+00
N   -1.5448732767123898E+00    4.6096231052953751E+00    7.8000863590564258E+00
Ga   -1.5260906962046350E+00    2.7492396413551026E+00    8.4344019724939816E+00
N   -1.5253026145571364E+00    2.7528895289233111E+00    1.0433667328025447E+01
Ga   -1.5530512328244281E+00    4.6102233433504480E+00    1.1072174036818719E+01
N   -1.5711101496223912E+00    4.6219328181943977E+00    1.3071447610337248E+01
Ga   -1.5268113767858205E+00    2.7519647059788848E+00    1.3616586797168877E+01
N   -1.5436267979314147E+00    2.7435053105143252E+00    1.5595149199011304E+01
Ga   -1.4276299657369751E+00    4.5384614466416959E+00    1.6434879772771506E+01
N    6.8786210660252367E-02    3.6727419161562116E+00    1.7559366429505822E+01
N   -3.1386428834341831E+00    7.5103326174459193E+00    2.5367001661549673E+00
Ga   -3.1346236781363013E+00    5.5130268970720051E+00    2.8713321459979748E+00
N   -3.1487557148836243E+00    5.5337982071810234E+00    5.0329285058700144E+00
Ga   -3.1535450268777971E+00    7.3529890500414510E+00    5.8180394094178167E+00
N   -3.1437576734355974E+00    7.3775252466421621E+00    7.8077249333026026E+00
Ga   -3.1438276059662460E+00    5.5288310493957438E+00    8.4507678297684006E+00
N   -3.1445036853184569E+00    5.5312866528241535E+00    1.0424291577542595E+01
Ga   -3.1464331192037798E+00    7.3719762877207229E+00    1.1072909120824528E+01
N   -3.1466888636341310E+00    7.3533641251211730E+00    1.3064725357602168E+01
Ga   -3.1554384348492688E+00    5.5372061616671369E+00    1.3863458850495995E+01
N   -3.1584624337069260E+00    5.5380487280817938E+00    1.6071685144101330E+01
Ga   -3.1493474906123127E+00    7.5970638394535905E+00    1.6502132893774903E+01
Ga   -3.1584379133989744E+00    9.2498043598911650E+00    1.5206146219952092E+00
N   -4.6499700918806557E+00    1.0109355477320813E+01    2.5268087812106463E+00
Ga   -4.8694799930463937E+00    8.2605372269421569E+00    3.2996056737193227E+00
N   -4.7517038868566894E+00    8.3159914515183893E+00    5.2605727287156290E+00
Ga   -4.7862774870812617E+00    1.0190842751191580E+01    5.8047561433421366E+00
N   -4.7620366723097565E+00    1.0178734967622116E+01    7.8024409099102563E+00
Ga   -4.7459436832355939E+00    8.3230194458494893E+00    8.4423140106193131E+00
N   -4.7422181684820979E+00    8.3229314919220201E+00    1.0434278580538967E+01
Ga   -4.7676813875733117E+00    1.0181941715218455E+01    1.1070144357274023E+01
N   -4.7842629414800175E+00    1.0190285924711015E+01    1.3063133262512004E+01
Ga   -4.7446161040599826E+00    8.3223356776273256E+00    1.3625325866169964E+01
N   -4.7722617348625542E+00    8.3062508334069634E+00    1.5582411727852829E+01
Ga   -4.5760699238437379E+00    1.0067162669001387E+01    1.6501738721865134E+01
N   -3.1393329686682310E+00    9.2496273993983174E+00    1.7646316428738686E+01
N    3.2802607860609849E+00    1.8193225093897496E+00    2.6123102975988579E+00
Ga    3.2767154546677184E+00    8.4808849251612473E-02    3.2953416156758952E+00
N    3.2867359302981600E+00   -4.1928534438374104E-02    5.2565106763803904E+00
Ga    3.2769556471975108E+00    1.8215998479189470E+00    5.8716403187465209E+00
N    3.2859551342176148E+00    1.8174251101952452E+00    7.8494389543927587E+00
Ga    3.2856049067538899E+00   -4.8953678442123845E-02    8.4406485436485479E+00
N    3.2881202566391297E+00   -5.1197264942329422E-02    1.0434556948489128E+01
Ga    3.2869148011826024E+00    1.8177944343532131E+00    1.1028644602445913E+01
N    3.2840671567479744E+00    1.8192242825723444E+00    1.3002755874360242E+01
Ga    3.2856197195142549E+00   -5.2518708882854953E-02    1.3626841293877630E+01
N    3.2786291121333524E+00   -1.6583582207388151E-02    1.5585157465736099E+01
Ga    3.2865480572982233E+00    1.8164430523636683E+00    1.5865141529864163E+01
N    1.5789738375962172E+00    4.5525711083987082E+00    2.5043536705452305E+00
Ga    1.7505333588162564E+00    2.7033037709071630E+00    3.2502693959891245E+00
N    1.6779671493914432E+00    2.7476865035236067E+00    5.2375317917512660E+00
Ga    1.7094777805313992E+00    4.6126681716984157E+00    5.7985627016175059E+00
N    1.6870619330439880E+00    4.6086062504522021E+00    7.7985787393401518E+00
Ga    1.6671348728020117E+00    2.7504448636792711E+00    8.4357821772559305E+00
N    1.6680328703518463E+00    2.7526674699781610E+00    1.0433835064711745E+01
Ga    1.6954725990732267E+00    4.6106057714645834E+00    1.1072001586829527E+01
N    1.7119011011323784E+00    4.6218816736541495E+00    1.3071299897150796E+01
Ga    1.6672577142858405E+00    2.7521644028381664E+00    1.3617031230622693E+01
N    1.6824323920955671E+00    2.7432177775517119E+00    1.5595637057013827E+01
Ga    1.5655857605974606E+00    4.5382432203368639E+00    1.6434763801332547E+01
N    7.7510966263279218E-02    7.3833197410196059E+00    2.7075468842085226E+00
Ga    7.5892272365270783E-02    5.5287551742863599E+00    3.3023925864600359E+00
N    7.0456489209772252E-02    5.5426220293661261E+00    5.2493447636844381E+00
Ga    8.0581934509881256E-02    7.3809014419793533E+00    5.9066755623459981E+00
N    7.1066558814770545E-02    7.3859849160403606E+00    7.8677896524279314E+00
Ga    7.1577123252071245E-02    5.5147114539882125E+00    8.4473164485269390E+00
N    7.1056804895054490E-02    5.5174780181834695E+00    1.0439964318245732E+01
Ga    7.1396329229611491E-02    7.3882034422851275E+00    1.1032187395028288E+01
N    6.9993341210418725E-02    7.3851787766254784E+00    1.3004662060131420E+01
Ga    7.0370831251116428E-02    5.5184594936056959E+00    1.3617704770253358E+01
N    6.9219307152009621E-02    5.5366553578353361E+00    1.5595638235166371E+01
Ga    6.9457672271232257E-02    7.3895783504823696E+00    1.5864963310982311E+01
N   -1.6395861073594715E+00    1.0101717996953298E+01    2.5350196475219082E+00
Ga   -1.4976789511075126E+00    8.2916357009916624E+00    3.3512374786198427E+00
N   -1.5264448180354750E+00    8.3084297792078683E+00    5.2742630697595994E+00
Ga   -1.5096258203172435E+00    1.0197111570251273E+01    5.8130516104458243E+00
N   -1.5270144730216515E+00    1.0177829818298187E+01    7.8040701499436365E+00
Ga   -1.5476506460984969E+00    8.3232230322938179E+00    8.4502284331219091E+00
N   -1.5475968268158555E+00    8.3238906301870372E+00    1.0439751300695049E+01
Ga   -1.5220659119051931E+00    1.0183824338668405E+01    1.1077527132573332E+01
N   -1.5059336910159891E+00    1.0192122057244740E+01    1.3070212918486826E+01
Ga   -1.5500910905359666E+00    8.3232100008456822E+00    1.3627598760841671E+01
N   -1.5223817960295536E+00    8.2990659188561899E+00    1.5585960012962531E+01
Ga   -1.7064148245881703E+00    1.0076476478615213E+01    1.6501262956445526E+01
N    6.5024393323660394E+00    1.9376001184446328E+00    2.5421560433164854E+00
Ga    6.5455530641503872E+00   -5.5486720535051472E-02    2.8548600121309664E+00
N    6.5017954141058638E+00   -4.2244237764403968E-02    5.0244304486862985E+00
Ga    6.5020309967097711E+00    1.7877049711307140E+00    5.8044579174273201E+00
N    6.5025240936779261E+00    1.8044328496747570E+00    7.8020935461387824E+00
Ga    6.5051951386624296E+00   -3.9461652918312336E-02    8.4525690658067685E+00
N    6.5028936279479144E+00   -3.9298326306654745E-02    1.0425449836410614E+01
Ga    6.5033798121808797E+00    1.8002039052762653E+00    1.1075657140213524E+01
N    6.5024825988201336E+00    1.7802714653445053E+00    1.3069868550862804E+01
Ga    6.5024894899738346E+00   -3.9920768680361499E-02    1.3883616198289813E+01
N    6.5018825628857808E+00   -4.0105296288351064E-02    1.6073347737742925E+01
Ga    6.5016666852523155E+00    2.0039537005251011E+00    1.6495005618845990E+01
Ga    6.5062630977580600E+00    3.6717845768831410E+00    1.5478764817664055E+00
N    5.0016444916476663E+00    4.5411164901425654E+00    2.5366209213108153E+00
Ga    4.7825931521210032E+00    2.6869073954210396E+00    3.2998461357332949E+00
N    4.8918191644837483E+00    2.7444754233530344E+00    5.2605431510710030E+00
Ga    4.8670376539696916E+00    4.6177723936280310E+00    5.8075304975106272E+00
N    4.8851103347420750E+00    4.6072521875972621E+00    7.8049151233242711E+00
Ga    4.9041235011440723E+00    2.7499676929976471E+00    8.4401504431986307E+00
N    4.9060529846885599E+00    2.7509487936648531E+00    1.0434944150797268E+01
Ga    4.8812281647233640E+00    4.6105757775047023E+00    1.1070520268332299E+01
N    4.8644067692394888E+00    4.6204901455141938E+00    1.3063843760144366E+01
Ga    4.9059760904300731E+00    2.7529754227971384E+00    1.3625293506169479E+01
N    4.8710636087428885E+00    2.7404465514456304E+00    1.5585299401963475E+01
Ga    5.0710042834679916E+00    4.5024068379030666E+00    1.6495426368690573E+01
N    6.5014247015127200E+00    3.6630979503175110E+00    1.7635884650179683E+01
N    3.2797514360417819E+00    7.5242239809156990E+00    2.4933648921722695E+00
N    3.2887681799363855E+00    5.5328606820477804E+00    5.0317676159893887E+00
Ga    3.2922431903133149E+00    7.3582159534034970E+00    5.8066451725268964E+00
N    3.2849609288969401E+00    7.3770929910191132E+00    7.8050908124254947E+00
Ga    3.2859311445706081E+00    5.5310673149463305E+00    8.4481769804068882E+00
N    3.2864821686183654E+00    5.5309716752595044E+00    1.0423229136363551E+01
Ga    3.2883613447365034E+00    7.3718584060044003E+00    1.1071804780348263E+01
N    3.2871659526049246E+00    7.3528692590331701E+00    1.3064288145870256E+01
Ga    3.2960243885793590E+00    5.5369165911554523E+00    1.3863060580790687E+01
N    3.2972900035066259E+00    5.5381346640324685E+00    1.6071484094117579E+01
Ga    3.2878288105772833E+00    7.5964550549634087E+00    1.6500794703073257E+01
Ga    3.3218235985808753E+00    9.2775236003808672E+00    1.3110507528931872E+00
N    1.7982117025044688E+00    1.0096968229125414E+01    2.5059379197227449E+00
Ga    1.6897444783637763E+00    8.3146739128859704E+00    3.3116778026877514E+00
N    1.6650922053725226E+00    8.3069721614599921E+00    5.2588927084588057E+00
Ga    1.6579708826825150E+00    1.0189647099534001E+01    5.8048214968221403E+00
N    1.6674298275184356E+00    1.0176669679064526E+01    7.8029836843973772E+00
Ga    1.6919109730058113E+00    8.3238750684547771E+00    8.4487936021180730E+00
N    1.6893442416586735E+00    8.3236912797229365E+00    1.0439941913446793E+01
Ga    1.6644234568690663E+00    1.0183657747503108E+01    1.1076583484483894E+01
N    1.6463318165157426E+00    1.0191995287491487E+01    1.3069940200648938E+01
Ga    1.6903961525128908E+00    8.3228700487387730E+00    1.3626600033864994E+01
N    1.6611423634739582E+00    8.2990428770479863E+00    1.5585127924778197E+01
Ga    1.8443051119252414E+00    1.0076827194641073E+01    1.6499825142351774E+01
N    3.2774248643203743E+00    9.2496089635783481E+00    1.7644462717220797E+01
N    9.7246284071917675E+00    1.8048617641870652E+00    2.6333702808954427E+00
Ga    9.7236317934917267E+00    3.8736733755618535E-02    3.2742861245935382E+00
N    9.7167427298651461E+00   -4.0194025818973779E-02    5.2587398767297824E+00
Ga    9.7269561887399956E+00    1.8115321065210030E+00    5.8689337145548741E+00
N    9.7204184164883340E+00    1.8180364296016713E+00    7.8510422817043475E+00
Ga    9.7206316555058603E+00   -4.9953851185438616E-02    8.4358654693294675E+00
N    9.7181176847236124E+00   -5.1595623917735312E-02    1.0433504751128460E+01
Ga    9.7198692420801773E+00    1.8169852576160830E+00    1.1026952094902599E+01
N    9.7210766899819525E+00    1.8193434456993127E+00    1.3001976704597679E+01
Ga    9.7195001472383620E+00   -5.2520855373614450E-02    1.3625698041107198E+01
N    9.7245483644125379E+00   -1.6383953458121433E-02    1.5584303095088334E+01
Ga    9.7170730842399564E+00    1.8165330318103448E+00    1.5865005105371367E+01
N    8.0024262847399861E+00    4.5409015948564466E+00    2.5463772022854165E+00
Ga    8.2245931329507531E+00    2.6772629306956048E+00    3.3054980724240277E+00
N    8.1111112459198811E+00    2.7447375090811215E+00    5.2655492416469585E+00
Ga    8.1327699930090471E+00    4.6152780092311172E+00    5.8095017007506584E+00
N    8.1213945087310417E+00    4.6080681014908187E+00    7.8057388365800868E+00
Ga    8.1035800271012537E+00    2.7489660766887578E+00    8.4392355356936317E+00
N    8.1002556276643052E+00    2.7510534796134452E+00    1.0434962062965198E+01
Ga    8.1247486854721274E+00    4.6101721270471785E+00    1.1070727521670804E+01
N    8.1408288650837513E+00    4.6207838768158842E+00    1.3064077218058536E+01
Ga    8.0990624677215131E+00    2.7530236271366881E+00    1.3624951717400720E+01
N    8.1324903803144917E+00    2.7404755817138278E+00    1.5585145282174548E+01
Ga    7.9320965894540221E+00    4.5023094172640086E+00    1.6495565989805790E+01
N    6.4895441685127997E+00    7.3935352302972071E+00    2.6265078302439906E+00
Ga    6.4951374449522996E+00    5.6562529162949673E+00    3.3051441811336408E+00
N    6.5017438809696753E+00    5.5323600494229384E+00    5.2654262630192470E+00
Ga    6.4933510742403611E+00    7.3930374377286263E+00    5.8781984329258830E+00
N    6.5037663869759115E+00    7.3876668260380729E+00    7.8547379724117850E+00
Ga    6.5029945697235547E+00    5.5203271773724509E+00    8.4418624349855733E+00
N    6.5032183476449772E+00    5.5185332406775309E+00    1.0434589398946807E+01
Ga    6.5026195527684028E+00    7.3882377987295369E+00    1.1028694455832451E+01
N    6.5025124695978000E+00    7.3876549897482526E+00    1.2998663950756679E+01
Ga    6.5024472314959292E+00    5.5196547029276752E+00    1.3623652486508520E+01
N    6.5017390495927714E+00    5.5498766458828284E+00    1.5582348270761093E+01
Ga    6.5017721414364793E+00    7.3878177240983538E+00    1.5861820677735794E+01
N    4.7682062716123559E+00    1.0098630598805828E+01    2.5057677777061200E+00
Ga    4.9548214813937159E+00    8.2771693359042970E+00    3.2675952060298843E+00
N    4.8934199668670448E+00    8.3134747564802556E+00    5.2547347620961471E+00
Ga    4.9169234063552345E+00    1.0184791238458921E+01    5.7972567019952717E+00
N    4.9052325278199129E+00    1.0178486549175036E+01    7.8021386700721900E+00
Ga    4.8854199373507532E+00    8.3236235973642962E+00    8.4387643904335299E+00
N    4.8842774449806816E+00    8.3224607879310106E+00    1.0433279120664372E+01
Ga    4.9087486707220673E+00    1.0181466399233271E+01    1.1068664753175433E+01
N    4.9253097416580163E+00    1.0190325452716502E+01    1.3062648427543712E+01
Ga    4.8847688934078324E+00    8.3223520140999288E+00    1.3624683540951713E+01
N    4.9111961450193853E+00    8.3061708983520841E+00    1.5582129170409637E+01
Ga    4.7148359681556569E+00    1.0067539862857553E+01    1.6500605948578624E+01
Ga    3.2756433644692375E+00    5.5611769141668486E+00    2.8568316480248255E+00
O    4.9173413790005839E-03    7.7436661744185731E+00   -2.6618500170701409E-01
H    3.7612450511766753E-02    7.4129557159286206E+00    1.6754128119885825E+00
C    1.0809980155913173E+00    7.4602268722090228E+00   -7.7339481255184295E-01
H    3.2551558394077298E+00    9.2140031997397625E+00   -2.3873272819658103E-01
H    1.8463832447795916E+00    6.8765650456530230E+00   -2.2463701228013314E-01
H    1.3343547583289743E+00    7.7725730437541660E+00   -1.8058492352709468E+00
     &END COORD
     &KIND C
       BASIS_SET DZVP-MOLOPT-SR-GTH-q4
       POTENTIAL GTH-PBE-q4
       &POTENTIAL
 2 2
  0.3384712400000000E+00 2 -0.8803673979999999E+01  0.1339210850000000E+01
 2
  0.3025757500000000E+00 1  0.9622486650000001E+01
  0.2915069400000000E+00 0
         # Potential name:  GTH-PBE-Q4  for symbol:  C
         # Potential read from the potential filename: GTH_POTENTIALS
       &END POTENTIAL
     &END KIND
     &KIND O
       BASIS_SET DZVP-MOLOPT-SR-GTH-q6
       POTENTIAL GTH-PBE-q6
       &POTENTIAL
 2 4
  0.2445543000000000E+00 2 -0.1666721480000000E+02  0.2487311320000000E+01
 2
  0.2209559200000000E+00 1  0.1833745811000000E+02
  0.2113324700000000E+00 0
         # Potential name:  GTH-PBE-Q6  for symbol:  O
         # Potential read from the potential filename: GTH_POTENTIALS
       &END POTENTIAL
     &END KIND
     &KIND H
       BASIS_SET DZVP-MOLOPT-SR-GTH-q1
       POTENTIAL GTH-PBE-q1
       &POTENTIAL
 1
  0.2000000000000000E+00 2 -0.4178900440000000E+01  0.7244633100000000E+00
 0
         # Potential name:  GTH-PBE-Q1  for symbol:  H
         # Potential read from the potential filename: GTH_POTENTIALS
       &END POTENTIAL
     &END KIND
     &KIND N
       BASIS_SET DZVP-MOLOPT-SR-GTH
       POTENTIAL GTH-PBE-q5
       &POTENTIAL
 2 3
  0.2837905100000000E+00 2 -0.1241522559000000E+02  0.1868095920000000E+01
 2
  0.2554050000000000E+00 1  0.1363026257000000E+02
  0.2454945300000000E+00 0
         # Potential name:  GTH-PBE-Q5  for symbol:  N
         # Potential read from the potential filename: GTH_POTENTIALS
       &END POTENTIAL
     &END KIND
     &KIND Ga
       BASIS_SET DZVP-MOLOPT-SR-GTH
       POTENTIAL GTH-PBE-q13
       &POTENTIAL
 2 1 10
  0.4900000000000000E+00 0
 3
  0.4167772300000000E+00 3  0.1047568975000000E+02 -0.4921768140000000E+01  0.8707055900000000E+00
  0.7770178090000000E+01 -0.2248152160000000E+01
  0.1784415450000000E+01
  0.5696265200000000E+00 2  0.1777985340000000E+01  0.1958597600000000E+00
 -0.2317443900000000E+00
  0.2381265000000000E+00 1 -0.1624868022000000E+02
         # Potential name:  GTH-PBE-Q13  for symbol:  GA
         # Potential read from the potential filename: GTH_POTENTIALS
       &END POTENTIAL
     &END KIND
     &TOPOLOGY
       NUMBER_OF_ATOMS  206
       MULTIPLE_UNIT_CELL  1 1 1
     &END TOPOLOGY
   &END SUBSYS
 &END FORCE_EVAL
