 # Version information for this restart file 
 # current date 2019-07-03 09:39:05.696
 # current working dir /lustre04/scratch/rzk/rzk/GaN-carbene/443-adatoms-both-2x2/02-Methanol/03-H-NSur
 # Program compiled at                              Sun Apr  7 00:48:11 EDT 2019
 # Program compiled on                          beluga2.int.ets1.calculquebec.ca
 # Program compiled for                        Beluga-Linux-x86-64-intel-openmpi
 # Source code revision number                                         svn:18619
 &GLOBAL
   PRINT_LEVEL  MEDIUM
   PROJECT_NAME TEST
   RUN_TYPE  GEO_OPT
 &END GLOBAL
 &MOTION
   &GEO_OPT
     MAX_ITER  500
     STEP_START_VAL  125
   &END GEO_OPT
 &END MOTION
 &FORCE_EVAL
   METHOD  QS
   STRESS_TENSOR  ANALYTICAL
   &DFT
     BASIS_SET_FILE_NAME BASIS_MOLOPT
     POTENTIAL_FILE_NAME GTH_POTENTIALS
     UKS  T
     SURFACE_DIPOLE_CORRECTION  T
     SURF_DIP_DIR  Z
     &SCF
       MAX_SCF  80
       EPS_SCF     5.0000000000000004E-06
       &OT  T
         PRECONDITIONER  FULL_ALL
       &END OT
       &OUTER_SCF  T
         OPTIMIZER  NONE
         EPS_SCF     5.0000000000000004E-06
         MAX_SCF  4
       &END OUTER_SCF
       &PRINT
         &RESTART  OFF
           BACKUP_COPIES  1
           &EACH
             JUST_ENERGY  0
             QS_SCF  0
             MD  20
           &END EACH
         &END RESTART
       &END PRINT
     &END SCF
     &QS
       EPS_DEFAULT     1.0000000000000000E-14
       METHOD  GPW
     &END QS
     &MGRID
       NGRIDS  5
       CUTOFF     1.2000000000000000E+03
     &END MGRID
     &XC
       DENSITY_CUTOFF     1.0000000000000000E-10
       GRADIENT_CUTOFF     1.0000000000000000E-10
       TAU_CUTOFF     1.0000000000000000E-10
       &XC_FUNCTIONAL  NO_SHORTCUT
         &PBE  T
         &END PBE
       &END XC_FUNCTIONAL
       &VDW_POTENTIAL
         POTENTIAL_TYPE  PAIR_POTENTIAL
         &PAIR_POTENTIAL
           R_CUTOFF     1.0000000000000004E+01
           TYPE  DFTD3
           PARAMETER_FILE_NAME dftd3.dat
           REFERENCE_FUNCTIONAL PBE
           EPS_CN     9.9999999999999995E-07
           CALCULATE_C9_TERM  T
           REFERENCE_C9_TERM  T
           LONG_RANGE_CORRECTION  F
           VERBOSE_OUTPUT  F
         &END PAIR_POTENTIAL
       &END VDW_POTENTIAL
     &END XC
   &END DFT
   &SUBSYS
     &CELL
       A     1.2864472766435110E+01    0.0000000000000000E+00    0.0000000000000000E+00
       B    -6.4322363581020028E+00    1.1140960178524473E+01    0.0000000000000000E+00
       C     0.0000000000000000E+00    0.0000000000000000E+00    3.2000000000000000E+01
       MULTIPLE_UNIT_CELL  1 1 1
       &CELL_REF
         A     1.2982353780853531E+01    0.0000000000000000E+00    0.0000000000000000E+00
         B    -6.4911768904267628E+00    1.1243048175136114E+01    0.0000000000000000E+00
         C     0.0000000000000000E+00    0.0000000000000000E+00    3.2000000000000000E+01
         MULTIPLE_UNIT_CELL  1 1 1
       &END CELL_REF
     &END CELL
     &COORD
N    6.8188962175269083E-02    1.9401665850770253E+00    2.5033187424074419E+00
Ga    2.3847321891256334E-02   -3.1850447010440805E-02    2.8216102054895762E+00
N    6.6919571988208165E-02   -3.8552523322950560E-02    5.0112700528917680E+00
Ga    6.7863604711590433E-02    1.7935309114858653E+00    5.7758375565251807E+00
N    6.7646009258303247E-02    1.8111513455224171E+00    7.7833998620965765E+00
Ga    6.4734405999972364E-02   -3.3395261337061603E-02    8.4326866671381371E+00
N    6.6342988936880898E-02   -3.5929542027053611E-02    1.0410540915634373E+01
Ga    6.5865159326330136E-02    1.8021575159783840E+00    1.1058772165119700E+01
N    6.5694995777092299E-02    1.7809463743029281E+00    1.3059900418506571E+01
Ga    6.5558339764211146E-02   -4.8882826950003698E-02    1.3852179271506097E+01
N    6.5740363842648961E-02   -5.2502925178082513E-02    1.6060889886057307E+01
Ga    6.5384698110933032E-02    1.9480443647413948E+00    1.6427126727973953E+01
Ga    5.9979490846937156E-02    3.6439589587873793E+00    1.2947334247028863E+00
N   -1.4368605391859164E+00    4.5557729202943475E+00    2.5079581448020090E+00
Ga   -1.6153774666888931E+00    2.7003851906514069E+00    3.2499896650044087E+00
N   -1.5394098067213078E+00    2.7544247038101886E+00    5.2344980110206505E+00
Ga   -1.5664164438318990E+00    4.6171413009962370E+00    5.7916998098076400E+00
N   -1.5489723125401791E+00    4.6141506405314878E+00    7.7899647956753917E+00
Ga   -1.5302379016082681E+00    2.7536194732928805E+00    8.4242463721113499E+00
N   -1.5303565061572104E+00    2.7555747744889749E+00    1.0423708516416619E+01
Ga   -1.5578737765711450E+00    4.6127000563349752E+00    1.1062213289280349E+01
N   -1.5754003607198812E+00    4.6230111234356901E+00    1.3061620120338997E+01
Ga   -1.5317967545621576E+00    2.7530453251678573E+00    1.3605804736424213E+01
N   -1.5491669723402657E+00    2.7423058903967523E+00    1.5583799835510359E+01
Ga   -1.4273696799826898E+00    4.5358629318355890E+00    1.6427197010220677E+01
N    6.5721698607893966E-02    3.6716735553007420E+00    1.7550376947167887E+01
N   -3.1392089404897812E+00    7.5177908537157094E+00    2.5252871327965867E+00
Ga   -3.1359531300988852E+00    5.5194429581711431E+00    2.8621501388386896E+00
N   -3.1508716400003736E+00    5.5399774764356779E+00    5.0231575863286055E+00
Ga   -3.1557528039715770E+00    7.3590501720319272E+00    5.8083905248156329E+00
N   -3.1478650131742296E+00    7.3821832627384047E+00    7.7976402835850127E+00
Ga   -3.1481961323245007E+00    5.5333662581828591E+00    8.4406685488199500E+00
N   -3.1492689277605508E+00    5.5339637795009731E+00    1.0414452129173609E+01
Ga   -3.1515473344494733E+00    7.3742998528902604E+00    1.1063213712063213E+01
N   -3.1511363213048971E+00    7.3544974501255140E+00    1.3055106850826665E+01
Ga   -3.1596074575526689E+00    5.5377332075531980E+00    1.3852781290293651E+01
N   -3.1609542240223631E+00    5.5378993920470885E+00    1.6061372190231385E+01
Ga   -3.1528060276958025E+00    7.5951395053030222E+00    1.6489690302502986E+01
Ga   -3.1605433591843677E+00    9.2580888994939876E+00    1.5098067838005593E+00
N   -4.6514503328591275E+00    1.0117308141805909E+01    2.5152730969702226E+00
Ga   -4.8708885081133921E+00    8.2675150666611028E+00    3.2889500865494901E+00
N   -4.7538215839167659E+00    8.3217569219379559E+00    5.2494600108597833E+00
Ga   -4.7888521245757474E+00    1.0196449517826297E+01    5.7937854926338490E+00
N   -4.7663337806630564E+00    1.0183144341879657E+01    7.7912813285258702E+00
Ga   -4.7504844595148477E+00    8.3275881393196958E+00    8.4312484910712850E+00
N   -4.7471314742589268E+00    8.3254870160811905E+00    1.0424178264080291E+01
Ga   -4.7729240505185313E+00    1.0184459745218815E+01    1.1060159371293153E+01
N   -4.7889115049591346E+00    1.0191482268865320E+01    1.3053651654172917E+01
Ga   -4.7489302216428015E+00    8.3235182591681696E+00    1.3614782831939515E+01
N   -4.7760513070296966E+00    8.3063499317831706E+00    1.5572395629259351E+01
Ga   -4.5809290502894049E+00    1.0067970138962158E+01    1.6489523421513134E+01
N   -3.1429360323702906E+00    9.2494129907916207E+00    1.7634384015577691E+01
N    3.2800079592228943E+00    1.8271371073845544E+00    2.6029516185465047E+00
Ga    3.2755418937222571E+00    9.2420804965331893E-02    3.2857173876012005E+00
N    3.2844372814821852E+00   -3.6132621597651952E-02    5.2461895909784149E+00
Ga    3.2746070282008644E+00    1.8273308447535610E+00    5.8622965440521924E+00
N    3.2816846092010774E+00    1.8217006873805455E+00    7.8395241551231241E+00
Ga    3.2808719762506025E+00   -4.4732868276509921E-02    8.4302270710909006E+00
N    3.2830760530044567E+00   -4.8843045912193170E-02    1.0424687552512685E+01
Ga    3.2819731858734817E+00    1.8200465858347790E+00    1.1018609994189426E+01
N    3.2793955476805392E+00    1.8201005913432122E+00    1.2992704159992394E+01
Ga    3.2808573527220046E+00   -5.1560807123298157E-02    1.3616320364122689E+01
N    3.2751468039042755E+00   -1.6605870106882126E-02    1.5575177501289296E+01
Ga    3.2825051175262869E+00    1.8164358442787918E+00    1.5855902727154650E+01
N    1.5787234695345616E+00    4.5607597453228168E+00    2.4950856733452658E+00
Ga    1.7499586179233697E+00    2.7113648459084363E+00    3.2412912947978945E+00
N    1.6757017829384133E+00    2.7539555743839532E+00    5.2277516113960534E+00
Ga    1.7064562738971174E+00    4.6186262130784019E+00    5.7898513608653168E+00
N    1.6827819853370016E+00    4.6128156165484082E+00    7.7891643391377379E+00
Ga    1.6628782781397931E+00    2.7542331588800186E+00    8.4256397258243325E+00
N    1.6630105664630372E+00    2.7552449474850094E+00    1.0424092388333595E+01
Ga    1.6905523920739174E+00    4.6130345226869842E+00    1.1062054736758464E+01
N    1.7068158897887924E+00    4.6229173963546586E+00    1.3061595698109302E+01
Ga    1.6627485747421034E+00    2.7531873718691489E+00    1.3606152081362094E+01
N    1.6802053407310111E+00    2.7425151393201594E+00    1.5583962498470274E+01
Ga    1.5589590648038238E+00    4.5362880702201362E+00    1.6427150542519655E+01
N    7.8309108021584334E-02    7.3932770310908129E+00    2.6983250100263643E+00
Ga    7.5278576223630655E-02    5.5385979594791710E+00    3.2930161441411760E+00
N    6.8292770187504306E-02    5.5496742991221391E+00    5.2395019511556384E+00
Ga    7.8015648935611692E-02    7.3876823831533187E+00    5.8978654974969729E+00
N    6.6828158073198862E-02    7.3907075006125558E+00    7.8584251544904866E+00
Ga    6.7233717755375150E-02    5.5192175248648301E+00    8.4371174364200652E+00
N    6.6224189886367454E-02    5.5203732975060111E+00    1.0430224579149572E+01
Ga    6.6445325806393618E-02    7.3908883240744059E+00    1.1022892170416203E+01
N    6.5480084999973515E-02    7.3864189389596238E+00    1.2995317166369961E+01
Ga    6.5711274907593195E-02    5.5193885216598142E+00    1.3607199262345672E+01
N    6.5745305143571589E-02    5.5384863000389650E+00    1.5584703971730789E+01
Ga    6.5575583582495184E-02    7.3897881788818616E+00    1.5855813233633004E+01
N   -1.6403309241184558E+00    1.0109854420908503E+01    2.5231091607638123E+00
Ga   -1.4980374127555289E+00    8.2994645970705445E+00    3.3406741691017148E+00
N   -1.5288128293065391E+00    8.3144863615979023E+00    5.2638162842141476E+00
Ga   -1.5119424901037593E+00    1.0202867102890465E+01    5.8037771254883639E+00
N   -1.5313274936761612E+00    1.0182098897160364E+01    7.7944105022663894E+00
Ga   -1.5520213859172114E+00    8.3275490488746513E+00    8.4407397852159267E+00
N   -1.5525825197778849E+00    8.3262808973813787E+00    1.0430395107795983E+01
Ga   -1.5270996485584867E+00    1.0186172674620066E+01    1.1067932541972397E+01
N   -1.5108360548107713E+00    1.0192877324842536E+01    1.3060818428731952E+01
Ga   -1.5547607613965384E+00    8.3239993723548888E+00    1.3617253292039269E+01
N   -1.5262344219681183E+00    8.2995254556299276E+00    1.5575872885871334E+01
Ga   -1.7091855123004174E+00    1.0076941810528725E+01    1.6488498847844525E+01
N    6.5019969736320178E+00    1.9450932714350369E+00    2.5321085144360649E+00
Ga    6.5450696151127499E+00   -4.7313021425753256E-02    2.8419005502774555E+00
N    6.4994257219288585E+00   -3.6430689293813129E-02    5.0141693138695329E+00
Ga    6.5001060271932083E+00    1.7929679650775692E+00    5.7952298913200853E+00
N    6.4985586637347881E+00    1.8088482883433188E+00    7.7926338611872490E+00
Ga    6.5006790071424563E+00   -3.4994381684110905E-02    8.4430100719624637E+00
N    6.4981245236691274E+00   -3.6907946586659052E-02    1.0415929798581409E+01
Ga    6.4983263028937941E+00    1.8027974426611293E+00    1.1065101109312671E+01
N    6.4978141327474273E+00    1.7820692400567737E+00    1.3059306320863847E+01
Ga    6.4979876653475399E+00   -3.8404821747939917E-02    1.3871851897228879E+01
N    6.4976819763060787E+00   -4.0431917334438496E-02    1.6062173483595515E+01
Ga    6.4977464662919582E+00    2.0031636813256957E+00    1.6480731021247465E+01
Ga    6.5058264269839645E+00    3.6797865461822692E+00    1.5358250291321882E+00
N    5.0012472390061085E+00    4.5477235093593515E+00    2.5283680835173841E+00
Ga    4.7832785484092888E+00    2.6939016470571189E+00    3.2911895941347868E+00
N    4.8900040064994403E+00    2.7499744500680983E+00    5.2514445168280082E+00
Ga    4.8652290212640628E+00    4.6230514866466059E+00    5.7992225547913385E+00
N    4.8811124948670255E+00    4.6117460246223043E+00    7.7957001411367974E+00
Ga    4.8996830981576114E+00    2.7540243069801211E+00    8.4298792040313302E+00
N    4.9009419801287013E+00    2.7536423419624798E+00    1.0425021990453127E+01
Ga    4.8763964133886573E+00    4.6132030595069784E+00    1.1059892814085574E+01
N    4.8596459447410441E+00    4.6219109157138565E+00    1.3053519734169591E+01
Ga    4.9010939206133752E+00    2.7544155499935639E+00    1.3614170210057869E+01
N    4.8665667282132947E+00    2.7404830013956509E+00    1.5574412361719920E+01
Ga    5.0659175481157028E+00    4.5030568569744505E+00    1.6481721877890429E+01
N    6.4978664108750364E+00    3.6628719710811004E+00    1.7621320833465234E+01
N    3.2787089108266487E+00    7.5308116577795365E+00    2.4845503984143851E+00
N    3.2866866653744928E+00    5.5385729444622882E+00    5.0234305301487980E+00
Ga    3.2902687911625703E+00    7.3641235144048522E+00    5.7982970427960234E+00
N    3.2811499725215469E+00    7.3814571805944684E+00    7.7957056009689243E+00
Ga    3.2817075433123586E+00    5.5351810774425552E+00    8.4383402763468336E+00
N    3.2815961152302204E+00    5.5335789030365987E+00    1.0413517873476341E+01
Ga    3.2837529124098488E+00    7.3742578789041655E+00    1.1061864706567015E+01
N    3.2825034294114688E+00    7.3543299992971747E+00    1.3054673833257102E+01
Ga    3.2910004007346330E+00    5.5377700967910197E+00    1.3852454204444944E+01
N    3.2923220434936047E+00    5.5378182884983191E+00    1.6060692287560997E+01
Ga    3.2837912639628226E+00    7.5953214489577592E+00    1.6488578825170134E+01
Ga    3.3200335593796191E+00    9.2856424512445255E+00    1.3001645113048494E+00
N    1.7982672204288186E+00    1.0104696700618423E+01    2.4948706020435782E+00
Ga    1.6900600348448742E+00    8.3229598281391635E+00    3.3042068645726572E+00
N    1.6633763968224258E+00    8.3134587867244925E+00    5.2509058817094516E+00
Ga    1.6553409312262193E+00    1.0196211813043382E+01    5.7956798188367538E+00
N    1.6633264718237779E+00    1.0181363966375276E+01    7.7934018652828971E+00
Ga    1.6877428189183441E+00    8.3282972637970136E+00    8.4388023345761383E+00
N    1.6845942900074753E+00    8.3260826381839710E+00    1.0430238143941393E+01
Ga    1.6599271017172141E+00    1.0186076343458529E+01    1.1066762844249658E+01
N    1.6420908265877410E+00    1.0193009001743428E+01    1.3060380399358426E+01
Ga    1.6860272103351803E+00    8.3240095849711242E+00    1.3616343775742457E+01
N    1.6570882444477235E+00    8.2992867077120067E+00    1.5575080450715372E+01
Ga    1.8407773055550525E+00    1.0076595917024566E+01    1.6487591659605538E+01
N    3.2741587475209784E+00    9.2493281701522321E+00    1.7633165119765707E+01
N    9.7236270020781532E+00    1.8131868252796270E+00    2.6208337565257134E+00
Ga    9.7226654056909769E+00    4.7273154780929749E-02    3.2631031793627967E+00
N    9.7141887516297771E+00   -3.3321262587584950E-02    5.2470313511078848E+00
Ga    9.7249192283669892E+00    1.8180510708097453E+00    5.8594399547018252E+00
N    9.7165146157001701E+00    1.8227235612882522E+00    7.8406423703510928E+00
Ga    9.7167407961375023E+00   -4.5432885676100723E-02    8.4253229677951911E+00
N    9.7134608245816185E+00   -4.8825337287046591E-02    1.0423259425727110E+01
Ga    9.7144763783423329E+00    1.8196637801250348E+00    1.1016788567727808E+01
N    9.7164318586311840E+00    1.8204392324430811E+00    1.2991513816008373E+01
Ga    9.7149609082647110E+00   -5.1042739523760129E-02    1.3615186943573894E+01
N    9.7204019974799767E+00   -1.6469105603333943E-02    1.5574416407484104E+01
Ga    9.7127417234781763E+00    1.8163404008034589E+00    1.5855595456699138E+01
N    8.0017744980224581E+00    4.5478638135330920E+00    2.5365274887289915E+00
Ga    8.2233530884367738E+00    2.6846042534548591E+00    3.2958105704229186E+00
N    8.1092157073569773E+00    2.7505372683370872E+00    5.2553423850067462E+00
Ga    8.1307281629236918E+00    4.6209300130461752E+00    5.8003890607549744E+00
N    8.1173073985893982E+00    4.6126704806719259E+00    7.7961394096853835E+00
Ga    8.0994091975525233E+00    2.7534170034517169E+00    8.4287878627980657E+00
N    8.0951401771834366E+00    2.7540931940353977E+00    1.0424787000717261E+01
Ga    8.1198209678056763E+00    4.6130590345045102E+00    1.1060177668655315E+01
N    8.1362386611538415E+00    4.6221356639256461E+00    1.3053586501891886E+01
Ga    8.0948595969345352E+00    2.7543233412208679E+00    1.3613768886399113E+01
N    8.1285996862355887E+00    2.7404831001871526E+00    1.5574230707207619E+01
Ga    7.9296227930275380E+00    4.5030390133677871E+00    1.6481751180561208E+01
N    6.4887652404568934E+00    7.3995168939604392E+00    2.6147646279442478E+00
Ga    6.4945935022887511E+00    5.6622448288332334E+00    3.2960176685270395E+00
N    6.4998138387447266E+00    5.5380170931126447E+00    5.2556775814484507E+00
Ga    6.4911774829136961E+00    7.3988306402861435E+00    5.8668429933738260E+00
N    6.4997949787319627E+00    7.3923876765679282E+00    7.8433331895585976E+00
Ga    6.4988489548554371E+00    5.5252945603577359E+00    8.4305657440570894E+00
N    6.4983503948589778E+00    5.5216523826949935E+00    1.0424214891616495E+01
Ga    6.4977358180870652E+00    7.3909785121761900E+00    1.1018275721684752E+01
N    6.4981118809838394E+00    7.3891650029650213E+00    1.2988733841292449E+01
Ga    6.4978271605982902E+00    5.5208967659745181E+00    1.3612490661104099E+01
N    6.4976152812622576E+00    5.5507248557258917E+00    1.5571545765216960E+01
Ga    6.4974727252610434E+00    7.3884600900746316E+00    1.5851842113961153E+01
N    4.7665123826182576E+00    1.0106416886012513E+01    2.4945791543393097E+00
Ga    4.9540312678412928E+00    8.2842228535898101E+00    3.2558917661937339E+00
N    4.8913130960488722E+00    8.3189252899101938E+00    5.2429034451063776E+00
Ga    4.9140438971035127E+00    1.0190347232951074E+01    5.7850545164697866E+00
N    4.9008601161598078E+00    1.0182736400011409E+01    7.7902818889994538E+00
Ga    4.8819091401037040E+00    8.3281232481230703E+00    8.4277458761257122E+00
N    4.8795579426018421E+00    8.3252486602105904E+00    1.0423165568400790E+01
Ga    4.9042561787565031E+00    1.0184321272393724E+01    1.1058488585107249E+01
N    4.9204193257962086E+00    1.0191660526880723E+01    1.3052978533634871E+01
Ga    4.8802622378617810E+00    8.3236136610780100E+00    1.3613840506263937E+01
N    4.9070910292219114E+00    8.3063184423854555E+00    1.5571579164903047E+01
Ga    4.7116331933651212E+00    1.0067862447239346E+01    1.6488705363659129E+01
Ga    3.2765033811867590E+00    5.5679479662339944E+00    2.8521297795103950E+00
O    1.3434829235150864E-01    7.6983792297995848E+00   -2.8679550690268801E-01
H    5.0532902886330847E-02    7.4243116127981210E+00    1.6646015125948379E+00
C    1.2194618432560784E+00    7.3361677295004792E+00   -7.2418813784965574E-01
H    3.2544676452340489E+00    9.2103473936798945E+00   -2.5075138823883936E-01
H    1.9463568816826782E+00    6.7824494506762827E+00   -9.4156614281396808E-02
H    1.5183469266352929E+00    7.5460353927002712E+00   -1.7712882678926292E+00
     &END COORD
     &KIND C
       BASIS_SET DZVP-MOLOPT-SR-GTH-q4
       POTENTIAL GTH-PBE-q4
       &POTENTIAL
 2 2
  0.3384712400000000E+00 2 -0.8803673979999999E+01  0.1339210850000000E+01
 2
  0.3025757500000000E+00 1  0.9622486650000001E+01
  0.2915069400000000E+00 0
         # Potential name:  GTH-PBE-Q4  for symbol:  C
         # Potential read from the potential filename: GTH_POTENTIALS
       &END POTENTIAL
     &END KIND
     &KIND O
       BASIS_SET DZVP-MOLOPT-SR-GTH-q6
       POTENTIAL GTH-PBE-q6
       &POTENTIAL
 2 4
  0.2445543000000000E+00 2 -0.1666721480000000E+02  0.2487311320000000E+01
 2
  0.2209559200000000E+00 1  0.1833745811000000E+02
  0.2113324700000000E+00 0
         # Potential name:  GTH-PBE-Q6  for symbol:  O
         # Potential read from the potential filename: GTH_POTENTIALS
       &END POTENTIAL
     &END KIND
     &KIND H
       BASIS_SET DZVP-MOLOPT-SR-GTH-q1
       POTENTIAL GTH-PBE-q1
       &POTENTIAL
 1
  0.2000000000000000E+00 2 -0.4178900440000000E+01  0.7244633100000000E+00
 0
         # Potential name:  GTH-PBE-Q1  for symbol:  H
         # Potential read from the potential filename: GTH_POTENTIALS
       &END POTENTIAL
     &END KIND
     &KIND N
       BASIS_SET DZVP-MOLOPT-SR-GTH
       POTENTIAL GTH-PBE-q5
       &POTENTIAL
 2 3
  0.2837905100000000E+00 2 -0.1241522559000000E+02  0.1868095920000000E+01
 2
  0.2554050000000000E+00 1  0.1363026257000000E+02
  0.2454945300000000E+00 0
         # Potential name:  GTH-PBE-Q5  for symbol:  N
         # Potential read from the potential filename: GTH_POTENTIALS
       &END POTENTIAL
     &END KIND
     &KIND Ga
       BASIS_SET DZVP-MOLOPT-SR-GTH
       POTENTIAL GTH-PBE-q13
       &POTENTIAL
 2 1 10
  0.4900000000000000E+00 0
 3
  0.4167772300000000E+00 3  0.1047568975000000E+02 -0.4921768140000000E+01  0.8707055900000000E+00
  0.7770178090000000E+01 -0.2248152160000000E+01
  0.1784415450000000E+01
  0.5696265200000000E+00 2  0.1777985340000000E+01  0.1958597600000000E+00
 -0.2317443900000000E+00
  0.2381265000000000E+00 1 -0.1624868022000000E+02
         # Potential name:  GTH-PBE-Q13  for symbol:  GA
         # Potential read from the potential filename: GTH_POTENTIALS
       &END POTENTIAL
     &END KIND
     &TOPOLOGY
       NUMBER_OF_ATOMS  206
       MULTIPLE_UNIT_CELL  1 1 1
     &END TOPOLOGY
   &END SUBSYS
 &END FORCE_EVAL
