 # Version information for this restart file 
 # current date 2019-05-27 21:46:06.145
 # current working dir /lustre03/project/6004141/rzk/GaN-carbene/334-native/08-2Methanol-Htransfer/02-NH-constraint/2.24
 # Program compiled at                              Sun Apr  7 00:48:11 EDT 2019
 # Program compiled on                          beluga2.int.ets1.calculquebec.ca
 # Program compiled for                        Beluga-Linux-x86-64-intel-openmpi
 # Source code revision number                                         svn:18619
 &GLOBAL
   PRINT_LEVEL  MEDIUM
   PROJECT_NAME TEST
   RUN_TYPE  GEO_OPT
 &END GLOBAL
 &MOTION
   &GEO_OPT
     MAX_ITER  500
     STEP_START_VAL  48
   &END GEO_OPT
   &CONSTRAINT
     &COLLECTIVE
       COLVAR  1
       INTERMOLECULAR  T
       TARGET     4.2329865376638409E+00
       &RESTRAINT
         K     1.0000000000000001E-01
       &END RESTRAINT
     &END COLLECTIVE
     &COLVAR_RESTART
           4.2329865376638409E+00
     &END COLVAR_RESTART
   &END CONSTRAINT
 &END MOTION
 &FORCE_EVAL
   METHOD  QS
   STRESS_TENSOR  ANALYTICAL
   &DFT
     BASIS_SET_FILE_NAME BASIS_MOLOPT
     POTENTIAL_FILE_NAME GTH_POTENTIALS
     &SCF
       MAX_SCF  100
       EPS_SCF     5.0000000000000004E-06
       &OT  T
         PRECONDITIONER  FULL_ALL
       &END OT
       &OUTER_SCF  T
         OPTIMIZER  NONE
         EPS_SCF     5.0000000000000004E-06
         MAX_SCF  4
       &END OUTER_SCF
       &PRINT
         &RESTART  OFF
           BACKUP_COPIES  1
           &EACH
             JUST_ENERGY  0
             QS_SCF  0
             MD  20
           &END EACH
         &END RESTART
       &END PRINT
     &END SCF
     &QS
       EPS_DEFAULT     1.0000000000000000E-14
       ALMO_SCF  F
       METHOD  GPW
     &END QS
     &MGRID
       NGRIDS  5
       CUTOFF     1.2000000000000000E+03
     &END MGRID
     &XC
       DENSITY_CUTOFF     1.0000000000000000E-10
       GRADIENT_CUTOFF     1.0000000000000000E-10
       TAU_CUTOFF     1.0000000000000000E-10
       &XC_FUNCTIONAL  NO_SHORTCUT
         &PBE  T
         &END PBE
       &END XC_FUNCTIONAL
       &VDW_POTENTIAL
         POTENTIAL_TYPE  PAIR_POTENTIAL
         &PAIR_POTENTIAL
           R_CUTOFF     1.0000000000000005E+01
           TYPE  DFTD3
           PARAMETER_FILE_NAME dftd3.dat
           REFERENCE_FUNCTIONAL PBE
           EPS_CN     9.9999999999999995E-07
           CALCULATE_C9_TERM  T
           REFERENCE_C9_TERM  T
           LONG_RANGE_CORRECTION  F
           VERBOSE_OUTPUT  F
         &END PAIR_POTENTIAL
       &END VDW_POTENTIAL
     &END XC
   &END DFT
   &SUBSYS
     &CELL
       A     9.7367653356401487E+00    0.0000000000000000E+00    0.0000000000000000E+00
       B    -4.8591341382960209E+00    8.4162672083210595E+00    0.0000000000000000E+00
       C     0.0000000000000000E+00    0.0000000000000000E+00    3.0744000000000000E+01
       MULTIPLE_UNIT_CELL  1 1 1
       &CELL_REF
         A     9.5580000000000052E+00    0.0000000000000000E+00    0.0000000000000000E+00
         B    -4.7790000000000026E+00    8.2774708093716640E+00    0.0000000000000000E+00
         C     0.0000000000000000E+00    0.0000000000000000E+00    3.0744000000000000E+01
         MULTIPLE_UNIT_CELL  1 1 1
       &END CELL_REF
     &END CELL
     &COORD
Ga    2.6460861167830460E-02    6.6985671265980054E-03   -5.2103634455274273E-01
N    2.9359435996137408E-02    1.8798704155942816E+00    6.1042843709700645E-01
Ga    2.8084619186261546E-02    1.8489137599275054E+00    2.6422601500506659E+00
N    2.4914722531843448E-02    5.1240599444804819E-03    3.2730308691045300E+00
Ga    2.4029736687278570E-02    5.4858071114358593E-03    5.2640772156410423E+00
N    2.6746677458273742E-02    1.8802320897028766E+00    5.8504219279598182E+00
Ga    2.5470176868099149E-02    1.8757366798075554E+00    7.8494001524637547E+00
N    2.3775559790926250E-02    2.8958208026416505E-03    8.4510520106611118E+00
Ga    2.4600130083660490E-02    2.0281718997928978E-03    1.0448174388616714E+01
N    2.3872121341220347E-02    1.8735879224008720E+00    1.1054023314336318E+01
Ga    3.0629448991394408E-02    1.8684598619680091E+00    1.3047185387428090E+01
N    3.8443790426241346E-02    4.8476579431165978E-03    1.3663228538825891E+01
Ga    6.7759395549997839E-02   -9.7668848847143313E-03    1.5662010235305496E+01
N    3.6949009897991381E-02    1.8683526191016080E+00    1.6270724038716597E+01
Ga    7.8945390714411118E-02    1.8357418502446443E+00    1.8346146993702735E+01
N    6.2855091482666256E-02   -4.3674351170662699E-02    1.8695193373075874E+01
Ga   -1.5940844260428555E+00    2.8111027211583433E+00    3.2763091454806059E-01
N   -1.5943173826407977E+00    4.6810668910875188E+00    6.0982944596297894E-01
Ga   -1.5671557685597004E+00    4.6966399204752189E+00    2.6401936722291661E+00
N   -1.5946920532162352E+00    2.8109175193329681E+00    3.2316065902541933E+00
Ga   -1.5958134012751768E+00    2.8112038748412522E+00    5.2428549431561899E+00
N   -1.5957132259448272E+00    4.6810528666343005E+00    5.8511295292595786E+00
Ga   -1.5970295955832587E+00    4.6792836994908011E+00    7.8502031527880831E+00
N   -1.5973521827719404E+00    2.8080413293811510E+00    8.4542617497243473E+00
Ga   -1.5991148181343189E+00    2.8070720848076456E+00    1.0449352781021711E+01
N   -1.6009890905116655E+00    4.6764159508332384E+00    1.1057149850287619E+01
Ga   -1.6082481932793238E+00    4.6701028625723637E+00    1.3052342582566183E+01
N   -1.5910770812101565E+00    2.7997755419068597E+00    1.3673940637398537E+01
Ga   -1.5813033461570010E+00    2.8070700104288733E+00    1.5679009575166157E+01
N   -1.5862940750184966E+00    4.6742995107717960E+00    1.6283268015010783E+01
Ga   -1.5206163082668076E+00    4.6490020908721652E+00    1.8343649872636711E+01
N   -1.5029494784157966E+00    2.7899191441325448E+00    1.8861341583146825E+01
Ga   -3.2138738372123381E+00    5.6160414775255969E+00    3.2737791064878008E-01
N   -3.2072592894769048E+00    7.4874655844470981E+00    6.0998400208887149E-01
Ga   -3.2354919854845146E+00    7.5020006697902168E+00    2.6417860797683206E+00
N   -3.2143926134726417E+00    5.6162827905539539E+00    3.2316892444937109E+00
Ga   -3.2155104592042467E+00    5.6162659279572971E+00    5.2430474680639074E+00
N   -3.2095770105163739E+00    7.4864199298643799E+00    5.8503999106470861E+00
Ga   -3.2127550883236702E+00    7.4840011002666103E+00    7.8492886799142036E+00
N   -3.2183114426463741E+00    5.6136978793307923E+00    8.4547456851500495E+00
Ga   -3.2210291100877266E+00    5.6110322600143148E+00    1.0450609747349098E+01
N   -3.2135507396616716E+00    7.4813901940299328E+00    1.1058448562822353E+01
Ga   -3.2069427731455979E+00    7.4747968523367918E+00    1.3055809242629953E+01
N   -3.2236336056545722E+00    5.6069644802073206E+00    1.3681205062262169E+01
Ga   -3.2101052374855179E+00    5.6067755265419112E+00    1.5712167322676548E+01
N   -3.1782982086039033E+00    7.4587444023959533E+00    1.6302707786272190E+01
Ga   -3.1750389531707066E+00    7.4123854736047479E+00    1.8368196058003107E+01
N   -3.1561999428113117E+00    5.5540308416937121E+00    1.8895483135931173E+01
Ga    3.2733467424187075E+00    6.2076255883809547E-03    3.2700569364283794E-01
N    3.2705999483271020E+00    1.8752761773107152E+00    6.1024071524150247E-01
Ga    3.2984241924692355E+00    1.8910868401711849E+00    2.6398490750909014E+00
N    3.2709449553149921E+00    5.3244333502389376E-03    3.2318041672633493E+00
Ga    3.2706759580322267E+00    5.7353606712873149E-03    5.2431671219697398E+00
N    3.2703865844221953E+00    1.8754319124563807E+00    5.8507986665229135E+00
Ga    3.2697696428034813E+00    1.8734480488988197E+00    7.8497629649843237E+00
N    3.2669475386320888E+00    2.8411443840248010E-03    8.4547863655953464E+00
Ga    3.2680607086538598E+00    1.2678872613055756E-03    1.0450788938449488E+01
N    3.2726627449056958E+00    1.8719469847809171E+00    1.1057344212956654E+01
Ga    3.2802580615115948E+00    1.8631863221028433E+00    1.3055679628377746E+01
N    3.2698412924723601E+00   -6.9280569226521744E-03    1.3663672266126726E+01
Ga    3.2805528059973152E+00   -2.0343595915707603E-02    1.5669345168827316E+01
N    3.3049410958898373E+00    1.8427779495215797E+00    1.6276258296595056E+01
Ga    3.3643372210934093E+00    1.8409023585200730E+00    1.8315925293613844E+01
N    3.3228922108824674E+00   -4.5682575749282993E-02    1.8730135469858919E+01
Ga    1.6527588569866745E+00    2.8116218034567986E+00    3.2727398976159994E-01
N    1.6581403152225809E+00    4.6815765491087555E+00    6.0992534389508213E-01
Ga    1.6291849100946860E+00    4.6967526496602927E+00    2.6402502931561269E+00
N    1.6511295216607809E+00    2.8110060856390726E+00    3.2321208257051715E+00
Ga    1.6506573006677536E+00    2.8115158107071525E+00    5.2437471837572120E+00
N    1.6553248405455361E+00    4.6811862300727070E+00    5.8532016824974926E+00
Ga    1.6528015625817210E+00    4.6795409908900973E+00    7.8537285551550058E+00
N    1.6485993551558940E+00    2.8066618825862388E+00    8.4532349778494602E+00
Ga    1.6495462781492105E+00    2.8041333883914730E+00    1.0448687923601625E+01
N    1.6466360864452023E+00    4.6737112288492186E+00    1.1047004049602153E+01
Ga    1.6453615678041413E+00    4.6675192056938357E+00    1.3041162332462106E+01
N    1.6535859271412012E+00    2.7910100493823897E+00    1.3656310376907671E+01
Ga    1.6776312209004978E+00    2.7757181346196997E+00    1.5653248459258840E+01
N    1.6416003258079388E+00    4.6618819583819384E+00    1.6126948301647776E+01
Ga    1.6905123265644180E+00    4.6224696875293851E+00    1.8108646856508415E+01
N    1.7174820307826031E+00    2.7757840466311152E+00    1.8627992592208802E+01
Ga    3.2746108379952059E-02    5.6174495668888218E+00   -5.4350119266858810E-01
N    3.5691428466876673E-02    7.4909630535889997E+00    6.1016704049301240E-01
Ga    3.4442147741375266E-02    7.4594071415362251E+00    2.6404933803190636E+00
N    3.1192501223278230E-02    5.6161803062389914E+00    3.2735497163160572E+00
Ga    3.0651357356855143E-02    5.6166658549098134E+00    5.2643223859375645E+00
N    3.3257248374774090E-02    7.4910215387951169E+00    5.8525819888358575E+00
Ga    3.1462296420296333E-02    7.4870422304283339E+00    7.8524885405294294E+00
N    2.6594131821255008E-02    5.6132481060823141E+00    8.4529821348963310E+00
Ga    2.4627052453432115E-02    5.6112138816982586E+00    1.0451553492041946E+01
N    3.1796176343695748E-02    7.4847438137423845E+00    1.1049758175141184E+01
Ga    3.2270471918655168E-02    7.4841415753331164E+00    1.3044001438565457E+01
N    1.6297900662424709E-02    5.6056432183709033E+00    1.3622254342039220E+01
Ga    1.1334563128319040E-02    5.5997138377655471E+00    1.5609704750944118E+01
N    4.8862737280183199E-02    7.4571411169970219E+00    1.6218290403955070E+01
Ga    7.3564372714846768E-02    7.4263357676941730E+00    1.8266335272966458E+01
N    1.4678941845901908E-01    5.5719315068736712E+00    1.8817745648119072E+01
Ga    6.5161127729673565E+00    6.7930822765879528E-03    3.2678722947383426E-01
N    6.5239801436971208E+00    1.8757478113161803E+00    6.1068245561527801E-01
Ga    6.4942402154354006E+00    1.8910811907420666E+00    2.6399306176957635E+00
N    6.5162171481907460E+00    5.4548499613617336E-03    3.2325346429321389E+00
Ga    6.5153033125336144E+00    5.8249328803753400E-03    5.2440851201962699E+00
N    6.5205086828553398E+00    1.8759387795117988E+00    5.8510620992809548E+00
Ga    6.5172996039228144E+00    1.8742649577346844E+00    7.8499766010392200E+00
N    6.5135369750636372E+00    4.3936529332216159E-03    8.4558163675302751E+00
Ga    6.5141815051236538E+00    5.8359635063726448E-03    1.0452777788213128E+01
N    6.5155645527257837E+00    1.8777609618827447E+00    1.1060286308321036E+01
Ga    6.5151284601649024E+00    1.8775323823591781E+00    1.3058144636220460E+01
N    6.5118907611239223E+00    7.1712535354423916E-03    1.3644113854659443E+01
Ga    6.5187123135652332E+00    6.1548878150357936E-03    1.5646539876432131E+01
N    6.5430330429154075E+00    1.8729381483161549E+00    1.6286182124854207E+01
Ga    6.6101308015364841E+00    1.8646582479994793E+00    1.8369669136960457E+01
N    6.5827456041225139E+00   -5.7719726313115109E-02    1.8601822963355335E+01
Ga    4.8986117956487822E+00    2.8111465692127702E+00   -5.4776327113076106E-01
N    4.9006850060079348E+00    4.6863087710447937E+00    6.1051640205420599E-01
Ga    4.8993020694227409E+00    4.6538355825619346E+00    2.6399123683432757E+00
N    4.8965111739152922E+00    2.8108656917812094E+00    3.2730194067641678E+00
Ga    4.8956816311112981E+00    2.8111836643025065E+00    5.2631333349963532E+00
N    4.8979092813656688E+00    4.6855214353056072E+00    5.8517198210433161E+00
Ga    4.8946956667981460E+00    4.6824832913766317E+00    7.8513684385930862E+00
N    4.8935108533283662E+00    2.8086639402139530E+00    8.4523681429554056E+00
Ga    4.8934991652121109E+00    2.8084293532703026E+00    1.0450588702769284E+01
N    4.8969150664732544E+00    4.6765559161985513E+00    1.1060606368832822E+01
Ga    4.8947460240887590E+00    4.6716351710559154E+00    1.3062878632007779E+01
N    4.8926667695952144E+00    2.8020424039287555E+00    1.3678242728817478E+01
Ga    4.9034061744452337E+00    2.7916229701823627E+00    1.5708039892229889E+01
N    4.8692574439987535E+00    4.6833353338490653E+00    1.6149634107402157E+01
Ga    4.9341132087667541E+00    4.6205190763360058E+00    1.9122680694122288E+01
N    4.9754017496036180E+00    2.7423832715659229E+00    1.8850698142115096E+01
Ga    3.2785203572972219E+00    5.6155965923840867E+00    3.2725677082015781E-01
N    3.2773052968737009E+00    7.4868941879288844E+00    6.0999412073937331E-01
Ga    3.3035341071502398E+00    7.5018789019635843E+00    2.6419358293932982E+00
N    3.2766559628627752E+00    5.6164016836153881E+00    3.2322246691569738E+00
Ga    3.2755561709798977E+00    5.6165776599790229E+00    5.2438747399479775E+00
N    3.2759618644364088E+00    7.4865355031244407E+00    5.8526634203320365E+00
Ga    3.2755313880680754E+00    7.4840415548624355E+00    7.8529487212501072E+00
N    3.2737793463948379E+00    5.6142628760911260E+00    8.4596730071799087E+00
Ga    3.2738100417071503E+00    5.6135259576158125E+00    1.0459834739188929E+01
N    3.2792867161382162E+00    7.4906694388952921E+00    1.1052228174059639E+01
Ga    3.2804845707410943E+00    7.4932347437351581E+00    1.3049120633480557E+01
N    3.2620228967536273E+00    5.6167188203815819E+00    1.3606485189004029E+01
Ga    3.2665097644791463E+00    5.6163434287215903E+00    1.5603744156424973E+01
N    3.3067104348253551E+00    7.4956126377464889E+00    1.6143626248605720E+01
Ga    3.3605893118798775E+00    7.4620221758501870E+00    1.8149702748725531E+01
N    3.4140295733992034E+00    5.5225198089860186E+00    1.8358340871091062E+01
O    1.2941006376768811E+00    4.8002812144949516E+00    2.1146119492864585E+01
H    7.9763645010567541E-01    5.2748775743703122E+00    2.0388557730063599E+01
C    5.1785913489506208E-01    3.6180247926269131E+00    2.1435183365972996E+01
H   -1.9358756181326689E-01    3.3750961999967655E+00    2.0609840335150011E+01
H    1.1908415474206064E+00    2.7627781388259653E+00    2.1572887449309675E+01
H   -6.8758828965485200E-02    3.7724449297396392E+00    2.2353514731606907E+01
O    4.0174817015969904E+00    4.6936721269189334E+00    2.1048566670340108E+01
H    3.0031878958327778E+00    4.7446085459784459E+00    2.0999804156659852E+01
C    4.3686624169388164E+00    3.6603081945533655E+00    2.2006195511733573E+01
H    4.1261148223022959E+00    2.6625272372661084E+00    2.1614820465087060E+01
H    5.4488449722352286E+00    3.7268143488826908E+00    2.2178472928350466E+01
H    3.8323693626016104E+00    3.8464405071323751E+00    2.2945112015932132E+01
     &END COORD
     &KIND C
       BASIS_SET DZVP-MOLOPT-SR-GTH-q4
       POTENTIAL GTH-PBE-q4
       &POTENTIAL
 2 2
  0.3384712400000000E+00 2 -0.8803673979999999E+01  0.1339210850000000E+01
 2
  0.3025757500000000E+00 1  0.9622486650000001E+01
  0.2915069400000000E+00 0
         # Potential name:  GTH-PBE-Q4  for symbol:  C
         # Potential read from the potential filename: GTH_POTENTIALS
       &END POTENTIAL
     &END KIND
     &KIND O
       BASIS_SET DZVP-MOLOPT-SR-GTH-q6
       POTENTIAL GTH-PBE-q6
       &POTENTIAL
 2 4
  0.2445543000000000E+00 2 -0.1666721480000000E+02  0.2487311320000000E+01
 2
  0.2209559200000000E+00 1  0.1833745811000000E+02
  0.2113324700000000E+00 0
         # Potential name:  GTH-PBE-Q6  for symbol:  O
         # Potential read from the potential filename: GTH_POTENTIALS
       &END POTENTIAL
     &END KIND
     &KIND H
       BASIS_SET DZVP-MOLOPT-SR-GTH-q1
       POTENTIAL GTH-PBE-q1
       &POTENTIAL
 1
  0.2000000000000000E+00 2 -0.4178900440000000E+01  0.7244633100000000E+00
 0
         # Potential name:  GTH-PBE-Q1  for symbol:  H
         # Potential read from the potential filename: GTH_POTENTIALS
       &END POTENTIAL
     &END KIND
     &KIND N
       BASIS_SET DZVP-MOLOPT-SR-GTH-q5
       POTENTIAL GTH-PBE-q5
       &POTENTIAL
 2 3
  0.2837905100000000E+00 2 -0.1241522559000000E+02  0.1868095920000000E+01
 2
  0.2554050000000000E+00 1  0.1363026257000000E+02
  0.2454945300000000E+00 0
         # Potential name:  GTH-PBE-Q5  for symbol:  N
         # Potential read from the potential filename: GTH_POTENTIALS
       &END POTENTIAL
     &END KIND
     &KIND Ga
       BASIS_SET DZVP-MOLOPT-SR-GTH-q13
       POTENTIAL GTH-PBE-q13
       &POTENTIAL
 2 1 10
  0.4900000000000000E+00 0
 3
  0.4167772300000000E+00 3  0.1047568975000000E+02 -0.4921768140000000E+01  0.8707055900000000E+00
  0.7770178090000000E+01 -0.2248152160000000E+01
  0.1784415450000000E+01
  0.5696265200000000E+00 2  0.1777985340000000E+01  0.1958597600000000E+00
 -0.2317443900000000E+00
  0.2381265000000000E+00 1 -0.1624868022000000E+02
         # Potential name:  GTH-PBE-Q13  for symbol:  GA
         # Potential read from the potential filename: GTH_POTENTIALS
       &END POTENTIAL
     &END KIND
     &TOPOLOGY
       COORD_FILE_NAME ../start-first.xyz
       COORD_FILE_FORMAT  XYZ
       NUMBER_OF_ATOMS  156
       MULTIPLE_UNIT_CELL  1 1 1
     &END TOPOLOGY
     &COLVAR
       &DISTANCE
         ATOMS  32 148
       &END DISTANCE
       &PRINT
       &END PRINT
     &END COLVAR
   &END SUBSYS
 &END FORCE_EVAL
