 # Version information for this restart file 
 # current date 2019-05-27 21:44:07.978
 # current working dir /lustre03/project/6004141/rzk/GaN-carbene/334-native/08-2Methanol-Htransfer/02-NH-constraint/2.24
 # Program compiled at                              Sun Apr  7 00:48:11 EDT 2019
 # Program compiled on                          beluga2.int.ets1.calculquebec.ca
 # Program compiled for                        Beluga-Linux-x86-64-intel-openmpi
 # Source code revision number                                         svn:18619
 &GLOBAL
   PRINT_LEVEL  MEDIUM
   PROJECT_NAME TEST
   RUN_TYPE  GEO_OPT
 &END GLOBAL
 &MOTION
   &GEO_OPT
     MAX_ITER  500
     STEP_START_VAL  46
   &END GEO_OPT
   &CONSTRAINT
     &COLLECTIVE
       COLVAR  1
       INTERMOLECULAR  T
       TARGET     4.2329865376638409E+00
       &RESTRAINT
         K     1.0000000000000001E-01
       &END RESTRAINT
     &END COLLECTIVE
     &COLVAR_RESTART
           4.2329865376638409E+00
     &END COLVAR_RESTART
   &END CONSTRAINT
 &END MOTION
 &FORCE_EVAL
   METHOD  QS
   STRESS_TENSOR  ANALYTICAL
   &DFT
     BASIS_SET_FILE_NAME BASIS_MOLOPT
     POTENTIAL_FILE_NAME GTH_POTENTIALS
     &SCF
       MAX_SCF  100
       EPS_SCF     5.0000000000000004E-06
       &OT  T
         PRECONDITIONER  FULL_ALL
       &END OT
       &OUTER_SCF  T
         OPTIMIZER  NONE
         EPS_SCF     5.0000000000000004E-06
         MAX_SCF  4
       &END OUTER_SCF
       &PRINT
         &RESTART  OFF
           BACKUP_COPIES  1
           &EACH
             JUST_ENERGY  0
             QS_SCF  0
             MD  20
           &END EACH
         &END RESTART
       &END PRINT
     &END SCF
     &QS
       EPS_DEFAULT     1.0000000000000000E-14
       ALMO_SCF  F
       METHOD  GPW
     &END QS
     &MGRID
       NGRIDS  5
       CUTOFF     1.2000000000000000E+03
     &END MGRID
     &XC
       DENSITY_CUTOFF     1.0000000000000000E-10
       GRADIENT_CUTOFF     1.0000000000000000E-10
       TAU_CUTOFF     1.0000000000000000E-10
       &XC_FUNCTIONAL  NO_SHORTCUT
         &PBE  T
         &END PBE
       &END XC_FUNCTIONAL
       &VDW_POTENTIAL
         POTENTIAL_TYPE  PAIR_POTENTIAL
         &PAIR_POTENTIAL
           R_CUTOFF     1.0000000000000005E+01
           TYPE  DFTD3
           PARAMETER_FILE_NAME dftd3.dat
           REFERENCE_FUNCTIONAL PBE
           EPS_CN     9.9999999999999995E-07
           CALCULATE_C9_TERM  T
           REFERENCE_C9_TERM  T
           LONG_RANGE_CORRECTION  F
           VERBOSE_OUTPUT  F
         &END PAIR_POTENTIAL
       &END VDW_POTENTIAL
     &END XC
   &END DFT
   &SUBSYS
     &CELL
       A     9.7367653356401487E+00    0.0000000000000000E+00    0.0000000000000000E+00
       B    -4.8591341382960209E+00    8.4162672083210595E+00    0.0000000000000000E+00
       C     0.0000000000000000E+00    0.0000000000000000E+00    3.0744000000000000E+01
       MULTIPLE_UNIT_CELL  1 1 1
       &CELL_REF
         A     9.5580000000000052E+00    0.0000000000000000E+00    0.0000000000000000E+00
         B    -4.7790000000000026E+00    8.2774708093716640E+00    0.0000000000000000E+00
         C     0.0000000000000000E+00    0.0000000000000000E+00    3.0744000000000000E+01
         MULTIPLE_UNIT_CELL  1 1 1
       &END CELL_REF
     &END CELL
     &COORD
Ga    2.7006824549522700E-02    7.4664090862403727E-03   -5.2524581205762311E-01
N    2.9947882505528121E-02    1.8805317151731571E+00    6.1017318763284734E-01
Ga    2.8579287861315531E-02    1.8489928542483849E+00    2.6417948700329821E+00
N    2.5398535856002408E-02    5.3437973512942445E-03    3.2729055870679797E+00
Ga    2.4241761490308999E-02    5.4073994303013798E-03    5.2638370015290024E+00
N    2.6900208181690640E-02    1.8801199363373666E+00    5.8503631029390668E+00
Ga    2.5318875526391792E-02    1.8755875362650760E+00    7.8494466123356093E+00
N    2.3592423387261380E-02    2.7324844830188856E-03    8.4511741566887348E+00
Ga    2.4193282922072075E-02    2.0380760484602829E-03    1.0448387730745308E+01
N    2.3506234868140165E-02    1.8736196831651417E+00    1.1054362619717304E+01
Ga    3.0039680896002792E-02    1.8686900033077267E+00    1.3047590088360055E+01
N    3.7924324852558082E-02    5.0350058216257860E-03    1.3663725697543535E+01
Ga    6.7274595827689729E-02   -9.7213418403743427E-03    1.5662567440509795E+01
N    3.6166308731677421E-02    1.8682524945964512E+00    1.6271361541068202E+01
Ga    7.9114869744024638E-02    1.8357259508857939E+00    1.8346779232511814E+01
N    6.3095045558479113E-02   -4.3677702971827971E-02    1.8695846903440792E+01
Ga   -1.5932804178212223E+00    2.8116845937306576E+00    3.2756164621222561E-01
N   -1.5937722282860596E+00    4.6816418776325062E+00    6.0963207729665114E-01
Ga   -1.5667126848390549E+00    4.6968586950296709E+00    2.6401156642558794E+00
N   -1.5942077626988769E+00    2.8111254581317309E+00    3.2314127739529255E+00
Ga   -1.5955848649596933E+00    2.8111165222236090E+00    5.2427347597052574E+00
N   -1.5955123159454014E+00    4.6809447351186613E+00    5.8510488619477394E+00
Ga   -1.5971671629851794E+00    4.6791361770537936E+00    7.8502110690959617E+00
N   -1.5975033571187296E+00    2.8079161800323278E+00    8.4544225333159151E+00
Ga   -1.5995077020741635E+00    2.8071124703124219E+00    1.0449614592442339E+01
N   -1.6015308256401743E+00    4.6764904028450669E+00    1.1057411903793600E+01
Ga   -1.6089094319761914E+00    4.6703875313853462E+00    1.3052672908031065E+01
N   -1.5916031981543821E+00    2.8001662885034566E+00    1.3674348136486946E+01
Ga   -1.5816046886680359E+00    2.8074159033737360E+00    1.5679505314568422E+01
N   -1.5867456105862536E+00    4.6747063055560423E+00    1.6284082347225183E+01
Ga   -1.5212063589080154E+00    4.6492407676858241E+00    1.8344585972147517E+01
N   -1.5030382753736202E+00    2.7900352564555471E+00    1.8862102889019479E+01
Ga   -3.2132017647348237E+00    5.6168909738869388E+00    3.2734401953413439E-01
N   -3.2066865795787618E+00    7.4880738196306922E+00    6.0967239719292388E-01
Ga   -3.2351189132931233E+00    7.5023237952210016E+00    2.6413474560322374E+00
N   -3.2138897892002189E+00    5.6164963175201583E+00    3.2315037618540123E+00
Ga   -3.2152590843502593E+00    5.6161920121820925E+00    5.2429268663264592E+00
N   -3.2094135895963207E+00    7.4863287593396546E+00    5.8502519379127067E+00
Ga   -3.2129060439397539E+00    7.4838646247507832E+00    7.8492483482294713E+00
N   -3.2184828520828792E+00    5.6135914690478579E+00    8.4547749775494854E+00
Ga   -3.2214814569675556E+00    5.6110669752282663E+00    1.0450705263840440E+01
N   -3.2139676447457801E+00    7.4814101916188518E+00    1.1058698548520196E+01
Ga   -3.2075507705872974E+00    7.4749016893357885E+00    1.3056014456062726E+01
N   -3.2241847839546272E+00    5.6073515972637340E+00    1.3681891239668344E+01
Ga   -3.2109801869277237E+00    5.6067552009786423E+00    1.5713122352275459E+01
N   -3.1788601877842750E+00    7.4588994664181412E+00    1.6304084646101035E+01
Ga   -3.1738664892325263E+00    7.4126078912652762E+00    1.8369735179701756E+01
N   -3.1561644666187281E+00    5.5541446494399516E+00    1.8896932803501027E+01
Ga    3.2737301539574077E+00    6.7323467109489015E-03    3.2695679144025347E-01
N    3.2713229599754672E+00    1.8760208687184672E+00    6.0999623208216580E-01
Ga    3.2988835662722504E+00    1.8913133007345213E+00    2.6399935231597578E+00
N    3.2714425355154408E+00    5.4890132907076568E-03    3.2315989024494063E+00
Ga    3.2708982294507458E+00    5.5836864388642184E-03    5.2430553205826742E+00
N    3.2705507063615458E+00    1.8752875270346410E+00    5.8507051119896918E+00
Ga    3.2696649481774838E+00    1.8733004151591015E+00    7.8497802667176781E+00
N    3.2667778759568122E+00    2.6803999194804154E-03    8.4547975693298749E+00
Ga    3.2676581575984165E+00    1.2379878630046797E-03    1.0450877756513936E+01
N    3.2723133609760184E+00    1.8718833339655396E+00    1.1057514679646411E+01
Ga    3.2798858058118445E+00    1.8632606681220383E+00    1.3055776850743992E+01
N    3.2693013083796596E+00   -6.8596205374680365E-03    1.3664238363501157E+01
Ga    3.2796697245733082E+00   -2.0527193988074784E-02    1.5669764940219761E+01
N    3.3045823208051099E+00    1.8422974470065152E+00    1.6276926386983046E+01
Ga    3.3644086592770659E+00    1.8405393631300082E+00    1.8316358299858464E+01
N    3.3231539907045615E+00   -4.5554690617481124E-02    1.8731955095096719E+01
Ga    1.6531319658296866E+00    2.8122344003189430E+00    3.2724686898231869E-01
N    1.6587963450072807E+00    4.6821845845566816E+00    6.0979544436103061E-01
Ga    1.6297394462716501E+00    4.6969630954124231E+00    2.6402059708054164E+00
N    1.6515791791133714E+00    2.8111948634845296E+00    3.2319473210074228E+00
Ga    1.6508369848782267E+00    2.8114092628398524E+00    5.2436514325098482E+00
N    1.6554924129004414E+00    4.6810636589010794E+00    5.8531036569234356E+00
Ga    1.6526656904660881E+00    4.6793781873227713E+00    7.8537362535907969E+00
N    1.6484620950736055E+00    2.8064857754225057E+00    8.4533132367435169E+00
Ga    1.6491821867094663E+00    2.8041027434311898E+00    1.0448836846062557E+01
N    1.6462724475010975E+00    4.6736827229950961E+00    1.1047283669431733E+01
Ga    1.6450576622668363E+00    4.6676643903157169E+00    1.3041477655513800E+01
N    1.6531775633974635E+00    2.7910969753085650E+00    1.3656811462223263E+01
Ga    1.6769602008472080E+00    2.7755744849646478E+00    1.5653732696459658E+01
N    1.6414049895666596E+00    4.6619184975591716E+00    1.6126929226062945E+01
Ga    1.6904754005439138E+00    4.6225981462424057E+00    1.8108513549041113E+01
N    1.7175220995308507E+00    2.7761256881211684E+00    1.8627327383798352E+01
Ga    3.3328407193735150E-02    5.6180894583677770E+00   -5.4319670197471481E-01
N    3.6258440105017754E-02    7.4916959144446347E+00    6.0994964496034998E-01
Ga    3.4928997302446356E-02    7.4596564627972395E+00    2.6403156137251877E+00
N    3.1663510889078893E-02    5.6163778504662147E+00    3.2733065266114751E+00
Ga    3.0865751613596535E-02    5.6165515009998268E+00    5.2642037235288530E+00
N    3.3459427986201613E-02    7.4908519370324358E+00    5.8525028661128200E+00
Ga    3.1351794204576476E-02    7.4868533619897963E+00    7.8525064123212642E+00
N    2.6432072677186412E-02    5.6130771629867864E+00    8.4531125568524939E+00
Ga    2.4204024392510463E-02    5.6111393848161688E+00    1.0451756310547644E+01
N    3.1380077065264980E-02    7.4847484457936968E+00    1.1050025974111453E+01
Ga    3.1846085630972965E-02    7.4842703622337066E+00    1.3044254687179881E+01
N    1.5827674710453269E-02    5.6057694695198244E+00    1.3622555006322489E+01
Ga    1.0663054099611022E-02    5.5996377757663760E+00    1.5609920526731656E+01
N    4.8551826895337893E-02    7.4569501317975018E+00    1.6218432457709049E+01
Ga    7.3663915577237962E-02    7.4265460843087050E+00    1.8266212524021636E+01
N    1.4638682314614870E-01    5.5718395760213530E+00    1.8817855760950199E+01
Ga    6.5168762580058370E+00    7.2901113795471083E-03    3.2673292663370918E-01
N    6.5244301484172125E+00    1.8764544793120808E+00    6.1041317186467869E-01
Ga    6.4947583182592155E+00    1.8913201511283171E+00    2.6400476569226079E+00
N    6.5166663972712620E+00    5.6486716011028351E-03    3.2323203764902213E+00
Ga    6.5155005956328207E+00    5.6775632428036600E-03    5.2439533482524805E+00
N    6.5207064840391089E+00    1.8757832909464198E+00    5.8509984265177506E+00
Ga    6.5171842127615047E+00    1.8741042285557197E+00    7.8499991516161218E+00
N    6.5133906565006034E+00    4.2347910014016096E-03    8.4558857640317431E+00
Ga    6.5138361261463702E+00    5.8151067733571149E-03    1.0452922875085905E+01
N    6.5152197059264374E+00    1.8777190724334945E+00    1.1060581444641283E+01
Ga    6.5146817198079923E+00    1.8777486888614812E+00    1.3058497400741215E+01
N    6.5114667995652153E+00    7.2688045075764724E-03    1.3644437042514264E+01
Ga    6.5184304914573383E+00    6.0048474540958909E-03    1.5646768201328578E+01
N    6.5426854096643625E+00    1.8726460620373231E+00    1.6286237389521883E+01
Ga    6.6106447326513926E+00    1.8654043484797365E+00    1.8369267612039820E+01
N    6.5821300415558115E+00   -5.7049614434234959E-02    1.8602476392674202E+01
Ga    4.8992371302738498E+00    2.8120238226702026E+00   -5.4496771945214839E-01
N    4.9012959163953651E+00    4.6868189540032548E+00    6.1036132711935254E-01
Ga    4.8998132442952969E+00    4.6540812116843560E+00    2.6400570938946606E+00
N    4.8969893829083002E+00    2.8110451861137702E+00    3.2729112675718870E+00
Ga    4.8958928872786744E+00    2.8110644323319729E+00    5.2631523907330315E+00
N    4.8980969152719886E+00    4.6854242772445485E+00    5.8516022163170627E+00
Ga    4.8945686249362534E+00    4.6823455107267176E+00    7.8513426977627239E+00
N    4.8933811796154210E+00    2.8085290034400803E+00    8.4524651960561918E+00
Ga    4.8931786601532652E+00    2.8084749723624838E+00    1.0450845015979059E+01
N    4.8965438222026192E+00    4.6766351989120540E+00    1.1060894191276192E+01
Ga    4.8943254649350996E+00    4.6718343159004201E+00    1.3063344276898592E+01
N    4.8921077566261681E+00    2.8020891148917704E+00    1.3678314567212334E+01
Ga    4.9027586750303565E+00    2.7916458681898502E+00    1.5708093587420816E+01
N    4.8691690864327439E+00    4.6827503059985416E+00    1.6149629894700791E+01
Ga    4.9338824189018817E+00    4.6212850262697200E+00    1.9122392390980902E+01
N    4.9750602525791203E+00    2.7434266877876174E+00    1.8848631769106042E+01
Ga    3.2790703823323750E+00    5.6164640914980568E+00    3.2729818003472849E-01
N    3.2778892142173413E+00    7.4875121423419930E+00    6.0975123936215392E-01
Ga    3.3041426909836913E+00    7.5022096543726668E+00    2.6415440286078704E+00
N    3.2771309330948992E+00    5.6166182280943655E+00    3.2320515459203882E+00
Ga    3.2757585819910497E+00    5.6164897628854220E+00    5.2437574961313826E+00
N    3.2761495604130761E+00    7.4864291661958955E+00    5.8525205934836606E+00
Ga    3.2753936566092086E+00    7.4838894314158502E+00    7.8529035198312531E+00
N    3.2736156244307009E+00    5.6141174367036033E+00    8.4597292507020025E+00
Ga    3.2734693256298866E+00    5.6135158344237830E+00    1.0459996549028718E+01
N    3.2788730161438391E+00    7.4906650860910018E+00    1.1052517341163069E+01
Ga    3.2800911954708818E+00    7.4932779925897490E+00    1.3049488751522347E+01
N    3.2615825332764738E+00    5.6168789707950193E+00    1.3607076462105933E+01
Ga    3.2664022548904059E+00    5.6162223254146699E+00    1.5604288297663743E+01
N    3.3064116513836512E+00    7.4954736295864652E+00    1.6144552357460402E+01
Ga    3.3602580619926696E+00    7.4624885352870223E+00    1.8150707789369751E+01
N    3.4130437006292862E+00    5.5231383607333395E+00    1.8359805150890175E+01
O    1.2922701032050854E+00    4.8010258923244695E+00    2.1147286988655573E+01
H    7.9590664130461963E-01    5.2750854082356211E+00    2.0389529456476222E+01
C    5.1627539317819726E-01    3.6187574960971980E+00    2.1437054234380902E+01
H   -1.9466956567651711E-01    3.3745940551804852E+00    2.0611579810415765E+01
H    1.1898325305480446E+00    2.7640932745835860E+00    2.1575884215792151E+01
H   -7.0683636821450249E-02    3.7735839681710468E+00    2.2355217019235731E+01
O    4.0173232905502845E+00    4.6925299635083517E+00    2.1048834450166797E+01
H    3.0032112186309625E+00    4.7438563312528608E+00    2.1000312868206766E+01
C    4.3687433256626846E+00    3.6595494879335706E+00    2.2006773831712476E+01
H    4.1220927247648813E+00    2.6617909679172271E+00    2.1617864621864079E+01
H    5.4497497638426537E+00    3.7232196963003590E+00    2.2175401549295678E+01
H    3.8362486074086646E+00    3.8486308724438705E+00    2.2947290663957489E+01
     &END COORD
     &KIND C
       BASIS_SET DZVP-MOLOPT-SR-GTH-q4
       POTENTIAL GTH-PBE-q4
       &POTENTIAL
 2 2
  0.3384712400000000E+00 2 -0.8803673979999999E+01  0.1339210850000000E+01
 2
  0.3025757500000000E+00 1  0.9622486650000001E+01
  0.2915069400000000E+00 0
         # Potential name:  GTH-PBE-Q4  for symbol:  C
         # Potential read from the potential filename: GTH_POTENTIALS
       &END POTENTIAL
     &END KIND
     &KIND O
       BASIS_SET DZVP-MOLOPT-SR-GTH-q6
       POTENTIAL GTH-PBE-q6
       &POTENTIAL
 2 4
  0.2445543000000000E+00 2 -0.1666721480000000E+02  0.2487311320000000E+01
 2
  0.2209559200000000E+00 1  0.1833745811000000E+02
  0.2113324700000000E+00 0
         # Potential name:  GTH-PBE-Q6  for symbol:  O
         # Potential read from the potential filename: GTH_POTENTIALS
       &END POTENTIAL
     &END KIND
     &KIND H
       BASIS_SET DZVP-MOLOPT-SR-GTH-q1
       POTENTIAL GTH-PBE-q1
       &POTENTIAL
 1
  0.2000000000000000E+00 2 -0.4178900440000000E+01  0.7244633100000000E+00
 0
         # Potential name:  GTH-PBE-Q1  for symbol:  H
         # Potential read from the potential filename: GTH_POTENTIALS
       &END POTENTIAL
     &END KIND
     &KIND N
       BASIS_SET DZVP-MOLOPT-SR-GTH-q5
       POTENTIAL GTH-PBE-q5
       &POTENTIAL
 2 3
  0.2837905100000000E+00 2 -0.1241522559000000E+02  0.1868095920000000E+01
 2
  0.2554050000000000E+00 1  0.1363026257000000E+02
  0.2454945300000000E+00 0
         # Potential name:  GTH-PBE-Q5  for symbol:  N
         # Potential read from the potential filename: GTH_POTENTIALS
       &END POTENTIAL
     &END KIND
     &KIND Ga
       BASIS_SET DZVP-MOLOPT-SR-GTH-q13
       POTENTIAL GTH-PBE-q13
       &POTENTIAL
 2 1 10
  0.4900000000000000E+00 0
 3
  0.4167772300000000E+00 3  0.1047568975000000E+02 -0.4921768140000000E+01  0.8707055900000000E+00
  0.7770178090000000E+01 -0.2248152160000000E+01
  0.1784415450000000E+01
  0.5696265200000000E+00 2  0.1777985340000000E+01  0.1958597600000000E+00
 -0.2317443900000000E+00
  0.2381265000000000E+00 1 -0.1624868022000000E+02
         # Potential name:  GTH-PBE-Q13  for symbol:  GA
         # Potential read from the potential filename: GTH_POTENTIALS
       &END POTENTIAL
     &END KIND
     &TOPOLOGY
       COORD_FILE_NAME ../start-first.xyz
       COORD_FILE_FORMAT  XYZ
       NUMBER_OF_ATOMS  156
       MULTIPLE_UNIT_CELL  1 1 1
     &END TOPOLOGY
     &COLVAR
       &DISTANCE
         ATOMS  32 148
       &END DISTANCE
       &PRINT
       &END PRINT
     &END COLVAR
   &END SUBSYS
 &END FORCE_EVAL
