 # Version information for this restart file 
 # current date 2019-05-27 21:45:08.115
 # current working dir /lustre03/project/6004141/rzk/GaN-carbene/334-native/08-2Methanol-Htransfer/02-NH-constraint/2.24
 # Program compiled at                              Sun Apr  7 00:48:11 EDT 2019
 # Program compiled on                          beluga2.int.ets1.calculquebec.ca
 # Program compiled for                        Beluga-Linux-x86-64-intel-openmpi
 # Source code revision number                                         svn:18619
 &GLOBAL
   PRINT_LEVEL  MEDIUM
   PROJECT_NAME TEST
   RUN_TYPE  GEO_OPT
 &END GLOBAL
 &MOTION
   &GEO_OPT
     MAX_ITER  500
     STEP_START_VAL  47
   &END GEO_OPT
   &CONSTRAINT
     &COLLECTIVE
       COLVAR  1
       INTERMOLECULAR  T
       TARGET     4.2329865376638409E+00
       &RESTRAINT
         K     1.0000000000000001E-01
       &END RESTRAINT
     &END COLLECTIVE
     &COLVAR_RESTART
           4.2329865376638409E+00
     &END COLVAR_RESTART
   &END CONSTRAINT
 &END MOTION
 &FORCE_EVAL
   METHOD  QS
   STRESS_TENSOR  ANALYTICAL
   &DFT
     BASIS_SET_FILE_NAME BASIS_MOLOPT
     POTENTIAL_FILE_NAME GTH_POTENTIALS
     &SCF
       MAX_SCF  100
       EPS_SCF     5.0000000000000004E-06
       &OT  T
         PRECONDITIONER  FULL_ALL
       &END OT
       &OUTER_SCF  T
         OPTIMIZER  NONE
         EPS_SCF     5.0000000000000004E-06
         MAX_SCF  4
       &END OUTER_SCF
       &PRINT
         &RESTART  OFF
           BACKUP_COPIES  1
           &EACH
             JUST_ENERGY  0
             QS_SCF  0
             MD  20
           &END EACH
         &END RESTART
       &END PRINT
     &END SCF
     &QS
       EPS_DEFAULT     1.0000000000000000E-14
       ALMO_SCF  F
       METHOD  GPW
     &END QS
     &MGRID
       NGRIDS  5
       CUTOFF     1.2000000000000000E+03
     &END MGRID
     &XC
       DENSITY_CUTOFF     1.0000000000000000E-10
       GRADIENT_CUTOFF     1.0000000000000000E-10
       TAU_CUTOFF     1.0000000000000000E-10
       &XC_FUNCTIONAL  NO_SHORTCUT
         &PBE  T
         &END PBE
       &END XC_FUNCTIONAL
       &VDW_POTENTIAL
         POTENTIAL_TYPE  PAIR_POTENTIAL
         &PAIR_POTENTIAL
           R_CUTOFF     1.0000000000000005E+01
           TYPE  DFTD3
           PARAMETER_FILE_NAME dftd3.dat
           REFERENCE_FUNCTIONAL PBE
           EPS_CN     9.9999999999999995E-07
           CALCULATE_C9_TERM  T
           REFERENCE_C9_TERM  T
           LONG_RANGE_CORRECTION  F
           VERBOSE_OUTPUT  F
         &END PAIR_POTENTIAL
       &END VDW_POTENTIAL
     &END XC
   &END DFT
   &SUBSYS
     &CELL
       A     9.7367653356401487E+00    0.0000000000000000E+00    0.0000000000000000E+00
       B    -4.8591341382960209E+00    8.4162672083210595E+00    0.0000000000000000E+00
       C     0.0000000000000000E+00    0.0000000000000000E+00    3.0744000000000000E+01
       MULTIPLE_UNIT_CELL  1 1 1
       &CELL_REF
         A     9.5580000000000052E+00    0.0000000000000000E+00    0.0000000000000000E+00
         B    -4.7790000000000026E+00    8.2774708093716640E+00    0.0000000000000000E+00
         C     0.0000000000000000E+00    0.0000000000000000E+00    3.0744000000000000E+01
         MULTIPLE_UNIT_CELL  1 1 1
       &END CELL_REF
     &END CELL
     &COORD
Ga    2.6470157077180187E-02    6.4259516359235092E-03   -5.2040116791375901E-01
N    2.9370688128388691E-02    1.8797008420373518E+00    6.1052489161109524E-01
Ga    2.8152403157851870E-02    1.8489283398529204E+00    2.6423414845794593E+00
N    2.4952386218833007E-02    5.1700359622502256E-03    3.2731929760141809E+00
Ga    2.3998186849969922E-02    5.6970405808987844E-03    5.2642894746351319E+00
N    2.6718173350005352E-02    1.8804301891087931E+00    5.8504827801167956E+00
Ga    2.5365674278051597E-02    1.8758701209435558E+00    7.8494669186793979E+00
N    2.3685802457496512E-02    2.9934109668833804E-03    8.4510695595914900E+00
Ga    2.4589102700939652E-02    1.9727787960933303E-03    1.0448224088861778E+01
N    2.3867264006721574E-02    1.8735659842394699E+00    1.1053909930273896E+01
Ga    3.0652808763401533E-02    1.8684260750969388E+00    1.3047019214022866E+01
N    3.8497646649331752E-02    4.8449562779454775E-03    1.3663010312293526E+01
Ga    6.7596591394286573E-02   -9.7821148782403691E-03    1.5661753616523521E+01
N    3.6810990443036762E-02    1.8683065085000965E+00    1.6271017316941659E+01
Ga    7.8833792187148435E-02    1.8355190017284406E+00    1.8346369117767445E+01
N    6.2485588996904928E-02   -4.3665612889194086E-02    1.8695805313171928E+01
Ga   -1.5940956065805065E+00    2.8109310368295946E+00    3.2772391916311339E-01
N   -1.5942222607297223E+00    4.6809484284798950E+00    6.0982649388783039E-01
Ga   -1.5670882817906286E+00    4.6967086179516944E+00    2.6402615631931154E+00
N   -1.5946282812786545E+00    2.8109865861727132E+00    3.2317103451254394E+00
Ga   -1.5957953417406214E+00    2.8114466175648847E+00    5.2430200240401943E+00
N   -1.5957280676025154E+00    4.6812961465070737E+00    5.8511844603517353E+00
Ga   -1.5970907634348781E+00    4.6794012041948845E+00    7.8502717465978256E+00
N   -1.5974014668747623E+00    2.8081750764189208E+00    8.4542848456544757E+00
Ga   -1.5991651550616934E+00    2.8070086037445758E+00    1.0449375143321243E+01
N   -1.6010190776563338E+00    4.6763297292605923E+00    1.1057060507699791E+01
Ga   -1.6081780984921417E+00    4.6699911628531519E+00    1.3052184433039249E+01
N   -1.5910745507425752E+00    2.7996772065198958E+00    1.3673781910765420E+01
Ga   -1.5811832672599462E+00    2.8070560484736484E+00    1.5678820067788136E+01
N   -1.5860186353727621E+00    4.6742829285072105E+00    1.6283106450044041E+01
Ga   -1.5205685999836163E+00    4.6490399684186778E+00    1.8343561220789056E+01
N   -1.5030747254713075E+00    2.7898342793561812E+00    1.8861219281043489E+01
Ga   -3.2138710217538273E+00    5.6158413897840207E+00    3.2749048008734949E-01
N   -3.2072150017345469E+00    7.4872933884516044E+00    6.1013361073924988E-01
Ga   -3.2354309881271606E+00    7.5020609651270345E+00    2.6418876104810907E+00
N   -3.2143255552811736E+00    5.6163718637044147E+00    3.2318124294922597E+00
Ga   -3.2154855109600393E+00    5.6164865487213973E+00    5.2431902750616484E+00
N   -3.2096016656531181E+00    7.4866388747322432E+00    5.8504397836203141E+00
Ga   -3.2128690796398196E+00    7.4841249083536958E+00    7.8493116829373299E+00
N   -3.2183802334527325E+00    5.6138200755258048E+00    8.4547235073317797E+00
Ga   -3.2210166232374560E+00    5.6109821339617794E+00    1.0450556961034497E+01
N   -3.2134968112216669E+00    7.4813274059637536E+00    1.1058376040568419E+01
Ga   -3.2068489486102929E+00    7.4748246699192169E+00    1.3055734717019330E+01
N   -3.2235658048357871E+00    5.6068918483617161E+00    1.3681023176840334E+01
Ga   -3.2100788017879425E+00    5.6067465226416582E+00    1.5712111567511705E+01
N   -3.1781456537552741E+00    7.4589885094823911E+00    1.6302296420581346E+01
Ga   -3.1756094111781668E+00    7.4126513939221121E+00    1.8367893738553921E+01
N   -3.1565526779789197E+00    5.5538591552383458E+00    1.8894207492046760E+01
Ga    3.2733903546345289E+00    6.0640972622566323E-03    3.2703446344435966E-01
N    3.2705647410146543E+00    1.8751004445604684E+00    6.1040600611835594E-01
Ga    3.2984624419677129E+00    1.8910926498412306E+00    2.6399036505073963E+00
N    3.2710041756988151E+00    5.3495427946509367E-03    3.2318636656224085E+00
Ga    3.2706703903717886E+00    5.8890092793288835E-03    5.2432403784906443E+00
N    3.2703218992964822E+00    1.8756012379880247E+00    5.8508242994480995E+00
Ga    3.2696948701583537E+00    1.8735974605356245E+00    7.8498159799599208E+00
N    3.2668860792519880E+00    2.9344505665199502E-03    8.4547420826744606E+00
Ga    3.2681119506377199E+00    1.2122711127233949E-03    1.0450742755102677E+01
N    3.2726568247766745E+00    1.8718709430391289E+00    1.1057377774851682E+01
Ga    3.2802070296020496E+00    1.8630286508035494E+00    1.3055668635255154E+01
N    3.2700129037047798E+00   -7.0472619549799172E-03    1.3663605192983761E+01
Ga    3.2808620807973470E+00   -2.0200840348721105E-02    1.5669216628494029E+01
N    3.3048924872708709E+00    1.8429199000649923E+00    1.6276454903118303E+01
Ga    3.3646523905859649E+00    1.8409622051231103E+00    1.8316177533973242E+01
N    3.3225814872701780E+00   -4.5852562299060116E-02    1.8729866469082197E+01
Ga    1.6527846173008280E+00    2.8114541541039375E+00    3.2727160754017542E-01
N    1.6580155765610800E+00    4.6814604993505728E+00    6.0982635558532516E-01
Ga    1.6291704226607104E+00    4.6967711078507675E+00    2.6402546881510842E+00
N    1.6511529290938201E+00    2.8110647606347152E+00    3.2321880418920275E+00
Ga    1.6505868882563581E+00    2.8117282034644151E+00    5.2438555453689339E+00
N    1.6552328932829119E+00    4.6813759654913740E+00    5.8532185437449291E+00
Ga    1.6527043055376629E+00    4.6796679962595453E+00    7.8537476139292215E+00
N    1.6485199302137230E+00    2.8067910845670272E+00    8.4532523788907543E+00
Ga    1.6495310964673691E+00    2.8040976435206941E+00    1.0448690042832208E+01
N    1.6466408797108454E+00    4.6736383608160583E+00    1.1047074281621203E+01
Ga    1.6453012902102673E+00    4.6672511461526636E+00    1.3041204207266537E+01
N    1.6535157099771267E+00    2.7907535092609002E+00    1.3656415989159889E+01
Ga    1.6775379616930413E+00    2.7754546853225381E+00    1.5653333691883152E+01
N    1.6416469938590696E+00    4.6615793378505117E+00    1.6126780792233482E+01
Ga    1.6902637911490752E+00    4.6224131062047640E+00    1.8108375511689129E+01
N    1.7173919875788450E+00    2.7756348054031030E+00    1.8627728593863594E+01
Ga    3.2619434527845506E-02    5.6171759442197375E+00   -5.4325648236336543E-01
N    3.5686993969102826E-02    7.4906431870990451E+00    6.1003256477712220E-01
Ga    3.4445094761275559E-02    7.4594124154273285E+00    2.6404915431985283E+00
N    3.1236153925384872E-02    5.6162483564378691E+00    3.2735436815261041E+00
Ga    3.0618559114395844E-02    5.6168563518651231E+00    5.2643498501952051E+00
N    3.3225039367921844E-02    7.4911900086257894E+00    5.8525994295719572E+00
Ga    3.1431522269318717E-02    7.4871274390620490E+00    7.8525140565271148E+00
N    2.6526029267643251E-02    5.6133448647857271E+00    8.4530390193042848E+00
Ga    2.4625670623900378E-02    5.6111180174939985E+00    1.0451619619464825E+01
N    3.1776886448192015E-02    7.4846329518579768E+00    1.1049816673394256E+01
Ga    3.2374079191130438E-02    7.4840352716475200E+00    1.3044036913374406E+01
N    1.6291361044445712E-02    5.6055272372180358E+00    1.3622193313194542E+01
Ga    1.1650206908920446E-02    5.5997465827144834E+00    1.5609584698706913E+01
N    4.9090410315070936E-02    7.4572982903481568E+00    1.6218214120608707E+01
Ga    7.3192908715980248E-02    7.4260160915486377E+00    1.8266087573572737E+01
N    1.4675802574778032E-01    5.5717973675160222E+00    1.8817777572856222E+01
Ga    6.5160830199786384E+00    6.6230328513493053E-03    3.2689804693657826E-01
N    6.5240456419918562E+00    1.8755542472550764E+00    6.1094031466101928E-01
Ga    6.4942458553612168E+00    1.8910984478967927E+00    2.6400678345862043E+00
N    6.5162303736930918E+00    5.4549548573605859E-03    3.2325947339761218E+00
Ga    6.5152628338706524E+00    5.9612104225633573E-03    5.2441702298826076E+00
N    6.5205045603583098E+00    1.8761065251901337E+00    5.8510812224785340E+00
Ga    6.5172977236553375E+00    1.8743819921348819E+00    7.8500299230021007E+00
N    6.5134839828090980E+00    4.4742891821055956E-03    8.4558402385155063E+00
Ga    6.5141840268402742E+00    5.7442570460258975E-03    1.0452823138125844E+01
N    6.5155766516944658E+00    1.8776290224976631E+00    1.1060287221825163E+01
Ga    6.5152193586016836E+00    1.8773064127076546E+00    1.3058150632486790E+01
N    6.5119776912100340E+00    6.9725042920665385E-03    1.3644115834786533E+01
Ga    6.5190385705564191E+00    6.0010027138155900E-03    1.5646484374038391E+01
N    6.5432048863838412E+00    1.8729903234868552E+00    1.6285831396068620E+01
Ga    6.6100894255194653E+00    1.8646772638373774E+00    1.8369110641086753E+01
N    6.5827149242207188E+00   -5.7930565657881586E-02    1.8600590208396952E+01
Ga    4.8986950489119430E+00    2.8110627546617257E+00   -5.4832702136997413E-01
N    4.9007125057252914E+00    4.6862094770292400E+00    6.1085651109250416E-01
Ga    4.8993451685625686E+00    4.6538827755037948E+00    2.6401313044495867E+00
N    4.8965170168046717E+00    2.8109038288673287E+00    3.2732152850781366E+00
Ga    4.8956495758873375E+00    2.8113633938588189E+00    5.2633038235287248E+00
N    4.8978644670246503E+00    4.6857484960141207E+00    5.8517378941977833E+00
Ga    4.8946178874019344E+00    4.6826277829285017E+00    7.8514153481003932E+00
N    4.8934805938714039E+00    2.8087760729883811E+00    8.4523376816888387E+00
Ga    4.8935345078139498E+00    2.8083052736147764E+00    1.0450562085577996E+01
N    4.8969146574637747E+00    4.6764744645417826E+00    1.1060418334653404E+01
Ga    4.8948067440242111E+00    4.6714767058680584E+00    1.3062655447843303E+01
N    4.8927137960245828E+00    2.8018415941159316E+00    1.3678135105776942E+01
Ga    4.9035020198808521E+00    2.7914499263794408E+00    1.5707862769747022E+01
N    4.8692317645266607E+00    4.6831962391431485E+00    1.6149581005493584E+01
Ga    4.9338976298906010E+00    4.6200293660789757E+00    1.9122466711686563E+01
N    4.9756107667451772E+00    2.7418559113872334E+00    1.8851716208825760E+01
Ga    3.2785293493393945E+00    5.6153570054783266E+00    3.2739888169660603E-01
N    3.2772988102844791E+00    7.4866963986584212E+00    6.1015741392496381E-01
Ga    3.3035864607480607E+00    7.5019150285527809E+00    2.6420167132331192E+00
N    3.2766368819558127E+00    5.6164624977406143E+00    3.2323168974936380E+00
Ga    3.2754533616448569E+00    5.6167715387970629E+00    5.2440025094897349E+00
N    3.2759199853177607E+00    7.4867303417651581E+00    5.8526969378188189E+00
Ga    3.2754602963792117E+00    7.4841429977990659E+00    7.8529788815847388E+00
N    3.2736698206529469E+00    5.6143406056501624E+00    8.4596283154310381E+00
Ga    3.2737454829772745E+00    5.6134143495268249E+00    1.0459736072170084E+01
N    3.2792801472159190E+00    7.4904995341137628E+00    1.1052199627685374E+01
Ga    3.2805724552285636E+00    7.4930646924881579E+00    1.3049147878479333E+01
N    3.2620416206771754E+00    5.6164369977876838E+00    1.3606345202692907E+01
Ga    3.2665589167887279E+00    5.6162478206542605E+00    1.5603632794862577E+01
N    3.3069856760136442E+00    7.4953289597549908E+00    1.6143254876852954E+01
Ga    3.3608867409334846E+00    7.4619128042949603E+00    1.8149065462468897E+01
N    3.4138738369869706E+00    5.5223236358698378E+00    1.8358246640047355E+01
O    1.2943696178068624E+00    4.8007067096100426E+00    2.1145909144246371E+01
H    7.9788455022349658E-01    5.2755187749947403E+00    2.0388564221389085E+01
C    5.1843809171183763E-01    3.6182977853863925E+00    2.1434337107780873E+01
H   -1.9328857735404276E-01    3.3758508976173953E+00    2.0609089001145165E+01
H    1.1915176844909408E+00    2.7631782201322008E+00    2.1571511326781131E+01
H   -6.8132767151396031E-02    3.7719451935648096E+00    2.2352827966728590E+01
O    4.0175745602619992E+00    4.6934371405019837E+00    2.1048529050792776E+01
H    3.0032597972973072E+00    4.7445725954047164E+00    2.0999703159758578E+01
C    4.3686053113227858E+00    3.6601651787588843E+00    2.2006207510628780E+01
H    4.1270965805620774E+00    2.6622864775291877E+00    2.1614607568190596E+01
H    5.4485214210503070E+00    3.7274461085048505E+00    2.2179425297661215E+01
H    3.8314580269596976E+00    3.8459442278539013E+00    2.2944609115228420E+01
     &END COORD
     &KIND C
       BASIS_SET DZVP-MOLOPT-SR-GTH-q4
       POTENTIAL GTH-PBE-q4
       &POTENTIAL
 2 2
  0.3384712400000000E+00 2 -0.8803673979999999E+01  0.1339210850000000E+01
 2
  0.3025757500000000E+00 1  0.9622486650000001E+01
  0.2915069400000000E+00 0
         # Potential name:  GTH-PBE-Q4  for symbol:  C
         # Potential read from the potential filename: GTH_POTENTIALS
       &END POTENTIAL
     &END KIND
     &KIND O
       BASIS_SET DZVP-MOLOPT-SR-GTH-q6
       POTENTIAL GTH-PBE-q6
       &POTENTIAL
 2 4
  0.2445543000000000E+00 2 -0.1666721480000000E+02  0.2487311320000000E+01
 2
  0.2209559200000000E+00 1  0.1833745811000000E+02
  0.2113324700000000E+00 0
         # Potential name:  GTH-PBE-Q6  for symbol:  O
         # Potential read from the potential filename: GTH_POTENTIALS
       &END POTENTIAL
     &END KIND
     &KIND H
       BASIS_SET DZVP-MOLOPT-SR-GTH-q1
       POTENTIAL GTH-PBE-q1
       &POTENTIAL
 1
  0.2000000000000000E+00 2 -0.4178900440000000E+01  0.7244633100000000E+00
 0
         # Potential name:  GTH-PBE-Q1  for symbol:  H
         # Potential read from the potential filename: GTH_POTENTIALS
       &END POTENTIAL
     &END KIND
     &KIND N
       BASIS_SET DZVP-MOLOPT-SR-GTH-q5
       POTENTIAL GTH-PBE-q5
       &POTENTIAL
 2 3
  0.2837905100000000E+00 2 -0.1241522559000000E+02  0.1868095920000000E+01
 2
  0.2554050000000000E+00 1  0.1363026257000000E+02
  0.2454945300000000E+00 0
         # Potential name:  GTH-PBE-Q5  for symbol:  N
         # Potential read from the potential filename: GTH_POTENTIALS
       &END POTENTIAL
     &END KIND
     &KIND Ga
       BASIS_SET DZVP-MOLOPT-SR-GTH-q13
       POTENTIAL GTH-PBE-q13
       &POTENTIAL
 2 1 10
  0.4900000000000000E+00 0
 3
  0.4167772300000000E+00 3  0.1047568975000000E+02 -0.4921768140000000E+01  0.8707055900000000E+00
  0.7770178090000000E+01 -0.2248152160000000E+01
  0.1784415450000000E+01
  0.5696265200000000E+00 2  0.1777985340000000E+01  0.1958597600000000E+00
 -0.2317443900000000E+00
  0.2381265000000000E+00 1 -0.1624868022000000E+02
         # Potential name:  GTH-PBE-Q13  for symbol:  GA
         # Potential read from the potential filename: GTH_POTENTIALS
       &END POTENTIAL
     &END KIND
     &TOPOLOGY
       COORD_FILE_NAME ../start-first.xyz
       COORD_FILE_FORMAT  XYZ
       NUMBER_OF_ATOMS  156
       MULTIPLE_UNIT_CELL  1 1 1
     &END TOPOLOGY
     &COLVAR
       &DISTANCE
         ATOMS  32 148
       &END DISTANCE
       &PRINT
       &END PRINT
     &END COLVAR
   &END SUBSYS
 &END FORCE_EVAL
