 # Version information for this restart file 
 # current date 2019-06-24 22:50:12.949
 # current working dir /scratch/rzk/rzk/GaN-carbene/443-adatoms-both-2x2/03-DissMethanol/01-O-GaSur-H-NSur
 # Program compiled at                              Sun Apr  7 00:48:11 EDT 2019
 # Program compiled on                          beluga2.int.ets1.calculquebec.ca
 # Program compiled for                        Beluga-Linux-x86-64-intel-openmpi
 # Source code revision number                                         svn:18619
 &GLOBAL
   PRINT_LEVEL  MEDIUM
   PROJECT_NAME TEST
   RUN_TYPE  GEO_OPT
 &END GLOBAL
 &MOTION
   &GEO_OPT
     MAX_ITER  500
     STEP_START_VAL  113
   &END GEO_OPT
 &END MOTION
 &FORCE_EVAL
   METHOD  QS
   STRESS_TENSOR  ANALYTICAL
   &DFT
     BASIS_SET_FILE_NAME BASIS_MOLOPT
     POTENTIAL_FILE_NAME GTH_POTENTIALS
     UKS  T
     SURFACE_DIPOLE_CORRECTION  T
     SURF_DIP_DIR  Z
     &SCF
       MAX_SCF  80
       EPS_SCF     5.0000000000000004E-06
       &OT  T
         PRECONDITIONER  FULL_ALL
       &END OT
       &OUTER_SCF  T
         OPTIMIZER  NONE
         EPS_SCF     5.0000000000000004E-06
         MAX_SCF  4
       &END OUTER_SCF
       &PRINT
         &RESTART  OFF
           BACKUP_COPIES  1
           &EACH
             JUST_ENERGY  0
             QS_SCF  0
             MD  20
           &END EACH
         &END RESTART
       &END PRINT
     &END SCF
     &QS
       EPS_DEFAULT     1.0000000000000000E-14
       METHOD  GPW
     &END QS
     &MGRID
       NGRIDS  5
       CUTOFF     1.2000000000000000E+03
     &END MGRID
     &XC
       DENSITY_CUTOFF     1.0000000000000000E-10
       GRADIENT_CUTOFF     1.0000000000000000E-10
       TAU_CUTOFF     1.0000000000000000E-10
       &XC_FUNCTIONAL  NO_SHORTCUT
         &PBE  T
         &END PBE
       &END XC_FUNCTIONAL
       &VDW_POTENTIAL
         POTENTIAL_TYPE  PAIR_POTENTIAL
         &PAIR_POTENTIAL
           R_CUTOFF     1.0000000000000004E+01
           TYPE  DFTD3
           PARAMETER_FILE_NAME dftd3.dat
           REFERENCE_FUNCTIONAL PBE
           EPS_CN     9.9999999999999995E-07
           CALCULATE_C9_TERM  T
           REFERENCE_C9_TERM  T
           LONG_RANGE_CORRECTION  F
           VERBOSE_OUTPUT  F
         &END PAIR_POTENTIAL
       &END VDW_POTENTIAL
     &END XC
   &END DFT
   &SUBSYS
     &CELL
       A     1.2864472766435110E+01    0.0000000000000000E+00    0.0000000000000000E+00
       B    -6.4322363581020028E+00    1.1140960178524473E+01    0.0000000000000000E+00
       C     0.0000000000000000E+00    0.0000000000000000E+00    3.2000000000000000E+01
       MULTIPLE_UNIT_CELL  1 1 1
       &CELL_REF
         A     1.2982353780853531E+01    0.0000000000000000E+00    0.0000000000000000E+00
         B    -6.4911768904267628E+00    1.1243048175136114E+01    0.0000000000000000E+00
         C     0.0000000000000000E+00    0.0000000000000000E+00    3.2000000000000000E+01
         MULTIPLE_UNIT_CELL  1 1 1
       &END CELL_REF
     &END CELL
     &COORD
N    2.7609306836867333E-02    2.0251314341929776E+00    2.4772967992504942E+00
Ga    1.2507315744631551E-02    1.4565596699040471E-02    2.8235263514161164E+00
N    1.1023301699902227E-02    3.8937158177768695E-02    4.9821480764752852E+00
Ga    1.6787676945042674E-02    1.8609204066703409E+00    5.7631361218015060E+00
N    1.7790488902373218E-02    1.8807057955020314E+00    7.7571652552325974E+00
Ga    1.4680514349563339E-02    3.4283524197326033E-02    8.4051901931822695E+00
N    1.4706507653494967E-02    3.5630502307894753E-02    1.0381548397105529E+01
Ga    1.1803926912162118E-02    1.8739653985954154E+00    1.1036007738073682E+01
N    1.2293775620014085E-02    1.8560422226064779E+00    1.3028753973354288E+01
Ga    2.1446950372239194E-02    3.9120828398821889E-02    1.3823892366554846E+01
N    2.2969246303341320E-02    4.0146711912345943E-02    1.6035773926090211E+01
Ga    1.5453621754786751E-02    2.0936864770370498E+00    1.6459572389775605E+01
Ga   -3.9376579469551774E-02    3.7583659299761889E+00    1.4377325281063933E+00
N   -1.4828911278471935E+00    4.6171608365384031E+00    2.4931239288409519E+00
Ga   -1.6948253524427208E+00    2.7597102561515001E+00    3.2587743492423558E+00
N   -1.5916587289009836E+00    2.8186213859322065E+00    5.2166777409831573E+00
Ga   -1.6109469180343541E+00    4.6957757695338138E+00    5.7575114798631235E+00
N   -1.6038299719655558E+00    4.6839786781229034E+00    7.7564422258638741E+00
Ga   -1.5826897967031706E+00    2.8287671792224733E+00    8.3991483257800130E+00
N   -1.5830158191465800E+00    2.8272019983363097E+00    1.0394312467007628E+01
Ga   -1.6120662922584268E+00    4.6859216940463648E+00    1.1038714188831808E+01
N   -1.6282673144526609E+00    4.6945836793101821E+00    1.3033425517139197E+01
Ga   -1.5843652466738007E+00    2.8260531737765260E+00    1.3589399135338672E+01
N   -1.6104896491156597E+00    2.8034885936473932E+00    1.5550542369853472E+01
Ga   -1.4329560092839653E+00    4.5836543046995804E+00    1.6458526172971865E+01
N    4.2291374525422693E-03    3.7533281480407226E+00    1.7600170558705788E+01
N   -3.2016875885328981E+00    7.5810445830954736E+00    2.4761468358876644E+00
Ga   -3.1990022115539278E+00    5.6276775721932228E+00    2.8289966131500210E+00
N   -3.2002263892232365E+00    5.6009253750241585E+00    4.9800380516105616E+00
Ga   -3.2022155450377303E+00    7.4386767456060587E+00    5.7465510737131300E+00
N   -3.2024608873895071E+00    7.4513307944866156E+00    7.7506490403410773E+00
Ga   -3.2019314388739946E+00    5.6066770786453555E+00    8.4029680330534138E+00
N   -3.2021460539928497E+00    5.6052054990380098E+00    1.0380497155987239E+01
Ga   -3.2025824876960769E+00    7.4445669783191972E+00    1.1031834489593471E+01
N   -3.2028348439290699E+00    7.4247916232346229E+00    1.3029056187171006E+01
Ga   -3.2044773275040637E+00    5.6044885924288392E+00    1.3844463520490535E+01
N   -3.2041575706187415E+00    5.6045886727891698E+00    1.6037716399239653E+01
Ga   -3.2031729984184851E+00    7.6452491126733717E+00    1.6455454484252126E+01
Ga   -3.1976418785096459E+00    9.2743530751482268E+00    1.2595572025175008E+00
N   -4.7085405980346726E+00    1.0195410058152875E+01    2.4648395833446415E+00
Ga   -4.8954090387302340E+00    8.3425286339088665E+00    3.2088911077745581E+00
N   -4.8142892245548321E+00    8.3898553326666043E+00    5.1939138998834533E+00
Ga   -4.8403700808716810E+00    1.0256212409170608E+01    5.7546600141864586E+00
N   -4.8181799885651877E+00    1.0253393163973172E+01    7.7526370752312284E+00
Ga   -4.8009267227073495E+00    8.3931063422610368E+00    8.3928253307997238E+00
N   -4.7989434984388524E+00    8.3965264958031831E+00    1.0390928335745201E+01
Ga   -4.8242281894372461E+00    1.0254224057932475E+01    1.1029092963056332E+01
N   -4.8407882329353633E+00    1.0265087299492340E+01    1.3024267907309344E+01
Ga   -4.7977986624306039E+00    8.3980358620212616E+00    1.3587815943920715E+01
N   -4.8318386601695913E+00    8.3861309953796592E+00    1.5549532207288047E+01
Ga   -4.6376400834387690E+00    1.0149388087372699E+01    1.6456504085707259E+01
N   -3.2038083015801075E+00    9.3075758080595428E+00    1.7594516240688897E+01
N    3.2335493329181837E+00    1.8886189485959461E+00    2.6378434615309185E+00
Ga    3.2315330547502206E+00    2.5779664909563172E-02    3.2616505275033769E+00
N    3.2310329845981407E+00    5.2441238400500675E-02    5.2029358010929148E+00
Ga    3.2311725377851981E+00    1.8972893235400863E+00    5.8536842541298491E+00
N    3.2305224623624422E+00    1.8942108648342513E+00    7.8151453862785489E+00
Ga    3.2302037903048597E+00    2.1307467437724003E-02    8.3992086049250769E+00
N    3.2298109341441266E+00    2.1788760378829892E-02    1.0391739823350987E+01
Ga    3.2296563666333240E+00    1.8873501275533773E+00    1.0999706632725198E+01
N    3.2292509418882429E+00    1.8894654016141945E+00    1.2968297033124578E+01
Ga    3.2296001050641663E+00    2.0948140357625503E-02    1.3587251449871632E+01
N    3.2289514240526662E+00    5.2410883347418988E-02    1.5546960360241787E+01
Ga    3.2300226082018089E+00    1.8919509860072696E+00    1.5822007267475874E+01
N    1.5288939407352486E+00    4.6111030666582922E+00    2.3409496846746105E+00
Ga    1.6679760935589258E+00    2.8512509494074254E+00    3.2712191683775993E+00
N    1.6338772252126759E+00    2.8252660548703008E+00    5.1981709469063651E+00
Ga    1.6666992559281661E+00    4.7097114484304869E+00    5.8074210794990320E+00
N    1.6134144059019921E+00    4.6701075501009885E+00    7.8053864934797890E+00
Ga    1.6087603116404772E+00    2.8223369495132573E+00    8.4207018622948375E+00
N    1.6114328506573683E+00    2.8207441767670391E+00    1.0408457708295632E+01
Ga    1.6367793995597331E+00    4.6864543133403300E+00    1.1031441705940887E+01
N    1.6517188900905837E+00    4.6937594386416839E+00    1.3027633863857933E+01
Ga    1.6102195216396047E+00    2.8264487485577474E+00    1.3587035882096083E+01
N    1.6370857128087499E+00    2.8100475286179418E+00    1.5546843263425052E+01
Ga    1.4484799044025523E+00    4.5746707896270769E+00    1.6458897254380428E+01
N    2.2256281798433523E-02    7.4692946196540850E+00    2.5735733804104277E+00
Ga    6.0004606796327090E-02    5.7278610515602555E+00    3.2336032843423270E+00
N    2.6939797415794008E-02    5.5942831925874010E+00    5.1970889196148535E+00
Ga    1.7867861384772532E-02    7.4593075471373629E+00    5.8245268605907405E+00
N    1.4328493222355448E-02    7.4594941704486812E+00    7.8074831197384444E+00
Ga    6.9680215051979907E-03    5.5960764873669842E+00    8.4145415581832008E+00
N    8.6316725495325253E-03    5.5954055472417847E+00    1.0407714654171075E+01
Ga    9.4489033448960421E-03    7.4639188929103089E+00    1.0996371180010462E+01
N    1.3508079882019424E-02    7.4641578663968886E+00    1.2970627145333467E+01
Ga    1.3423778811381581E-02    5.5909138199705426E+00    1.3587598451302092E+01
N    1.9110333969170546E-02    5.6265611480995084E+00    1.5549113870451295E+01
Ga    1.1463434663394048E-02    7.4612687647181586E+00    1.5826931323597629E+01
N   -1.6925784886280077E+00    1.0195614161447290E+01    2.4665686793852983E+00
Ga   -1.5097781996570991E+00    8.3436495498425423E+00    3.2145142203924388E+00
N   -1.5904692881709765E+00    8.3907723912019527E+00    5.1982582952432415E+00
Ga   -1.5619005821882568E+00    1.0257084410073173E+01    5.7561276463395830E+00
N   -1.5855118903199681E+00    1.0253894875260416E+01    7.7537681259285209E+00
Ga   -1.6034550110558430E+00    8.3930971168623483E+00    8.3922716223161515E+00
N   -1.6064024614253212E+00    8.3968009149854161E+00    1.0390856194250302E+01
Ga   -1.5803735070283136E+00    1.0254557957810176E+01    1.1029423114398339E+01
N   -1.5645339683060111E+00    1.0265306605779827E+01    1.3024615832736750E+01
Ga   -1.6079112587262765E+00    8.3983235905999312E+00    1.3587758645416416E+01
N   -1.5742491889507997E+00    8.3858674211148312E+00    1.5549275814931345E+01
Ga   -1.7683201957301888E+00    1.0149542212300931E+01    1.6456550568331039E+01
N    6.4401946300958208E+00    2.0215700140358961E+00    2.4808300672661163E+00
Ga    6.4525846812163126E+00    1.3198722595764488E-02    2.8240884472911474E+00
N    6.4518997654961439E+00    3.8134733647112388E-02    4.9830768067333411E+00
Ga    6.4468437149549001E+00    1.8603162172350363E+00    5.7634389682188329E+00
N    6.4437231205189303E+00    1.8805847024166766E+00    7.7573843415408890E+00
Ga    6.4460277627024460E+00    3.4449041015386608E-02    8.4061473554441584E+00
N    6.4453022680013961E+00    3.5628802435185361E-02    1.0382109946343357E+01
Ga    6.4477125236209947E+00    1.8739578616676686E+00    1.1036660730344083E+01
N    6.4465435945333045E+00    1.8563109680913696E+00    1.3028292319158325E+01
Ga    6.4370237301086757E+00    4.0845339723970309E-02    1.3826223437329087E+01
N    6.4347732622927483E+00    4.1432404300831512E-02    1.6035306058372083E+01
Ga    6.4433472351734142E+00    2.1022030857903671E+00    1.6468950422790797E+01
Ga    6.5067667718664239E+00    3.7522993076209841E+00    1.4435020842182569E+00
N    4.9391420820280878E+00    4.6113499522031960E+00    2.3443722640846594E+00
Ga    4.7991431432075089E+00    2.8514423790079384E+00    3.2726988102589800E+00
N    4.8295930077546991E+00    2.8247830352882457E+00    5.1995367382201616E+00
Ga    4.7961691661013708E+00    4.7098089191996042E+00    5.8069592736127769E+00
N    4.8475391881609626E+00    4.6700865063387873E+00    7.8050585307473224E+00
Ga    4.8524535489672491E+00    2.8221536302919885E+00    8.4205899987389898E+00
N    4.8480972716702215E+00    2.8203761043492865E+00    1.0408189196576549E+01
Ga    4.8234347314568264E+00    4.6859469096261446E+00    1.1031532333568093E+01
N    4.8078451667767625E+00    4.6934009858254040E+00    1.3026685203675646E+01
Ga    4.8492342750435036E+00    2.8265915393810066E+00    1.3588829395703080E+01
N    4.8203344377307440E+00    2.8097536062208874E+00    1.5546543677132053E+01
Ga    5.0178816227957013E+00    4.5706985863641947E+00    1.6468359071924816E+01
N    6.4504060259510494E+00    3.7519174496505849E+00    1.7619493683179140E+01
N    3.2273781637343881E+00    7.5908762163446113E+00    2.4623006864441632E+00
Ga    3.2190275075548218E+00    5.6663684004336865E+00    1.9075938937610120E+00
N    3.2313247063537367E+00    5.6018392332612770E+00    5.2004668696520557E+00
Ga    3.2304298756092171E+00    7.4157054454931917E+00    5.7962800187015127E+00
N    3.2301858402656825E+00    7.4697589685760333E+00    7.8053072296832733E+00
Ga    3.2303774766477704E+00    5.6062801515886891E+00    8.4004748367211839E+00
N    3.2301164241053639E+00    5.6044001780092634E+00    1.0386688994219936E+01
Ga    3.2296617347503895E+00    7.4435814544107384E+00    1.1028622795282962E+01
N    3.2294496929736436E+00    7.4241956452395144E+00    1.3032840280139032E+01
Ga    3.2308321124949022E+00    5.5949868680182036E+00    1.3823920375806656E+01
N    3.2301032487182915E+00    5.5925976467971958E+00    1.6035480557368452E+01
Ga    3.2299073332708916E+00    7.5947816509246175E+00    1.6401731985510786E+01
Ga    3.2359405457582824E+00    9.2975334645315240E+00    1.4338336953830708E+00
N    1.7392580974004026E+00    1.0177578608060784E+01    2.4825648818200516E+00
Ga    1.5465325048463836E+00    8.3130322235203700E+00    3.2590216886975703E+00
N    1.6280752279518700E+00    8.3898775035458453E+00    5.2205446537313014E+00
Ga    1.6026273537098557E+00    1.0256293744517448E+01    5.7641632667997262E+00
N    1.6113113039619043E+00    1.0255104560717735E+01    7.7640466313368197E+00
Ga    1.6277347397934818E+00    8.3989081759269020E+00    8.4109124195415887E+00
N    1.6273453862129386E+00    8.3990992420493455E+00    1.0408059946682288E+01
Ga    1.6051497897771418E+00    1.0257528006491638E+01    1.1034200823454528E+01
N    1.5880891486394819E+00    1.0267990442659299E+01    1.3034558632718179E+01
Ga    1.6331216729579165E+00    8.3973932793054047E+00    1.3578755891770140E+01
N    1.6138246241912861E+00    8.3867887953898190E+00    1.5557087747635901E+01
Ga    1.7377234583021002E+00    1.0180710158115426E+01    1.6402181213829333E+01
N    3.2256938623358469E+00    9.3158335445218370E+00    1.7524023501107187E+01
N    9.6662072917273782E+00    1.8868832578753210E+00    2.5727904925854364E+00
Ga    9.6647374856113384E+00    1.3443105422071805E-01    3.2462821761091614E+00
N    9.6636277027442983E+00    3.8575733200625538E-02    5.2152586987062799E+00
Ga    9.6642970955676972E+00    1.8878291762609107E+00    5.8439570623419090E+00
N    9.6631707664272053E+00    1.8922399020593128E+00    7.8158491459948394E+00
Ga    9.6626965501425897E+00    2.2078002453983302E-02    8.4022921850338061E+00
N    9.6620622370088327E+00    2.1853363227784941E-02    1.0398446772831273E+01
Ga    9.6615971496425939E+00    1.8926284192670797E+00    1.0987992305535004E+01
N    9.6618760465528499E+00    1.8897829383930598E+00    1.2963050472288767E+01
Ga    9.6617122795289792E+00    2.3981980999878857E-02    1.3579513125808617E+01
N    9.6627281143743673E+00    4.3865176401444210E-02    1.5556518239519201E+01
Ga    9.6605015502586991E+00    1.8942474634128321E+00    1.5831057540009997E+01
N    7.9508530495818892E+00    4.6167640308185636E+00    2.4943367823624549E+00
Ga    8.1632333606670269E+00    2.7588540637097485E+00    3.2606350943049422E+00
N    8.0556274481927339E+00    2.8184938921697120E+00    5.2176780861978251E+00
Ga    8.0746199133826391E+00    4.6960214058369152E+00    5.7573802919646582E+00
N    8.0648353536466519E+00    4.6838688187033739E+00    7.7562589057359475E+00
Ga    8.0440180554382454E+00    2.8285210705953010E+00    8.3990291290181887E+00
N    8.0425050048808675E+00    2.8272388013836731E+00    1.0393902771063612E+01
Ga    8.0718440587698304E+00    4.6859277336688656E+00    1.1038459499156836E+01
N    8.0868457742766591E+00    4.6943869105941998E+00    1.3031884977632128E+01
Ga    8.0428356600876043E+00    2.8264112021421575E+00    1.3590557619136087E+01
N    8.0702134808783406E+00    2.8045038477684732E+00    1.5548887016278840E+01
Ga    7.8809100919581017E+00    4.5776433082478887E+00    1.6468531591547379E+01
N    6.4361775781255606E+00    7.4659422869608916E+00    2.5625123681397368E+00
Ga    6.4038145945577245E+00    5.7256109672373894E+00    3.2340486289567698E+00
N    6.4365990884209001E+00    5.5950569725760424E+00    5.1970621604720142E+00
Ga    6.4437204359271263E+00    7.4591645944754283E+00    5.8256077889980524E+00
N    6.4460020865261018E+00    7.4595304112081937E+00    7.8075926087511958E+00
Ga    6.4537751182651810E+00    5.5957053657914360E+00    8.4145124679502796E+00
N    6.4512103038401190E+00    5.5953611817762399E+00    1.0407116792134628E+01
Ga    6.4492480894770789E+00    7.4636051050975531E+00    1.0996332710817263E+01
N    6.4454292791650278E+00    7.4643100177722710E+00    1.2970029305938141E+01
Ga    6.4458443073869240E+00    5.5906210194398502E+00    1.3588811458165326E+01
N    6.4407295928210786E+00    5.6269769051478491E+00    1.5547751132110530E+01
Ga    6.4470860832215999E+00    7.4600416057182386E+00    1.5825363899496583E+01
N    4.7269746763247147E+00    1.0176596949223118E+01    2.4857776402503466E+00
Ga    4.9149159956178972E+00    8.3113013212315661E+00    3.2590954867099273E+00
N    4.8338493756243173E+00    8.3888842920621727E+00    5.2191003622631769E+00
Ga    4.8601968676601990E+00    1.0256404169485499E+01    5.7629516672112571E+00
N    4.8495837762613645E+00    1.0254733096231542E+01    7.7630821194069028E+00
Ga    4.8322005874845750E+00    8.3988379578664230E+00    8.4108788480129153E+00
N    4.8318735540642930E+00    8.3992264008192361E+00    1.0407636998700477E+01
Ga    4.8544882328569976E+00    1.0257635863575775E+01    1.1033479304791980E+01
N    4.8705919684262486E+00    1.0267877065931097E+01    1.3033640719872189E+01
Ga    4.8261939666507940E+00    8.3972194957756852E+00    1.3578260082219042E+01
N    4.8453361335792424E+00    8.3878608447879657E+00    1.5555914197619730E+01
Ga    4.7177513181330966E+00    1.0178254161262222E+01    1.6402647591937196E+01
O    3.1953705046961836E+00    5.8481923989727607E+00    1.6757544037352985E-02
H    3.2340022834321496E+00    1.8917047078954747E+00    1.6115355288296753E+00
C    3.9035117715343861E+00    6.8937854414135815E+00   -5.4924862871838143E-01
H    3.4534911107967883E+00    7.9281837134960469E+00   -2.8888307080769504E-01
H    4.9579562663807337E+00    6.9703530176692174E+00   -2.2489698788713544E-01
H    3.8450547816592890E+00    6.8471930783500223E+00   -1.6491376990401339E+00
     &END COORD
     &KIND C
       BASIS_SET DZVP-MOLOPT-SR-GTH-q4
       POTENTIAL GTH-PBE-q4
       &POTENTIAL
 2 2
  0.3384712400000000E+00 2 -0.8803673979999999E+01  0.1339210850000000E+01
 2
  0.3025757500000000E+00 1  0.9622486650000001E+01
  0.2915069400000000E+00 0
         # Potential name:  GTH-PBE-Q4  for symbol:  C
         # Potential read from the potential filename: GTH_POTENTIALS
       &END POTENTIAL
     &END KIND
     &KIND O
       BASIS_SET DZVP-MOLOPT-SR-GTH-q6
       POTENTIAL GTH-PBE-q6
       &POTENTIAL
 2 4
  0.2445543000000000E+00 2 -0.1666721480000000E+02  0.2487311320000000E+01
 2
  0.2209559200000000E+00 1  0.1833745811000000E+02
  0.2113324700000000E+00 0
         # Potential name:  GTH-PBE-Q6  for symbol:  O
         # Potential read from the potential filename: GTH_POTENTIALS
       &END POTENTIAL
     &END KIND
     &KIND H
       BASIS_SET DZVP-MOLOPT-SR-GTH-q1
       POTENTIAL GTH-PBE-q1
       &POTENTIAL
 1
  0.2000000000000000E+00 2 -0.4178900440000000E+01  0.7244633100000000E+00
 0
         # Potential name:  GTH-PBE-Q1  for symbol:  H
         # Potential read from the potential filename: GTH_POTENTIALS
       &END POTENTIAL
     &END KIND
     &KIND N
       BASIS_SET DZVP-MOLOPT-SR-GTH
       POTENTIAL GTH-PBE-q5
       &POTENTIAL
 2 3
  0.2837905100000000E+00 2 -0.1241522559000000E+02  0.1868095920000000E+01
 2
  0.2554050000000000E+00 1  0.1363026257000000E+02
  0.2454945300000000E+00 0
         # Potential name:  GTH-PBE-Q5  for symbol:  N
         # Potential read from the potential filename: GTH_POTENTIALS
       &END POTENTIAL
     &END KIND
     &KIND Ga
       BASIS_SET DZVP-MOLOPT-SR-GTH
       POTENTIAL GTH-PBE-q13
       &POTENTIAL
 2 1 10
  0.4900000000000000E+00 0
 3
  0.4167772300000000E+00 3  0.1047568975000000E+02 -0.4921768140000000E+01  0.8707055900000000E+00
  0.7770178090000000E+01 -0.2248152160000000E+01
  0.1784415450000000E+01
  0.5696265200000000E+00 2  0.1777985340000000E+01  0.1958597600000000E+00
 -0.2317443900000000E+00
  0.2381265000000000E+00 1 -0.1624868022000000E+02
         # Potential name:  GTH-PBE-Q13  for symbol:  GA
         # Potential read from the potential filename: GTH_POTENTIALS
       &END POTENTIAL
     &END KIND
     &TOPOLOGY
       NUMBER_OF_ATOMS  206
       MULTIPLE_UNIT_CELL  1 1 1
     &END TOPOLOGY
   &END SUBSYS
 &END FORCE_EVAL
