 # Version information for this restart file 
 # current date 2019-06-24 16:14:25.459
 # current working dir /scratch/rzk/rzk/GaN-carbene/443-adatoms-both-2x2/03-DissMethanol/01-O-GaSur-H-NSur
 # Program compiled at                              Sun Apr  7 00:48:11 EDT 2019
 # Program compiled on                          beluga2.int.ets1.calculquebec.ca
 # Program compiled for                        Beluga-Linux-x86-64-intel-openmpi
 # Source code revision number                                         svn:18619
 &GLOBAL
   PRINT_LEVEL  MEDIUM
   PROJECT_NAME TEST
   RUN_TYPE  GEO_OPT
 &END GLOBAL
 &MOTION
   &GEO_OPT
     MAX_ITER  500
     STEP_START_VAL  7
   &END GEO_OPT
 &END MOTION
 &FORCE_EVAL
   METHOD  QS
   STRESS_TENSOR  ANALYTICAL
   &DFT
     BASIS_SET_FILE_NAME BASIS_MOLOPT
     POTENTIAL_FILE_NAME GTH_POTENTIALS
     UKS  T
     SURFACE_DIPOLE_CORRECTION  T
     SURF_DIP_DIR  Z
     &SCF
       MAX_SCF  80
       EPS_SCF     5.0000000000000004E-06
       &OT  T
         PRECONDITIONER  FULL_ALL
       &END OT
       &OUTER_SCF  T
         OPTIMIZER  NONE
         EPS_SCF     5.0000000000000004E-06
         MAX_SCF  4
       &END OUTER_SCF
       &PRINT
         &RESTART  OFF
           BACKUP_COPIES  1
           &EACH
             JUST_ENERGY  0
             QS_SCF  0
             MD  20
           &END EACH
         &END RESTART
       &END PRINT
     &END SCF
     &QS
       EPS_DEFAULT     1.0000000000000000E-14
       METHOD  GPW
     &END QS
     &MGRID
       NGRIDS  5
       CUTOFF     1.2000000000000000E+03
     &END MGRID
     &XC
       DENSITY_CUTOFF     1.0000000000000000E-10
       GRADIENT_CUTOFF     1.0000000000000000E-10
       TAU_CUTOFF     1.0000000000000000E-10
       &XC_FUNCTIONAL  NO_SHORTCUT
         &PBE  T
         &END PBE
       &END XC_FUNCTIONAL
       &VDW_POTENTIAL
         POTENTIAL_TYPE  PAIR_POTENTIAL
         &PAIR_POTENTIAL
           R_CUTOFF     1.0000000000000004E+01
           TYPE  DFTD3
           PARAMETER_FILE_NAME dftd3.dat
           REFERENCE_FUNCTIONAL PBE
           EPS_CN     9.9999999999999995E-07
           CALCULATE_C9_TERM  T
           REFERENCE_C9_TERM  T
           LONG_RANGE_CORRECTION  F
           VERBOSE_OUTPUT  F
         &END PAIR_POTENTIAL
       &END VDW_POTENTIAL
     &END XC
   &END DFT
   &SUBSYS
     &CELL
       A     1.2864472766435110E+01    0.0000000000000000E+00    0.0000000000000000E+00
       B    -6.4322363581020028E+00    1.1140960178524473E+01    0.0000000000000000E+00
       C     0.0000000000000000E+00    0.0000000000000000E+00    3.2000000000000000E+01
       MULTIPLE_UNIT_CELL  1 1 1
       &CELL_REF
         A     1.2982353780853531E+01    0.0000000000000000E+00    0.0000000000000000E+00
         B    -6.4911768904267628E+00    1.1243048175136114E+01    0.0000000000000000E+00
         C     0.0000000000000000E+00    0.0000000000000000E+00    3.2000000000000000E+01
         MULTIPLE_UNIT_CELL  1 1 1
       &END CELL_REF
     &END CELL
     &COORD
N    3.4155511529102761E-02    2.0348058255057340E+00    2.4729704767507519E+00
Ga    1.3155512872450679E-02    4.7480655946961152E-02    2.8272033496013598E+00
N    2.2964371816293749E-02    5.1554215355097813E-02    4.9782997188109723E+00
Ga    1.8420219956882002E-02    1.8774025392489662E+00    5.7633046603684024E+00
N    1.9960170644413366E-02    1.8933894937946092E+00    7.7491219571748449E+00
Ga    1.9528087363846772E-02    4.8001341554891837E-02    8.4071587754226531E+00
N    2.1191946686780119E-02    4.8144793974155844E-02    1.0374919545689766E+01
Ga    2.0195393882443742E-02    1.8869803122819111E+00    1.1031328100771681E+01
N    2.1582033278877005E-02    1.8680564150219132E+00    1.3020365851599779E+01
Ga    1.9477248293062514E-02    4.7801556674293436E-02    1.3832358263749233E+01
N    1.8943366417252805E-02    4.5741768733931779E-02    1.6016282489392530E+01
Ga    2.0373631453716543E-02    2.0970471356815041E+00    1.6437308095462157E+01
Ga   -1.4391935313423164E-02    3.7861440237214783E+00    1.4358880338632853E+00
N   -1.4772138088913418E+00    4.6309602818851729E+00    2.4844876694378106E+00
Ga   -1.6839189006574524E+00    2.7716313725668962E+00    3.2430607858987814E+00
N   -1.5902528743499738E+00    2.8292346697932538E+00    5.2016316834011374E+00
Ga   -1.6070115563933416E+00    4.7042755705870087E+00    5.7523940145752706E+00
N   -1.5985058981110642E+00    4.6935548120509880E+00    7.7447007295323775E+00
Ga   -1.5780492343091947E+00    2.8399127201064744E+00    8.3984553804369462E+00
N   -1.5771972766534788E+00    2.8391684561270241E+00    1.0386287018089771E+01
Ga   -1.6039669967214900E+00    4.6993342534872111E+00    1.1029522357515869E+01
N   -1.6197010007580419E+00    4.7095866923861136E+00    1.3019067012988069E+01
Ga   -1.5752456740763578E+00    2.8407727384439254E+00    1.3576147881893007E+01
N   -1.6079709199341201E+00    2.8221921403751207E+00    1.5534594979522621E+01
Ga   -1.4226730418521658E+00    4.5954358113094349E+00    1.6436846449804470E+01
N    1.3675339927426495E-02    3.7594488015922125E+00    1.7563105345806061E+01
N   -3.1968098848360391E+00    7.5946781333708238E+00    2.4750742381693902E+00
Ga   -3.1900721695306702E+00    5.6198445433217366E+00    2.8233715741866603E+00
N   -3.1936870749630959E+00    5.6173248072604531E+00    4.9686383633519560E+00
Ga   -3.1978946592939157E+00    7.4463215495116035E+00    5.7536172843940800E+00
N   -3.1977354918850383E+00    7.4650170452980253E+00    7.7472016783627708E+00
Ga   -3.1956925019155551E+00    5.6182105605145471E+00    8.3996168559224085E+00
N   -3.1958768975272256E+00    5.6181514758142583E+00    1.0370607012224188E+01
Ga   -3.1960746073905955E+00    7.4556656265613350E+00    1.1029891021803524E+01
N   -3.1947687426694200E+00    7.4373819716404954E+00    1.3019097566689096E+01
Ga   -3.1959703055873652E+00    5.6175854599833537E+00    1.3832803444925302E+01
N   -3.1976706859345665E+00    5.6183808684249383E+00    1.6017652926170040E+01
Ga   -3.1961419297664633E+00    7.6627658082264922E+00    1.6434387631526327E+01
Ga   -3.1934372913332902E+00    9.2944267001904297E+00    1.3777040488485814E+00
N   -4.6979026603767133E+00    1.0206736356938611E+01    2.4649615890236261E+00
Ga   -4.9062582064586078E+00    8.3492353453975738E+00    3.2272161787077875E+00
N   -4.8067432955624056E+00    8.4040852298260464E+00    5.1948553265687503E+00
Ga   -4.8354635408287949E+00    1.0270586915031643E+01    5.7643611734110589E+00
N   -4.8131318160434580E+00    1.0265686307016344E+01    7.7514886160613576E+00
Ga   -4.7949218733608614E+00    8.4076764338492200E+00    8.4006512988636413E+00
N   -4.7928216039691245E+00    8.4100247680774096E+00    1.0388111980540945E+01
Ga   -4.8192867757181101E+00    1.0269287622339393E+01    1.1031462683859143E+01
N   -4.8348241460077652E+00    1.0279703789898258E+01    1.3020002920935994E+01
Ga   -4.7930633443971127E+00    8.4092643446273616E+00    1.3574728549456314E+01
N   -4.8247476704741308E+00    8.3905539736170027E+00    1.5533053677999494E+01
Ga   -4.6411008618037934E+00    1.0164896227366466E+01    1.6434650837710731E+01
N   -3.2024714174519047E+00    9.3264824911822455E+00    1.7559236729089466E+01
N    3.2416384644604563E+00    1.9077890501441286E+00    2.6523653257670738E+00
Ga    3.2371259315716778E+00    7.1351235317088785E-02    3.2744468433252574E+00
N    3.2352358233235714E+00    6.1390531418566902E-02    5.2064317475431592E+00
Ga    3.2365191908402489E+00    1.9088920280323771E+00    5.8586468904148985E+00
N    3.2354139454029616E+00    1.9050143085651916E+00    7.8113017188873499E+00
Ga    3.2353747506929067E+00    3.6623217091737055E-02    8.4018152835796158E+00
N    3.2355130904950973E+00    3.6110179027739019E-02    1.0385948802938929E+01
Ga    3.2352184091082417E+00    1.9044429435045909E+00    1.0986235069025915E+01
N    3.2371325052131521E+00    1.9050749703694649E+00    1.2951870756082574E+01
Ga    3.2373751870780940E+00    3.6289153995018260E-02    1.3577359212934590E+01
N    3.2381232560177708E+00    7.1558024169149193E-02    1.5535002506028897E+01
Ga    3.2403476212337665E+00    1.9081241630369499E+00    1.5816551881282674E+01
N    1.5104343749200997E+00    4.6103343804767976E+00    2.4148301988635970E+00
Ga    1.6737738082790046E+00    2.8440107021320835E+00    3.2832075464275468E+00
N    1.6393462042689559E+00    2.8342755991882140E+00    5.2043974959013264E+00
Ga    1.6737125595798348E+00    4.7234184698548347E+00    5.7990037178695566E+00
N    1.6206137674978036E+00    4.6836329532485061E+00    7.7915362267813686E+00
Ga    1.6149933054144980E+00    2.8357808715388266E+00    8.4103185024666995E+00
N    1.6174049637411736E+00    2.8350474060575093E+00    1.0393210152850312E+01
Ga    1.6442766953868240E+00    4.6989930171300855E+00    1.1021362128892209E+01
N    1.6618098283988756E+00    4.7086642784012307E+00    1.3014433460285424E+01
Ga    1.6185441938374343E+00    2.8415197103992260E+00    1.3575340186086777E+01
N    1.6487903626712053E+00    2.8239969353199812E+00    1.5533722206696931E+01
Ga    1.4559501745934043E+00    4.5909623301157314E+00    1.6438649443469405E+01
N    2.5695601966833331E-02    7.4809896297163494E+00    2.5582695649881484E+00
Ga    5.5883174060238253E-02    5.7442014524269425E+00    3.2430175212402967E+00
N    2.8873697683894063E-02    5.6128851221010736E+00    5.1952119245960873E+00
Ga    2.0310675056357919E-02    7.4725033665628295E+00    5.8314283846097590E+00
N    1.7850695296860817E-02    7.4731864361530365E+00    7.8011926527433912E+00
Ga    1.4674548670724133E-02    5.6057416661092443E+00    8.4050973373049196E+00
N    1.6745954669605257E-02    5.6060151979746617E+00    1.0392099572753576E+01
Ga    1.9021283173890995E-02    7.4744251701065894E+00    1.0982018054821129E+01
N    2.0556088225994078E-02    7.4751175546494553E+00    1.2949163884604737E+01
Ga    2.2585947555662365E-02    5.6057443975578227E+00    1.3572939442585639E+01
N    2.2189452051841436E-02    5.6405235772183602E+00    1.5531594314858765E+01
Ga    2.6007162546105456E-02    7.4769531447847273E+00    1.5814866901407553E+01
N   -1.6927014211551705E+00    1.0205694548532273E+01    2.4670858333103354E+00
Ga   -1.4889889216150753E+00    8.3493189640912338E+00    3.2336443541777951E+00
N   -1.5891402209576686E+00    8.4043401816710812E+00    5.1986646731395005E+00
Ga   -1.5580645777117494E+00    1.0271187857576029E+01    5.7651954869665341E+00
N   -1.5803904753412696E+00    1.0266369771810608E+01    7.7517553568345612E+00
Ga   -1.5984080683599391E+00    8.4070829707240318E+00    8.3975822279043708E+00
N   -1.6004878699150848E+00    8.4098091678444131E+00    1.0385162898718876E+01
Ga   -1.5738905063975659E+00    1.0268594769326734E+01    1.1029033641107759E+01
N   -1.5556735531502668E+00    1.0278984153777129E+01    1.3018587816186349E+01
Ga   -1.5970627945317561E+00    8.4093135801297372E+00    1.3575172975382204E+01
N   -1.5663022245505287E+00    8.3919531927151905E+00    1.5533458259661776E+01
Ga   -1.7581381038833099E+00    1.0160623507537093E+01    1.6436482848101242E+01
N    6.4512611196689944E+00    2.0301556648393659E+00    2.4792253500661392E+00
Ga    6.4639385821669970E+00    4.3920277265003485E-02    2.8268665447879915E+00
N    6.4489878863659253E+00    4.9731745624566275E-02    4.9795228415529555E+00
Ga    6.4556158906060501E+00    1.8749851193532214E+00    5.7658254202595964E+00
N    6.4523144516342823E+00    1.8928877184669188E+00    7.7511583617568505E+00
Ga    6.4523099430895900E+00    4.7010652473840807E-02    8.4064280897553978E+00
N    6.4509474492924141E+00    4.7670574215233144E-02    1.0373815937431472E+01
Ga    6.4516413272333324E+00    1.8873571641990428E+00    1.1027891223016397E+01
N    6.4523670283661110E+00    1.8685765822296931E+00    1.3016468686833907E+01
Ga    6.4541620596811473E+00    4.8365847755758591E-02    1.3826527500054047E+01
N    6.4526916551856814E+00    4.7311010327348045E-02    1.6016617982645531E+01
Ga    6.4540415511057567E+00    2.0890475796351313E+00    1.6435512187012826E+01
Ga    6.5019193398088273E+00    3.7794203358671430E+00    1.4476601178341564E+00
N    4.9665911037083541E+00    4.6207017532725825E+00    2.4108692830775298E+00
Ga    4.8094467423427760E+00    2.8468266669998408E+00    3.2834038432997077E+00
N    4.8358836888915935E+00    2.8329525813445744E+00    5.2057319861920952E+00
Ga    4.8006405674094914E+00    4.7235900743939840E+00    5.7980489023235924E+00
N    4.8516884953720112E+00    4.6839749043242049E+00    7.7918236703980472E+00
Ga    4.8561965404142393E+00    2.8356944727254296E+00    8.4093946917705580E+00
N    4.8533616367467891E+00    2.8349075729619071E+00    1.0392540154011533E+01
Ga    4.8273917953845586E+00    4.6989533015037228E+00    1.1020182241725854E+01
N    4.8122771288793516E+00    4.7081685566090723E+00    1.3011890244120083E+01
Ga    4.8562962629585336E+00    2.8417096247903082E+00    1.3573597738371239E+01
N    4.8326445424770963E+00    2.8272416794311819E+00    1.5534288296246570E+01
Ga    5.0033586000346286E+00    4.6013088936738828E+00    1.6435134023590418E+01
N    6.4478901849425725E+00    3.7607302605022377E+00    1.7576549583616284E+01
N    3.2346615811485906E+00    7.6193937561169731E+00    2.4696123735526925E+00
Ga    3.2102553350168925E+00    5.6391232854852769E+00    2.0156310577842942E+00
N    3.2366271388762815E+00    5.6150851341626487E+00    5.1938858257144931E+00
Ga    3.2342550267610375E+00    7.4236680209362538E+00    5.7846942780071364E+00
N    3.2351457156568073E+00    7.4807108919944785E+00    7.7890340044236979E+00
Ga    3.2359569347170241E+00    5.6190611689778986E+00    8.3907675326620090E+00
N    3.2358895768104809E+00    5.6168608664296933E+00    1.0371772136054810E+01
Ga    3.2357249251772688E+00    7.4552859174958819E+00    1.1017440699085963E+01
N    3.2365004694863759E+00    7.4370802722440112E+00    1.3009521146957461E+01
Ga    3.2374565374014557E+00    5.6188930236256995E+00    1.3823245151899066E+01
N    3.2371983847410193E+00    5.6193156605041148E+00    1.6015811256763111E+01
Ga    3.2382938801872467E+00    7.6566299804268692E+00    1.6432278117416864E+01
Ga    3.2407904791646769E+00    9.3369105405474730E+00    1.4773371982193495E+00
N    1.7401642843939544E+00    1.0201825096545601E+01    2.4871971402309061E+00
Ga    1.5356050552766061E+00    8.3344431229892031E+00    3.2590397420375905E+00
N    1.6293917873999137E+00    8.4027523174695613E+00    5.2089887877231806E+00
Ga    1.6069584636820449E+00    1.0272159160696336E+01    5.7589370703689600E+00
N    1.6177598180969015E+00    1.0269360471198560E+01    7.7507449385245808E+00
Ga    1.6363371161131182E+00    8.4116655339558317E+00    8.3994471406367506E+00
N    1.6354703586492472E+00    8.4106047253574783E+00    1.0388934334782325E+01
Ga    1.6124389775653805E+00    1.0267726738055266E+01    1.1025732184842314E+01
N    1.5963861266759019E+00    1.0278294861255834E+01    1.3014286551624380E+01
Ga    1.6414984790102212E+00    8.4088177859514648E+00    1.3569254062925406E+01
N    1.6174359928640274E+00    8.3960261174945927E+00    1.5529491169955323E+01
Ga    1.7872617852020580E+00    1.0169467444678707E+01    1.6432360024837287E+01
N    3.2318062010155266E+00    9.3280590708439828E+00    1.7573582060403520E+01
N    9.6749828466522398E+00    1.9058397865412657E+00    2.5451127203933441E+00
Ga    9.6698307690757570E+00    1.6899160163931534E-01    3.2469078186570042E+00
N    9.6681621727131652E+00    5.5356146639733608E-02    5.2052588704009253E+00
Ga    9.6708238471170649E+00    1.9044920630487299E+00    5.8420762696232860E+00
N    9.6689058123545735E+00    1.9050927474117607E+00    7.8085098238740542E+00
Ga    9.6678313209686806E+00    3.6132303845694526E-02    8.3988196532695341E+00
N    9.6682527056890599E+00    3.6180857137455100E-02    1.0386105953925545E+01
Ga    9.6676912426725288E+00    1.9056984926320781E+00    1.0984588892237975E+01
N    9.6679027065719829E+00    1.9052830800996992E+00    1.2952139364119452E+01
Ga    9.6694083595868641E+00    3.2773699377096607E-02    1.3571973381183971E+01
N    9.6705312191340678E+00    6.3273968937127209E-02    1.5530612505062409E+01
Ga    9.6659253730319961E+00    1.9023948416116092E+00    1.5809857962536316E+01
N    7.9637788467117456E+00    4.6300694795537423E+00    2.4909293748463757E+00
Ga    8.1716093440986111E+00    2.7688747074563231E+00    3.2504535880432295E+00
N    8.0653000582807390E+00    2.8280859482343126E+00    5.2059692492291134E+00
Ga    8.0836133290384424E+00    4.7043536225657521E+00    5.7544944903604023E+00
N    8.0713925569775586E+00    4.6936898332101933E+00    7.7463690146944026E+00
Ga    8.0508369143499809E+00    2.8395869481228959E+00    8.3974673243041167E+00
N    8.0490981645857858E+00    2.8394901213044745E+00    1.0384873479181230E+01
Ga    8.0765110013929693E+00    4.6994079410275811E+00    1.1028128296427528E+01
N    8.0935670982232004E+00    4.7089733311900499E+00    1.3016184928451057E+01
Ga    8.0480599534547519E+00    2.8416732767348081E+00    1.3575175187947446E+01
N    8.0755981720302064E+00    2.8275166832951379E+00    1.5534687818200210E+01
Ga    7.8993636362519579E+00    4.5982218945508828E+00    1.6435040555973966E+01
N    6.4414021830673427E+00    7.4789717727194507E+00    2.5543555149476460E+00
Ga    6.4223267863259332E+00    5.7412915746933182E+00    3.2463613599774219E+00
N    6.4479486064213258E+00    5.6140785297903637E+00    5.1993493458804858E+00
Ga    6.4525788069725314E+00    7.4725097077550195E+00    5.8365444587267472E+00
N    6.4535071483187867E+00    7.4735902050484677E+00    7.8052986127298363E+00
Ga    6.4574481545019813E+00    5.6052876665914750E+00    8.4055433420571983E+00
N    6.4552558171653329E+00    5.6061587459000171E+00    1.0392621701334834E+01
Ga    6.4512779944502521E+00    7.4745235349747885E+00    1.0982366349043723E+01
N    6.4521664972616382E+00    7.4743694710650530E+00    1.2950201786564339E+01
Ga    6.4519861530982165E+00    5.6041027677006383E+00    1.3571620025992562E+01
N    6.4543722758844817E+00    5.6339880810577867E+00    1.5531506636927245E+01
Ga    6.4479841679446395E+00    7.4735104021279168E+00    1.5809517679819290E+01
N    4.7372781148840089E+00    1.0199914585858583E+01    2.4904281580807308E+00
Ga    4.9349265080157778E+00    8.3327636657855582E+00    3.2691475152141365E+00
N    4.8423854655304446E+00    8.4025985876338112E+00    5.2144731248251475E+00
Ga    4.8649813495869463E+00    1.0274517559748761E+01    5.7607968087284958E+00
N    4.8540949233820649E+00    1.0270228790463429E+01    7.7518680086575795E+00
Ga    4.8338129089084347E+00    8.4122952790071892E+00    8.3995980291398613E+00
N    4.8355690809786420E+00    8.4112068374103064E+00    1.0389524880768560E+01
Ga    4.8600475527834872E+00    1.0268299099199979E+01    1.1027139735116251E+01
N    4.8773908668220756E+00    1.0278817504692119E+01    1.3014908035929951E+01
Ga    4.8316969115102557E+00    8.4095743440586421E+00    1.3569619978161150E+01
N    4.8581335366348988E+00    8.3967397971583040E+00    1.5528677680334020E+01
Ga    4.6840439483280933E+00    1.0166428997693096E+01    1.6431990517060626E+01
O    3.1428008591934709E+00    5.6170175891195093E+00    1.8192008729993459E-01
H    3.2421387309657161E+00    1.9267555196816386E+00    1.6301640113572458E+00
C    3.9868385297948263E+00    6.5894420442704416E+00   -4.3603180812342890E-01
H    3.3824404230055634E+00    7.2839626231910453E+00   -1.0368591141194639E+00
H    4.5693919767142779E+00    7.1949739265227937E+00    2.8600750793433943E-01
H    4.7291442279640146E+00    6.1038416560619373E+00   -1.0777190981747811E+00
     &END COORD
     &KIND C
       BASIS_SET DZVP-MOLOPT-SR-GTH-q4
       POTENTIAL GTH-PBE-q4
       &POTENTIAL
 2 2
  0.3384712400000000E+00 2 -0.8803673979999999E+01  0.1339210850000000E+01
 2
  0.3025757500000000E+00 1  0.9622486650000001E+01
  0.2915069400000000E+00 0
         # Potential name:  GTH-PBE-Q4  for symbol:  C
         # Potential read from the potential filename: GTH_POTENTIALS
       &END POTENTIAL
     &END KIND
     &KIND O
       BASIS_SET DZVP-MOLOPT-SR-GTH-q6
       POTENTIAL GTH-PBE-q6
       &POTENTIAL
 2 4
  0.2445543000000000E+00 2 -0.1666721480000000E+02  0.2487311320000000E+01
 2
  0.2209559200000000E+00 1  0.1833745811000000E+02
  0.2113324700000000E+00 0
         # Potential name:  GTH-PBE-Q6  for symbol:  O
         # Potential read from the potential filename: GTH_POTENTIALS
       &END POTENTIAL
     &END KIND
     &KIND H
       BASIS_SET DZVP-MOLOPT-SR-GTH-q1
       POTENTIAL GTH-PBE-q1
       &POTENTIAL
 1
  0.2000000000000000E+00 2 -0.4178900440000000E+01  0.7244633100000000E+00
 0
         # Potential name:  GTH-PBE-Q1  for symbol:  H
         # Potential read from the potential filename: GTH_POTENTIALS
       &END POTENTIAL
     &END KIND
     &KIND N
       BASIS_SET DZVP-MOLOPT-SR-GTH
       POTENTIAL GTH-PBE-q5
       &POTENTIAL
 2 3
  0.2837905100000000E+00 2 -0.1241522559000000E+02  0.1868095920000000E+01
 2
  0.2554050000000000E+00 1  0.1363026257000000E+02
  0.2454945300000000E+00 0
         # Potential name:  GTH-PBE-Q5  for symbol:  N
         # Potential read from the potential filename: GTH_POTENTIALS
       &END POTENTIAL
     &END KIND
     &KIND Ga
       BASIS_SET DZVP-MOLOPT-SR-GTH
       POTENTIAL GTH-PBE-q13
       &POTENTIAL
 2 1 10
  0.4900000000000000E+00 0
 3
  0.4167772300000000E+00 3  0.1047568975000000E+02 -0.4921768140000000E+01  0.8707055900000000E+00
  0.7770178090000000E+01 -0.2248152160000000E+01
  0.1784415450000000E+01
  0.5696265200000000E+00 2  0.1777985340000000E+01  0.1958597600000000E+00
 -0.2317443900000000E+00
  0.2381265000000000E+00 1 -0.1624868022000000E+02
         # Potential name:  GTH-PBE-Q13  for symbol:  GA
         # Potential read from the potential filename: GTH_POTENTIALS
       &END POTENTIAL
     &END KIND
     &TOPOLOGY
       NUMBER_OF_ATOMS  206
       MULTIPLE_UNIT_CELL  1 1 1
     &END TOPOLOGY
   &END SUBSYS
 &END FORCE_EVAL
