 # Version information for this restart file 
 # current date 2019-06-24 17:56:16.162
 # current working dir /scratch/rzk/rzk/GaN-carbene/443-adatoms-both-2x2/03-DissMethanol/01-O-GaSur-H-NSur
 # Program compiled at                              Sun Apr  7 00:48:11 EDT 2019
 # Program compiled on                          beluga2.int.ets1.calculquebec.ca
 # Program compiled for                        Beluga-Linux-x86-64-intel-openmpi
 # Source code revision number                                         svn:18619
 &GLOBAL
   PRINT_LEVEL  MEDIUM
   PROJECT_NAME TEST
   RUN_TYPE  GEO_OPT
 &END GLOBAL
 &MOTION
   &GEO_OPT
     MAX_ITER  500
     STEP_START_VAL  27
   &END GEO_OPT
 &END MOTION
 &FORCE_EVAL
   METHOD  QS
   STRESS_TENSOR  ANALYTICAL
   &DFT
     BASIS_SET_FILE_NAME BASIS_MOLOPT
     POTENTIAL_FILE_NAME GTH_POTENTIALS
     UKS  T
     SURFACE_DIPOLE_CORRECTION  T
     SURF_DIP_DIR  Z
     &SCF
       MAX_SCF  80
       EPS_SCF     5.0000000000000004E-06
       &OT  T
         PRECONDITIONER  FULL_ALL
       &END OT
       &OUTER_SCF  T
         OPTIMIZER  NONE
         EPS_SCF     5.0000000000000004E-06
         MAX_SCF  4
       &END OUTER_SCF
       &PRINT
         &RESTART  OFF
           BACKUP_COPIES  1
           &EACH
             JUST_ENERGY  0
             QS_SCF  0
             MD  20
           &END EACH
         &END RESTART
       &END PRINT
     &END SCF
     &QS
       EPS_DEFAULT     1.0000000000000000E-14
       METHOD  GPW
     &END QS
     &MGRID
       NGRIDS  5
       CUTOFF     1.2000000000000000E+03
     &END MGRID
     &XC
       DENSITY_CUTOFF     1.0000000000000000E-10
       GRADIENT_CUTOFF     1.0000000000000000E-10
       TAU_CUTOFF     1.0000000000000000E-10
       &XC_FUNCTIONAL  NO_SHORTCUT
         &PBE  T
         &END PBE
       &END XC_FUNCTIONAL
       &VDW_POTENTIAL
         POTENTIAL_TYPE  PAIR_POTENTIAL
         &PAIR_POTENTIAL
           R_CUTOFF     1.0000000000000004E+01
           TYPE  DFTD3
           PARAMETER_FILE_NAME dftd3.dat
           REFERENCE_FUNCTIONAL PBE
           EPS_CN     9.9999999999999995E-07
           CALCULATE_C9_TERM  T
           REFERENCE_C9_TERM  T
           LONG_RANGE_CORRECTION  F
           VERBOSE_OUTPUT  F
         &END PAIR_POTENTIAL
       &END VDW_POTENTIAL
     &END XC
   &END DFT
   &SUBSYS
     &CELL
       A     1.2864472766435110E+01    0.0000000000000000E+00    0.0000000000000000E+00
       B    -6.4322363581020028E+00    1.1140960178524473E+01    0.0000000000000000E+00
       C     0.0000000000000000E+00    0.0000000000000000E+00    3.2000000000000000E+01
       MULTIPLE_UNIT_CELL  1 1 1
       &CELL_REF
         A     1.2982353780853531E+01    0.0000000000000000E+00    0.0000000000000000E+00
         B    -6.4911768904267628E+00    1.1243048175136114E+01    0.0000000000000000E+00
         C     0.0000000000000000E+00    0.0000000000000000E+00    3.2000000000000000E+01
         MULTIPLE_UNIT_CELL  1 1 1
       &END CELL_REF
     &END CELL
     &COORD
N    2.9156574228752626E-02    2.0402055449649117E+00    2.4770965823958746E+00
Ga    2.0433003230365399E-02    3.7776141528952173E-02    2.8302536053625404E+00
N    1.3651611098217945E-02    5.3552863570872723E-02    4.9844810192147095E+00
Ga    1.8749872345505625E-02    1.8766639236080300E+00    5.7631892111669165E+00
N    2.0279044312002465E-02    1.8944903126381318E+00    7.7576971368680132E+00
Ga    1.6845295855246512E-02    4.7786751815289699E-02    8.4043138104454442E+00
N    1.8288723741275686E-02    4.8244361175838107E-02    1.0380963337148717E+01
Ga    1.5700121528090531E-02    1.8862702059050882E+00    1.1035173902850183E+01
N    1.7714468055759148E-02    1.8680458343424675E+00    1.3029639890245008E+01
Ga    2.7184998502957025E-02    4.8527723292863624E-02    1.3822869293615026E+01
N    2.8587985271652721E-02    5.0784579338105436E-02    1.6035638994135638E+01
Ga    2.2237015888622050E-02    2.0899115828825363E+00    1.6441336513898204E+01
Ga   -3.5059278012629091E-02    3.7715953969669660E+00    1.4285675893083147E+00
N   -1.4815291360261229E+00    4.6331390077074763E+00    2.4870055687676333E+00
Ga   -1.6909684970348697E+00    2.7807483191506481E+00    3.2559135037057190E+00
N   -1.5890747576600710E+00    2.8342139310697467E+00    5.2156836424314399E+00
Ga   -1.6080980794997015E+00    4.7115384888466165E+00    5.7563035898498951E+00
N   -1.6005633228958043E+00    4.6982264686064434E+00    7.7563162136097104E+00
Ga   -1.5794293260228323E+00    2.8431299092312856E+00    8.3989841127630580E+00
N   -1.5787712370912828E+00    2.8406195739327718E+00    1.0394642087669915E+01
Ga   -1.6082535112274208E+00    4.6994508009247795E+00    1.1038143701734521E+01
N   -1.6233678448105613E+00    4.7081418004792610E+00    1.3034372951264052E+01
Ga   -1.5790581231925818E+00    2.8391346037575054E+00    1.3585699008889293E+01
N   -1.6021513825075242E+00    2.8186980502746923E+00    1.5551573337706431E+01
Ga   -1.4419738383304948E+00    4.6073941704957164E+00    1.6440023725110979E+01
N    8.2874975285630089E-03    3.7676578538894390E+00    1.7572741168116707E+01
N   -3.1985979852324897E+00    7.5987338266090356E+00    2.4807145208081298E+00
Ga   -3.1975658904013016E+00    5.6422839198016499E+00    2.8245015304985732E+00
N   -3.1977043482809839E+00    5.6157227366627769E+00    4.9804596130885264E+00
Ga   -3.1992324148406697E+00    7.4515658135218681E+00    5.7478440185677844E+00
N   -3.1991741842384571E+00    7.4649801287769861E+00    7.7516525339128437E+00
Ga   -3.1987632033198667E+00    5.6202906911375052E+00    8.4030711196333971E+00
N   -3.1981854569740253E+00    5.6181320613627133E+00    1.0380837304773964E+01
Ga   -3.1984483591407709E+00    7.4579127354740145E+00    1.1031375477084602E+01
N   -3.1975122150586506E+00    7.4385808283192256E+00    1.3028310392584428E+01
Ga   -3.2017361946520060E+00    5.6202206838840603E+00    1.3843149331613152E+01
N   -3.1989820906313446E+00    5.6208640320299690E+00    1.6037233687244772E+01
Ga   -3.1964199145384704E+00    7.6693042149112030E+00    1.6466845293882731E+01
Ga   -3.1967697098594550E+00    9.2945118503651898E+00    1.2712757950820137E+00
N   -4.7051218819115030E+00    1.0212478344491585E+01    2.4705049627122206E+00
Ga   -4.8923956760796008E+00    8.3587412247830759E+00    3.2150681243661849E+00
N   -4.8116743389853305E+00    8.4053531425672237E+00    5.1979190521283103E+00
Ga   -4.8379418402988170E+00    1.0271336099018544E+01    5.7578210039218760E+00
N   -4.8152410128820495E+00    1.0267493720077576E+01    7.7548434661594348E+00
Ga   -4.7988136713633684E+00    8.4063515440402767E+00    8.3912825406930622E+00
N   -4.7949361274589544E+00    8.4092502853319715E+00    1.0389723028796929E+01
Ga   -4.8199985579191909E+00    1.0266457838758054E+01    1.1028776112297491E+01
N   -4.8352818614864690E+00    1.0277548604734507E+01    1.3023865518622140E+01
Ga   -4.7920156729696606E+00    8.4108933267708608E+00    1.3589771755443712E+01
N   -4.8245163794914694E+00    8.3984345802714291E+00    1.5550477397205881E+01
Ga   -4.6239465290859076E+00    1.0157577868813899E+01    1.6468215850877570E+01
N   -3.1962806036341211E+00    9.3234074038827632E+00    1.7615026739297033E+01
N    3.2369117241849521E+00    1.9062537350473265E+00    2.6406981763888200E+00
Ga    3.2340579526417841E+00    4.5710069037824763E-02    3.2674937115604417E+00
N    3.2333282084275941E+00    6.7662502346813952E-02    5.2072994510764019E+00
Ga    3.2329522692485329E+00    1.9133435373824961E+00    5.8558897132953307E+00
N    3.2330000428380843E+00    1.9080056619365151E+00    7.8175393327757909E+00
Ga    3.2331211876886559E+00    3.5111062819149580E-02    8.4013699115176195E+00
N    3.2341494344295554E+00    3.4838916365990347E-02    1.0393690319829204E+01
Ga    3.2342338214827113E+00    1.9005571383858850E+00    1.1000921519293126E+01
N    3.2343026853873109E+00    1.9027916250780557E+00    1.2970124256997472E+01
Ga    3.2349667605848063E+00    3.2943637558482244E-02    1.3589496156812935E+01
N    3.2343014201227795E+00    6.6299967946126998E-02    1.5548570581328248E+01
Ga    3.2378423009650490E+00    1.9041112091238732E+00    1.5823178132337834E+01
N    1.5244950853470152E+00    4.6244619881816860E+00    2.3389173507828978E+00
Ga    1.6689778385268479E+00    2.8693306524808784E+00    3.2693821099913767E+00
N    1.6358724182601956E+00    2.8399103914117902E+00    5.1978146050346137E+00
Ga    1.6690003487151499E+00    4.7247457993474153E+00    5.8045979171281417E+00
N    1.6162455174083179E+00    4.6838499063003285E+00    7.8045402102259542E+00
Ga    1.6114413841857915E+00    2.8365031920338293E+00    8.4210020252435687E+00
N    1.6152892721865879E+00    2.8339482662006077E+00    1.0409625370828964E+01
Ga    1.6410454638916070E+00    4.7001063723201186E+00    1.1030285775337047E+01
N    1.6574065108398808E+00    4.7072873348167974E+00    1.3028132901961943E+01
Ga    1.6159598907855570E+00    2.8393204500085569E+00    1.3583746912965049E+01
N    1.6422758384036256E+00    2.8251755111657735E+00    1.5547432709059677E+01
Ga    1.4693919490444125E+00    4.5968765944370569E+00    1.6440137835595824E+01
N    2.0940948408811753E-02    7.4822003771122496E+00    2.5682164619919701E+00
Ga    6.1807839430632019E-02    5.7391060570865031E+00    3.2271961317516240E+00
N    2.9446163667420897E-02    5.6084583055366179E+00    5.1929470788236518E+00
Ga    2.5030332869482884E-02    7.4734492990661083E+00    5.8165536556281658E+00
N    1.9442793027115334E-02    7.4738267070406605E+00    7.8021115789651230E+00
Ga    1.0527816523354508E-02    5.6106201169668122E+00    8.4125420000526905E+00
N    1.2590754295520562E-02    5.6091882011895882E+00    1.0407219530654915E+01
Ga    1.3167785292183107E-02    7.4774938855872035E+00    1.0997248233942450E+01
N    1.8850035821494162E-02    7.4765757178030396E+00    1.2971245391846770E+01
Ga    1.8677424472159497E-02    5.6045158464522178E+00    1.3584630954232146E+01
N    2.6162662083778845E-02    5.6383040861213987E+00    1.5549861667130118E+01
Ga    1.7746089931252484E-02    7.4765206360209913E+00    1.5828338031427984E+01
N   -1.6911915782569718E+00    1.0212580998865411E+01    2.4717083575424956E+00
Ga   -1.5059025771145160E+00    8.3596862185691929E+00    3.2179127181615801E+00
N   -1.5867793182715311E+00    8.4055464144253076E+00    5.1999983041012570E+00
Ga   -1.5597878378298222E+00    1.0271476356842951E+01    5.7590571567675122E+00
N   -1.5827728156758756E+00    1.0267581960582133E+01    7.7557807815427031E+00
Ga   -1.5991184481344163E+00    8.4060845799121378E+00    8.3909280147461622E+00
N   -1.6018894878929921E+00    8.4095980685716754E+00    1.0390255249897642E+01
Ga   -1.5758463044528888E+00    1.0267022696360309E+01    1.1030883344994203E+01
N   -1.5592710942433836E+00    1.0277819862150920E+01    1.3025924875166432E+01
Ga   -1.6027800935693264E+00    8.4110388525371196E+00    1.3590345295941184E+01
N   -1.5682458735489131E+00    8.3970141906817624E+00    1.5550267618367545E+01
Ga   -1.7662613503386315E+00    1.0159383365042995E+01    1.6468027950200540E+01
N    6.4415863081081506E+00    2.0379496387074432E+00    2.4832132918383789E+00
Ga    6.4483064796202001E+00    3.7686180953689467E-02    2.8323444704998608E+00
N    6.4535763942469631E+00    5.2665015112146434E-02    4.9857937318939562E+00
Ga    6.4499134789712782E+00    1.8753036817720516E+00    5.7657087689467810E+00
N    6.4471782088583280E+00    1.8937445116085305E+00    7.7593458697122681E+00
Ga    6.4496037295086461E+00    4.7520861873149405E-02    8.4062050841964844E+00
N    6.4495589169150396E+00    4.8090749925105092E-02    1.0382447261202485E+01
Ga    6.4518504172131825E+00    1.8859977376493575E+00    1.1038697852390783E+01
N    6.4522129738438041E+00    1.8684438664994067E+00    1.3030740537535678E+01
Ga    6.4415807913825578E+00    5.2867463608035209E-02    1.3832568785264272E+01
N    6.4408901892553736E+00    5.2961791755653548E-02    1.6036085677658903E+01
Ga    6.4499169837900370E+00    2.1139022551364230E+00    1.6471086299764220E+01
Ga    6.5000287945469770E+00    3.7727242948154767E+00    1.4444854471006627E+00
N    4.9474549937730572E+00    4.6276835373627465E+00    2.3623032312079095E+00
Ga    4.8022516264007082E+00    2.8703239868708486E+00    3.2786958292891497E+00
N    4.8322327776415372E+00    2.8386065863720225E+00    5.2052234970859157E+00
Ga    4.7990123891180865E+00    4.7248279878778030E+00    5.8068159531063017E+00
N    4.8503763617221409E+00    4.6837204126625496E+00    7.8058295372966953E+00
Ga    4.8556502504141470E+00    2.8360252789423930E+00    8.4213617215548862E+00
N    4.8525930445102210E+00    2.8330811087892758E+00    1.0409385645765228E+01
Ga    4.8282076297345586E+00    4.6990625311434941E+00    1.1030991057574594E+01
N    4.8137901948642288E+00    4.7066734370740875E+00    1.3026720840348256E+01
Ga    4.8553204691349645E+00    2.8398171066159410E+00    1.3589785986667295E+01
N    4.8259902847378093E+00    2.8246173221139301E+00    1.5548060592478967E+01
Ga    5.0272225562336299E+00    4.5831295845019211E+00    1.6470598950954770E+01
N    6.4564036511654388E+00    3.7625835818287197E+00    1.7620870067459411E+01
N    3.2337224647062488E+00    7.6088698417565759E+00    2.3647526314552838E+00
Ga    3.2176772899009767E+00    5.6427278818951008E+00    1.8260092395246268E+00
N    3.2342080374122979E+00    5.6176494037197937E+00    5.2027368499092317E+00
Ga    3.2335474099415125E+00    7.4294680564328104E+00    5.7957070729019264E+00
N    3.2330370252402094E+00    7.4846884898142836E+00    7.8038999436583820E+00
Ga    3.2334352261887940E+00    5.6199975588176292E+00    8.3987039128015066E+00
N    3.2342147077519265E+00    5.6175564170103227E+00    1.0385738117479397E+01
Ga    3.2337146781524653E+00    7.4564693940934097E+00    1.1028507283007697E+01
N    3.2351654138696975E+00    7.4379647575490830E+00    1.3032186654642652E+01
Ga    3.2387223357541552E+00    5.6101282450264804E+00    1.3821518656799649E+01
N    3.2373016048136884E+00    5.6094334047574437E+00    1.6034490343325736E+01
Ga    3.2367568506595279E+00    7.6165711445211759E+00    1.6406526465198727E+01
Ga    3.2350261304203616E+00    9.3715870879433005E+00    1.4515106502537327E+00
N    1.7376889313656672E+00    1.0204898160734750E+01    2.4942533481617377E+00
Ga    1.5556916322618866E+00    8.3164736905169647E+00    3.2328854409569878E+00
N    1.6372070034482147E+00    8.4015514705474104E+00    5.1998515019380065E+00
Ga    1.6040227018105311E+00    1.0266194442144345E+01    5.7595644607628307E+00
N    1.6134543354874415E+00    1.0266287061581428E+01    7.7601693100200810E+00
Ga    1.6306930573938949E+00    8.4121492856062545E+00    8.4116855821592136E+00
N    1.6310952548305970E+00    8.4121885846939577E+00    1.0408485617188662E+01
Ga    1.6090396437716781E+00    1.0270645165443236E+01    1.1035705408224906E+01
N    1.5934026644902564E+00    1.0281369487984154E+01    1.3035859369573460E+01
Ga    1.6385354845632187E+00    8.4105514548394371E+00    1.3579777132143221E+01
N    1.6204250060975851E+00    8.3975908336334655E+00    1.5556482821646130E+01
Ga    1.7445705870061532E+00    1.0192994408456197E+01    1.6407383412630566E+01
N    3.2273469938441171E+00    9.3328637168772488E+00    1.7530043809180533E+01
N    9.6680059827964513E+00    1.9080189752105117E+00    2.5733908337149174E+00
Ga    9.6669513886872380E+00    1.6682553381187260E-01    3.2635910112055582E+00
N    9.6659219745247835E+00    5.4941423112968568E-02    5.2231156299438108E+00
Ga    9.6665777339925594E+00    1.9075366393152728E+00    5.8459620237076981E+00
N    9.6660399726781367E+00    1.9062980853482785E+00    7.8171907424323788E+00
Ga    9.6651588947699736E+00    3.4385189464331348E-02    8.3987827989767911E+00
N    9.6653857336723021E+00    3.4649202130813649E-02    1.0396317204106039E+01
Ga    9.6654617663592681E+00    1.9056027574386967E+00    1.0986828722922182E+01
N    9.6681149137733904E+00    1.9031320908297022E+00    1.2962731180096000E+01
Ga    9.6673924066459609E+00    3.7152565972810164E-02    1.3580491875905517E+01
N    9.6708105550462911E+00    5.8828480650692135E-02    1.5556254584525609E+01
Ga    9.6666369220196682E+00    1.9073158330857545E+00    1.5832810516119821E+01
N    7.9534235725245788E+00    4.6337873502726241E+00    2.4923956267822400E+00
Ga    8.1629464980868018E+00    2.7797696392572715E+00    3.2583202769883406E+00
N    8.0574992191020840E+00    2.8337524238476322E+00    5.2176323014293331E+00
Ga    8.0775842780098319E+00    4.7110537694596202E+00    5.7582297642825448E+00
N    8.0681228594468237E+00    4.6975387745649382E+00    7.7575551867636152E+00
Ga    8.0465872105278091E+00    2.8424386789620533E+00    8.4002431930989463E+00
N    8.0460027483767504E+00    2.8400474866752026E+00    1.0394811084264505E+01
Ga    8.0754138735863474E+00    4.6989408290387935E+00    1.1038295672421579E+01
N    8.0920230538080418E+00    4.7073353205840389E+00    1.3031815056944920E+01
Ga    8.0487446844575903E+00    2.8394413681200033E+00    1.3591163765976072E+01
N    8.0780541163109234E+00    2.8194993997217450E+00    1.5549688102285572E+01
Ga    7.8848600460903695E+00    4.5896794866893798E+00    1.6470693485786722E+01
N    6.4449364491969163E+00    7.4790821234410343E+00    2.5637800535104298E+00
Ga    6.4060354777002884E+00    5.7387356744019273E+00    3.2373584131003486E+00
N    6.4400978699194580E+00    5.6101714904928421E+00    5.2005068278064517E+00
Ga    6.4424526810476452E+00    7.4747520751311649E+00    5.8201575538361014E+00
N    6.4470662224693616E+00    7.4743723978755430E+00    7.8038408460716457E+00
Ga    6.4564891735211551E+00    5.6102482736570609E+00    8.4127868998697846E+00
N    6.4553432805839730E+00    5.6089463495100276E+00    1.0405964846015895E+01
Ga    6.4540501519448652E+00    7.4767840982025184E+00    1.0996675173111809E+01
N    6.4512035733328634E+00    7.4772745621170111E+00    1.2969929904007092E+01
Ga    6.4518059235001175E+00    5.6039702223262999E+00    1.3589587565525397E+01
N    6.4478773542014158E+00    5.6399405174116826E+00    1.5548412727687630E+01
Ga    6.4547050860849140E+00    7.4739070787027213E+00    1.5825600371957700E+01
N    4.7321645709322082E+00    1.0203852379157398E+01    2.4951010886137217E+00
Ga    4.9121653635146405E+00    8.3155408890429960E+00    3.2343136363765592E+00
N    4.8305928662440643E+00    8.4014847306600942E+00    5.2004829699829314E+00
Ga    4.8632477261709015E+00    1.0266722656794531E+01    5.7592139145417276E+00
N    4.8527052509316189E+00    1.0266424041847758E+01    7.7599126100707583E+00
Ga    4.8352834141516068E+00    8.4121171970960802E+00    8.4116341869925613E+00
N    4.8358214889038580E+00    8.4119439331937365E+00    1.0407509814416994E+01
Ga    4.8576888259957709E+00    1.0270452213636210E+01    1.1032497197103520E+01
N    4.8756593851963039E+00    1.0280825632650977E+01    1.3032331264592516E+01
Ga    4.8325802316564168E+00    8.4102605552325134E+00    1.3578858470607628E+01
N    4.8525440659607009E+00    8.4002038789071563E+00    1.5554310771882420E+01
Ga    4.7183443649291652E+00    1.0187326621517480E+01    1.6408157347176488E+01
O    3.2537204631311640E+00    5.5791789983534423E+00   -3.1491560249712718E-02
H    3.2408633971381211E+00    1.9098386075718925E+00    1.6144157024808685E+00
C    4.0659468356373596E+00    6.5337254225601509E+00   -6.9832894053656092E-01
H    3.4505560769836583E+00    7.3463906181107035E+00   -1.1385251735546698E+00
H    4.8320331862018397E+00    7.0058093742176659E+00   -5.1137666708571901E-02
H    4.6042251166023993E+00    6.0503080293629434E+00   -1.5340276916896578E+00
     &END COORD
     &KIND C
       BASIS_SET DZVP-MOLOPT-SR-GTH-q4
       POTENTIAL GTH-PBE-q4
       &POTENTIAL
 2 2
  0.3384712400000000E+00 2 -0.8803673979999999E+01  0.1339210850000000E+01
 2
  0.3025757500000000E+00 1  0.9622486650000001E+01
  0.2915069400000000E+00 0
         # Potential name:  GTH-PBE-Q4  for symbol:  C
         # Potential read from the potential filename: GTH_POTENTIALS
       &END POTENTIAL
     &END KIND
     &KIND O
       BASIS_SET DZVP-MOLOPT-SR-GTH-q6
       POTENTIAL GTH-PBE-q6
       &POTENTIAL
 2 4
  0.2445543000000000E+00 2 -0.1666721480000000E+02  0.2487311320000000E+01
 2
  0.2209559200000000E+00 1  0.1833745811000000E+02
  0.2113324700000000E+00 0
         # Potential name:  GTH-PBE-Q6  for symbol:  O
         # Potential read from the potential filename: GTH_POTENTIALS
       &END POTENTIAL
     &END KIND
     &KIND H
       BASIS_SET DZVP-MOLOPT-SR-GTH-q1
       POTENTIAL GTH-PBE-q1
       &POTENTIAL
 1
  0.2000000000000000E+00 2 -0.4178900440000000E+01  0.7244633100000000E+00
 0
         # Potential name:  GTH-PBE-Q1  for symbol:  H
         # Potential read from the potential filename: GTH_POTENTIALS
       &END POTENTIAL
     &END KIND
     &KIND N
       BASIS_SET DZVP-MOLOPT-SR-GTH
       POTENTIAL GTH-PBE-q5
       &POTENTIAL
 2 3
  0.2837905100000000E+00 2 -0.1241522559000000E+02  0.1868095920000000E+01
 2
  0.2554050000000000E+00 1  0.1363026257000000E+02
  0.2454945300000000E+00 0
         # Potential name:  GTH-PBE-Q5  for symbol:  N
         # Potential read from the potential filename: GTH_POTENTIALS
       &END POTENTIAL
     &END KIND
     &KIND Ga
       BASIS_SET DZVP-MOLOPT-SR-GTH
       POTENTIAL GTH-PBE-q13
       &POTENTIAL
 2 1 10
  0.4900000000000000E+00 0
 3
  0.4167772300000000E+00 3  0.1047568975000000E+02 -0.4921768140000000E+01  0.8707055900000000E+00
  0.7770178090000000E+01 -0.2248152160000000E+01
  0.1784415450000000E+01
  0.5696265200000000E+00 2  0.1777985340000000E+01  0.1958597600000000E+00
 -0.2317443900000000E+00
  0.2381265000000000E+00 1 -0.1624868022000000E+02
         # Potential name:  GTH-PBE-Q13  for symbol:  GA
         # Potential read from the potential filename: GTH_POTENTIALS
       &END POTENTIAL
     &END KIND
     &TOPOLOGY
       NUMBER_OF_ATOMS  206
       MULTIPLE_UNIT_CELL  1 1 1
     &END TOPOLOGY
   &END SUBSYS
 &END FORCE_EVAL
