 # Version information for this restart file 
 # current date 2019-06-24 18:00:29.036
 # current working dir /scratch/rzk/rzk/GaN-carbene/443-adatoms-both-2x2/03-DissMethanol/01-O-GaSur-H-NSur
 # Program compiled at                              Sun Apr  7 00:48:11 EDT 2019
 # Program compiled on                          beluga2.int.ets1.calculquebec.ca
 # Program compiled for                        Beluga-Linux-x86-64-intel-openmpi
 # Source code revision number                                         svn:18619
 &GLOBAL
   PRINT_LEVEL  MEDIUM
   PROJECT_NAME TEST
   RUN_TYPE  GEO_OPT
 &END GLOBAL
 &MOTION
   &GEO_OPT
     MAX_ITER  500
     STEP_START_VAL  28
   &END GEO_OPT
 &END MOTION
 &FORCE_EVAL
   METHOD  QS
   STRESS_TENSOR  ANALYTICAL
   &DFT
     BASIS_SET_FILE_NAME BASIS_MOLOPT
     POTENTIAL_FILE_NAME GTH_POTENTIALS
     UKS  T
     SURFACE_DIPOLE_CORRECTION  T
     SURF_DIP_DIR  Z
     &SCF
       MAX_SCF  80
       EPS_SCF     5.0000000000000004E-06
       &OT  T
         PRECONDITIONER  FULL_ALL
       &END OT
       &OUTER_SCF  T
         OPTIMIZER  NONE
         EPS_SCF     5.0000000000000004E-06
         MAX_SCF  4
       &END OUTER_SCF
       &PRINT
         &RESTART  OFF
           BACKUP_COPIES  1
           &EACH
             JUST_ENERGY  0
             QS_SCF  0
             MD  20
           &END EACH
         &END RESTART
       &END PRINT
     &END SCF
     &QS
       EPS_DEFAULT     1.0000000000000000E-14
       METHOD  GPW
     &END QS
     &MGRID
       NGRIDS  5
       CUTOFF     1.2000000000000000E+03
     &END MGRID
     &XC
       DENSITY_CUTOFF     1.0000000000000000E-10
       GRADIENT_CUTOFF     1.0000000000000000E-10
       TAU_CUTOFF     1.0000000000000000E-10
       &XC_FUNCTIONAL  NO_SHORTCUT
         &PBE  T
         &END PBE
       &END XC_FUNCTIONAL
       &VDW_POTENTIAL
         POTENTIAL_TYPE  PAIR_POTENTIAL
         &PAIR_POTENTIAL
           R_CUTOFF     1.0000000000000004E+01
           TYPE  DFTD3
           PARAMETER_FILE_NAME dftd3.dat
           REFERENCE_FUNCTIONAL PBE
           EPS_CN     9.9999999999999995E-07
           CALCULATE_C9_TERM  T
           REFERENCE_C9_TERM  T
           LONG_RANGE_CORRECTION  F
           VERBOSE_OUTPUT  F
         &END PAIR_POTENTIAL
       &END VDW_POTENTIAL
     &END XC
   &END DFT
   &SUBSYS
     &CELL
       A     1.2864472766435110E+01    0.0000000000000000E+00    0.0000000000000000E+00
       B    -6.4322363581020028E+00    1.1140960178524473E+01    0.0000000000000000E+00
       C     0.0000000000000000E+00    0.0000000000000000E+00    3.2000000000000000E+01
       MULTIPLE_UNIT_CELL  1 1 1
       &CELL_REF
         A     1.2982353780853531E+01    0.0000000000000000E+00    0.0000000000000000E+00
         B    -6.4911768904267628E+00    1.1243048175136114E+01    0.0000000000000000E+00
         C     0.0000000000000000E+00    0.0000000000000000E+00    3.2000000000000000E+01
         MULTIPLE_UNIT_CELL  1 1 1
       &END CELL_REF
     &END CELL
     &COORD
N    2.9248325773615816E-02    2.0416149394568324E+00    2.4800555512708047E+00
Ga    2.4926672360747290E-02    3.5721490213687444E-02    2.8293737394892209E+00
N    1.3292446771443459E-02    5.4587406033239319E-02    4.9850260469559133E+00
Ga    1.9057267475120324E-02    1.8763699203290278E+00    5.7643658445382107E+00
N    2.0007195198851645E-02    1.8949826205930533E+00    7.7583308223576193E+00
Ga    1.7737189082443261E-02    4.7781743382962684E-02    8.4029428750729807E+00
N    1.7899364265837138E-02    4.8660275280501236E-02    1.0379613448935389E+01
Ga    1.5100252252135560E-02    1.8868924834813627E+00    1.1033672685337610E+01
N    1.7211846517164699E-02    1.8693644695740128E+00    1.3028077061296845E+01
Ga    2.7338406225073105E-02    5.0013164196950857E-02    1.3818664598959623E+01
N    2.9942911973714847E-02    5.3972226780833944E-02    1.6035018452085890E+01
Ga    2.1709538116229270E-02    2.0953553916079213E+00    1.6440186641292851E+01
Ga   -3.4307538260463358E-02    3.7717350926772943E+00    1.4394234020212060E+00
N   -1.4809261825452813E+00    4.6335249941014309E+00    2.4904280321420105E+00
Ga   -1.6917757396056861E+00    2.7805314472565259E+00    3.2603320232327535E+00
N   -1.5890682347832485E+00    2.8349723915281193E+00    5.2185853994702871E+00
Ga   -1.6085839806011661E+00    4.7130697131642734E+00    5.7578723841527957E+00
N   -1.6010264979640034E+00    4.6990563403932226E+00    7.7572596899533171E+00
Ga   -1.5796593000116945E+00    2.8439769164776045E+00    8.3989695952236243E+00
N   -1.5793975385078169E+00    2.8410345036306803E+00    1.0394250276874086E+01
Ga   -1.6086388633876887E+00    4.6997789878492471E+00    1.1037354675735305E+01
N   -1.6230126485746383E+00    4.7080321196742903E+00    1.3033552481454720E+01
Ga   -1.5801344306715921E+00    2.8390713718208787E+00    1.3584241617098899E+01
N   -1.6026254421524271E+00    2.8175475152125471E+00    1.5547777400577200E+01
Ga   -1.4402979902432966E+00    4.6047539328409979E+00    1.6439747607106614E+01
N    8.2293374213205390E-03    3.7696042773883556E+00    1.7580102422871349E+01
N   -3.1973651260597773E+00    7.5992898766110546E+00    2.4747506253743494E+00
Ga   -3.1970279919448190E+00    5.6486390592872198E+00    2.8248945800264500E+00
N   -3.1972449857830285E+00    5.6159622825593445E+00    4.9813620935429705E+00
Ga   -3.1985662378297270E+00    7.4541470423689669E+00    5.7446358216391014E+00
N   -3.1990102159580696E+00    7.4658428643196499E+00    7.7501307128409396E+00
Ga   -3.1990038806888430E+00    5.6221265884132805E+00    8.4030385786801336E+00
N   -3.1986601152868257E+00    5.6186480352155934E+00    1.0380971520267442E+01
Ga   -3.1991419310732332E+00    7.4587402635866953E+00    1.1030643827074265E+01
N   -3.1979397416675961E+00    7.4393400838386183E+00    1.3027925009037713E+01
Ga   -3.2014898736412949E+00    5.6203789834379574E+00    1.3841728063278202E+01
N   -3.1979335504829534E+00    5.6211084542672856E+00    1.6038269593994176E+01
Ga   -3.1965742133547268E+00    7.6664603380357290E+00    1.6465170037231324E+01
Ga   -3.1955535356554501E+00    9.2923737213443758E+00    1.2270616224093829E+00
N   -4.7069447898148811E+00    1.0214284655913227E+01    2.4659251252266254E+00
Ga   -4.8857762100656696E+00    8.3637493979384008E+00    3.2048085630755496E+00
N   -4.8108707139410933E+00    8.4061869328734300E+00    5.1937382887745160E+00
Ga   -4.8359837982387930E+00    1.0271223457749922E+01    5.7543894443482682E+00
N   -4.8148649114411475E+00    1.0267960539833043E+01    7.7529689604753047E+00
Ga   -4.7985001068721900E+00    8.4068832967291094E+00    8.3888635697431955E+00
N   -4.7956369486764290E+00    8.4094719933488378E+00    1.0387990987104223E+01
Ga   -4.8202673768307163E+00    1.0266338323970336E+01    1.1027297441305956E+01
N   -4.8355195191342188E+00    1.0277828981195450E+01    1.3022608663823114E+01
Ga   -4.7925983485687249E+00    8.4112857306381699E+00    1.3589215562550256E+01
N   -4.8252261256846003E+00    8.3998521003886282E+00    1.5549960467643659E+01
Ga   -4.6247871171927804E+00    1.0158163474224670E+01    1.6465772125408833E+01
N   -3.1959292465971432E+00    9.3219150538911677E+00    1.7613513075497533E+01
N    3.2381791453006614E+00    1.9053877209741816E+00    2.6403990869480056E+00
Ga    3.2350732993705766E+00    3.7651937259605944E-02    3.2590967503710724E+00
N    3.2340977993122095E+00    6.7758411036058910E-02    5.2031560097460936E+00
Ga    3.2335533840893156E+00    1.9109317873364822E+00    5.8552604053180950E+00
N    3.2329878423640803E+00    1.9080666373551338E+00    7.8172695589885501E+00
Ga    3.2333625436244051E+00    3.5049617818068667E-02    8.3998002459661372E+00
N    3.2335689134483401E+00    3.4854422793368513E-02    1.0392330556650544E+01
Ga    3.2333774535679338E+00    1.9005571415037887E+00    1.1000122129351871E+01
N    3.2339520678964577E+00    1.9027110661400664E+00    1.2969246347455408E+01
Ga    3.2342784163543064E+00    3.3883058035586680E-02    1.3590026187198903E+01
N    3.2341969212771287E+00    6.6350079380851038E-02    1.5548801669810784E+01
Ga    3.2372430943926718E+00    1.9042930603326984E+00    1.5822621197188599E+01
N    1.5254839608275541E+00    4.6245573890681237E+00    2.3422732599543572E+00
Ga    1.6717453408970706E+00    2.8672725180665455E+00    3.2728873951594499E+00
N    1.6361313851023660E+00    2.8402851779103475E+00    5.2002674785402645E+00
Ga    1.6688451617713389E+00    4.7249565703215177E+00    5.8061303567567117E+00
N    1.6157235726497061E+00    4.6841487150052989E+00    7.8053713870010020E+00
Ga    1.6115845460442055E+00    2.8365546249500899E+00    8.4205063663099171E+00
N    1.6145273973549119E+00    2.8341386166818014E+00    1.0408955998265530E+01
Ga    1.6399122996749977E+00    4.7000696469678793E+00    1.1029632853684269E+01
N    1.6560421883448724E+00    4.7069026920111368E+00    1.3026893466679605E+01
Ga    1.6161564162606459E+00    2.8391140556530101E+00    1.3583090505341310E+01
N    1.6428377618934444E+00    2.8241292143685954E+00    1.5544560179784458E+01
Ga    1.4669872791028005E+00    4.5937013039211028E+00    1.6438438026472159E+01
N    2.0747030291067413E-02    7.4828796531034216E+00    2.5679103735558666E+00
Ga    6.1699857941995291E-02    5.7423955763636023E+00    3.2309551575798294E+00
N    2.9731969750079804E-02    5.6090583495771940E+00    5.1952121120056400E+00
Ga    2.3611790021962221E-02    7.4759940726901277E+00    5.8143740711171050E+00
N    1.9131007423125755E-02    7.4745247732545899E+00    7.8011147679432682E+00
Ga    1.0035830547434177E-02    5.6118306891550507E+00    8.4118989349215862E+00
N    1.1870520453655021E-02    5.6094545170496284E+00    1.0406413563424710E+01
Ga    1.2212392672176628E-02    7.4774788861426336E+00    1.0996081157301372E+01
N    1.8560927083311064E-02    7.4774128851156405E+00    1.2969903964606535E+01
Ga    1.8309288211401153E-02    5.6058588682163126E+00    1.3584646124290352E+01
N    2.6926486462505270E-02    5.6392019257812125E+00    1.5549039143934849E+01
Ga    1.7527014888517035E-02    7.4770324671825437E+00    1.5827085805589457E+01
N   -1.6872434800917351E+00    1.0214236714939926E+01    2.4671457559226475E+00
Ga   -1.5104054595776004E+00    8.3646797381199232E+00    3.2077616630726036E+00
N   -1.5861670112571951E+00    8.4064466816866368E+00    5.1958791760205587E+00
Ga   -1.5602995818582106E+00    1.0271428173847378E+01    5.7560695204624368E+00
N   -1.5827677637929958E+00    1.0268061968017014E+01    7.7543164517423122E+00
Ga   -1.5993307800543144E+00    8.4067911384000134E+00    8.3889580935439749E+00
N   -1.6023495150261160E+00    8.4098154495756550E+00    1.0388889566018342E+01
Ga   -1.5768784941537657E+00    1.0266927231074105E+01    1.1030159288424398E+01
N   -1.5604315885692572E+00    1.0277860224218427E+01    1.3025254709533110E+01
Ga   -1.6026954156966735E+00    8.4109965916035865E+00    1.3590617506209416E+01
N   -1.5677689413003619E+00    8.3988577975174827E+00    1.5550508573435819E+01
Ga   -1.7652942200890693E+00    1.0160560264288991E+01    1.6465485084750348E+01
N    6.4430979840281690E+00    2.0397302462283480E+00    2.4858324091136343E+00
Ga    6.4455112433063348E+00    3.6156941664523420E-02    2.8316286559015800E+00
N    6.4549220602114685E+00    5.3802707737026945E-02    4.9868014326078951E+00
Ga    6.4504466518066534E+00    1.8751592845272815E+00    5.7674447448679658E+00
N    6.4473094232211015E+00    1.8943300822534195E+00    7.7605598742381856E+00
Ga    6.4487192101523076E+00    4.7840551682287069E-02    8.4058488885489950E+00
N    6.4487593219346202E+00    4.8430427371869089E-02    1.0382280740956881E+01
Ga    6.4510986444544027E+00    1.8865421976752927E+00    1.1038815927944777E+01
N    6.4513494010933847E+00    1.8690954449556849E+00    1.3031164528792043E+01
Ga    6.4403345757598460E+00    5.3330287071657788E-02    1.3830457386023040E+01
N    6.4397651908547555E+00    5.5448228299031802E-02    1.6036324438082165E+01
Ga    6.4468248737048723E+00    2.1189099773632059E+00    1.6477403811437163E+01
Ga    6.5003746751332505E+00    3.7732808211058302E+00    1.4527841263682570E+00
N    4.9483299157119669E+00    4.6279211093857437E+00    2.3659201051267646E+00
Ga    4.8019678724550241E+00    2.8687064714559365E+00    3.2822434214289813E+00
N    4.8330209247399605E+00    2.8390668879334671E+00    5.2076907952443019E+00
Ga    4.7999546716677797E+00    4.7251596330975110E+00    5.8080919655470593E+00
N    4.8506473693365439E+00    4.6840479858195287E+00    7.8066188663267342E+00
Ga    4.8554388722398913E+00    2.8361565748792370E+00    8.4213096399658784E+00
N    4.8518547380531682E+00    2.8333302689589748E+00    1.0409648813569337E+01
Ga    4.8277157720942618E+00    4.6993177572244562E+00    1.1030939352890826E+01
N    4.8129951371994064E+00    4.7065915369753304E+00    1.3026797816903205E+01
Ga    4.8541962400281733E+00    2.8398807796059811E+00    1.3590667423256034E+01
N    4.8246906415578144E+00    2.8231791258010666E+00    1.5547060695898011E+01
Ga    5.0280500530751979E+00    4.5771702552940958E+00    1.6476335888632505E+01
N    6.4574041031573675E+00    3.7647616794364134E+00    1.7630778273518846E+01
N    3.2344493104285696E+00    7.6077886663124801E+00    2.3603247595965353E+00
Ga    3.2189780342629333E+00    5.6400924453971912E+00    1.8246786491357130E+00
N    3.2345142208955631E+00    5.6177572790847510E+00    5.2041458754493997E+00
Ga    3.2339530292870071E+00    7.4303490451771692E+00    5.7955314292620228E+00
N    3.2328976541962717E+00    7.4852293139804420E+00    7.8037599687054930E+00
Ga    3.2333432262881749E+00    5.6202804901644026E+00    8.3983242748801938E+00
N    3.2332920528201603E+00    5.6174050351255644E+00    1.0385575920228989E+01
Ga    3.2331302552361976E+00    7.4562411421473360E+00    1.1027862392046432E+01
N    3.2344129680725051E+00    7.4375140545753018E+00    1.3031472858671757E+01
Ga    3.2373781238619141E+00    5.6090000542122391E+00    1.3820681468080609E+01
N    3.2370075628858679E+00    5.6075421244825057E+00    1.6033005715996090E+01
Ga    3.2334955391141800E+00    7.6101485949864154E+00    1.6402310398579800E+01
Ga    3.2355753169251775E+00    9.3729738304944554E+00    1.4527863984214617E+00
N    1.7391741419292199E+00    1.0205638468930289E+01    2.4947384643132215E+00
Ga    1.5553106443812499E+00    8.3165466726703219E+00    3.2320855363365215E+00
N    1.6381966353282060E+00    8.4021433354519051E+00    5.1994829917273124E+00
Ga    1.6038137329710520E+00    1.0266653844041036E+01    5.7600088291578651E+00
N    1.6130691457107516E+00    1.0266633429137626E+01    7.7606866694046444E+00
Ga    1.6299158219974605E+00    8.4122338858039196E+00    8.4109684422801330E+00
N    1.6304051595594715E+00    8.4121119426869893E+00    1.0408033680654233E+01
Ga    1.6082532235249094E+00    1.0270790778300015E+01    1.1034654443058503E+01
N    1.5927094727340410E+00    1.0281510856595048E+01    1.3035034005544492E+01
Ga    1.6381103851588317E+00    8.4106151618899005E+00    1.3578633527494437E+01
N    1.6198543606757845E+00    8.3984266311252522E+00    1.5556025536826137E+01
Ga    1.7384373296512980E+00    1.0193489342586894E+01    1.6403820237038868E+01
N    3.2281779194654128E+00    9.3320154705593286E+00    1.7518805388734783E+01
N    9.6685476594237034E+00    1.9086471666144456E+00    2.5749844200740979E+00
Ga    9.6676697040629769E+00    1.6776731720083948E-01    3.2658865041233023E+00
N    9.6662330191217816E+00    5.5745980887459391E-02    5.2250628849235277E+00
Ga    9.6666196293854050E+00    1.9078551035758826E+00    5.8487291601170002E+00
N    9.6657405572643178E+00    1.9069299291539661E+00    7.8188069760151180E+00
Ga    9.6648061681661055E+00    3.4593985647522106E-02    8.3985017310285279E+00
N    9.6648725507654163E+00    3.4868520220257992E-02    1.0395791986751215E+01
Ga    9.6649662814497557E+00    1.9059757134945463E+00    1.0986575335736653E+01
N    9.6669662525308837E+00    1.9027206088433233E+00    1.2962316385757918E+01
Ga    9.6664698474643789E+00    3.7365045622702202E-02    1.3581120420724542E+01
N    9.6686677605291251E+00    5.8142669027148403E-02    1.5559413338253805E+01
Ga    9.6669944121990898E+00    1.9084222773692685E+00    1.5832441640253530E+01
N    7.9542679144117496E+00    4.6340752350354757E+00    2.4949651255947494E+00
Ga    8.1647599681710599E+00    2.7799694121564715E+00    3.2622895244567665E+00
N    8.0580355022870584E+00    2.8346585815364636E+00    5.2203176966352389E+00
Ga    8.0785462151448968E+00    4.7125772893246269E+00    5.7597425283577515E+00
N    8.0682549250424955E+00    4.6983489437136896E+00    7.7587130143033383E+00
Ga    8.0461377367485127E+00    2.8433637114903463E+00    8.4009326180836386E+00
N    8.0455194819546350E+00    2.8404987760270002E+00    1.0395365364546629E+01
Ga    8.0745765012750876E+00    4.6995033693765933E+00    1.1038213286770983E+01
N    8.0912194472347956E+00    4.7074173339489258E+00    1.3032441384281565E+01
Ga    8.0481280570883857E+00    2.8393351327361120E+00    1.3593060361786589E+01
N    8.0764478434676867E+00    2.8174665002410153E+00    1.5551743696028606E+01
Ga    7.8829544471601940E+00    4.5869205391623771E+00    1.6476981086352914E+01
N    6.4474743075193528E+00    7.4797976392488463E+00    2.5627382055958625E+00
Ga    6.4078191278473593E+00    5.7419027215138483E+00    3.2402464333593324E+00
N    6.4406072534770731E+00    5.6108423234958726E+00    5.2022193919968958E+00
Ga    6.4448236968690971E+00    7.4772153106900889E+00    5.8174391011901578E+00
N    6.4472534575507714E+00    7.4750773152563061E+00    7.8025491825664783E+00
Ga    6.4565449644108055E+00    5.6114029744432514E+00    8.4122198602077489E+00
N    6.4547046062353539E+00    5.6094603930620881E+00    1.0405606474970407E+01
Ga    6.4536999707364107E+00    7.4770424942887201E+00    1.0995991620861071E+01
N    6.4501313359477033E+00    7.4775407160585337E+00    1.2969990856484468E+01
Ga    6.4507448386785837E+00    5.6039478567705636E+00    1.3591974454556595E+01
N    6.4456391500892236E+00    5.6398367052470473E+00    1.5552470615146113E+01
Ga    6.4549628294276040E+00    7.4747473947249556E+00    1.5827469776016407E+01
N    4.7321528330039691E+00    1.0204678114806926E+01    2.4952197919341361E+00
Ga    4.9146120391797039E+00    8.3154239347973302E+00    3.2325293845748351E+00
N    4.8305345577527099E+00    8.4019413745223694E+00    5.1994729489094471E+00
Ga    4.8640885560321419E+00    1.0266989116932658E+01    5.7591209553432225E+00
N    4.8527871875138811E+00    1.0266676368991465E+01    7.7600228695181146E+00
Ga    4.8357036045171293E+00    8.4119621926203525E+00    8.4105390394491746E+00
N    4.8352807618251799E+00    8.4119185056958194E+00    1.0406544042158773E+01
Ga    4.8572909334104519E+00    1.0270537122286710E+01    1.1030699176633167E+01
N    4.8750289823691153E+00    1.0281129434307047E+01    1.3031263800324371E+01
Ga    4.8311751879816764E+00    8.4103836625482327E+00    1.3578929830571028E+01
N    4.8507028314711613E+00    8.3999559890316871E+00    1.5557309698357349E+01
Ga    4.7229667838575198E+00    1.0190825114514753E+01    1.6403492969589571E+01
O    3.2625951883337918E+00    5.5582817908969941E+00   -3.5387863692642477E-02
H    3.2427720421776569E+00    1.9127438825477630E+00    1.6138975464571752E+00
C    4.0645065216062974E+00    6.5161383334719192E+00   -7.0771791663226835E-01
H    3.4473207730026618E+00    7.3546245949922291E+00   -1.1057271584075490E+00
H    4.8633955322900011E+00    6.9580440633754428E+00   -7.5256438104775517E-02
H    4.5630371710379602E+00    6.0437392886032208E+00   -1.5778044469176089E+00
     &END COORD
     &KIND C
       BASIS_SET DZVP-MOLOPT-SR-GTH-q4
       POTENTIAL GTH-PBE-q4
       &POTENTIAL
 2 2
  0.3384712400000000E+00 2 -0.8803673979999999E+01  0.1339210850000000E+01
 2
  0.3025757500000000E+00 1  0.9622486650000001E+01
  0.2915069400000000E+00 0
         # Potential name:  GTH-PBE-Q4  for symbol:  C
         # Potential read from the potential filename: GTH_POTENTIALS
       &END POTENTIAL
     &END KIND
     &KIND O
       BASIS_SET DZVP-MOLOPT-SR-GTH-q6
       POTENTIAL GTH-PBE-q6
       &POTENTIAL
 2 4
  0.2445543000000000E+00 2 -0.1666721480000000E+02  0.2487311320000000E+01
 2
  0.2209559200000000E+00 1  0.1833745811000000E+02
  0.2113324700000000E+00 0
         # Potential name:  GTH-PBE-Q6  for symbol:  O
         # Potential read from the potential filename: GTH_POTENTIALS
       &END POTENTIAL
     &END KIND
     &KIND H
       BASIS_SET DZVP-MOLOPT-SR-GTH-q1
       POTENTIAL GTH-PBE-q1
       &POTENTIAL
 1
  0.2000000000000000E+00 2 -0.4178900440000000E+01  0.7244633100000000E+00
 0
         # Potential name:  GTH-PBE-Q1  for symbol:  H
         # Potential read from the potential filename: GTH_POTENTIALS
       &END POTENTIAL
     &END KIND
     &KIND N
       BASIS_SET DZVP-MOLOPT-SR-GTH
       POTENTIAL GTH-PBE-q5
       &POTENTIAL
 2 3
  0.2837905100000000E+00 2 -0.1241522559000000E+02  0.1868095920000000E+01
 2
  0.2554050000000000E+00 1  0.1363026257000000E+02
  0.2454945300000000E+00 0
         # Potential name:  GTH-PBE-Q5  for symbol:  N
         # Potential read from the potential filename: GTH_POTENTIALS
       &END POTENTIAL
     &END KIND
     &KIND Ga
       BASIS_SET DZVP-MOLOPT-SR-GTH
       POTENTIAL GTH-PBE-q13
       &POTENTIAL
 2 1 10
  0.4900000000000000E+00 0
 3
  0.4167772300000000E+00 3  0.1047568975000000E+02 -0.4921768140000000E+01  0.8707055900000000E+00
  0.7770178090000000E+01 -0.2248152160000000E+01
  0.1784415450000000E+01
  0.5696265200000000E+00 2  0.1777985340000000E+01  0.1958597600000000E+00
 -0.2317443900000000E+00
  0.2381265000000000E+00 1 -0.1624868022000000E+02
         # Potential name:  GTH-PBE-Q13  for symbol:  GA
         # Potential read from the potential filename: GTH_POTENTIALS
       &END POTENTIAL
     &END KIND
     &TOPOLOGY
       NUMBER_OF_ATOMS  206
       MULTIPLE_UNIT_CELL  1 1 1
     &END TOPOLOGY
   &END SUBSYS
 &END FORCE_EVAL
