 # Version information for this restart file 
 # current date 2019-06-24 21:25:37.634
 # current working dir /scratch/rzk/rzk/GaN-carbene/443-adatoms-both-2x2/03-DissMethanol/01-O-GaSur-H-NSur
 # Program compiled at                              Sun Apr  7 00:48:11 EDT 2019
 # Program compiled on                          beluga2.int.ets1.calculquebec.ca
 # Program compiled for                        Beluga-Linux-x86-64-intel-openmpi
 # Source code revision number                                         svn:18619
 &GLOBAL
   PRINT_LEVEL  MEDIUM
   PROJECT_NAME TEST
   RUN_TYPE  GEO_OPT
 &END GLOBAL
 &MOTION
   &GEO_OPT
     MAX_ITER  500
     STEP_START_VAL  85
   &END GEO_OPT
 &END MOTION
 &FORCE_EVAL
   METHOD  QS
   STRESS_TENSOR  ANALYTICAL
   &DFT
     BASIS_SET_FILE_NAME BASIS_MOLOPT
     POTENTIAL_FILE_NAME GTH_POTENTIALS
     UKS  T
     SURFACE_DIPOLE_CORRECTION  T
     SURF_DIP_DIR  Z
     &SCF
       MAX_SCF  80
       EPS_SCF     5.0000000000000004E-06
       &OT  T
         PRECONDITIONER  FULL_ALL
       &END OT
       &OUTER_SCF  T
         OPTIMIZER  NONE
         EPS_SCF     5.0000000000000004E-06
         MAX_SCF  4
       &END OUTER_SCF
       &PRINT
         &RESTART  OFF
           BACKUP_COPIES  1
           &EACH
             JUST_ENERGY  0
             QS_SCF  0
             MD  20
           &END EACH
         &END RESTART
       &END PRINT
     &END SCF
     &QS
       EPS_DEFAULT     1.0000000000000000E-14
       METHOD  GPW
     &END QS
     &MGRID
       NGRIDS  5
       CUTOFF     1.2000000000000000E+03
     &END MGRID
     &XC
       DENSITY_CUTOFF     1.0000000000000000E-10
       GRADIENT_CUTOFF     1.0000000000000000E-10
       TAU_CUTOFF     1.0000000000000000E-10
       &XC_FUNCTIONAL  NO_SHORTCUT
         &PBE  T
         &END PBE
       &END XC_FUNCTIONAL
       &VDW_POTENTIAL
         POTENTIAL_TYPE  PAIR_POTENTIAL
         &PAIR_POTENTIAL
           R_CUTOFF     1.0000000000000004E+01
           TYPE  DFTD3
           PARAMETER_FILE_NAME dftd3.dat
           REFERENCE_FUNCTIONAL PBE
           EPS_CN     9.9999999999999995E-07
           CALCULATE_C9_TERM  T
           REFERENCE_C9_TERM  T
           LONG_RANGE_CORRECTION  F
           VERBOSE_OUTPUT  F
         &END PAIR_POTENTIAL
       &END VDW_POTENTIAL
     &END XC
   &END DFT
   &SUBSYS
     &CELL
       A     1.2864472766435110E+01    0.0000000000000000E+00    0.0000000000000000E+00
       B    -6.4322363581020028E+00    1.1140960178524473E+01    0.0000000000000000E+00
       C     0.0000000000000000E+00    0.0000000000000000E+00    3.2000000000000000E+01
       MULTIPLE_UNIT_CELL  1 1 1
       &CELL_REF
         A     1.2982353780853531E+01    0.0000000000000000E+00    0.0000000000000000E+00
         B    -6.4911768904267628E+00    1.1243048175136114E+01    0.0000000000000000E+00
         C     0.0000000000000000E+00    0.0000000000000000E+00    3.2000000000000000E+01
         MULTIPLE_UNIT_CELL  1 1 1
       &END CELL_REF
     &END CELL
     &COORD
N    3.3769845241088586E-02    2.0341883200280422E+00    2.4772991663615249E+00
Ga    2.0433749939736262E-02    2.1006573775321665E-02    2.8161810821757518E+00
N    1.2754472066066117E-02    4.2261778294423791E-02    4.9760622308367317E+00
Ga    1.8303660741015092E-02    1.8624906165299600E+00    5.7601074991755468E+00
N    1.8191596695980226E-02    1.8826477820739351E+00    7.7543630706249731E+00
Ga    1.4912883372008259E-02    3.8813506741921432E-02    8.4107633255770526E+00
N    1.4982279378408880E-02    3.9882328481719465E-02    1.0385376518224527E+01
Ga    1.4362022774094005E-02    1.8798939600915696E+00    1.1039330925819160E+01
N    1.0580938177163893E-02    1.8597691353672792E+00    1.3032612826971018E+01
Ga    1.9385548731002029E-02    4.1013217233062900E-02    1.3845787336827485E+01
N    1.4261023375830162E-02    5.8945280257767581E-02    1.6049807810784003E+01
Ga    8.0843038640520722E-03    2.1324472599402102E+00    1.6489041203315246E+01
Ga   -3.4700766617381106E-02    3.7607426570254119E+00    1.4193507832018455E+00
N   -1.4678503012495672E+00    4.6177065771716048E+00    2.4858664448167977E+00
Ga   -1.6907150472833516E+00    2.7643608265015289E+00    3.2554732675930254E+00
N   -1.5922368595677561E+00    2.8198249013967525E+00    5.2146537064324461E+00
Ga   -1.6062285273253509E+00    4.6999188855283371E+00    5.7500506590610323E+00
N   -1.6030631589358491E+00    4.6864957763842767E+00    7.7505418406567737E+00
Ga   -1.5801488919552988E+00    2.8330066983093447E+00    8.4027831276537235E+00
N   -1.5839700707592577E+00    2.8311316411252521E+00    1.0395896379515721E+01
Ga   -1.6110714903952010E+00    4.6914346763734871E+00    1.1042842136110767E+01
N   -1.6312350517296919E+00    4.7015358497842508E+00    1.3037774871628518E+01
Ga   -1.5965878853192614E+00    2.8248797104942267E+00    1.3607079854486498E+01
N   -1.6138885816404780E+00    2.8105729644591779E+00    1.5548730200398719E+01
Ga   -1.4134866950297009E+00    4.5759477016973245E+00    1.6479517505052186E+01
N    1.3320688576278824E-03    3.7677137938132605E+00    1.7652258330783962E+01
N   -3.1967546627507661E+00    7.5880059222107894E+00    2.4788846924669574E+00
Ga   -3.1919129151189543E+00    5.6248494571669267E+00    2.8206451540347492E+00
N   -3.1991881954221593E+00    5.6014949063874644E+00    4.9712149150991127E+00
Ga   -3.1991376393627862E+00    7.4392671596776614E+00    5.7433089193674016E+00
N   -3.2013051514997986E+00    7.4497431839468629E+00    7.7446844423758456E+00
Ga   -3.2002886820620811E+00    5.6074167125915313E+00    8.4071925859260030E+00
N   -3.2027865168694731E+00    5.6100209190054242E+00    1.0382536095746978E+01
Ga   -3.1999175658759946E+00    7.4547335986277519E+00    1.1027513662995188E+01
N   -3.1978035127915705E+00    7.4267733069033524E+00    1.3021657080941086E+01
Ga   -3.2090239844612674E+00    5.6148221428652576E+00    1.3866130385175309E+01
N   -3.1926253333996919E+00    5.6037930079270444E+00    1.6048456517833550E+01
Ga   -3.2083326110907522E+00    7.6405599213605031E+00    1.6453836343723331E+01
Ga   -3.1935675362646450E+00    9.2701703706898648E+00    1.2724864731091876E+00
N   -4.6989795457668970E+00    1.0193064759378641E+01    2.4577665037881959E+00
Ga   -4.8960688722239061E+00    8.3445250454798838E+00    3.2190276386976064E+00
N   -4.8180090930334813E+00    8.3880140303094759E+00    5.1954924451257565E+00
Ga   -4.8394483743893870E+00    1.0259828415511310E+01    5.7494017929057266E+00
N   -4.8198759118253243E+00    1.0261292771681720E+01    7.7454234495717724E+00
Ga   -4.7977542437237615E+00    8.3997647889363396E+00    8.3887270381211660E+00
N   -4.7986567422348143E+00    8.4023225380473985E+00    1.0383502354243298E+01
Ga   -4.8162537875293490E+00    1.0261108198943116E+01    1.1024376046543685E+01
N   -4.8440899847126424E+00    1.0280039641625391E+01    1.3016596123921575E+01
Ga   -4.7971744040783104E+00    8.4070289832461107E+00    1.3590568819765656E+01
N   -4.8292232671781301E+00    8.4004542559383442E+00    1.5545877998519646E+01
Ga   -4.6444849964061872E+00    1.0160748595844060E+01    1.6457731057546617E+01
N   -3.1996035487848564E+00    9.3109875018148767E+00    1.7579047713598438E+01
N    3.2314335989325027E+00    1.9018895664801443E+00    2.6284583589926092E+00
Ga    3.2320786678645455E+00    4.1074762865327935E-02    3.2500970462963505E+00
N    3.2327566681843711E+00    6.1914145847281020E-02    5.1928300338554525E+00
Ga    3.2315272598851768E+00    1.9042735909349151E+00    5.8546588455303121E+00
N    3.2352486068784883E+00    1.8986832110008878E+00    7.8164266245930030E+00
Ga    3.2315764004177394E+00    2.1830333765549624E-02    8.3995897056239528E+00
N    3.2352619380606606E+00    3.0081216829107731E-02    1.0386452154072922E+01
Ga    3.2409808828586697E+00    1.8925380961274834E+00    1.0998062200863155E+01
N    3.2393775769322848E+00    1.9003982550647072E+00    1.2959719542208379E+01
Ga    3.2351840936357723E+00    2.9618321153534875E-02    1.3585977560748256E+01
N    3.2238069145877946E+00    5.8793585083570195E-02    1.5542445314274529E+01
Ga    3.2244672431008308E+00    1.9002345382817507E+00    1.5824128472553872E+01
N    1.5336617501954686E+00    4.6147769441605462E+00    2.3275311603253765E+00
Ga    1.6730693627380095E+00    2.8634966003142157E+00    3.2716474128290902E+00
N    1.6354953214285073E+00    2.8307461838950987E+00    5.1962617490536207E+00
Ga    1.6614418581146688E+00    4.7112315555597792E+00    5.8143232863845409E+00
N    1.6157685999585427E+00    4.6753833639790807E+00    7.8095299582300877E+00
Ga    1.6089595275941488E+00    2.8232913989749182E+00    8.4225565652643333E+00
N    1.6173679991161996E+00    2.8259508028924234E+00    1.0410747116470791E+01
Ga    1.6440646015024307E+00    4.6936822070657955E+00    1.1034659418735028E+01
N    1.6580492057695606E+00    4.7041898132380275E+00    1.3035869404272319E+01
Ga    1.6185293971059505E+00    2.8261120606786703E+00    1.3595519764356704E+01
N    1.6347216062781236E+00    2.8180590212316248E+00    1.5542825724210250E+01
Ga    1.4263939870151672E+00    4.5719608956385924E+00    1.6495153407871719E+01
N    2.6501881642115175E-02    7.4746827891899814E+00    2.5666063939883479E+00
Ga    7.4062950412422224E-02    5.7306291344105169E+00    3.2239193465280787E+00
N    3.1328486223762247E-02    5.6020662622949144E+00    5.1897509566510243E+00
Ga    2.6990189673300413E-02    7.4624669549928253E+00    5.8221737232582429E+00
N    2.0143063023909676E-02    7.4658027172838048E+00    7.8036067745545630E+00
Ga    4.5673988199337184E-03    5.6021770627239293E+00    8.4180955793134729E+00
N    1.2271095752534555E-02    5.6037495055150641E+00    1.0411199012953077E+01
Ga    1.3697425178038777E-02    7.4785820166757420E+00    1.0998063729176598E+01
N    2.1569195406625455E-02    7.4789364301334160E+00    1.2966076213687373E+01
Ga    1.2675114857713169E-02    5.6081336668641670E+00    1.3600529735539110E+01
N    1.8238858142200460E-02    5.6380147962397240E+00    1.5549906816445333E+01
Ga    7.4185291161731034E-03    7.4669669300208783E+00    1.5817690046206200E+01
N   -1.6996775886193836E+00    1.0192347973556938E+01    2.4584935121613389E+00
Ga   -1.5001603583352114E+00    8.3449784199581813E+00    3.2259243618441005E+00
N   -1.5815652443083930E+00    8.3870839845832208E+00    5.1991132322890206E+00
Ga   -1.5615256597324236E+00    1.0256877979929969E+01    5.7500440096199164E+00
N   -1.5806273549709997E+00    1.0262704955385022E+01    7.7464410764647953E+00
Ga   -1.6030390560048986E+00    8.3997458650524468E+00    8.3882710347185228E+00
N   -1.6035813375643575E+00    8.4078837169365190E+00    1.0384431557979504E+01
Ga   -1.5755492109869520E+00    1.0266678432816654E+01    1.1030864146717148E+01
N   -1.5537806969850272E+00    1.0279653675404036E+01    1.3019634870052366E+01
Ga   -1.6052172212487623E+00    8.4128157816108047E+00    1.3588877414181290E+01
N   -1.5783542286138226E+00    8.3960029257723452E+00    1.5548735547683027E+01
Ga   -1.7662721950408731E+00    1.0164909437329204E+01    1.6454646583394656E+01
N    6.4388944281422980E+00    2.0248354433522522E+00    2.4767809406076382E+00
Ga    6.4508032501178665E+00    1.2845397247150123E-02    2.8157803643287616E+00
N    6.4506420732013749E+00    3.9290606569379272E-02    4.9751961194915220E+00
Ga    6.4476433778180260E+00    1.8586926866927791E+00    5.7584053664937569E+00
N    6.4455988597485527E+00    1.8828443974505424E+00    7.7521595509942598E+00
Ga    6.4488583674128135E+00    3.9618832995818913E-02    8.4138849627959669E+00
N    6.4500554015938576E+00    4.4954387652219964E-02    1.0383036268093067E+01
Ga    6.4478659317878178E+00    1.8781297353687467E+00    1.1043813400155253E+01
N    6.4490320239112853E+00    1.8582979589129354E+00    1.3026910735209183E+01
Ga    6.4416759330360156E+00    5.0467095676507798E-02    1.3831340995016781E+01
N    6.4476933806219909E+00    4.9682086473077883E-02    1.6045550940709344E+01
Ga    6.4301494684417682E+00    2.1124818116454502E+00    1.6463381470238485E+01
Ga    6.5150369593962090E+00    3.7493123957728653E+00    1.4234885033522673E+00
N    4.9338724771807483E+00    4.6178786530856923E+00    2.3203745198006329E+00
Ga    4.7961667258433360E+00    2.8597929494926855E+00    3.2610443749430589E+00
N    4.8312020090807204E+00    2.8287270521319208E+00    5.1894410557946902E+00
Ga    4.8003679825815571E+00    4.7104624657233476E+00    5.8111253577691393E+00
N    4.8523175119971436E+00    4.6729649318020900E+00    7.8065803916049861E+00
Ga    4.8579858562138059E+00    2.8235431886827986E+00    8.4269567682721966E+00
N    4.8558949311817123E+00    2.8277617788663800E+00    1.0407067086854184E+01
Ga    4.8281033086926719E+00    4.6882567520656808E+00    1.1035036887847367E+01
N    4.8041470237570021E+00    4.6980093260084219E+00    1.3028918084880715E+01
Ga    4.8575529896759253E+00    2.8287580110510935E+00    1.3592701276770354E+01
N    4.8105983173268259E+00    2.8172775221626529E+00    1.5542769720586568E+01
Ga    5.0045352406081207E+00    4.5719115283427518E+00    1.6470524983670995E+01
N    6.4640139323698786E+00    3.7702628799279756E+00    1.7590805169341223E+01
N    3.2352962878102347E+00    7.5916292080947487E+00    2.4125826907257033E+00
Ga    3.2127743472589829E+00    5.6616328542743943E+00    1.8348109441241052E+00
N    3.2319183937667617E+00    5.6105874268525175E+00    5.2378204350987332E+00
Ga    3.2308862880128366E+00    7.4319525179587078E+00    5.7995024997125517E+00
N    3.2326534578533308E+00    7.4777814775879818E+00    7.8022166618163640E+00
Ga    3.2343305617013551E+00    5.6133886699712487E+00    8.4070636815520690E+00
N    3.2381806597441116E+00    5.6125746384827400E+00    1.0392592758220665E+01
Ga    3.2308613225690386E+00    7.4518398484272499E+00    1.1037788533576466E+01
N    3.2258867103201778E+00    7.4316661798373609E+00    1.3040432427784774E+01
Ga    3.2386823956590258E+00    5.6083782437717744E+00    1.3839186181082455E+01
N    3.2214932823537272E+00    5.6018994436452640E+00    1.6043570088752599E+01
Ga    3.2144112154003173E+00    7.5945153216883963E+00    1.6387032332320775E+01
Ga    3.2369443979445913E+00    9.3246128723749084E+00    1.4399282571180252E+00
N    1.7456998261016761E+00    1.0183963880548440E+01    2.4796618539949544E+00
Ga    1.5576356145872832E+00    8.3150479618631508E+00    3.2405037936104839E+00
N    1.6313311131590209E+00    8.3893711065194818E+00    5.2033788159771408E+00
Ga    1.6020509673452721E+00    1.0254112502345935E+01    5.7528233923752872E+00
N    1.6108606057828310E+00    1.0262721098444795E+01    7.7516920118924988E+00
Ga    1.6293167067455732E+00    8.4099953109355940E+00    8.4165219236827529E+00
N    1.6347253500318835E+00    8.4128993533269938E+00    1.0407609171781596E+01
Ga    1.6032437741107550E+00    1.0268800383490074E+01    1.1048273313178353E+01
N    1.5866776322756644E+00    1.0279977653572987E+01    1.3039409628835147E+01
Ga    1.6346192237919273E+00    8.4160101592649017E+00    1.3587556867585013E+01
N    1.6076303446869475E+00    8.3922255544659308E+00    1.5555829355285365E+01
Ga    1.7327218750423772E+00    1.0181522023096438E+01    1.6373331953880065E+01
N    3.2387353927508711E+00    9.3289880063727431E+00    1.7504845820471058E+01
N    9.6720928082301416E+00    1.8868673807299028E+00    2.5644114406364045E+00
Ga    9.6654014575388878E+00    1.4074671235637401E-01    3.2551052247518215E+00
N    9.6634276876924741E+00    4.2781304688370332E-02    5.2186880908640960E+00
Ga    9.6672129156398547E+00    1.8886733029188407E+00    5.8513943555188730E+00
N    9.6631710272511366E+00    1.8964933745902135E+00    7.8202226898978910E+00
Ga    9.6630590961882703E+00    2.5012905856895858E-02    8.4054075874196545E+00
N    9.6605627657297823E+00    2.6809500930334362E-02    1.0396572802845396E+01
Ga    9.6578118752039561E+00    1.8973950909343131E+00    1.0996179260803983E+01
N    9.6545888460597187E+00    1.8934602953366240E+00    1.2960756750475396E+01
Ga    9.6542251453578043E+00    3.3047817977044036E-02    1.3590299115640795E+01
N    9.6494578315837742E+00    5.4857366022524272E-02    1.5564251920766520E+01
Ga    9.6637595553165863E+00    1.9058698682697641E+00    1.5826016522666590E+01
N    7.9471399510311294E+00    4.6166830527558016E+00    2.4896124824636980E+00
Ga    8.1672209140788077E+00    2.7577541379705819E+00    3.2552106223819237E+00
N    8.0594113566044534E+00    2.8184474106355908E+00    5.2137994756904327E+00
Ga    8.0767149349420180E+00    4.6991398324009568E+00    5.7519151208777046E+00
N    8.0658537132681598E+00    4.6852060771571482E+00    7.7506999767426201E+00
Ga    8.0433768422395442E+00    2.8317142061183191E+00    8.4044660865600971E+00
N    8.0400874396040027E+00    2.8316441704653732E+00    1.0393929450051523E+01
Ga    8.0713077709106269E+00    4.6888218138239770E+00    1.1041463935192198E+01
N    8.0926182577010923E+00    4.6967415265437502E+00    1.3032228748019673E+01
Ga    8.0391239259716283E+00    2.8269020872149735E+00    1.3596601922723281E+01
N    8.0655158485636917E+00    2.8012605552878758E+00    1.5555453229963431E+01
Ga    7.8963525766816041E+00    4.5943909560811651E+00    1.6462800542837716E+01
N    6.4416729969107713E+00    7.4727982404017412E+00    2.5526460126639785E+00
Ga    6.3955993909633726E+00    5.7285743277366015E+00    3.2180849354556087E+00
N    6.4360659129918139E+00    5.5977460786572575E+00    5.1857679224186990E+00
Ga    6.4391966756559551E+00    7.4615599939475077E+00    5.8223656897214644E+00
N    6.4444092421612122E+00    7.4621563509094244E+00    7.8025486486900810E+00
Ga    6.4597084379544825E+00    5.5997665287010854E+00    8.4222688764875695E+00
N    6.4526047440209489E+00    5.6008151943594173E+00    1.0409372815679410E+01
Ga    6.4530665423826781E+00    7.4695587457158963E+00    1.0998266779767020E+01
N    6.4427963963867496E+00    7.4672658341929488E+00    1.2969113417357672E+01
Ga    6.4472502558951517E+00    5.5925060920735286E+00    1.3592179769769967E+01
N    6.4255905784534155E+00    5.6349738166024190E+00    1.5554897858462075E+01
Ga    6.4519051390395790E+00    7.4692237791621823E+00    1.5818776315918798E+01
N    4.7272668302642735E+00    1.0182898292085445E+01    2.4826235177259832E+00
Ga    4.9122370646335183E+00    8.3092520583368685E+00    3.2418723094903550E+00
N    4.8337538926883985E+00    8.3896631649038760E+00    5.2036012318062372E+00
Ga    4.8617336601742487E+00    1.0257506085622802E+01    5.7532704296022139E+00
N    4.8511686111962717E+00    1.0261651793204619E+01    7.7519366315870002E+00
Ga    4.8350010266463519E+00    8.4089305147330222E+00    8.4169693760034683E+00
N    4.8332035955718560E+00    8.4069939988294244E+00    1.0409691335146633E+01
Ga    4.8525898154527436E+00    1.0265994378355455E+01    1.1042998441038314E+01
N    4.8672917094886419E+00    1.0281672521907728E+01    1.3041459375849481E+01
Ga    4.8248828884814241E+00    8.4074923448635328E+00    1.3582419335453492E+01
N    4.8366954401361779E+00    8.3875418648873712E+00    1.5563591210156233E+01
Ga    4.7298513156290118E+00    1.0202225747673134E+01    1.6382925144210173E+01
O    3.1553501285934331E+00    5.7438866515423479E+00   -6.3814078965396023E-02
H    3.2254302125901804E+00    1.9162846355813983E+00    1.5985312515423440E+00
C    3.9440924103569741E+00    6.7011289518975552E+00   -6.7789732926809854E-01
H    3.5275487180339171E+00    7.7658870175981765E+00   -5.0793773512685025E-01
H    4.9862215876652165E+00    6.7430195709291265E+00   -3.1493405617179254E-01
H    3.9337368301575517E+00    6.5624592844229452E+00   -1.7868990474807802E+00
     &END COORD
     &KIND C
       BASIS_SET DZVP-MOLOPT-SR-GTH-q4
       POTENTIAL GTH-PBE-q4
       &POTENTIAL
 2 2
  0.3384712400000000E+00 2 -0.8803673979999999E+01  0.1339210850000000E+01
 2
  0.3025757500000000E+00 1  0.9622486650000001E+01
  0.2915069400000000E+00 0
         # Potential name:  GTH-PBE-Q4  for symbol:  C
         # Potential read from the potential filename: GTH_POTENTIALS
       &END POTENTIAL
     &END KIND
     &KIND O
       BASIS_SET DZVP-MOLOPT-SR-GTH-q6
       POTENTIAL GTH-PBE-q6
       &POTENTIAL
 2 4
  0.2445543000000000E+00 2 -0.1666721480000000E+02  0.2487311320000000E+01
 2
  0.2209559200000000E+00 1  0.1833745811000000E+02
  0.2113324700000000E+00 0
         # Potential name:  GTH-PBE-Q6  for symbol:  O
         # Potential read from the potential filename: GTH_POTENTIALS
       &END POTENTIAL
     &END KIND
     &KIND H
       BASIS_SET DZVP-MOLOPT-SR-GTH-q1
       POTENTIAL GTH-PBE-q1
       &POTENTIAL
 1
  0.2000000000000000E+00 2 -0.4178900440000000E+01  0.7244633100000000E+00
 0
         # Potential name:  GTH-PBE-Q1  for symbol:  H
         # Potential read from the potential filename: GTH_POTENTIALS
       &END POTENTIAL
     &END KIND
     &KIND N
       BASIS_SET DZVP-MOLOPT-SR-GTH
       POTENTIAL GTH-PBE-q5
       &POTENTIAL
 2 3
  0.2837905100000000E+00 2 -0.1241522559000000E+02  0.1868095920000000E+01
 2
  0.2554050000000000E+00 1  0.1363026257000000E+02
  0.2454945300000000E+00 0
         # Potential name:  GTH-PBE-Q5  for symbol:  N
         # Potential read from the potential filename: GTH_POTENTIALS
       &END POTENTIAL
     &END KIND
     &KIND Ga
       BASIS_SET DZVP-MOLOPT-SR-GTH
       POTENTIAL GTH-PBE-q13
       &POTENTIAL
 2 1 10
  0.4900000000000000E+00 0
 3
  0.4167772300000000E+00 3  0.1047568975000000E+02 -0.4921768140000000E+01  0.8707055900000000E+00
  0.7770178090000000E+01 -0.2248152160000000E+01
  0.1784415450000000E+01
  0.5696265200000000E+00 2  0.1777985340000000E+01  0.1958597600000000E+00
 -0.2317443900000000E+00
  0.2381265000000000E+00 1 -0.1624868022000000E+02
         # Potential name:  GTH-PBE-Q13  for symbol:  GA
         # Potential read from the potential filename: GTH_POTENTIALS
       &END POTENTIAL
     &END KIND
     &TOPOLOGY
       NUMBER_OF_ATOMS  206
       MULTIPLE_UNIT_CELL  1 1 1
     &END TOPOLOGY
   &END SUBSYS
 &END FORCE_EVAL
