 # Version information for this restart file 
 # current date 2019-06-24 16:07:21.990
 # current working dir /scratch/rzk/rzk/GaN-carbene/443-adatoms-both-2x2/03-DissMethanol/01-O-GaSur-H-NSur
 # Program compiled at                              Sun Apr  7 00:48:11 EDT 2019
 # Program compiled on                          beluga2.int.ets1.calculquebec.ca
 # Program compiled for                        Beluga-Linux-x86-64-intel-openmpi
 # Source code revision number                                         svn:18619
 &GLOBAL
   PRINT_LEVEL  MEDIUM
   PROJECT_NAME TEST
   RUN_TYPE  GEO_OPT
 &END GLOBAL
 &MOTION
   &GEO_OPT
     MAX_ITER  500
     STEP_START_VAL  5
   &END GEO_OPT
 &END MOTION
 &FORCE_EVAL
   METHOD  QS
   STRESS_TENSOR  ANALYTICAL
   &DFT
     BASIS_SET_FILE_NAME BASIS_MOLOPT
     POTENTIAL_FILE_NAME GTH_POTENTIALS
     UKS  T
     SURFACE_DIPOLE_CORRECTION  T
     SURF_DIP_DIR  Z
     &SCF
       MAX_SCF  80
       EPS_SCF     5.0000000000000004E-06
       &OT  T
         PRECONDITIONER  FULL_ALL
       &END OT
       &OUTER_SCF  T
         OPTIMIZER  NONE
         EPS_SCF     5.0000000000000004E-06
         MAX_SCF  4
       &END OUTER_SCF
       &PRINT
         &RESTART  OFF
           BACKUP_COPIES  1
           &EACH
             JUST_ENERGY  0
             QS_SCF  0
             MD  20
           &END EACH
         &END RESTART
       &END PRINT
     &END SCF
     &QS
       EPS_DEFAULT     1.0000000000000000E-14
       METHOD  GPW
     &END QS
     &MGRID
       NGRIDS  5
       CUTOFF     1.2000000000000000E+03
     &END MGRID
     &XC
       DENSITY_CUTOFF     1.0000000000000000E-10
       GRADIENT_CUTOFF     1.0000000000000000E-10
       TAU_CUTOFF     1.0000000000000000E-10
       &XC_FUNCTIONAL  NO_SHORTCUT
         &PBE  T
         &END PBE
       &END XC_FUNCTIONAL
       &VDW_POTENTIAL
         POTENTIAL_TYPE  PAIR_POTENTIAL
         &PAIR_POTENTIAL
           R_CUTOFF     1.0000000000000004E+01
           TYPE  DFTD3
           PARAMETER_FILE_NAME dftd3.dat
           REFERENCE_FUNCTIONAL PBE
           EPS_CN     9.9999999999999995E-07
           CALCULATE_C9_TERM  T
           REFERENCE_C9_TERM  T
           LONG_RANGE_CORRECTION  F
           VERBOSE_OUTPUT  F
         &END PAIR_POTENTIAL
       &END VDW_POTENTIAL
     &END XC
   &END DFT
   &SUBSYS
     &CELL
       A     1.2864472766435110E+01    0.0000000000000000E+00    0.0000000000000000E+00
       B    -6.4322363581020028E+00    1.1140960178524473E+01    0.0000000000000000E+00
       C     0.0000000000000000E+00    0.0000000000000000E+00    3.2000000000000000E+01
       MULTIPLE_UNIT_CELL  1 1 1
       &CELL_REF
         A     1.2982353780853531E+01    0.0000000000000000E+00    0.0000000000000000E+00
         B    -6.4911768904267628E+00    1.1243048175136114E+01    0.0000000000000000E+00
         C     0.0000000000000000E+00    0.0000000000000000E+00    3.2000000000000000E+01
         MULTIPLE_UNIT_CELL  1 1 1
       &END CELL_REF
     &END CELL
     &COORD
N    2.7733036421762450E-02    2.0282732407290758E+00    2.4648188347777706E+00
Ga    1.1391094858609728E-02    4.7172271726746894E-02    2.8101468442247577E+00
N    1.9818443761177303E-02    4.9490959282168248E-02    4.9727329508518237E+00
Ga    1.2831646985776286E-02    1.8715918360239143E+00    5.7683720905835312E+00
N    1.8605590417544872E-02    1.8922692181426688E+00    7.7527229419302079E+00
Ga    1.8518809630699146E-02    4.6918784963857416E-02    8.4079305307245935E+00
N    2.0083032750863167E-02    4.6891997700251681E-02    1.0374572540323843E+01
Ga    1.8914944756895199E-02    1.8870752460310030E+00    1.1028304456636313E+01
N    1.9814293875374950E-02    1.8670317573320221E+00    1.3015723920595308E+01
Ga    1.9475508166941366E-02    4.8482074683904225E-02    1.3832504850168830E+01
N    1.9673873057676788E-02    4.6916859432293040E-02    1.6019527570851643E+01
Ga    1.9691446896605926E-02    2.0978639397231258E+00    1.6437872179709046E+01
Ga    1.9475737317551392E-04    3.7930924118360632E+00    1.4343146138955007E+00
N   -1.4860043192386005E+00    4.6334998549543185E+00    2.4744410307676361E+00
Ga   -1.6914506287596693E+00    2.7732265710801958E+00    3.2309988675529997E+00
N   -1.5853952160413847E+00    2.8317802994857284E+00    5.1936972077443420E+00
Ga   -1.6084496658288467E+00    4.7028054729959745E+00    5.7573827698796771E+00
N   -1.5988752240891397E+00    4.6937506682708205E+00    7.7481062160118981E+00
Ga   -1.5817181393389672E+00    2.8392495155437829E+00    8.3953993739700987E+00
N   -1.5787682614693277E+00    2.8384430300299184E+00    1.0382592902088433E+01
Ga   -1.6022211720862853E+00    4.6993761076163691E+00    1.1025552854222797E+01
N   -1.6196647686172594E+00    4.7089334027908398E+00    1.3014042863582167E+01
Ga   -1.5769377922842487E+00    2.8401083912905123E+00    1.3575317024509433E+01
N   -1.6078948324367954E+00    2.8213895239274738E+00    1.5530533668369076E+01
Ga   -1.4205671089680991E+00    4.5934296686313143E+00    1.6437136676714555E+01
N    1.5593757265785565E-02    3.7591214930299559E+00    1.7561832352358891E+01
N   -3.1983707455318005E+00    7.5917628180243630E+00    2.4726112670918439E+00
Ga   -3.1910645227956635E+00    5.6171770816128488E+00    2.8160530133959805E+00
N   -3.1945415264681487E+00    5.6162148114479713E+00    4.9720989420373511E+00
Ga   -3.1976434433387197E+00    7.4469309362264848E+00    5.7542536074152268E+00
N   -3.1972437554687074E+00    7.4640681270994449E+00    7.7463382373663032E+00
Ga   -3.1960735298019580E+00    5.6176457585839170E+00    8.4016275163023852E+00
N   -3.1964919060621231E+00    5.6183669252044321E+00    1.0370418203504128E+01
Ga   -3.1964945145480694E+00    7.4571268284344168E+00    1.1027965495337224E+01
N   -3.1956338665414434E+00    7.4386448321902385E+00    1.3016526095824343E+01
Ga   -3.1950157562080239E+00    5.6181677102195220E+00    1.3830730945161116E+01
N   -3.1960140319387831E+00    5.6180078422368807E+00    1.6017708244722442E+01
Ga   -3.1961353924286602E+00    7.6665607704877621E+00    1.6436893323287116E+01
Ga   -3.1944664981620985E+00    9.2908021900417914E+00    1.3822187000256501E+00
N   -4.6959752242975528E+00    1.0202273693079778E+01    2.4600548536871769E+00
Ga   -4.9069133786532735E+00    8.3440693526486580E+00    3.2295971282695897E+00
N   -4.8044040677488695E+00    8.4055390246742920E+00    5.1942001730363296E+00
Ga   -4.8380923617129108E+00    1.0270532904657358E+01    5.7623804975665349E+00
N   -4.8137414196785677E+00    1.0265887327599209E+01    7.7489527797468449E+00
Ga   -4.7959304941176217E+00    8.4059114433958300E+00    8.3965576460300184E+00
N   -4.7934881896164088E+00    8.4098194220685638E+00    1.0384081605561434E+01
Ga   -4.8208494816823038E+00    1.0267283693882536E+01    1.1031475170570708E+01
N   -4.8365782963267616E+00    1.0278816906884584E+01    1.3018783576669238E+01
Ga   -4.7936395742958524E+00    8.4090907488628535E+00    1.3576053041290848E+01
N   -4.8240632477992973E+00    8.3915938816373430E+00    1.5532168857829097E+01
Ga   -4.6378307867904587E+00    1.0163981260007729E+01    1.6437983543839639E+01
N   -3.2002710202532261E+00    9.3285730117846146E+00    1.7562529476053101E+01
N    3.2387625841071634E+00    1.9081152618292982E+00    2.6387414133937837E+00
Ga    3.2360822975167296E+00    6.0409934009807591E-02    3.2768750929788224E+00
N    3.2358627008981600E+00    5.5972200623640909E-02    5.2029909901647624E+00
Ga    3.2358300472379233E+00    1.9060823492865788E+00    5.8545526517342408E+00
N    3.2360475701181461E+00    1.9031968111767299E+00    7.8093151071635845E+00
Ga    3.2357073049818221E+00    3.3698546603737230E-02    8.4037492380983974E+00
N    3.2355258465037169E+00    3.3140142743924947E-02    1.0386312709065294E+01
Ga    3.2357511932094369E+00    1.9060490265331151E+00    1.0981929123591600E+01
N    3.2373330227246049E+00    1.9047988864007503E+00    1.2947271575270795E+01
Ga    3.2370658182945680E+00    3.5310235877180365E-02    1.3576714789637357E+01
N    3.2394012432864416E+00    7.0139768694485377E-02    1.5532972781733713E+01
Ga    3.2385169614962783E+00    1.9065214003560089E+00    1.5813714417982505E+01
N    1.4980637209237655E+00    4.6143552669005183E+00    2.4402663172365604E+00
Ga    1.6478162161943155E+00    2.8352456903978118E+00    3.2959281424107347E+00
N    1.6316518763639520E+00    2.8263076910485609E+00    5.2132173509566302E+00
Ga    1.6806812319195636E+00    4.7289153197796256E+00    5.7517018293276481E+00
N    1.6356846137564549E+00    4.6929790613978044E+00    7.7506182426032648E+00
Ga    1.6151287685248463E+00    2.8456082690381757E+00    8.3977110818040401E+00
N    1.6153486199733871E+00    2.8399571785129170E+00    1.0382632476433283E+01
Ga    1.6443501442942108E+00    4.7016588728729802E+00    1.1022944493610758E+01
N    1.6609291682240863E+00    4.7098279571334958E+00    1.3011913175348298E+01
Ga    1.6175230637484315E+00    2.8407847268124238E+00    1.3574961256321240E+01
N    1.6487660413333016E+00    2.8240372068244946E+00    1.5530956079947982E+01
Ga    1.4562597170490261E+00    4.5910997825559079E+00    1.6439224231697512E+01
N    2.2524287589655245E-02    7.4791432136396931E+00    2.5659053608065379E+00
Ga    3.6456515797259934E-02    5.7394087677296888E+00    3.2498208558135180E+00
N    2.0576175813381510E-02    5.6150176181465676E+00    5.2058475868614860E+00
Ga    2.0512257695482705E-02    7.4746612320267563E+00    5.8315627197652926E+00
N    1.7426108370899231E-02    7.4745739784915628E+00    7.8009020719354742E+00
Ga    2.2626547061007186E-02    5.6050488126270155E+00    8.3886030833165997E+00
N    1.9757406996990391E-02    5.6048786834404716E+00    1.0378292294912002E+01
Ga    2.1301622653835870E-02    7.4747716220166840E+00    1.0976256096654483E+01
N    2.0826450257487993E-02    7.4761960851017539E+00    1.2943495815365056E+01
Ga    2.0912446369342048E-02    5.6070389193648484E+00    1.3574230881078146E+01
N    2.2789337073975739E-02    5.6412002598823632E+00    1.5529913312338547E+01
Ga    2.2696030479151166E-02    7.4759110432246212E+00    1.5815111084949450E+01
N   -1.6963689521109702E+00    1.0202464950276052E+01    2.4619946033603370E+00
Ga   -1.4911629671843094E+00    8.3449663695911216E+00    3.2356145044498636E+00
N   -1.5912335048323534E+00    8.4062155115291830E+00    5.1989809630756616E+00
Ga   -1.5541008874112969E+00    1.0271376910194679E+01    5.7633277405259467E+00
N   -1.5786953887253559E+00    1.0266799051051866E+01    7.7498389072064198E+00
Ga   -1.5973790709872400E+00    8.4058468776019346E+00    8.3949338720773152E+00
N   -1.6004592310199088E+00    8.4101037599999646E+00    1.0381950812377170E+01
Ga   -1.5723520990476771E+00    1.0267130266401731E+01    1.1029774811791246E+01
N   -1.5547680475496415E+00    1.0278814856226440E+01    1.3016756261825524E+01
Ga   -1.5971457015548145E+00    8.4094169733527320E+00    1.3576042139639297E+01
N   -1.5668859883398738E+00    8.3945022712402242E+00    1.5532410810791299E+01
Ga   -1.7583216360572669E+00    1.0161507226760227E+01    1.6439807964542556E+01
N    6.4526239153142839E+00    2.0209680745858716E+00    2.4673748333841150E+00
Ga    6.4646817578536169E+00    4.3201101096967565E-02    2.8084041053565372E+00
N    6.4528971513635804E+00    4.8173166219818563E-02    4.9719344341677898E+00
Ga    6.4595844905402409E+00    1.8698362173517311E+00    5.7686840435439111E+00
N    6.4532239977516017E+00    1.8920925835918110E+00    7.7531813382258115E+00
Ga    6.4537741029730133E+00    4.7010104862220299E-02    8.4082335452819752E+00
N    6.4519325352581234E+00    4.7321748792312851E-02    1.0375170323311449E+01
Ga    6.4526953188795666E+00    1.8874856393105932E+00    1.1027822164983426E+01
N    6.4529888777869457E+00    1.8671847808447257E+00    1.3016137472306314E+01
Ga    6.4529106687157762E+00    4.7273331980602275E-02    1.3828485088515027E+01
N    6.4539074150378939E+00    4.7316279737200283E-02    1.6020841859351297E+01
Ga    6.4537729620311719E+00    2.0885348656426230E+00    1.6435520194798915E+01
Ga    6.4870477669175148E+00    3.7841191758339252E+00    1.4440561475902278E+00
N    4.9908379397981255E+00    4.6113483803355235E+00    2.4537088181243356E+00
Ga    4.8324573542819564E+00    2.8310620423033468E+00    3.2964486762208880E+00
N    4.8409671109988510E+00    2.8246103091197576E+00    5.2141302463780947E+00
Ga    4.7930360089117610E+00    4.7283841165485399E+00    5.7501349445434142E+00
N    4.8370468141665022E+00    4.6928471340680078E+00    7.7499234083870432E+00
Ga    4.8568615103590931E+00    2.8457128387976169E+00    8.3977148382147870E+00
N    4.8564871022639204E+00    2.8402384173947568E+00    1.0383341920087279E+01
Ga    4.8275386517483660E+00    4.7016381165779331E+00    1.1023705784086575E+01
N    4.8122782812036897E+00    4.7093104364956568E+00    1.3014093116235703E+01
Ga    4.8562593655530772E+00    2.8405201611003159E+00    1.3574484454855135E+01
N    4.8323525124671036E+00    2.8253536552161238E+00    1.5534552965947592E+01
Ga    5.0049744454801504E+00    4.5987101513125337E+00    1.6435275703747479E+01
N    6.4486566085609827E+00    3.7587295955859337E+00    1.7579324378104729E+01
N    3.2339550798823939E+00    7.6439401862346630E+00    2.5161214185322160E+00
Ga    3.2308203023669568E+00    5.6495971893955090E+00    2.2263090272183752E+00
N    3.2369197888265422E+00    5.6123592934320357E+00    5.0045268462476331E+00
Ga    3.2341758054510890E+00    7.4190911106573783E+00    5.7347015699027875E+00
N    3.2357137028051439E+00    7.4644872184982809E+00    7.7452669353120136E+00
Ga    3.2363873127945557E+00    5.6200855900722377E+00    8.3861685513267386E+00
N    3.2363794949219757E+00    5.6183676916880971E+00    1.0361990421169200E+01
Ga    3.2359397068391358E+00    7.4563397513455945E+00    1.1020779536054983E+01
N    3.2362392589005164E+00    7.4387582290128851E+00    1.3012965459852623E+01
Ga    3.2352415448372072E+00    5.6187621745504579E+00    1.3826752745180716E+01
N    3.2373702450086590E+00    5.6188237697296577E+00    1.6020107073760123E+01
Ga    3.2372064476505877E+00    7.6583779226578184E+00    1.6433603322118707E+01
Ga    3.2455797155823354E+00    9.3086102190936337E+00    1.4533341664284145E+00
N    1.7296831371317392E+00    1.0206204237170832E+01    2.4728703452517928E+00
Ga    1.5320431272625288E+00    8.3506067248561084E+00    3.2606764452070895E+00
N    1.6233073116364494E+00    8.4078307155321976E+00    5.2186396961697872E+00
Ga    1.6073285283254786E+00    1.0271869948896923E+01    5.7620367701548219E+00
N    1.6178640577093009E+00    1.0268601589763433E+01    7.7529477873950956E+00
Ga    1.6424863203056730E+00    8.4047684010719532E+00    8.3860870225782076E+00
N    1.6399217341495080E+00    8.4096263547405794E+00    1.0378204052867966E+01
Ga    1.6142529413266273E+00    1.0266048525929483E+01    1.1024781873556121E+01
N    1.5965115361247970E+00    1.0278433925665704E+01    1.3015122974739837E+01
Ga    1.6393329948616251E+00    8.4095031679649708E+00    1.3573097415919573E+01
N    1.6154858941408761E+00    8.3960632607146497E+00    1.5533779598493981E+01
Ga    1.7881962935525273E+00    1.0168977867469108E+01    1.6434241672869771E+01
N    3.2318944718307390E+00    9.3287502104048361E+00    1.7580312616960370E+01
N    9.6707892200352976E+00    1.9020211054775531E+00    2.5483825467044161E+00
Ga    9.6681848494999887E+00    1.5842399135206145E-01    3.2321951805848306E+00
N    9.6678558725948935E+00    4.7238857954611149E-02    5.1986356570232974E+00
Ga    9.6689883017273992E+00    1.9019495477926942E+00    5.8215543851459852E+00
N    9.6682509038562490E+00    1.9049006903149130E+00    7.7929741284564686E+00
Ga    9.6681145956973751E+00    3.8211899378489317E-02    8.3959484179447834E+00
N    9.6683666543082509E+00    3.5802566359334355E-02    1.0383841602916149E+01
Ga    9.6672451577750973E+00    1.9039890051210808E+00    1.0982680776197739E+01
N    9.6674247745167534E+00    1.9039012903516286E+00    1.2948925048315234E+01
Ga    9.6686216023336407E+00    3.4500026986877728E-02    1.3574482911812277E+01
N    9.6701662847317582E+00    6.4573713907496277E-02    1.5533672491725468E+01
Ga    9.6684654774146281E+00    1.9046188214043216E+00    1.5811528133196250E+01
N    7.9719029276156901E+00    4.6328355020057925E+00    2.4780482349658066E+00
Ga    8.1702404693423585E+00    2.7710794037586988E+00    3.2367320035588030E+00
N    8.0579253899098369E+00    2.8315056900936906E+00    5.1967599596981762E+00
Ga    8.0836864082699869E+00    4.7028197801086344E+00    5.7586370015311878E+00
N    8.0710937195261003E+00    4.6939322518080777E+00    7.7489850249901364E+00
Ga    8.0534760098936289E+00    2.8391176636544193E+00    8.3948696481221816E+00
N    8.0495357250279298E+00    2.8390518902264890E+00    1.0382270582800004E+01
Ga    8.0740958837618688E+00    4.6995233006651977E+00    1.1025268013618955E+01
N    8.0922132386157575E+00    4.7084360074007856E+00    1.3014684239439283E+01
Ga    8.0496702998172047E+00    2.8400027878053602E+00    1.3575432824949056E+01
N    8.0758769206223686E+00    2.8258600414714139E+00    1.5533948765188175E+01
Ga    7.8993332183937452E+00    4.5968901191026230E+00    1.6433685195787280E+01
N    6.4403722486402337E+00    7.4757486404139346E+00    2.5621560524485250E+00
Ga    6.4464347057665670E+00    5.7354530882485673E+00    3.2531842415320220E+00
N    6.4548863689170224E+00    5.6159447240706415E+00    5.2082444858055483E+00
Ga    6.4512114298205372E+00    7.4746828905831988E+00    5.8336622966705844E+00
N    6.4541728119681183E+00    7.4745519303047789E+00    7.8022177060988991E+00
Ga    6.4493589520915444E+00    5.6048602775520253E+00    8.3890081105553236E+00
N    6.4519799770992696E+00    5.6048333451757140E+00    1.0379723059675568E+01
Ga    6.4492818942348773E+00    7.4742544824030164E+00    1.0977429817119823E+01
N    6.4516496428741226E+00    7.4747722646438879E+00    1.2945977352537231E+01
Ga    6.4525538674202023E+00    5.6060367750621563E+00    1.3574410073587476E+01
N    6.4545192055259815E+00    5.6352520638322048E+00    1.5533181379074010E+01
Ga    6.4519763397987422E+00    7.4743935067288865E+00    1.5812828439200192E+01
N    4.7480565884156070E+00    1.0205301679283664E+01    2.4814810610966709E+00
Ga    4.9377323822329364E+00    8.3515313469757775E+00    3.2720770201104448E+00
N    4.8467908356593412E+00    8.4079317493072043E+00    5.2244104753365033E+00
Ga    4.8643683660272901E+00    1.0273942130074065E+01    5.7627668354527248E+00
N    4.8541670032729751E+00    1.0268804867703098E+01    7.7532265661216782E+00
Ga    4.8288882416657346E+00    8.4049523723021160E+00    8.3859384927905456E+00
N    4.8320233897561486E+00    8.4097264877395972E+00    1.0378530573798702E+01
Ga    4.8580922682608456E+00    1.0266247397085714E+01    1.1025325877689603E+01
N    4.8760361916251140E+00    1.0278374759142126E+01    1.3015553920122127E+01
Ga    4.8334204298283581E+00    8.4093841865502501E+00    1.3573896643882511E+01
N    4.8599276303565082E+00    8.3962170008791404E+00    1.5533389343072400E+01
Ga    4.6832581369816975E+00    1.0167157605771843E+01    1.6433059105487107E+01
O    3.2092950428304707E+00    5.6645166753933269E+00    3.5379556539506452E-01
H    3.2345707638788168E+00    1.9240503904068136E+00    1.6176305711461232E+00
C    3.9860103604173158E+00    6.6018051490112573E+00   -3.3856975436142833E-01
H    3.3291282483734457E+00    7.2292878701389851E+00   -9.7302606065558739E-01
H    4.5914433265947689E+00    7.2877679236318240E+00    2.9304706496900335E-01
H    4.7201560017311186E+00    6.0816469270980447E+00   -9.8082065715643885E-01
     &END COORD
     &KIND C
       BASIS_SET DZVP-MOLOPT-SR-GTH-q4
       POTENTIAL GTH-PBE-q4
       &POTENTIAL
 2 2
  0.3384712400000000E+00 2 -0.8803673979999999E+01  0.1339210850000000E+01
 2
  0.3025757500000000E+00 1  0.9622486650000001E+01
  0.2915069400000000E+00 0
         # Potential name:  GTH-PBE-Q4  for symbol:  C
         # Potential read from the potential filename: GTH_POTENTIALS
       &END POTENTIAL
     &END KIND
     &KIND O
       BASIS_SET DZVP-MOLOPT-SR-GTH-q6
       POTENTIAL GTH-PBE-q6
       &POTENTIAL
 2 4
  0.2445543000000000E+00 2 -0.1666721480000000E+02  0.2487311320000000E+01
 2
  0.2209559200000000E+00 1  0.1833745811000000E+02
  0.2113324700000000E+00 0
         # Potential name:  GTH-PBE-Q6  for symbol:  O
         # Potential read from the potential filename: GTH_POTENTIALS
       &END POTENTIAL
     &END KIND
     &KIND H
       BASIS_SET DZVP-MOLOPT-SR-GTH-q1
       POTENTIAL GTH-PBE-q1
       &POTENTIAL
 1
  0.2000000000000000E+00 2 -0.4178900440000000E+01  0.7244633100000000E+00
 0
         # Potential name:  GTH-PBE-Q1  for symbol:  H
         # Potential read from the potential filename: GTH_POTENTIALS
       &END POTENTIAL
     &END KIND
     &KIND N
       BASIS_SET DZVP-MOLOPT-SR-GTH
       POTENTIAL GTH-PBE-q5
       &POTENTIAL
 2 3
  0.2837905100000000E+00 2 -0.1241522559000000E+02  0.1868095920000000E+01
 2
  0.2554050000000000E+00 1  0.1363026257000000E+02
  0.2454945300000000E+00 0
         # Potential name:  GTH-PBE-Q5  for symbol:  N
         # Potential read from the potential filename: GTH_POTENTIALS
       &END POTENTIAL
     &END KIND
     &KIND Ga
       BASIS_SET DZVP-MOLOPT-SR-GTH
       POTENTIAL GTH-PBE-q13
       &POTENTIAL
 2 1 10
  0.4900000000000000E+00 0
 3
  0.4167772300000000E+00 3  0.1047568975000000E+02 -0.4921768140000000E+01  0.8707055900000000E+00
  0.7770178090000000E+01 -0.2248152160000000E+01
  0.1784415450000000E+01
  0.5696265200000000E+00 2  0.1777985340000000E+01  0.1958597600000000E+00
 -0.2317443900000000E+00
  0.2381265000000000E+00 1 -0.1624868022000000E+02
         # Potential name:  GTH-PBE-Q13  for symbol:  GA
         # Potential read from the potential filename: GTH_POTENTIALS
       &END POTENTIAL
     &END KIND
     &TOPOLOGY
       NUMBER_OF_ATOMS  206
       MULTIPLE_UNIT_CELL  1 1 1
     &END TOPOLOGY
   &END SUBSYS
 &END FORCE_EVAL
