 # Version information for this restart file 
 # current date 2019-06-24 16:02:03.915
 # current working dir /scratch/rzk/rzk/GaN-carbene/443-adatoms-both-2x2/03-DissMethanol/01-O-GaSur-H-NSur
 # Program compiled at                              Sun Apr  7 00:48:11 EDT 2019
 # Program compiled on                          beluga2.int.ets1.calculquebec.ca
 # Program compiled for                        Beluga-Linux-x86-64-intel-openmpi
 # Source code revision number                                         svn:18619
 &GLOBAL
   PRINT_LEVEL  MEDIUM
   PROJECT_NAME TEST
   RUN_TYPE  GEO_OPT
 &END GLOBAL
 &MOTION
   &GEO_OPT
     MAX_ITER  500
     STEP_START_VAL  4
   &END GEO_OPT
 &END MOTION
 &FORCE_EVAL
   METHOD  QS
   STRESS_TENSOR  ANALYTICAL
   &DFT
     BASIS_SET_FILE_NAME BASIS_MOLOPT
     POTENTIAL_FILE_NAME GTH_POTENTIALS
     UKS  T
     SURFACE_DIPOLE_CORRECTION  T
     SURF_DIP_DIR  Z
     &SCF
       MAX_SCF  80
       EPS_SCF     5.0000000000000004E-06
       &OT  T
         PRECONDITIONER  FULL_ALL
       &END OT
       &OUTER_SCF  T
         OPTIMIZER  NONE
         EPS_SCF     5.0000000000000004E-06
         MAX_SCF  4
       &END OUTER_SCF
       &PRINT
         &RESTART  OFF
           BACKUP_COPIES  1
           &EACH
             JUST_ENERGY  0
             QS_SCF  0
             MD  20
           &END EACH
         &END RESTART
       &END PRINT
     &END SCF
     &QS
       EPS_DEFAULT     1.0000000000000000E-14
       METHOD  GPW
     &END QS
     &MGRID
       NGRIDS  5
       CUTOFF     1.2000000000000000E+03
     &END MGRID
     &XC
       DENSITY_CUTOFF     1.0000000000000000E-10
       GRADIENT_CUTOFF     1.0000000000000000E-10
       TAU_CUTOFF     1.0000000000000000E-10
       &XC_FUNCTIONAL  NO_SHORTCUT
         &PBE  T
         &END PBE
       &END XC_FUNCTIONAL
       &VDW_POTENTIAL
         POTENTIAL_TYPE  PAIR_POTENTIAL
         &PAIR_POTENTIAL
           R_CUTOFF     1.0000000000000004E+01
           TYPE  DFTD3
           PARAMETER_FILE_NAME dftd3.dat
           REFERENCE_FUNCTIONAL PBE
           EPS_CN     9.9999999999999995E-07
           CALCULATE_C9_TERM  T
           REFERENCE_C9_TERM  T
           LONG_RANGE_CORRECTION  F
           VERBOSE_OUTPUT  F
         &END PAIR_POTENTIAL
       &END VDW_POTENTIAL
     &END XC
   &END DFT
   &SUBSYS
     &CELL
       A     1.2864472766435110E+01    0.0000000000000000E+00    0.0000000000000000E+00
       B    -6.4322363581020028E+00    1.1140960178524473E+01    0.0000000000000000E+00
       C     0.0000000000000000E+00    0.0000000000000000E+00    3.2000000000000000E+01
       MULTIPLE_UNIT_CELL  1 1 1
       &CELL_REF
         A     1.2982353780853531E+01    0.0000000000000000E+00    0.0000000000000000E+00
         B    -6.4911768904267628E+00    1.1243048175136114E+01    0.0000000000000000E+00
         C     0.0000000000000000E+00    0.0000000000000000E+00    3.2000000000000000E+01
         MULTIPLE_UNIT_CELL  1 1 1
       &END CELL_REF
     &END CELL
     &COORD
N    2.8771241118631791E-02    2.0225503913267207E+00    2.4571992888445409E+00
Ga    8.6808172019096231E-03    4.2961791146889881E-02    2.8070950271702579E+00
N    1.8136752732342224E-02    4.8586146272697153E-02    4.9689981595061941E+00
Ga    1.0933670413562436E-02    1.8677970820747563E+00    5.7686262550294911E+00
N    1.9604266358057686E-02    1.8922130963840220E+00    7.7524546355392250E+00
Ga    1.8191109566034785E-02    4.6396550430855783E-02    8.4054825368266428E+00
N    2.0273849786747528E-02    4.6872324899001186E-02    1.0371793729321421E+01
Ga    1.7497177236845275E-02    1.8860724988964277E+00    1.1028630919473590E+01
N    1.9278449291046232E-02    1.8668589586956661E+00    1.3014507140991876E+01
Ga    1.9877602822387014E-02    4.8616985603733960E-02    1.3832091293405750E+01
N    2.1287263711259361E-02    4.8761457507951307E-02    1.6019524010424014E+01
Ga    2.0375453115175045E-02    2.0991398967026202E+00    1.6438258746482255E+01
Ga    5.3470979244457928E-03    3.7972216429768451E+00    1.4309229227384674E+00
N   -1.4889461051210298E+00    4.6349562137360225E+00    2.4712558710719899E+00
Ga   -1.6901366481954851E+00    2.7763589453559443E+00    3.2285161111305873E+00
N   -1.5835820074674716E+00    2.8318234388211443E+00    5.1926715631529188E+00
Ga   -1.6100637012234416E+00    4.7025703471301634E+00    5.7582844241568498E+00
N   -1.5997045463521671E+00    4.6942872403663616E+00    7.7485752242361778E+00
Ga   -1.5817337173140296E+00    2.8396410278015365E+00    8.3941625363081389E+00
N   -1.5784711527208717E+00    2.8383956416801075E+00    1.0381017656910570E+01
Ga   -1.6026589028292284E+00    4.6988548481447587E+00    1.1025270333285903E+01
N   -1.6200160062076248E+00    4.7084856611351293E+00    1.3012707247755516E+01
Ga   -1.5776820330729273E+00    2.8396275367168688E+00    1.3575217565266845E+01
N   -1.6081856963909236E+00    2.8207014656005414E+00    1.5528785752784987E+01
Ga   -1.4188893210968210E+00    4.5926702293999799E+00    1.6437518448717420E+01
N    1.5928483789882323E-02    3.7590296828653278E+00    1.7564017571829723E+01
N   -3.1986383604171738E+00    7.5933975266656573E+00    2.4739775480567929E+00
Ga   -3.1921970656703520E+00    5.6181260760660221E+00    2.8131348020358087E+00
N   -3.1948214476503489E+00    5.6158979075573860E+00    4.9726551990977486E+00
Ga   -3.1972636863909472E+00    7.4464398785573858E+00    5.7539377406179986E+00
N   -3.1969663732536047E+00    7.4633628848875082E+00    7.7454386857663504E+00
Ga   -3.1961187768780461E+00    5.6178190856892956E+00    8.4020666220113593E+00
N   -3.1964848004995634E+00    5.6184682089076485E+00    1.0369760392294520E+01
Ga   -3.1966087530418310E+00    7.4575908213248461E+00    1.1026880701953360E+01
N   -3.1959512151966414E+00    7.4386530727346738E+00    1.3014562643489352E+01
Ga   -3.1949411892197412E+00    5.6186939558489417E+00    1.3829786986281709E+01
N   -3.1940307057316071E+00    5.6181332305452436E+00    1.6016771584593961E+01
Ga   -3.1952770144611615E+00    7.6689762981762515E+00    1.6438471393499341E+01
Ga   -3.1947249145851497E+00    9.2873685813991269E+00    1.3772594935419991E+00
N   -4.6925082547444399E+00    1.0204371939754044E+01    2.4572128405951452E+00
Ga   -4.9055524444800627E+00    8.3428955387558723E+00    3.2310125236132654E+00
N   -4.8033915785127306E+00    8.4070031690658773E+00    5.1947618086475789E+00
Ga   -4.8403269777377140E+00    1.0271571304301856E+01    5.7610600695997674E+00
N   -4.8128172157671472E+00    1.0266783769591584E+01    7.7470615475920201E+00
Ga   -4.7950330531785745E+00    8.4060599645098186E+00    8.3943899470195387E+00
N   -4.7933631287033203E+00    8.4101381540353000E+00    1.0381521183194430E+01
Ga   -4.8215964009073478E+00    1.0266794957050873E+01    1.1031113530527977E+01
N   -4.8370136569108837E+00    1.0278910686953745E+01    1.3017260041561535E+01
Ga   -4.7933031056090938E+00    8.4094246782562223E+00    1.3576597241945979E+01
N   -4.8241268302316094E+00    8.3920493774779299E+00    1.5531658453370486E+01
Ga   -4.6353101584745469E+00    1.0163975218488503E+01    1.6439626529986800E+01
N   -3.2002235952277416E+00    9.3292101251612021E+00    1.7566292048013324E+01
N    3.2368020108711506E+00    1.9107326623933933E+00    2.6395747316084619E+00
Ga    3.2360037073575136E+00    5.2727146228577909E-02    3.2791784315228307E+00
N    3.2359956197975488E+00    5.9055053778591389E-02    5.2007269958154776E+00
Ga    3.2360829790655923E+00    1.9044471514658574E+00    5.8635866005081070E+00
N    3.2362271932612821E+00    1.9025208175914001E+00    7.8147270038597840E+00
Ga    3.2358126116465549E+00    3.0640603791399740E-02    8.4066996564831484E+00
N    3.2355790310718735E+00    3.1982304741305631E-02    1.0387423123456152E+01
Ga    3.2361270518847682E+00    1.9053749484707949E+00    1.0982643542017788E+01
N    3.2374750418490668E+00    1.9045686625867788E+00    1.2946084734278683E+01
Ga    3.2368161933105535E+00    3.5403742299130014E-02    1.3576668300304178E+01
N    3.2401446848797129E+00    7.0622323733385645E-02    1.5531057094253812E+01
Ga    3.2381270377173026E+00    1.9060799122117589E+00    1.5814046065027384E+01
N    1.4924561399129468E+00    4.6090008645652958E+00    2.4635852241571019E+00
Ga    1.6322191352397846E+00    2.8358540911990748E+00    3.3024782895481835E+00
N    1.6343773462673186E+00    2.8190729508803591E+00    5.2170162483468179E+00
Ga    1.6796051661518836E+00    4.7286192026505862E+00    5.7384535953774822E+00
N    1.6385814901236639E+00    4.6937797022697545E+00    7.7401612139615334E+00
Ga    1.6133016529551893E+00    2.8472781134883913E+00    8.3995876921284456E+00
N    1.6144985117235657E+00    2.8397833846241025E+00    1.0383537667945982E+01
Ga    1.6436756142550644E+00    4.7021970796592907E+00    1.1024406553108188E+01
N    1.6600661171352220E+00    4.7093749396572671E+00    1.3011595721869142E+01
Ga    1.6177507968224694E+00    2.8398520059593930E+00    1.3574588683718828E+01
N    1.6497918552070368E+00    2.8238831673460383E+00    1.5528290162205158E+01
Ga    1.4556924209569477E+00    4.5902061949071262E+00    1.6439582936463090E+01
N    2.2261370370172194E-02    7.4791529278773430E+00    2.5724279870903084E+00
Ga    2.8636186083658977E-02    5.7359171745931219E+00    3.2512250319389531E+00
N    1.6702755248750902E-02    5.6166221753258458E+00    5.2091954691304476E+00
Ga    1.9896648032979424E-02    7.4754163200229478E+00    5.8330411187027753E+00
N    1.7268637064102421E-02    7.4749237384918201E+00    7.8022577745507089E+00
Ga    2.2642282333808550E-02    5.6048564415016662E+00    8.3867333927259011E+00
N    1.9314726468356372E-02    5.6050352553265652E+00    1.0376347572579471E+01
Ga    2.1252600172737265E-02    7.4756122641819811E+00    1.0976549352969380E+01
N    2.0987419131432244E-02    7.4766384449631644E+00    1.2942462288299803E+01
Ga    2.0184194204583707E-02    5.6077259111131808E+00    1.3574529529840982E+01
N    2.3568347849307014E-02    5.6418259706552698E+00    1.5528317003080790E+01
Ga    2.1727645243943713E-02    7.4756535306065723E+00    1.5815484852233741E+01
N   -1.6997537102887497E+00    1.0205081222532909E+01    2.4587298309658228E+00
Ga   -1.4929480245139430E+00    8.3440992079948462E+00    3.2361180264924894E+00
N   -1.5915611278737887E+00    8.4077707966620139E+00    5.1991386274229967E+00
Ga   -1.5517197369298981E+00    1.0272362351511459E+01    5.7620150946232229E+00
N   -1.5793512029961934E+00    1.0267599480026975E+01    7.7480443874700224E+00
Ga   -1.5980644895296952E+00    8.4060420266219271E+00    8.3934037845306655E+00
N   -1.6006600079099118E+00    8.4105439547806053E+00    1.0379972465706556E+01
Ga   -1.5713307451924923E+00    1.0266939287942623E+01    1.1029684241412765E+01
N   -1.5550993599891303E+00    1.0278884129526125E+01    1.3015119548679975E+01
Ga   -1.5973028137766074E+00    8.4094176014167559E+00    1.3576162089409719E+01
N   -1.5662346930225612E+00    8.3955745419776573E+00    1.5530691842482959E+01
Ga   -1.7598006886304516E+00    1.0161202258322509E+01    1.6441555803136342E+01
N    6.4489997861514716E+00    2.0170885667421450E+00    2.4592940332644693E+00
Ga    6.4670424603995933E+00    4.0079792437129384E-02    2.8060290857883592E+00
N    6.4549252092483309E+00    4.7188907506221935E-02    4.9684759509971759E+00
Ga    6.4609708057775013E+00    1.8666449628613346E+00    5.7677411434045620E+00
N    6.4521792879542668E+00    1.8920434882529256E+00    7.7519265623844760E+00
Ga    6.4541217562398598E+00    4.6736244962139142E-02    8.4062829483250123E+00
N    6.4519699997410678E+00    4.7449273301531654E-02    1.0372955653871815E+01
Ga    6.4538172000131473E+00    1.8865058419343468E+00    1.1029125310830993E+01
N    6.4531482326155452E+00    1.8668789664163947E+00    1.3016612239494535E+01
Ga    6.4516352756168196E+00    4.6890897456699672E-02    1.3829169069588053E+01
N    6.4528801887385496E+00    4.7107187133337572E-02    1.6021918776621590E+01
Ga    6.4532696083207499E+00    2.0884918464893687E+00    1.6435374421157910E+01
Ga    6.4817464220975713E+00    3.7880647208746301E+00    1.4374272159792969E+00
N    4.9985205714858107E+00    4.6029156287112585E+00    2.4768471708819089E+00
Ga    4.8446000132539142E+00    2.8311055153101781E+00    3.3022715286726823E+00
N    4.8377324309326184E+00    2.8180786479429765E+00    5.2169181175341786E+00
Ga    4.7939386893462173E+00    4.7280549092853947E+00    5.7373309778395569E+00
N    4.8340392789607263E+00    4.6933243404494380E+00    7.7393286268297752E+00
Ga    4.8589502475175514E+00    2.8473354921497185E+00    8.3996258336199467E+00
N    4.8576300516391946E+00    2.8401798979256241E+00    1.0383931903004871E+01
Ga    4.8285034178048747E+00    4.7018186767125218E+00    1.1025902615964904E+01
N    4.8123916900723591E+00    4.7091702562127340E+00    1.3015548439942151E+01
Ga    4.8557637267857467E+00    2.8396671064967882E+00    1.3575457133014414E+01
N    4.8319958507466829E+00    2.8246092610175966E+00    1.5534578806813068E+01
Ga    5.0048338920160438E+00    4.5973614157735252E+00    1.6434921094956344E+01
N    6.4482015565441735E+00    3.7583452953556065E+00    1.7579073780370109E+01
N    3.2315199678182962E+00    7.6540542559654625E+00    2.5394102428868996E+00
Ga    3.2360078157019729E+00    5.6535884054458112E+00    2.2691091519322386E+00
N    3.2372884017314356E+00    5.6125567745839966E+00    4.9405851853568468E+00
Ga    3.2345632338130597E+00    7.4232860848812825E+00    5.7228295122855997E+00
N    3.2357843092704033E+00    7.4618170495173279E+00    7.7353540313637348E+00
Ga    3.2364970111534088E+00    5.6205328847610598E+00    8.3888357100343942E+00
N    3.2366360504193912E+00    5.6182589999465060E+00    1.0362626781257681E+01
Ga    3.2357967532096223E+00    7.4575487016117679E+00    1.1022362744377196E+01
N    3.2361999458610038E+00    7.4389282136256574E+00    1.3014483494479284E+01
Ga    3.2343513551298164E+00    5.6183332967231827E+00    1.3827430663001595E+01
N    3.2359172983503477E+00    5.6173398558477601E+00    1.6021051791560890E+01
Ga    3.2365158213985818E+00    7.6582846063952816E+00    1.6434373017326507E+01
Ga    3.2474760631102089E+00    9.2993024061670368E+00    1.4460493502959908E+00
N    1.7271084741904945E+00    1.0206895788312906E+01    2.4683159427759915E+00
Ga    1.5344450082511458E+00    8.3553961877815688E+00    3.2600559466170695E+00
N    1.6183969785065224E+00    8.4096875819175079E+00    5.2208062275903711E+00
Ga    1.6081286414216722E+00    1.0272035667229890E+01    5.7628689384602421E+00
N    1.6176191286922319E+00    1.0268472757949789E+01    7.7532050337293423E+00
Ga    1.6427785820443042E+00    8.4047274660481452E+00    8.3850338600688623E+00
N    1.6398626066233262E+00    8.4105146225560219E+00    1.0376639767222231E+01
Ga    1.6142572084088418E+00    1.0266833886294975E+01    1.1025602960783447E+01
N    1.5961936162476575E+00    1.0279143846188015E+01    1.3015938562775988E+01
Ga    1.6386779051198153E+00    8.4098654980986680E+00    1.3575405715174998E+01
N    1.6149683378283832E+00    8.3961412436280174E+00    1.5536128491010460E+01
Ga    1.7880478949829255E+00    1.0168875747020914E+01    1.6435227286994753E+01
N    3.2317264063023838E+00    9.3286293350016027E+00    1.7580180773173918E+01
N    9.6697308739361443E+00    1.9001261221705068E+00    2.5554762366103096E+00
Ga    9.6684222973644722E+00    1.5150242620378512E-01    3.2305336540429077E+00
N    9.6679056625455146E+00    4.7573800755796543E-02    5.1986766959061264E+00
Ga    9.6686043489681097E+00    1.9021196505311657E+00    5.8201700966183676E+00
N    9.6682512457479870E+00    1.9049692218075549E+00    7.7918336744233851E+00
Ga    9.6682064855861114E+00    3.7998109740601464E-02    8.3944022322621414E+00
N    9.6682011822893639E+00    3.5089238756696783E-02    1.0382059098280147E+01
Ga    9.6671906846572870E+00    1.9032270070448043E+00    1.0981457411524909E+01
N    9.6673595595995803E+00    1.9033588110055026E+00    1.2947129065006573E+01
Ga    9.6686648939719717E+00    3.4988183416173921E-02    1.3576203736560890E+01
N    9.6696766022005285E+00    6.5028069236346228E-02    1.5535476699088266E+01
Ga    9.6691867893559404E+00    1.9053112789663325E+00    1.5812844638450692E+01
N    7.9719249047268432E+00    4.6344597617775074E+00    2.4742821253766190E+00
Ga    8.1667767757896783E+00    2.7746378443681858E+00    3.2331534573949829E+00
N    8.0557715719234935E+00    2.8318310345459303E+00    5.1950698470697709E+00
Ga    8.0846786760867158E+00    4.7026305708256722E+00    5.7589808311024004E+00
N    8.0718935883378951E+00    4.6943834115537806E+00    7.7489684514812733E+00
Ga    8.0534105052767178E+00    2.8394093939150085E+00    8.3937540195985374E+00
N    8.0490116000036114E+00    2.8389103314753914E+00    1.0380854376159450E+01
Ga    8.0743175009557167E+00    4.6990386973221883E+00    1.1025160162551346E+01
N    8.0924520583913644E+00    4.7082646431789437E+00    1.3014244308697734E+01
Ga    8.0503839000905160E+00    2.8395327816011640E+00    1.3575693273256016E+01
N    8.0757499776393686E+00    2.8246264707232123E+00    1.5533422111930347E+01
Ga    7.8995747709990054E+00    4.5960928978028184E+00    1.6433270634450587E+01
N    6.4396875548668415E+00    7.4761056820216547E+00    2.5687719305122489E+00
Ga    6.4534476013204261E+00    5.7328433660518741E+00    3.2547517627158364E+00
N    6.4579683260735559E+00    5.6172145598053698E+00    5.2109944901133609E+00
Ga    6.4515143926874368E+00    7.4753887992551320E+00    5.8337403965854824E+00
N    6.4545026210797865E+00    7.4750259392283516E+00    7.8023422685407819E+00
Ga    6.4492076769342166E+00    5.6047569128502248E+00    8.3864975221036282E+00
N    6.4522379736796491E+00    5.6048839220659126E+00    1.0377168124116556E+01
Ga    6.4496071223776781E+00    7.4747742096614438E+00    1.0978240813484634E+01
N    6.4515502343268931E+00    7.4750202639188021E+00    1.2946211595543486E+01
Ga    6.4530485593261107E+00    5.6062483989452039E+00    1.3575510732476742E+01
N    6.4538968422341059E+00    5.6353850898771212E+00    1.5533935293855363E+01
Ga    6.4532385594650696E+00    7.4746175188517086E+00    1.5813984227228120E+01
N    4.7511177270341136E+00    1.0207220021532537E+01    2.4789017071615356E+00
Ga    4.9337751917703825E+00    8.3574036725379361E+00    3.2691157963251967E+00
N    4.8515867677798719E+00    8.4096368791807876E+00    5.2249108083380378E+00
Ga    4.8638586909739443E+00    1.0273583636382442E+01    5.7625276531712810E+00
N    4.8543955620899801E+00    1.0268439121272634E+01    7.7527772954017422E+00
Ga    4.8288308551437344E+00    8.4047387981021409E+00    8.3847849441320594E+00
N    4.8322375058919338E+00    8.4103450175966810E+00    1.0376966109574020E+01
Ga    4.8578923020101827E+00    1.0267118463477745E+01    1.1025405492869819E+01
N    4.8762654196401485E+00    1.0279033348200981E+01    1.3015602929059952E+01
Ga    4.8336164394905161E+00    8.4100016849045041E+00    1.3575769135965297E+01
N    4.8600854190056468E+00    8.3958270107679027E+00    1.5535569912435143E+01
Ga    4.6833629711652414E+00    1.0167759900337286E+01    1.6433971867240750E+01
O    3.2256424652918585E+00    5.6823632620219824E+00    3.6528891951740827E-01
H    3.2336461545026487E+00    1.9214829277688350E+00    1.6117980376569203E+00
C    3.9940728562740935E+00    6.6101589888278616E+00   -3.1326947691984131E-01
H    3.3150682497108024E+00    7.2035660931969678E+00   -9.7393126794811213E-01
H    4.6031650063151996E+00    7.3081795844419313E+00    3.0846962389754756E-01
H    4.7128595916329896E+00    6.0800508781641760E+00   -9.7643426339568162E-01
     &END COORD
     &KIND C
       BASIS_SET DZVP-MOLOPT-SR-GTH-q4
       POTENTIAL GTH-PBE-q4
       &POTENTIAL
 2 2
  0.3384712400000000E+00 2 -0.8803673979999999E+01  0.1339210850000000E+01
 2
  0.3025757500000000E+00 1  0.9622486650000001E+01
  0.2915069400000000E+00 0
         # Potential name:  GTH-PBE-Q4  for symbol:  C
         # Potential read from the potential filename: GTH_POTENTIALS
       &END POTENTIAL
     &END KIND
     &KIND O
       BASIS_SET DZVP-MOLOPT-SR-GTH-q6
       POTENTIAL GTH-PBE-q6
       &POTENTIAL
 2 4
  0.2445543000000000E+00 2 -0.1666721480000000E+02  0.2487311320000000E+01
 2
  0.2209559200000000E+00 1  0.1833745811000000E+02
  0.2113324700000000E+00 0
         # Potential name:  GTH-PBE-Q6  for symbol:  O
         # Potential read from the potential filename: GTH_POTENTIALS
       &END POTENTIAL
     &END KIND
     &KIND H
       BASIS_SET DZVP-MOLOPT-SR-GTH-q1
       POTENTIAL GTH-PBE-q1
       &POTENTIAL
 1
  0.2000000000000000E+00 2 -0.4178900440000000E+01  0.7244633100000000E+00
 0
         # Potential name:  GTH-PBE-Q1  for symbol:  H
         # Potential read from the potential filename: GTH_POTENTIALS
       &END POTENTIAL
     &END KIND
     &KIND N
       BASIS_SET DZVP-MOLOPT-SR-GTH
       POTENTIAL GTH-PBE-q5
       &POTENTIAL
 2 3
  0.2837905100000000E+00 2 -0.1241522559000000E+02  0.1868095920000000E+01
 2
  0.2554050000000000E+00 1  0.1363026257000000E+02
  0.2454945300000000E+00 0
         # Potential name:  GTH-PBE-Q5  for symbol:  N
         # Potential read from the potential filename: GTH_POTENTIALS
       &END POTENTIAL
     &END KIND
     &KIND Ga
       BASIS_SET DZVP-MOLOPT-SR-GTH
       POTENTIAL GTH-PBE-q13
       &POTENTIAL
 2 1 10
  0.4900000000000000E+00 0
 3
  0.4167772300000000E+00 3  0.1047568975000000E+02 -0.4921768140000000E+01  0.8707055900000000E+00
  0.7770178090000000E+01 -0.2248152160000000E+01
  0.1784415450000000E+01
  0.5696265200000000E+00 2  0.1777985340000000E+01  0.1958597600000000E+00
 -0.2317443900000000E+00
  0.2381265000000000E+00 1 -0.1624868022000000E+02
         # Potential name:  GTH-PBE-Q13  for symbol:  GA
         # Potential read from the potential filename: GTH_POTENTIALS
       &END POTENTIAL
     &END KIND
     &TOPOLOGY
       NUMBER_OF_ATOMS  206
       MULTIPLE_UNIT_CELL  1 1 1
     &END TOPOLOGY
   &END SUBSYS
 &END FORCE_EVAL
