 # Version information for this restart file 
 # current date 2019-06-24 21:40:53.992
 # current working dir /scratch/rzk/rzk/GaN-carbene/443-adatoms-both-2x2/03-DissMethanol/01-O-GaSur-H-NSur
 # Program compiled at                              Sun Apr  7 00:48:11 EDT 2019
 # Program compiled on                          beluga2.int.ets1.calculquebec.ca
 # Program compiled for                        Beluga-Linux-x86-64-intel-openmpi
 # Source code revision number                                         svn:18619
 &GLOBAL
   PRINT_LEVEL  MEDIUM
   PROJECT_NAME TEST
   RUN_TYPE  GEO_OPT
 &END GLOBAL
 &MOTION
   &GEO_OPT
     MAX_ITER  500
     STEP_START_VAL  87
   &END GEO_OPT
 &END MOTION
 &FORCE_EVAL
   METHOD  QS
   STRESS_TENSOR  ANALYTICAL
   &DFT
     BASIS_SET_FILE_NAME BASIS_MOLOPT
     POTENTIAL_FILE_NAME GTH_POTENTIALS
     UKS  T
     SURFACE_DIPOLE_CORRECTION  T
     SURF_DIP_DIR  Z
     &SCF
       MAX_SCF  80
       EPS_SCF     5.0000000000000004E-06
       &OT  T
         PRECONDITIONER  FULL_ALL
       &END OT
       &OUTER_SCF  T
         OPTIMIZER  NONE
         EPS_SCF     5.0000000000000004E-06
         MAX_SCF  4
       &END OUTER_SCF
       &PRINT
         &RESTART  OFF
           BACKUP_COPIES  1
           &EACH
             JUST_ENERGY  0
             QS_SCF  0
             MD  20
           &END EACH
         &END RESTART
       &END PRINT
     &END SCF
     &QS
       EPS_DEFAULT     1.0000000000000000E-14
       METHOD  GPW
     &END QS
     &MGRID
       NGRIDS  5
       CUTOFF     1.2000000000000000E+03
     &END MGRID
     &XC
       DENSITY_CUTOFF     1.0000000000000000E-10
       GRADIENT_CUTOFF     1.0000000000000000E-10
       TAU_CUTOFF     1.0000000000000000E-10
       &XC_FUNCTIONAL  NO_SHORTCUT
         &PBE  T
         &END PBE
       &END XC_FUNCTIONAL
       &VDW_POTENTIAL
         POTENTIAL_TYPE  PAIR_POTENTIAL
         &PAIR_POTENTIAL
           R_CUTOFF     1.0000000000000004E+01
           TYPE  DFTD3
           PARAMETER_FILE_NAME dftd3.dat
           REFERENCE_FUNCTIONAL PBE
           EPS_CN     9.9999999999999995E-07
           CALCULATE_C9_TERM  T
           REFERENCE_C9_TERM  T
           LONG_RANGE_CORRECTION  F
           VERBOSE_OUTPUT  F
         &END PAIR_POTENTIAL
       &END VDW_POTENTIAL
     &END XC
   &END DFT
   &SUBSYS
     &CELL
       A     1.2864472766435110E+01    0.0000000000000000E+00    0.0000000000000000E+00
       B    -6.4322363581020028E+00    1.1140960178524473E+01    0.0000000000000000E+00
       C     0.0000000000000000E+00    0.0000000000000000E+00    3.2000000000000000E+01
       MULTIPLE_UNIT_CELL  1 1 1
       &CELL_REF
         A     1.2982353780853531E+01    0.0000000000000000E+00    0.0000000000000000E+00
         B    -6.4911768904267628E+00    1.1243048175136114E+01    0.0000000000000000E+00
         C     0.0000000000000000E+00    0.0000000000000000E+00    3.2000000000000000E+01
         MULTIPLE_UNIT_CELL  1 1 1
       &END CELL_REF
     &END CELL
     &COORD
N    2.9621050807563009E-02    2.0263054852864251E+00    2.4775855334468710E+00
Ga    1.4548933139601461E-02    1.6872080609987718E-02    2.8238754619920989E+00
N    1.2543194817226976E-02    4.0435591076545728E-02    4.9822245952688728E+00
Ga    1.7229277036081455E-02    1.8625245013328009E+00    5.7641220087232838E+00
N    1.8018751795285056E-02    1.8823306227809120E+00    7.7578916087024785E+00
Ga    1.4873853567352387E-02    3.5927090400233772E-02    8.4059152188157586E+00
N    1.4388536059598625E-02    3.6746457129149444E-02    1.0381773373294040E+01
Ga    1.1439314058090922E-02    1.8750273175417440E+00    1.1037090354247246E+01
N    1.0742750606048526E-02    1.8564817348934650E+00    1.3028754936388630E+01
Ga    1.9676525701803563E-02    4.0671968958873282E-02    1.3823654675456833E+01
N    2.0836052019564566E-02    3.9728789022386052E-02    1.6034978479308975E+01
Ga    1.1734767506052905E-02    2.0991291315101805E+00    1.6467119859800015E+01
Ga   -3.6768445243242062E-02    3.7605376957199121E+00    1.4367819835821585E+00
N   -1.4815818973433432E+00    4.6192018109617043E+00    2.4931376305106410E+00
Ga   -1.6928406602091137E+00    2.7612962605321929E+00    3.2580634273078020E+00
N   -1.5906696122382344E+00    2.8203684781650828E+00    5.2164049335383336E+00
Ga   -1.6101658725424803E+00    4.6973375574578000E+00    5.7585645587780174E+00
N   -1.6032897095944050E+00    4.6852417145666285E+00    7.7574146007220914E+00
Ga   -1.5825124940200859E+00    2.8299965946630325E+00    8.4004879925800129E+00
N   -1.5832844730697788E+00    2.8279015232533995E+00    1.0395017142853368E+01
Ga   -1.6120360280569681E+00    4.6861954884703954E+00    1.1040230743053753E+01
N   -1.6293490575917859E+00    4.6936847967559281E+00    1.3033609906025802E+01
Ga   -1.5860721260236104E+00    2.8256071071011535E+00    1.3591315065958966E+01
N   -1.6148492207727698E+00    2.8025689023297575E+00    1.5550252428739476E+01
Ga   -1.4289411720562810E+00    4.5780919983877677E+00    1.6466796533527180E+01
N    4.5440067357898697E-03    3.7510445182279035E+00    1.7615623834166311E+01
N   -3.1994459779842908E+00    7.5829316318233300E+00    2.4782464696312450E+00
Ga   -3.1971376702113616E+00    5.6287097763314549E+00    2.8302533776838144E+00
N   -3.1991702190693845E+00    5.6030337469196061E+00    4.9812463450187385E+00
Ga   -3.2010386584812469E+00    7.4401329195636112E+00    5.7489359137868679E+00
N   -3.2018876231527549E+00    7.4527015282261653E+00    7.7521985786454124E+00
Ga   -3.2015245377618244E+00    5.6076081809863521E+00    8.4043348350550087E+00
N   -3.2021947750760931E+00    5.6054904793504230E+00    1.0381431687103639E+01
Ga   -3.2028997600202165E+00    7.4448419829689314E+00    1.1032357762216904E+01
N   -3.2043772695772770E+00    7.4236731703297076E+00    1.3029589469477040E+01
Ga   -3.2042688580338710E+00    5.6025057908963447E+00    1.3846231737361625E+01
N   -3.2061161036089132E+00    5.6021272146349395E+00    1.6037806413423795E+01
Ga   -3.2062736766838067E+00    7.6387411480963401E+00    1.6450820076842923E+01
Ga   -3.1950552735277644E+00    9.2756244582360683E+00    1.2673750562857042E+00
N   -4.7059138468452595E+00    1.0197113091626363E+01    2.4649506469354985E+00
Ga   -4.8939787187368342E+00    8.3440376300871133E+00    3.2117268085590092E+00
N   -4.8126126675228686E+00    8.3920902097270229E+00    5.1956266177359245E+00
Ga   -4.8390778629546594E+00    1.0258633824648344E+01    5.7556955809142778E+00
N   -4.8176298434557152E+00    1.0255169939191671E+01    7.7532061296156689E+00
Ga   -4.8006505028604805E+00    8.3947158126035006E+00    8.3937316794157084E+00
N   -4.7991858528328430E+00    8.3973535528610626E+00    1.0391489422681573E+01
Ga   -4.8248709069088793E+00    1.0255167669940617E+01    1.1029405719609811E+01
N   -4.8427216110333440E+00    1.0265017657303023E+01    1.3024373075640083E+01
Ga   -4.7994631165011743E+00    8.3976565333599797E+00    1.3586482014618360E+01
N   -4.8352029336304048E+00    8.3844963178816538E+00    1.5548818011025158E+01
Ga   -4.6432662944869039E+00    1.0149268690944378E+01    1.6451664834111057E+01
N   -3.2056805937252997E+00    9.3049023997743223E+00    1.7584837415597047E+01
N    3.2348481226439034E+00    1.8932107895369723E+00    2.6380687344704743E+00
Ga    3.2332568426717265E+00    3.0566161617102666E-02    3.2617073103276399E+00
N    3.2321237976789989E+00    5.4871632941917860E-02    5.2025623305577060E+00
Ga    3.2324737969009649E+00    1.8997099161309769E+00    5.8541822994923560E+00
N    3.2308351685225345E+00    1.8959170193680643E+00    7.8155189032225376E+00
Ga    3.2304883676812310E+00    2.3178091679088079E-02    8.4002239510982779E+00
N    3.2291930316598210E+00    2.2528740290245788E-02    1.0392009591450424E+01
Ga    3.2287254219665082E+00    1.8882059394051687E+00    1.1000302878634008E+01
N    3.2274687496666123E+00    1.8890108157457530E+00    1.2967861718168480E+01
Ga    3.2275435673283082E+00    2.1263292954107404E-02    1.3586494175647626E+01
N    3.2261735017875433E+00    5.0999144058440922E-02    1.5547049191677687E+01
Ga    3.2261421194061146E+00    1.8911901587451601E+00    1.5823664250922908E+01
N    1.5298322203925181E+00    4.6130541846907560E+00    2.3446285787998717E+00
Ga    1.6680447556787410E+00    2.8537043908043431E+00    3.2738682723861832E+00
N    1.6343256972458797E+00    2.8271781524501733E+00    5.2002727233309285E+00
Ga    1.6676717818314164E+00    4.7120187915983518E+00    5.8083772423253706E+00
N    1.6138578945507032E+00    4.6719286516720526E+00    7.8062157957601688E+00
Ga    1.6090139730015072E+00    2.8240909575039459E+00    8.4218214551466026E+00
N    1.6108005958170988E+00    2.8217285253691182E+00    1.0408996054874828E+01
Ga    1.6360674322937856E+00    4.6869764328727381E+00    1.1033195619485706E+01
N    1.6498196963712604E+00    4.6929663897029847E+00    1.3028312549741656E+01
Ga    1.6084815623876856E+00    2.8258897989395044E+00    1.3589620788216928E+01
N    1.6346072147591617E+00    2.8080051787268814E+00    1.5548098991385897E+01
Ga    1.4405918405791063E+00    4.5709362097966402E+00    1.6466293712172583E+01
N    2.3618258857831042E-02    7.4712282117756210E+00    2.5736247022313146E+00
Ga    6.0731864541313872E-02    5.7295195676831012E+00    3.2343438783337342E+00
N    2.7542345694811548E-02    5.5964665568727900E+00    5.1981741053474853E+00
Ga    1.9488378348451567E-02    7.4616640950618152E+00    5.8251666476524226E+00
N    1.4808194011767127E-02    7.4611702461279306E+00    7.8079720032133348E+00
Ga    7.3540605587488700E-03    5.5976063076156075E+00    8.4157943924657470E+00
N    8.2585974526322367E-03    5.5959278790766698E+00    1.0408424913986188E+01
Ga    9.3141312168629649E-03    7.4641417127140937E+00    1.0996907376140276E+01
N    1.2136440407721664E-02    7.4638672149065819E+00    1.2970990195562850E+01
Ga    1.1585891851013063E-02    5.5900803434480117E+00    1.3589736224562937E+01
N    1.5021054856186421E-02    5.6260251243622328E+00    1.5549189787806892E+01
Ga    9.4019082437870431E-03    7.4592363146673195E+00    1.5827041445950075E+01
N   -1.6912411741429354E+00    1.0197612196931713E+01    2.4666010648708276E+00
Ga   -1.5068451196932602E+00    8.3453248432089069E+00    3.2173897521576431E+00
N   -1.5896734543577284E+00    8.3931215792595939E+00    5.1997178400639736E+00
Ga   -1.5609332058348679E+00    1.0259696631073277E+01    5.7568896930269799E+00
N   -1.5854595708982566E+00    1.0255560472842982E+01    7.7540856061741588E+00
Ga   -1.6028269680232485E+00    8.3947332815939095E+00    8.3932767988508452E+00
N   -1.6066463309135144E+00    8.3972708027661707E+00    1.0391429151568000E+01
Ga   -1.5810377343585746E+00    1.0255155654382252E+01    1.1029428614499476E+01
N   -1.5662104111206963E+00    1.0265081161076344E+01    1.3024666139014084E+01
Ga   -1.6093906820581974E+00    8.3975421911274424E+00    1.3586899790480727E+01
N   -1.5767948091409758E+00    8.3846125184452784E+00    1.5549457225159667E+01
Ga   -1.7682876348207779E+00    1.0149747684671931E+01    1.6451359508020847E+01
N    6.4421975658346797E+00    2.0227351132027196E+00    2.4807911295440075E+00
Ga    6.4548675141696323E+00    1.5730214466452314E-02    2.8240235948798524E+00
N    6.4528676719217115E+00    3.9639197389719605E-02    4.9827888301110077E+00
Ga    6.4482223292403171E+00    1.8619395221852300E+00    5.7636113721259283E+00
N    6.4441599664453983E+00    1.8820726633471139E+00    7.7573872265980697E+00
Ga    6.4464495053101043E+00    3.5998925232387846E-02    8.4061036509642495E+00
N    6.4448459043284041E+00    3.6239807630363011E-02    1.0381879500567887E+01
Ga    6.4471109017648836E+00    1.8745899548440217E+00    1.1036951513626089E+01
N    6.4447575508715644E+00    1.8562789116481051E+00    1.3028568628386425E+01
Ga    6.4359275084596863E+00    4.0448110280433110E-02    1.3825087421979134E+01
N    6.4319600259908967E+00    4.0271562721378343E-02    1.6034379787489414E+01
Ga    6.4399541280081012E+00    2.1016308739732295E+00    1.6468450264752185E+01
Ga    6.5090264036857848E+00    3.7544378482665950E+00    1.4418986040482442E+00
N    4.9427951393244900E+00    4.6133459320865109E+00    2.3469072295938509E+00
Ga    4.8023397463730806E+00    2.8538422549760933E+00    3.2737340607625036E+00
N    4.8312328796028234E+00    2.8265539497253593E+00    5.2003426003933813E+00
Ga    4.7973641480892386E+00    4.7115731087833730E+00    5.8074265500828375E+00
N    4.8477223146561066E+00    4.6716415447338715E+00    7.8055038072380079E+00
Ga    4.8529050261305322E+00    2.8237248195575595E+00    8.4211899190157347E+00
N    4.8475440084286499E+00    2.8211618380601640E+00    1.0408587588027622E+01
Ga    4.8227127457107049E+00    4.6864971451548740E+00    1.1032688923882288E+01
N    4.8060881675016107E+00    4.6927922099355781E+00    1.3027636549916307E+01
Ga    4.8465368399411695E+00    2.8257095620838109E+00    1.3589577011111613E+01
N    4.8171766466571739E+00    2.8076461807145994E+00    1.5546889325223157E+01
Ga    5.0148330841685382E+00    4.5688282697274794E+00    1.6468078186959158E+01
N    6.4476392119676360E+00    3.7502252508964986E+00    1.7615380843088960E+01
N    3.2301521221757294E+00    7.5923860258023508E+00    2.4575602268850814E+00
Ga    3.2211098270636218E+00    5.6642033422864984E+00    1.9087103431905232E+00
N    3.2325416416837274E+00    5.6034944998200169E+00    5.1992452069584720E+00
Ga    3.2316449990039851E+00    7.4172111912478362E+00    5.7970456449025951E+00
N    3.2306054435844911E+00    7.4711157314303467E+00    7.8057039840909654E+00
Ga    3.2307858551139561E+00    5.6077073894060065E+00    8.4019617724299813E+00
N    3.2295046784401964E+00    5.6049609373212119E+00    1.0387542509305083E+01
Ga    3.2292036058757732E+00    7.4441484545970686E+00    1.1029112777904409E+01
N    3.2279851396584442E+00    7.4236683680048934E+00    1.3032979671673447E+01
Ga    3.2279710440961358E+00    5.5936591758812595E+00    1.3825812693587061E+01
N    3.2271604867955617E+00    5.5895296563878318E+00    1.6035368935548146E+01
Ga    3.2265789734235697E+00    7.5892111236846169E+00    1.6400598246101222E+01
Ga    3.2392232306790509E+00    9.3011077794167090E+00    1.4330853949704412E+00
N    1.7412182653893624E+00    1.0179350547921722E+01    2.4824516741190910E+00
Ga    1.5493924295992534E+00    8.3139478082337686E+00    3.2571293607349063E+00
N    1.6299143137785288E+00    8.3914717310482736E+00    5.2193363698979311E+00
Ga    1.6036445930977963E+00    1.0257830519699494E+01    5.7639748764353467E+00
N    1.6116584047232752E+00    1.0256354688577243E+01    7.7637360950701986E+00
Ga    1.6282147324162421E+00    8.4003792864526172E+00    8.4114891321828971E+00
N    1.6269991650690847E+00    8.3995730348892863E+00    1.0408026325599108E+01
Ga    1.6050346060894891E+00    1.0258067993109126E+01    1.1033540285671409E+01
N    1.5868341942411790E+00    1.0267687990394784E+01    1.3033545687232523E+01
Ga    1.6315367472777449E+00    8.3971336837666719E+00    1.3578094583782564E+01
N    1.6115924136503230E+00    8.3873203214301721E+00    1.5556873646344135E+01
Ga    1.7349518732992655E+00    1.0179240967894733E+01    1.6401198686939143E+01
N    3.2259308669536675E+00    9.3112217909508601E+00    1.7525218183954880E+01
N    9.6682411144519751E+00    1.8881782866497814E+00    2.5719320185774492E+00
Ga    9.6670073004787191E+00    1.3625273746111760E-01    3.2459838234980478E+00
N    9.6649259601208310E+00    3.9864418724277345E-02    5.2147039222423146E+00
Ga    9.6652577699912889E+00    1.8892859782038469E+00    5.8438244231227392E+00
N    9.6636824373045638E+00    1.8936624857593836E+00    7.8156766404179105E+00
Ga    9.6630528839472483E+00    2.3453600405519085E-02    8.4021253092862302E+00
N    9.6619880661127375E+00    2.2594902149616257E-02    1.0397850708494968E+01
Ga    9.6616473607561097E+00    1.8929616246229233E+00    1.0988836384877356E+01
N    9.6601656233695774E+00    1.8890051551357234E+00    1.2963584810698251E+01
Ga    9.6601649084095289E+00    2.3623513057606006E-02    1.3579242846653468E+01
N    9.6586263771272272E+00    4.1247134780084627E-02    1.5556672274826690E+01
Ga    9.6580597418050242E+00    1.8927770745580073E+00    1.5831390617367068E+01
N    7.9538430524358859E+00    4.6184486895105392E+00    2.4949554927215223E+00
Ga    8.1652725552239644E+00    2.7602033185917327E+00    3.2602661273963802E+00
N    8.0567807173340178E+00    2.8199646680297348E+00    5.2173282542114636E+00
Ga    8.0759183120823650E+00    4.6970788071211791E+00    5.7583894605066188E+00
N    8.0654856266842714E+00    4.6848677955949469E+00    7.7570416809656368E+00
Ga    8.0444277103338244E+00    2.8294745992833388E+00    8.3997927304024778E+00
N    8.0424587546546018E+00    2.8277284033471082E+00    1.0394539467994152E+01
Ga    8.0716761149736840E+00    4.6862683291241405E+00    1.1039730516875679E+01
N    8.0857634609788498E+00    4.6938699824860111E+00    1.3033199043139883E+01
Ga    8.0415364304836832E+00    2.8256440074450495E+00    1.3591513328846137E+01
N    8.0672989079248829E+00    2.8025131895317714E+00    1.5549877662939860E+01
Ga    7.8778857073992405E+00    4.5761575937895698E+00    1.6468388549915133E+01
N    6.4395203784238788E+00    7.4669292686187401E+00    2.5638283749725637E+00
Ga    6.4070225782113486E+00    5.7263342939124540E+00    3.2355207699022190E+00
N    6.4382997166160667E+00    5.5966874642289479E+00    5.1985122369688348E+00
Ga    6.4447244403570600E+00    7.4608590607201446E+00    5.8264333092257514E+00
N    6.4465709472639947E+00    7.4610137575681428E+00    7.8081881527839059E+00
Ga    6.4541800670186182E+00    5.5967619782295692E+00    8.4150342763057413E+00
N    6.4509735493622999E+00    5.5957593217978205E+00    1.0407716699453074E+01
Ga    6.4487577257550255E+00    7.4641366321365457E+00    1.0996554707019637E+01
N    6.4436408807478722E+00    7.4638651318508122E+00    1.2970483509470798E+01
Ga    6.4442173786909338E+00    5.5898482528243267E+00    1.3589546914703178E+01
N    6.4379251437718814E+00    5.6261447573006604E+00    1.5548176445266902E+01
Ga    6.4432946632590777E+00    7.4586601008380793E+00    1.5826036912710865E+01
N    4.7299669441760397E+00    1.0178176901518139E+01    2.4863106116154086E+00
Ga    4.9171248271724028E+00    8.3116777157213395E+00    3.2582233029750065E+00
N    4.8349117636927579E+00    8.3902115993317263E+00    5.2185177862492464E+00
Ga    4.8614089746067508E+00    1.0257724515834282E+01    5.7630725635062845E+00
N    4.8501634186943994E+00    1.0256012220680793E+01    7.7630126085443036E+00
Ga    4.8325544885468723E+00    8.4002159938954772E+00    8.4113958507609787E+00
N    4.8316122483226129E+00    8.4000137975409572E+00    1.0407727034728055E+01
Ga    4.8541629644026187E+00    1.0258535221251115E+01    1.1033507866481809E+01
N    4.8693344561758494E+00    1.0267898774168774E+01    1.3033541333561624E+01
Ga    4.8242318204316268E+00    8.3972904478333472E+00    1.3578033442436478E+01
N    4.8417081674233788E+00    8.3871613736421491E+00    1.5556742710013840E+01
Ga    4.7166142987479427E+00    1.0178417065037941E+01    1.6401040250388110E+01
O    3.1952444685154431E+00    5.8295039202538490E+00    1.8263875350610467E-02
H    3.2335516945027076E+00    1.9003841500784082E+00    1.6116336445603918E+00
C    3.9080328282785097E+00    6.8719107962846619E+00   -5.5416316820312606E-01
H    3.4577865477134599E+00    7.9057542245833270E+00   -3.0469100214888717E-01
H    4.9626950749261738E+00    6.9461234322826781E+00   -2.2668102619925268E-01
H    3.8584062817531009E+00    6.8110523912781131E+00   -1.6538234111637937E+00
     &END COORD
     &KIND C
       BASIS_SET DZVP-MOLOPT-SR-GTH-q4
       POTENTIAL GTH-PBE-q4
       &POTENTIAL
 2 2
  0.3384712400000000E+00 2 -0.8803673979999999E+01  0.1339210850000000E+01
 2
  0.3025757500000000E+00 1  0.9622486650000001E+01
  0.2915069400000000E+00 0
         # Potential name:  GTH-PBE-Q4  for symbol:  C
         # Potential read from the potential filename: GTH_POTENTIALS
       &END POTENTIAL
     &END KIND
     &KIND O
       BASIS_SET DZVP-MOLOPT-SR-GTH-q6
       POTENTIAL GTH-PBE-q6
       &POTENTIAL
 2 4
  0.2445543000000000E+00 2 -0.1666721480000000E+02  0.2487311320000000E+01
 2
  0.2209559200000000E+00 1  0.1833745811000000E+02
  0.2113324700000000E+00 0
         # Potential name:  GTH-PBE-Q6  for symbol:  O
         # Potential read from the potential filename: GTH_POTENTIALS
       &END POTENTIAL
     &END KIND
     &KIND H
       BASIS_SET DZVP-MOLOPT-SR-GTH-q1
       POTENTIAL GTH-PBE-q1
       &POTENTIAL
 1
  0.2000000000000000E+00 2 -0.4178900440000000E+01  0.7244633100000000E+00
 0
         # Potential name:  GTH-PBE-Q1  for symbol:  H
         # Potential read from the potential filename: GTH_POTENTIALS
       &END POTENTIAL
     &END KIND
     &KIND N
       BASIS_SET DZVP-MOLOPT-SR-GTH
       POTENTIAL GTH-PBE-q5
       &POTENTIAL
 2 3
  0.2837905100000000E+00 2 -0.1241522559000000E+02  0.1868095920000000E+01
 2
  0.2554050000000000E+00 1  0.1363026257000000E+02
  0.2454945300000000E+00 0
         # Potential name:  GTH-PBE-Q5  for symbol:  N
         # Potential read from the potential filename: GTH_POTENTIALS
       &END POTENTIAL
     &END KIND
     &KIND Ga
       BASIS_SET DZVP-MOLOPT-SR-GTH
       POTENTIAL GTH-PBE-q13
       &POTENTIAL
 2 1 10
  0.4900000000000000E+00 0
 3
  0.4167772300000000E+00 3  0.1047568975000000E+02 -0.4921768140000000E+01  0.8707055900000000E+00
  0.7770178090000000E+01 -0.2248152160000000E+01
  0.1784415450000000E+01
  0.5696265200000000E+00 2  0.1777985340000000E+01  0.1958597600000000E+00
 -0.2317443900000000E+00
  0.2381265000000000E+00 1 -0.1624868022000000E+02
         # Potential name:  GTH-PBE-Q13  for symbol:  GA
         # Potential read from the potential filename: GTH_POTENTIALS
       &END POTENTIAL
     &END KIND
     &TOPOLOGY
       NUMBER_OF_ATOMS  206
       MULTIPLE_UNIT_CELL  1 1 1
     &END TOPOLOGY
   &END SUBSYS
 &END FORCE_EVAL
