 # Version information for this restart file 
 # current date 2019-06-24 22:52:10.701
 # current working dir /scratch/rzk/rzk/GaN-carbene/443-adatoms-both-2x2/03-DissMethanol/01-O-GaSur-H-NSur
 # Program compiled at                              Sun Apr  7 00:48:11 EDT 2019
 # Program compiled on                          beluga2.int.ets1.calculquebec.ca
 # Program compiled for                        Beluga-Linux-x86-64-intel-openmpi
 # Source code revision number                                         svn:18619
 &GLOBAL
   PRINT_LEVEL  MEDIUM
   PROJECT_NAME TEST
   RUN_TYPE  GEO_OPT
 &END GLOBAL
 &MOTION
   &GEO_OPT
     MAX_ITER  500
     STEP_START_VAL  114
   &END GEO_OPT
 &END MOTION
 &FORCE_EVAL
   METHOD  QS
   STRESS_TENSOR  ANALYTICAL
   &DFT
     BASIS_SET_FILE_NAME BASIS_MOLOPT
     POTENTIAL_FILE_NAME GTH_POTENTIALS
     UKS  T
     SURFACE_DIPOLE_CORRECTION  T
     SURF_DIP_DIR  Z
     &SCF
       MAX_SCF  80
       EPS_SCF     5.0000000000000004E-06
       &OT  T
         PRECONDITIONER  FULL_ALL
       &END OT
       &OUTER_SCF  T
         OPTIMIZER  NONE
         EPS_SCF     5.0000000000000004E-06
         MAX_SCF  4
       &END OUTER_SCF
       &PRINT
         &RESTART  OFF
           BACKUP_COPIES  1
           &EACH
             JUST_ENERGY  0
             QS_SCF  0
             MD  20
           &END EACH
         &END RESTART
       &END PRINT
     &END SCF
     &QS
       EPS_DEFAULT     1.0000000000000000E-14
       METHOD  GPW
     &END QS
     &MGRID
       NGRIDS  5
       CUTOFF     1.2000000000000000E+03
     &END MGRID
     &XC
       DENSITY_CUTOFF     1.0000000000000000E-10
       GRADIENT_CUTOFF     1.0000000000000000E-10
       TAU_CUTOFF     1.0000000000000000E-10
       &XC_FUNCTIONAL  NO_SHORTCUT
         &PBE  T
         &END PBE
       &END XC_FUNCTIONAL
       &VDW_POTENTIAL
         POTENTIAL_TYPE  PAIR_POTENTIAL
         &PAIR_POTENTIAL
           R_CUTOFF     1.0000000000000004E+01
           TYPE  DFTD3
           PARAMETER_FILE_NAME dftd3.dat
           REFERENCE_FUNCTIONAL PBE
           EPS_CN     9.9999999999999995E-07
           CALCULATE_C9_TERM  T
           REFERENCE_C9_TERM  T
           LONG_RANGE_CORRECTION  F
           VERBOSE_OUTPUT  F
         &END PAIR_POTENTIAL
       &END VDW_POTENTIAL
     &END XC
   &END DFT
   &SUBSYS
     &CELL
       A     1.2864472766435110E+01    0.0000000000000000E+00    0.0000000000000000E+00
       B    -6.4322363581020028E+00    1.1140960178524473E+01    0.0000000000000000E+00
       C     0.0000000000000000E+00    0.0000000000000000E+00    3.2000000000000000E+01
       MULTIPLE_UNIT_CELL  1 1 1
       &CELL_REF
         A     1.2982353780853531E+01    0.0000000000000000E+00    0.0000000000000000E+00
         B    -6.4911768904267628E+00    1.1243048175136114E+01    0.0000000000000000E+00
         C     0.0000000000000000E+00    0.0000000000000000E+00    3.2000000000000000E+01
         MULTIPLE_UNIT_CELL  1 1 1
       &END CELL_REF
     &END CELL
     &COORD
N    2.7567575658018390E-02    2.0251284914180876E+00    2.4773063675355265E+00
Ga    1.2497082473541759E-02    1.4487076706050553E-02    2.8235275283439409E+00
N    1.1023559001860431E-02    3.8950133888669906E-02    4.9820628986474604E+00
Ga    1.6816415883561621E-02    1.8609284436125884E+00    5.7630666844039737E+00
N    1.7814835741870962E-02    1.8807204235614525E+00    7.7570826598978160E+00
Ga    1.4705606789656519E-02    3.4295094033694740E-02    8.4051824690161148E+00
N    1.4721543335242299E-02    3.5661626329089868E-02    1.0381476168307978E+01
Ga    1.1801440679732454E-02    1.8739847805420577E+00    1.1036000363361930E+01
N    1.2283543140464205E-02    1.8559734652966482E+00    1.3028661446226737E+01
Ga    2.1439704285625447E-02    3.9133435610400551E-02    1.3824216764195192E+01
N    2.2846399635618464E-02    4.0145196062000316E-02    1.6035913236231256E+01
Ga    1.5449736195735897E-02    2.0939948361230605E+00    1.6459953556824463E+01
Ga   -3.9393651505255027E-02    3.7583142980820394E+00    1.4379925691073261E+00
N   -1.4829195969584905E+00    4.6171412456469074E+00    2.4930974600432867E+00
Ga   -1.6949137513949226E+00    2.7596491840106965E+00    3.2588170505674823E+00
N   -1.5916617532749202E+00    2.8186278413401649E+00    5.2166825365793725E+00
Ga   -1.6109646860957785E+00    4.6958141592973828E+00    5.7574350606561362E+00
N   -1.6038271236289210E+00    4.6840129473288510E+00    7.7563471512740474E+00
Ga   -1.5826440081239597E+00    2.8288084854131208E+00    8.3991324488972978E+00
N   -1.5829673983423551E+00    2.8272561605665074E+00    1.0394203339259601E+01
Ga   -1.6120295319325717E+00    4.6859413004813737E+00    1.1038716387949398E+01
N   -1.6283529880640062E+00    4.6946456299072246E+00    1.3033348376303133E+01
Ga   -1.5843660025603259E+00    2.8260570122579023E+00    1.3589396409390407E+01
N   -1.6105377385409678E+00    2.8034705606581816E+00    1.5550505631266988E+01
Ga   -1.4327560113842270E+00    4.5835626229385014E+00    1.6458896012884821E+01
N    4.2819773578325390E-03    3.7534702609148876E+00    1.7600468331342224E+01
N   -3.2017580572172459E+00    7.5810726278436311E+00    2.4761191858603815E+00
Ga   -3.1990617382616580E+00    5.6277895514973428E+00    2.8289715396669517E+00
N   -3.2002653344570247E+00    5.6009471637586854E+00    4.9798856752583065E+00
Ga   -3.2022526769083535E+00    7.4387074587381878E+00    5.7464489757230748E+00
N   -3.2024453104274548E+00    7.4513727934680967E+00    7.7505168050053150E+00
Ga   -3.2019265439159077E+00    5.6067337428702011E+00    8.4029135426226542E+00
N   -3.2021157422787598E+00    5.6052418446192167E+00    1.0380410833220932E+01
Ga   -3.2025666900906571E+00    7.4446297560392711E+00    1.1031836197335656E+01
N   -3.2028560906146146E+00    7.4247722893171622E+00    1.3029031438833625E+01
Ga   -3.2044561422713929E+00    5.6045426769656501E+00    1.3844781993293076E+01
N   -3.2041880261627806E+00    5.6045601122651334E+00    1.6037854960738841E+01
Ga   -3.2031792174270226E+00    7.6452437394737975E+00    1.6455479350903225E+01
Ga   -3.1977366599527755E+00    9.2743512341600827E+00    1.2591400234595085E+00
N   -4.7086235462163870E+00    1.0195411914604925E+01    2.4648366502102204E+00
Ga   -4.8954392764470391E+00    8.3425802970495315E+00    3.2088019484582109E+00
N   -4.8143283484556045E+00    8.3898587195553560E+00    5.1937979567926993E+00
Ga   -4.8403840600751780E+00    1.0256195860940958E+01    5.7545696859129869E+00
N   -4.8181579080501242E+00    1.0253423306338210E+01    7.7525322595648296E+00
Ga   -4.8009253397490932E+00    8.3931263400038905E+00    8.3927398791226828E+00
N   -4.7988983723587575E+00    8.3965887824759644E+00    1.0390787427718859E+01
Ga   -4.8242228468064461E+00    1.0254268396732465E+01    1.1029107755002636E+01
N   -4.8408433263480983E+00    1.0265144080795054E+01    1.3024239534514676E+01
Ga   -4.7978082354679401E+00    8.3981022964235006E+00    1.3587881962643152E+01
N   -4.8318640885424733E+00    8.3861722806397410E+00    1.5549532544603677E+01
Ga   -4.6375757484134850E+00    1.0149404258949154E+01    1.6456557125575699E+01
N   -3.2035955235218569E+00    9.3075943030308466E+00    1.7594720980381485E+01
N    3.2334982989266972E+00    1.8885610802486485E+00    2.6378039856427642E+00
Ga    3.2314628634308162E+00    2.5701981358744158E-02    3.2615736613688764E+00
N    3.2309988699665428E+00    5.2456133647370951E-02    5.2028708323737476E+00
Ga    3.2311682481643298E+00    1.8972884706592936E+00    5.8536478595140657E+00
N    3.2305459762639406E+00    1.8942367138726908E+00    7.8150944356756584E+00
Ga    3.2302170000714185E+00    2.1326492162189060E-02    8.3991934712699603E+00
N    3.2298312138058156E+00    2.1840354907039658E-02    1.0391674243950616E+01
Ga    3.2296963459917962E+00    1.8874082033895401E+00    1.0999646879349781E+01
N    3.2293600502691118E+00    1.8895286124736570E+00    1.2968268635111039E+01
Ga    3.2295917087783179E+00    2.0940604202921716E-02    1.3587314291115852E+01
N    3.2289958552065867E+00    5.2413147380309055E-02    1.5546948149699025E+01
Ga    3.2300620171219876E+00    1.8919494283574030E+00    1.5821999366141258E+01
N    1.5288881972702886E+00    4.6110942813815603E+00    2.3408090918915776E+00
Ga    1.6680031152174550E+00    2.8512180057503680E+00    3.2712137513633506E+00
N    1.6339008145335876E+00    2.8252777800505071E+00    5.1981135835259886E+00
Ga    1.6667323804304723E+00    4.7097175689277480E+00    5.8073795040934542E+00
N    1.6134166654533941E+00    4.6701130580312622E+00    7.8053225916452833E+00
Ga    1.6087802051805797E+00    2.8223649760945020E+00    8.4206933989965602E+00
N    1.6114461231150579E+00    2.8207796978885336E+00    1.0408396075789081E+01
Ga    1.6368174535587783E+00    4.6865073328720772E+00    1.1031356728731566E+01
N    1.6518243275699045E+00    4.6938393848578430E+00    1.3027506235898525E+01
Ga    1.6101986658181653E+00    2.8264615633373436E+00    1.3587022871433899E+01
N    1.6371378918163513E+00    2.8100570648705623E+00    1.5546781056121134E+01
Ga    1.4483490143624624E+00    4.5746147593527926E+00    1.6459287387103970E+01
N    2.2186407998225854E-02    7.4692909337587139E+00    2.5734230805090470E+00
Ga    6.0043429282154004E-02    5.7278934564455781E+00    3.2335557949304863E+00
N    2.6954589478368738E-02    5.5942782594962051E+00    5.1969971809489701E+00
Ga    1.7845145242212816E-02    7.4593215893345919E+00    5.8244805176165659E+00
N    1.4363196493403986E-02    7.4595225498788160E+00    7.8074123456965498E+00
Ga    6.9898159422086296E-03    5.5961010496645018E+00    8.4145005345002417E+00
N    8.6522231820681719E-03    5.5954295809422199E+00    1.0407605731309637E+01
Ga    9.4802329917896850E-03    7.4639421082767674E+00    1.0996322958673565E+01
N    1.3541109984194492E-02    7.4642407025882447E+00    1.2970528717868392E+01
Ga    1.3424252253684382E-02    5.5909299933683716E+00    1.3587552484851209E+01
N    1.9137108324435236E-02    5.6266350965448231E+00    1.5549081381393570E+01
Ga    1.1463383809683696E-02    7.4613697907490879E+00    1.5826821064057736E+01
N   -1.6926438816346132E+00    1.0195599861814895E+01    2.4665372212461660E+00
Ga   -1.5098844137995577E+00    8.3436882514225186E+00    3.2144066720639017E+00
N   -1.5904921084937054E+00    8.3907766747053909E+00    5.1981550193484782E+00
Ga   -1.5619326872150157E+00    1.0257086055561961E+01    5.7560606374623031E+00
N   -1.5854969018986895E+00    1.0253933221142121E+01    7.7536929592268944E+00
Ga   -1.6034377885196964E+00    8.3931262798090813E+00    8.3921990150626424E+00
N   -1.6063670406663551E+00    8.3968376727636116E+00    1.0390729863235128E+01
Ga   -1.5803493093546810E+00    1.0254598438911788E+01    1.1029413501588772E+01
N   -1.5644411309295918E+00    1.0265403695192516E+01    1.3024590900414694E+01
Ga   -1.6079347756739661E+00    8.3983923755129357E+00    1.3587814387052573E+01
N   -1.5742727470076734E+00    8.3859697830300064E+00    1.5549302238007176E+01
Ga   -1.7681680271206928E+00    1.0149678815232344E+01    1.6456617174048723E+01
N    6.4401177581406097E+00    2.0215748676939631E+00    2.4808265201817461E+00
Ga    6.4524457601048608E+00    1.3124716800852488E-02    2.8240609865083739E+00
N    6.4518654002107105E+00    3.8170391680286901E-02    4.9830087799839893E+00
Ga    6.4468003654294588E+00    1.8603602268452142E+00    5.7634132631005084E+00
N    6.4437387061907998E+00    1.8806161393492047E+00    7.7573450674493083E+00
Ga    6.4460510417775225E+00    3.4484290332534424E-02    8.4061545735188954E+00
N    6.4453623971525253E+00    3.5680149480690350E-02    1.0382094958876776E+01
Ga    6.4477596340602643E+00    1.8740211120061996E+00    1.1036754674075009E+01
N    6.4465900418321862E+00    1.8563154569815343E+00    1.3028382084407736E+01
Ga    6.4370887354036812E+00    4.0870988711035429E-02    1.3826487211929317E+01
N    6.4350456535624954E+00    4.1483792776944334E-02    1.6035512207610417E+01
Ga    6.4432937006643725E+00    2.1021430199954847E+00    1.6468852786462026E+01
Ga    6.5066199767377251E+00    3.7523067824011362E+00    1.4436441150475763E+00
N    4.9390061775901861E+00    4.6113905903214558E+00    2.3443560755562838E+00
Ga    4.7990136403496777E+00    2.8514438756681684E+00    3.2727011902779140E+00
N    4.8295419701737403E+00    2.8248065903261081E+00    5.1994946993345152E+00
Ga    4.7961658298142940E+00    4.7098353890485294E+00    5.8069052443217224E+00
N    4.8475828820601690E+00    4.6701082299413432E+00    7.8049743017913844E+00
Ga    4.8524830425737946E+00    2.8222221609695333E+00    8.4205790256655160E+00
N    4.8481512017162665E+00    2.8204390235914678E+00    1.0408151280992282E+01
Ga    4.8234518362027972E+00    4.6860108923973751E+00    1.1031572219976116E+01
N    4.8078587669631947E+00    4.6934750721662164E+00    1.3026736285840977E+01
Ga    4.8493303115045778E+00    2.8266617953721425E+00    1.3588892041222531E+01
N    4.8203415938471865E+00    2.8097516644137355E+00    1.5546508262184071E+01
Ga    5.0178922445797323E+00    4.5706591498828448E+00    1.6468236004302177E+01
N    6.4508211620242566E+00    3.7520734181399455E+00    1.7618639511420280E+01
N    3.2273479762940585E+00    7.5908505408142810E+00    2.4618424637581762E+00
Ga    3.2189578828365759E+00    5.6664768273885322E+00    1.9070527367625278E+00
N    3.2313271913263453E+00    5.6018439586917070E+00    5.2005817289672320E+00
Ga    3.2304604709781937E+00    7.4156804580846289E+00    5.7962276208859711E+00
N    3.2302177252984947E+00    7.4698272906473173E+00    7.8052210083697231E+00
Ga    3.2304217329611227E+00    5.6063227165253995E+00    8.4003290188766098E+00
N    3.2301579907515903E+00    5.6044489313840478E+00    1.0386565508241064E+01
Ga    3.2296922629588063E+00    7.4436113008547737E+00    1.1028649034141457E+01
N    3.2295091108810268E+00    7.4242216323197230E+00    1.3032848386066428E+01
Ga    3.2308601085530180E+00    5.5950653635430703E+00    1.3824157567854959E+01
N    3.2302223827268866E+00    5.5927939753451401E+00    1.6035678661610191E+01
Ga    3.2298265486603266E+00    7.5951098797470182E+00    1.6401765826449743E+01
Ga    3.2358899769146481E+00    9.2976037705714472E+00    1.4338031945730236E+00
N    1.7392248747846837E+00    1.0177538479036883E+01    2.4825024547374226E+00
Ga    1.5465135496438416E+00    8.3129619962780765E+00    3.2588916702718498E+00
N    1.6280926828089177E+00    8.3898541391469390E+00    5.2204041671409529E+00
Ga    1.6025966933611338E+00    1.0256276829800148E+01    5.7641177843650890E+00
N    1.6113363603015105E+00    1.0255121771452812E+01    7.7639928875602928E+00
Ga    1.6277795538712314E+00    8.3989159696912203E+00    8.4109122552774576E+00
N    1.6273869153316733E+00    8.3991408527875961E+00    1.0408004309977580E+01
Ga    1.6052109321611363E+00    1.0257553160982992E+01    1.1034294228886813E+01
N    1.5881136081823364E+00    1.0268059542065059E+01    1.3034627509168564E+01
Ga    1.6331742394861990E+00    8.3974520327479514E+00    1.3578817394235909E+01
N    1.6137764455363324E+00    8.3868042443889692E+00    1.5556960837361537E+01
Ga    1.7378967337934823E+00    1.0180562676094306E+01    1.6402221445068861E+01
N    3.2259903365852440E+00    9.3161033670468516E+00    1.7523499682655974E+01
N    9.6661495031582696E+00    1.8868898819660245E+00    2.5726460579188739E+00
Ga    9.6647134661821301E+00    1.3445319569375233E-01    3.2462634101159193E+00
N    9.6636311631653182E+00    3.8570240819777613E-02    5.2152303786214906E+00
Ga    9.6642612048640775E+00    1.8878554562387015E+00    5.8439840985265370E+00
N    9.6631860127042319E+00    1.8922603138891532E+00    7.8158600071871165E+00
Ga    9.6627240742827780E+00    2.2081621724944933E-02    8.4023300785688360E+00
N    9.6621008234432804E+00    2.1899951229705516E-02    1.0398445889868606E+01
Ga    9.6616646178746617E+00    1.8927056730027343E+00    1.0988037759884831E+01
N    9.6618006101508573E+00    1.8898149824769459E+00    1.2963023756379187E+01
Ga    9.6617310877484890E+00    2.4002989152705514E-02    1.3579652590306546E+01
N    9.6626275776234500E+00    4.3930519314549749E-02    1.5556559058456799E+01
Ga    9.6604615645408227E+00    1.8942201559134442E+00    1.5831136787941345E+01
N    7.9507656259248334E+00    4.6167644159935133E+00    2.4942782600099096E+00
Ga    8.1632032092941191E+00    2.7588291414248522E+00    3.2606587498089477E+00
N    8.0555931459696470E+00    2.8185342570184360E+00    5.2176700962873159E+00
Ga    8.0745620751073091E+00    4.6960797147559461E+00    5.7573108617103843E+00
N    8.0648518352804857E+00    4.6839123386679864E+00    7.7561732718511864E+00
Ga    8.0440086377324302E+00    2.8285801071574403E+00    8.3990299984348340E+00
N    8.0425381421222806E+00    2.8273011495376990E+00    1.0393865935410689E+01
Ga    8.0718737356975314E+00    4.6859847810221851E+00    1.1038560656771379E+01
N    8.0868685680693169E+00    4.6944423272212612E+00    1.3032000718697500E+01
Ga    8.0428041107320336E+00    2.8264495758621062E+00    1.3590694262547194E+01
N    8.0701561276747817E+00    2.8043995842790221E+00    1.5549048453229910E+01
Ga    7.8812346985629551E+00    4.5778678101101082E+00    1.6468371577272151E+01
N    6.4361511488825132E+00    7.4659502669914497E+00    2.5623723293919354E+00
Ga    6.4037028540173297E+00    5.7256691302026441E+00    3.2340152175936803E+00
N    6.4365619056201151E+00    5.5950900469104985E+00    5.1969558742609676E+00
Ga    6.4437075766170810E+00    7.4591758730076476E+00    5.8255302240634039E+00
N    6.4460081811225765E+00    7.4595628286708155E+00    7.8074857822479959E+00
Ga    6.4537800338770044E+00    5.5957554217675431E+00    8.4144788749419064E+00
N    6.4512407446877784E+00    5.5953872327581680E+00    1.0407065412049535E+01
Ga    6.4493256446038458E+00    7.4636520001884703E+00    1.0996348677884686E+01
N    6.4454211329846682E+00    7.4643058309284154E+00    1.2970004555290883E+01
Ga    6.4458374055154568E+00    5.5906365895781178E+00    1.3588895382370973E+01
N    6.4406047268971944E+00    5.6270871660062687E+00    1.5547865049075224E+01
Ga    6.4470533089542972E+00    7.4601216635358174E+00    1.5825442440682112E+01
N    4.7269019727947814E+00    1.0176576977593156E+01    2.4856937716163197E+00
Ga    4.9148783863992271E+00    8.3112920409638296E+00    3.2589385089642744E+00
N    4.8338400006359334E+00    8.3888644722253485E+00    5.2189252001214159E+00
Ga    4.8602268381564766E+00    1.0256355567595115E+01    5.7628630552072311E+00
N    4.8496048921293564E+00    1.0254744910046876E+01    7.7629962472144616E+00
Ga    4.8322376594681407E+00    8.3988362379156172E+00    8.4108836734395336E+00
N    4.8319059228404564E+00    8.3992688476551578E+00    1.0407616338973845E+01
Ga    4.8545307214420061E+00    1.0257682844380092E+01    1.1033566369893677E+01
N    4.8706136990970625E+00    1.0267901868277113E+01    1.3033712994776879E+01
Ga    4.8262001497581517E+00    8.3972637477341809E+00    1.3578402903059562E+01
N    4.8453283909860483E+00    8.3877978108835691E+00    1.5555958677425501E+01
Ga    4.7178077337257474E+00    1.0178340903337729E+01    1.6402654586194288E+01
O    3.1958849688405646E+00    5.8471149539234970E+00    1.6395792695855463E-02
H    3.2339578004997245E+00    1.8917074133781948E+00    1.6114745001098536E+00
C    3.9037022695197723E+00    6.8930145725461243E+00   -5.4995190263582849E-01
H    3.4539870540474720E+00    7.9274159200748899E+00   -2.8963715701437104E-01
H    4.9582500118327149E+00    6.9695237810839519E+00   -2.2572085715706910E-01
H    3.8451675305505808E+00    6.8460477592258160E+00   -1.6496933141250774E+00
     &END COORD
     &KIND C
       BASIS_SET DZVP-MOLOPT-SR-GTH-q4
       POTENTIAL GTH-PBE-q4
       &POTENTIAL
 2 2
  0.3384712400000000E+00 2 -0.8803673979999999E+01  0.1339210850000000E+01
 2
  0.3025757500000000E+00 1  0.9622486650000001E+01
  0.2915069400000000E+00 0
         # Potential name:  GTH-PBE-Q4  for symbol:  C
         # Potential read from the potential filename: GTH_POTENTIALS
       &END POTENTIAL
     &END KIND
     &KIND O
       BASIS_SET DZVP-MOLOPT-SR-GTH-q6
       POTENTIAL GTH-PBE-q6
       &POTENTIAL
 2 4
  0.2445543000000000E+00 2 -0.1666721480000000E+02  0.2487311320000000E+01
 2
  0.2209559200000000E+00 1  0.1833745811000000E+02
  0.2113324700000000E+00 0
         # Potential name:  GTH-PBE-Q6  for symbol:  O
         # Potential read from the potential filename: GTH_POTENTIALS
       &END POTENTIAL
     &END KIND
     &KIND H
       BASIS_SET DZVP-MOLOPT-SR-GTH-q1
       POTENTIAL GTH-PBE-q1
       &POTENTIAL
 1
  0.2000000000000000E+00 2 -0.4178900440000000E+01  0.7244633100000000E+00
 0
         # Potential name:  GTH-PBE-Q1  for symbol:  H
         # Potential read from the potential filename: GTH_POTENTIALS
       &END POTENTIAL
     &END KIND
     &KIND N
       BASIS_SET DZVP-MOLOPT-SR-GTH
       POTENTIAL GTH-PBE-q5
       &POTENTIAL
 2 3
  0.2837905100000000E+00 2 -0.1241522559000000E+02  0.1868095920000000E+01
 2
  0.2554050000000000E+00 1  0.1363026257000000E+02
  0.2454945300000000E+00 0
         # Potential name:  GTH-PBE-Q5  for symbol:  N
         # Potential read from the potential filename: GTH_POTENTIALS
       &END POTENTIAL
     &END KIND
     &KIND Ga
       BASIS_SET DZVP-MOLOPT-SR-GTH
       POTENTIAL GTH-PBE-q13
       &POTENTIAL
 2 1 10
  0.4900000000000000E+00 0
 3
  0.4167772300000000E+00 3  0.1047568975000000E+02 -0.4921768140000000E+01  0.8707055900000000E+00
  0.7770178090000000E+01 -0.2248152160000000E+01
  0.1784415450000000E+01
  0.5696265200000000E+00 2  0.1777985340000000E+01  0.1958597600000000E+00
 -0.2317443900000000E+00
  0.2381265000000000E+00 1 -0.1624868022000000E+02
         # Potential name:  GTH-PBE-Q13  for symbol:  GA
         # Potential read from the potential filename: GTH_POTENTIALS
       &END POTENTIAL
     &END KIND
     &TOPOLOGY
       NUMBER_OF_ATOMS  206
       MULTIPLE_UNIT_CELL  1 1 1
     &END TOPOLOGY
   &END SUBSYS
 &END FORCE_EVAL
