 # Version information for this restart file 
 # current date 2019-06-24 17:47:21.988
 # current working dir /scratch/rzk/rzk/GaN-carbene/443-adatoms-both-2x2/03-DissMethanol/01-O-GaSur-H-NSur
 # Program compiled at                              Sun Apr  7 00:48:11 EDT 2019
 # Program compiled on                          beluga2.int.ets1.calculquebec.ca
 # Program compiled for                        Beluga-Linux-x86-64-intel-openmpi
 # Source code revision number                                         svn:18619
 &GLOBAL
   PRINT_LEVEL  MEDIUM
   PROJECT_NAME TEST
   RUN_TYPE  GEO_OPT
 &END GLOBAL
 &MOTION
   &GEO_OPT
     MAX_ITER  500
     STEP_START_VAL  25
   &END GEO_OPT
 &END MOTION
 &FORCE_EVAL
   METHOD  QS
   STRESS_TENSOR  ANALYTICAL
   &DFT
     BASIS_SET_FILE_NAME BASIS_MOLOPT
     POTENTIAL_FILE_NAME GTH_POTENTIALS
     UKS  T
     SURFACE_DIPOLE_CORRECTION  T
     SURF_DIP_DIR  Z
     &SCF
       MAX_SCF  80
       EPS_SCF     5.0000000000000004E-06
       &OT  T
         PRECONDITIONER  FULL_ALL
       &END OT
       &OUTER_SCF  T
         OPTIMIZER  NONE
         EPS_SCF     5.0000000000000004E-06
         MAX_SCF  4
       &END OUTER_SCF
       &PRINT
         &RESTART  OFF
           BACKUP_COPIES  1
           &EACH
             JUST_ENERGY  0
             QS_SCF  0
             MD  20
           &END EACH
         &END RESTART
       &END PRINT
     &END SCF
     &QS
       EPS_DEFAULT     1.0000000000000000E-14
       METHOD  GPW
     &END QS
     &MGRID
       NGRIDS  5
       CUTOFF     1.2000000000000000E+03
     &END MGRID
     &XC
       DENSITY_CUTOFF     1.0000000000000000E-10
       GRADIENT_CUTOFF     1.0000000000000000E-10
       TAU_CUTOFF     1.0000000000000000E-10
       &XC_FUNCTIONAL  NO_SHORTCUT
         &PBE  T
         &END PBE
       &END XC_FUNCTIONAL
       &VDW_POTENTIAL
         POTENTIAL_TYPE  PAIR_POTENTIAL
         &PAIR_POTENTIAL
           R_CUTOFF     1.0000000000000004E+01
           TYPE  DFTD3
           PARAMETER_FILE_NAME dftd3.dat
           REFERENCE_FUNCTIONAL PBE
           EPS_CN     9.9999999999999995E-07
           CALCULATE_C9_TERM  T
           REFERENCE_C9_TERM  T
           LONG_RANGE_CORRECTION  F
           VERBOSE_OUTPUT  F
         &END PAIR_POTENTIAL
       &END VDW_POTENTIAL
     &END XC
   &END DFT
   &SUBSYS
     &CELL
       A     1.2864472766435110E+01    0.0000000000000000E+00    0.0000000000000000E+00
       B    -6.4322363581020028E+00    1.1140960178524473E+01    0.0000000000000000E+00
       C     0.0000000000000000E+00    0.0000000000000000E+00    3.2000000000000000E+01
       MULTIPLE_UNIT_CELL  1 1 1
       &CELL_REF
         A     1.2982353780853531E+01    0.0000000000000000E+00    0.0000000000000000E+00
         B    -6.4911768904267628E+00    1.1243048175136114E+01    0.0000000000000000E+00
         C     0.0000000000000000E+00    0.0000000000000000E+00    3.2000000000000000E+01
         MULTIPLE_UNIT_CELL  1 1 1
       &END CELL_REF
     &END CELL
     &COORD
N    2.9226028991886862E-02    2.0389134480729658E+00    2.4763894592027800E+00
Ga    1.7373532784218326E-02    3.8936652562813173E-02    2.8307836111158440E+00
N    1.4347949527933343E-02    5.2738816449837460E-02    4.9838776508646534E+00
Ga    1.8606748844792870E-02    1.8766238916689304E+00    5.7629958445033305E+00
N    2.0623434191572330E-02    1.8941436072253273E+00    7.7572905773257039E+00
Ga    1.6609355326060751E-02    4.7668206706577274E-02    8.4052877932439340E+00
N    1.8546558102151427E-02    4.7658080566164586E-02    1.0381424504054799E+01
Ga    1.6106060340309810E-02    1.8856277821210932E+00    1.1035742997244904E+01
N    1.7854637067111535E-02    1.8672571458255236E+00    1.3029960074929878E+01
Ga    2.5982928586561423E-02    4.7593243665449397E-02    1.3825091996782506E+01
N    2.6824131655286368E-02    4.8112068148305903E-02    1.6035151993412533E+01
Ga    2.2149722416422615E-02    2.0872472263419608E+00    1.6442040023332325E+01
Ga   -3.5316755611837752E-02    3.7715491036239222E+00    1.4239667314244038E+00
N   -1.4818871655338715E+00    4.6327631662075150E+00    2.4862907654007453E+00
Ga   -1.6905474119009758E+00    2.7804561249877904E+00    3.2540153285544244E+00
N   -1.5889950795385843E+00    2.8335901225710320E+00    5.2144197220223782E+00
Ga   -1.6077651031182760E+00    4.7105166451179503E+00    5.7557344500212411E+00
N   -1.6002171986301175E+00    4.6978655565184901E+00    7.7556125134129985E+00
Ga   -1.5792176018889212E+00    2.8426614045504963E+00    8.3992833387544952E+00
N   -1.5784914139024231E+00    2.8403375521585295E+00    1.0394796602883581E+01
Ga   -1.6080519816651533E+00    4.6994663528673257E+00    1.1038128484437902E+01
N   -1.6238003407575528E+00    4.7083385485074540E+00    1.3034057874843230E+01
Ga   -1.5786658483615779E+00    2.8392188536981564E+00    1.3585936000443407E+01
N   -1.6022673118415891E+00    2.8197943802646570E+00    1.5552852396201800E+01
Ga   -1.4413232844058823E+00    4.6081382771855779E+00    1.6440599322013885E+01
N    9.0018057317133547E-03    3.7656880169274256E+00    1.7567433040776255E+01
N   -3.1990581928662882E+00    7.5978618606871553E+00    2.4827282359275458E+00
Ga   -3.1977390873383897E+00    5.6376320259565711E+00    2.8243870660431409E+00
N   -3.1976788143454318E+00    5.6160624775797814E+00    4.9797180750751737E+00
Ga   -3.1991941664230956E+00    7.4503975984384043E+00    5.7495168033586044E+00
N   -3.1989828874950192E+00    7.4647632231344971E+00    7.7520448740601706E+00
Ga   -3.1984476187171373E+00    5.6195312408587519E+00    8.4033536958864872E+00
N   -3.1981458812777652E+00    5.6180762463519667E+00    1.0380613823523586E+01
Ga   -3.1981001603579950E+00    7.4575865357142357E+00    1.1031650778612137E+01
N   -3.1973866237059174E+00    7.4379976370659149E+00    1.3028182670012324E+01
Ga   -3.2021062590256268E+00    5.6197149950422798E+00    1.3842868869038567E+01
N   -3.1997035745605085E+00    5.6203727535456576E+00    1.6036029925767188E+01
Ga   -3.1966490535531946E+00    7.6694982235215976E+00    1.6464651150911607E+01
Ga   -3.1969989965206143E+00    9.2950041762235696E+00    1.2957864450817238E+00
N   -4.7040953272392754E+00    1.0211575815960472E+01    2.4717969182464938E+00
Ga   -4.8964458721481243E+00    8.3557899065067112E+00    3.2197392136642824E+00
N   -4.8114838575375360E+00    8.4051157425096559E+00    5.1993196248123628E+00
Ga   -4.8385569412836267E+00    1.0271463131489222E+01    5.7595449577422473E+00
N   -4.8150116043622466E+00    1.0267322418442792E+01    7.7553603046747366E+00
Ga   -4.7986534095910018E+00    8.4062429368914415E+00    8.3929122217886363E+00
N   -4.7946127676607624E+00    8.4092436114733342E+00    1.0390635885109724E+01
Ga   -4.8199216830494338E+00    1.0266605746172063E+01    1.1029798093901510E+01
N   -4.8354403453616621E+00    1.0277404363878645E+01    1.3024613602316027E+01
Ga   -4.7920693756386097E+00    8.4104391941519019E+00    1.3588786383514051E+01
N   -4.8245413566604967E+00    8.3971007532584085E+00    1.5549650079800406E+01
Ga   -4.6253394280110793E+00    1.0158022529184700E+01    1.6466296150063044E+01
N   -3.1968979966995779E+00    9.3244048490900706E+00    1.7610936977520034E+01
N    3.2364208522057210E+00    1.9071903060690114E+00    2.6415146278047237E+00
Ga    3.2339290227724233E+00    5.0608995760539177E-02    3.2711501312802973E+00
N    3.2334069086951653E+00    6.7314859319825962E-02    5.2086607394324167E+00
Ga    3.2330584402748079E+00    1.9142193854112244E+00    5.8564942137910752E+00
N    3.2333389471299125E+00    1.9077195232897439E+00    7.8174977399971173E+00
Ga    3.2334050446012879E+00    3.5152269523341821E-02    8.4024417644617913E+00
N    3.2344746501120700E+00    3.4681803668774776E-02    1.0394178727944301E+01
Ga    3.2349052931417499E+00    1.9005116310406067E+00    1.1000943682609842E+01
N    3.2348687240038352E+00    1.9030476526200630E+00    1.2970336163508307E+01
Ga    3.2353955956524207E+00    3.2229567769943977E-02    1.3587807123841262E+01
N    3.2344036210014186E+00    6.6541058270285142E-02    1.5547438283398657E+01
Ga    3.2378224469406582E+00    1.9043332023599782E+00    1.5822765103828154E+01
N    1.5230803838739133E+00    4.6232926145086868E+00    2.3410230438531610E+00
Ga    1.6673540705103358E+00    2.8692733386619329E+00    3.2691595465847860E+00
N    1.6360479812752851E+00    2.8390811502435751E+00    5.1976102985107886E+00
Ga    1.6694412620151549E+00    4.7245711206364414E+00    5.8037776671824650E+00
N    1.6169012890244598E+00    4.6837844366005923E+00    7.8037670229702911E+00
Ga    1.6117471403504053E+00    2.8365927760488661E+00    8.4211099741562130E+00
N    1.6158516684592930E+00    2.8338192739315957E+00    1.0409590698108456E+01
Ga    1.6417632255575809E+00    4.7002298240853895E+00    1.1030646246953301E+01
N    1.6586450319901145E+00    4.7078431608909117E+00    1.3028546625754473E+01
Ga    1.6155623591412032E+00    2.8396621221738902E+00    1.3583668496994720E+01
N    1.6418818576947107E+00    2.8258452059369694E+00    1.5548535616335139E+01
Ga    1.4696077677136812E+00    4.5985710009253618E+00    1.6441392655026871E+01
N    2.1550150474740543E-02    7.4811969395293261E+00    2.5684257541485471E+00
Ga    6.1332317788542305E-02    5.7371055206381483E+00    3.2269804844735952E+00
N    2.9223684447403447E-02    5.6084396064315758E+00    5.1927959010316282E+00
Ga    2.5608273875139611E-02    7.4722948460735479E+00    5.8183975795259473E+00
N    1.9629664157893700E-02    7.4736822039562627E+00    7.8026299012855880E+00
Ga    1.1154609615424279E-02    5.6100349970768644E+00    8.4127241539604842E+00
N    1.3100843982510640E-02    5.6091131915209660E+00    1.0407109110441613E+01
Ga    1.3859312638755481E-02    7.4776940769436955E+00    1.0997209568569964E+01
N    1.8929185792125446E-02    7.4761981315149102E+00    1.2971154116848117E+01
Ga    1.8867820333217204E-02    5.6036827204399682E+00    1.3583782581629846E+01
N    2.5225590830421429E-02    5.6376663967017810E+00    1.5549020709312945E+01
Ga    1.8429509040379734E-02    7.4758667196007718E+00    1.5827411338065064E+01
N   -1.6926318065135062E+00    1.0211725593594895E+01    2.4730950823962030E+00
Ga   -1.5026662021503172E+00    8.3567656797117014E+00    3.2228446306459828E+00
N   -1.5869886126205970E+00    8.4053983454017942E+00    5.2016242004581734E+00
Ga   -1.5590506738689334E+00    1.0271638708291393E+01    5.7607458726365879E+00
N   -1.5824426639825717E+00    1.0267506412293853E+01    7.7561723540815590E+00
Ga   -1.5987602333549213E+00    8.4060064378179753E+00    8.3921978630743901E+00
N   -1.6017551286589546E+00    8.4096972822672846E+00    1.0390686224267295E+01
Ga   -1.5751126751537288E+00    1.0267244629495556E+01    1.1031182064101319E+01
N   -1.5580729722322273E+00    1.0278122543294941E+01    1.3026066011175139E+01
Ga   -1.6028865758759328E+00    8.4111648414021349E+00    1.3588694384000402E+01
N   -1.5685089405606754E+00    8.3957039203150643E+00    1.5549087838777478E+01
Ga   -1.7658814140195793E+00    1.0159314416766135E+01    1.6466546082380070E+01
N    6.4409643970761179E+00    2.0367792130171209E+00    2.4821947248208316E+00
Ga    6.4509586469133904E+00    3.8959105433162479E-02    2.8329247924240657E+00
N    6.4530632937338934E+00    5.2021833534947444E-02    4.9851061657089604E+00
Ga    6.4501513358483047E+00    1.8755411500464911E+00    5.7650145654921756E+00
N    6.4474063632105389E+00    1.8935453645033833E+00    7.7586120289257536E+00
Ga    6.4504400602551293E+00    4.7395382400296351E-02    8.4066461723734740E+00
N    6.4501245300416290E+00    4.7931161012427177E-02    1.0382336709812083E+01
Ga    6.4523997436873204E+00    1.8856635441557119E+00    1.1038486897928214E+01
N    6.4527432616493146E+00    1.8683369277036326E+00    1.3030032070290277E+01
Ga    6.4434510805271152E+00    5.2799431431241856E-02    1.3832867919567793E+01
N    6.4418690122321927E+00    5.0466161773978016E-02    1.6035402007875767E+01
Ga    6.4526030780024506E+00    2.1095928447382186E+00    1.6464504140837779E+01
Ga    6.4999445742412361E+00    3.7724678182226805E+00    1.4397486261540302E+00
N    4.9475336942987163E+00    4.6269510655812374E+00    2.3619119642003072E+00
Ga    4.8028542928162334E+00    2.8707737667531723E+00    3.2775919267343556E+00
N    4.8320196404327698E+00    2.8380569027562075E+00    5.2043917632490331E+00
Ga    4.7986094953781118E+00    4.7247975010902676E+00    5.8058823953179735E+00
N    4.8503762218036934E+00    4.6837436315538721E+00    7.8050889578641929E+00
Ga    4.8559051530710535E+00    2.8361236013457414E+00    8.4214167658800250E+00
N    4.8531961018344356E+00    2.8332154690460518E+00    1.0409136882362299E+01
Ga    4.8286457715374080E+00    4.6991365673513723E+00    1.1031418451925630E+01
N    4.8143167120097994E+00    4.7068129571438408E+00    1.3026762660295761E+01
Ga    4.8564671515773910E+00    2.8401184413734479E+00    1.3589014247719195E+01
N    4.8268193394311130E+00    2.8255587426462592E+00    1.5548926325267926E+01
Ga    5.0258881977958394E+00    4.5886960941855532E+00    1.6464243960821921E+01
N    6.4542027192250808E+00    3.7604814013657446E+00    1.7614171856578231E+01
N    3.2330966377145542E+00    7.6095342914546675E+00    2.3704143329334149E+00
Ga    3.2155744198976248E+00    5.6428835713962862E+00    1.8305241017951952E+00
N    3.2341582140295029E+00    5.6174031473708155E+00    5.2009980872442787E+00
Ga    3.2335352310668246E+00    7.4288232295304253E+00    5.7953905799310759E+00
N    3.2333667688951317E+00    7.4842043545338726E+00    7.8034922700365357E+00
Ga    3.2336500189506503E+00    5.6199037741555031E+00    8.3993983515280615E+00
N    3.2349991975485146E+00    5.6177397937725413E+00    1.0385893353293644E+01
Ga    3.2342627588174868E+00    7.4568134143832028E+00    1.1028971795617132E+01
N    3.2356147131096131E+00    7.4383677507467247E+00    1.3031853697187538E+01
Ga    3.2397338849788055E+00    5.6115677041244680E+00    1.3822684776609847E+01
N    3.2370276494500128E+00    5.6108043222315303E+00    1.6034515545778973E+01
Ga    3.2394356964444335E+00    7.6228546576930318E+00    1.6409484494669719E+01
Ga    3.2345680598021049E+00    9.3695656174803368E+00    1.4517254350541100E+00
N    1.7367170555447748E+00    1.0204253155594092E+01    2.4942444774467893E+00
Ga    1.5556813071158246E+00    8.3166418103616362E+00    3.2344441126815666E+00
N    1.6362918360707337E+00    8.4012620919765855E+00    5.2006081421004868E+00
Ga    1.6046286044507838E+00    1.0266069183337532E+01    5.7595549298801734E+00
N    1.6139888958185662E+00    1.0266222522614759E+01    7.7596711322809284E+00
Ga    1.6314853760173402E+00    8.4120977938491439E+00    8.4118729682582618E+00
N    1.6317701868920873E+00    8.4123484354068090E+00    1.0408145297146296E+01
Ga    1.6097256929432078E+00    1.0270641016435512E+01    1.1036058803630208E+01
N    1.5939251861493919E+00    1.0281185364179839E+01    1.3035278783056095E+01
Ga    1.6390401694386045E+00    8.4106837760121334E+00    1.3579974922704638E+01
N    1.6204052445861754E+00    8.3971641976902767E+00    1.5555526418805714E+01
Ga    1.7519924861908647E+00    1.0191538081737651E+01    1.6410329258339218E+01
N    3.2266168942099482E+00    9.3321273472177957E+00    1.7540300983628523E+01
N    9.6678164968157176E+00    1.9073063137051605E+00    2.5724950116072915E+00
Ga    9.6667022497500472E+00    1.6577463537335355E-01    3.2620668678271638E+00
N    9.6660690889307599E+00    5.4572986881099551E-02    5.2217989389288118E+00
Ga    9.6667734126789622E+00    1.9072578241379763E+00    5.8447858636488643E+00
N    9.6663739888930955E+00    1.9058860476097599E+00    7.8162972984122137E+00
Ga    9.6656184264512746E+00    3.4260380847041624E-02    8.3992213759033305E+00
N    9.6659359368168225E+00    3.4419194665741878E-02    1.0396282527640233E+01
Ga    9.6655626573542435E+00    1.9051660764441105E+00    1.0986945560341985E+01
N    9.6682762109931719E+00    1.9036044813765083E+00    1.2962575585662892E+01
Ga    9.6678023096490122E+00    3.6955792895272260E-02    1.3579338892846971E+01
N    9.6724199080328432E+00    5.9864253064964672E-02    1.5552278331847088E+01
Ga    9.6665181875731765E+00    1.9063316185419334E+00    1.5831327678314924E+01
N    7.9532002705187601E+00    4.6336325638529807E+00    2.4912737469400263E+00
Ga    8.1620956267955105E+00    2.7796221700895027E+00    3.2561897709921781E+00
N    8.0577117816446133E+00    2.8332095096134915E+00    5.2161717307424844E+00
Ga    8.0773065569667946E+00    4.7102095779922388E+00    5.7573117360609327E+00
N    8.0682722192215621E+00    4.6973118040930038E+00    7.7566062118785393E+00
Ga    8.0471424094140680E+00    2.8420601221617297E+00    8.4002096635463843E+00
N    8.0462794757690936E+00    2.8401074645146291E+00    1.0394566602865858E+01
Ga    8.0757873862532374E+00    4.6988486291646749E+00    1.1038459705745270E+01
N    8.0920811815428575E+00    4.7072157054977426E+00    1.3031191841830209E+01
Ga    8.0488757603065988E+00    2.8396982231958554E+00    1.3589417312837570E+01
N    8.0794548161951827E+00    2.8213990176249806E+00    1.5547706311719704E+01
Ga    7.8855367506982121E+00    4.5916858590525438E+00    1.6464189984855913E+01
N    6.4431523112773839E+00    7.4785375730606312E+00    2.5637708830611992E+00
Ga    6.4054665786530416E+00    5.7369255433159703E+00    3.2360542820030207E+00
N    6.4402174033346755E+00    5.6101529821875742E+00    5.1995581842140224E+00
Ga    6.4418584422198721E+00    7.4735640444249478E+00    5.8217072337521110E+00
N    6.4474918488422466E+00    7.4742284757795083E+00    7.8042423913217478E+00
Ga    6.4565658006732880E+00    5.6098057650076383E+00    8.4131895427128072E+00
N    6.4557289211580748E+00    5.6087923240837076E+00    1.0406064914669988E+01
Ga    6.4541224212327313E+00    7.4766724391391461E+00    1.0997016643969564E+01
N    6.4517680584508970E+00    7.4767656243675491E+00    1.2969490129269420E+01
Ga    6.4523791470425715E+00    5.6040327853214524E+00    1.3587459772008719E+01
N    6.4499124119253848E+00    5.6403778781702210E+00    1.5544735858833869E+01
Ga    6.4537510620349909E+00    7.4733312106373058E+00    1.5823733698629930E+01
N    4.7324424781155443E+00    1.0203106404302787E+01    2.4950392792392626E+00
Ga    4.9110559231069351E+00    8.3159377224788287E+00    3.2360631782600686E+00
N    4.8313621891222134E+00    8.4012143647829056E+00    5.2012665146653756E+00
Ga    4.8629734311400830E+00    1.0266609247244867E+01    5.7593628076286780E+00
N    4.8529216032353366E+00    1.0266324496154260E+01    7.7595265678587380E+00
Ga    4.8351809473916330E+00    8.4121392317516932E+00    8.4120617930315280E+00
N    4.8363202101409906E+00    8.4120271437097482E+00    1.0407567770368841E+01
Ga    4.8579189221788290E+00    1.0270303676446249E+01    1.1033739794661882E+01
N    4.8755939097246772E+00    1.0280344366613049E+01    1.3032363155149108E+01
Ga    4.8333471996422901E+00    8.4100842397626288E+00    1.3578269513919466E+01
N    4.8544638296832909E+00    8.4004737135030130E+00    1.5550646177076839E+01
Ga    4.7123480502890622E+00    1.0183454040604396E+01    1.6411533574327137E+01
O    3.2441201685149039E+00    5.5915356150377953E+00   -2.1974304365345601E-02
H    3.2398349443318328E+00    1.9103229754416775E+00    1.6153126132264983E+00
C    4.0632930815458330E+00    6.5448972525076501E+00   -6.8295577535490337E-01
H    3.4498805551199658E+00    7.3402007697829204E+00   -1.1488638160312050E+00
H    4.8048092355302945E+00    7.0353136832532677E+00   -2.4582455343599815E-02
H    4.6279772487349531E+00    6.0560196202444940E+00   -1.4936322918488625E+00
     &END COORD
     &KIND C
       BASIS_SET DZVP-MOLOPT-SR-GTH-q4
       POTENTIAL GTH-PBE-q4
       &POTENTIAL
 2 2
  0.3384712400000000E+00 2 -0.8803673979999999E+01  0.1339210850000000E+01
 2
  0.3025757500000000E+00 1  0.9622486650000001E+01
  0.2915069400000000E+00 0
         # Potential name:  GTH-PBE-Q4  for symbol:  C
         # Potential read from the potential filename: GTH_POTENTIALS
       &END POTENTIAL
     &END KIND
     &KIND O
       BASIS_SET DZVP-MOLOPT-SR-GTH-q6
       POTENTIAL GTH-PBE-q6
       &POTENTIAL
 2 4
  0.2445543000000000E+00 2 -0.1666721480000000E+02  0.2487311320000000E+01
 2
  0.2209559200000000E+00 1  0.1833745811000000E+02
  0.2113324700000000E+00 0
         # Potential name:  GTH-PBE-Q6  for symbol:  O
         # Potential read from the potential filename: GTH_POTENTIALS
       &END POTENTIAL
     &END KIND
     &KIND H
       BASIS_SET DZVP-MOLOPT-SR-GTH-q1
       POTENTIAL GTH-PBE-q1
       &POTENTIAL
 1
  0.2000000000000000E+00 2 -0.4178900440000000E+01  0.7244633100000000E+00
 0
         # Potential name:  GTH-PBE-Q1  for symbol:  H
         # Potential read from the potential filename: GTH_POTENTIALS
       &END POTENTIAL
     &END KIND
     &KIND N
       BASIS_SET DZVP-MOLOPT-SR-GTH
       POTENTIAL GTH-PBE-q5
       &POTENTIAL
 2 3
  0.2837905100000000E+00 2 -0.1241522559000000E+02  0.1868095920000000E+01
 2
  0.2554050000000000E+00 1  0.1363026257000000E+02
  0.2454945300000000E+00 0
         # Potential name:  GTH-PBE-Q5  for symbol:  N
         # Potential read from the potential filename: GTH_POTENTIALS
       &END POTENTIAL
     &END KIND
     &KIND Ga
       BASIS_SET DZVP-MOLOPT-SR-GTH
       POTENTIAL GTH-PBE-q13
       &POTENTIAL
 2 1 10
  0.4900000000000000E+00 0
 3
  0.4167772300000000E+00 3  0.1047568975000000E+02 -0.4921768140000000E+01  0.8707055900000000E+00
  0.7770178090000000E+01 -0.2248152160000000E+01
  0.1784415450000000E+01
  0.5696265200000000E+00 2  0.1777985340000000E+01  0.1958597600000000E+00
 -0.2317443900000000E+00
  0.2381265000000000E+00 1 -0.1624868022000000E+02
         # Potential name:  GTH-PBE-Q13  for symbol:  GA
         # Potential read from the potential filename: GTH_POTENTIALS
       &END POTENTIAL
     &END KIND
     &TOPOLOGY
       NUMBER_OF_ATOMS  206
       MULTIPLE_UNIT_CELL  1 1 1
     &END TOPOLOGY
   &END SUBSYS
 &END FORCE_EVAL
