 # Version information for this restart file 
 # current date 2019-06-24 21:33:25.436
 # current working dir /scratch/rzk/rzk/GaN-carbene/443-adatoms-both-2x2/03-DissMethanol/01-O-GaSur-H-NSur
 # Program compiled at                              Sun Apr  7 00:48:11 EDT 2019
 # Program compiled on                          beluga2.int.ets1.calculquebec.ca
 # Program compiled for                        Beluga-Linux-x86-64-intel-openmpi
 # Source code revision number                                         svn:18619
 &GLOBAL
   PRINT_LEVEL  MEDIUM
   PROJECT_NAME TEST
   RUN_TYPE  GEO_OPT
 &END GLOBAL
 &MOTION
   &GEO_OPT
     MAX_ITER  500
     STEP_START_VAL  86
   &END GEO_OPT
 &END MOTION
 &FORCE_EVAL
   METHOD  QS
   STRESS_TENSOR  ANALYTICAL
   &DFT
     BASIS_SET_FILE_NAME BASIS_MOLOPT
     POTENTIAL_FILE_NAME GTH_POTENTIALS
     UKS  T
     SURFACE_DIPOLE_CORRECTION  T
     SURF_DIP_DIR  Z
     &SCF
       MAX_SCF  80
       EPS_SCF     5.0000000000000004E-06
       &OT  T
         PRECONDITIONER  FULL_ALL
       &END OT
       &OUTER_SCF  T
         OPTIMIZER  NONE
         EPS_SCF     5.0000000000000004E-06
         MAX_SCF  4
       &END OUTER_SCF
       &PRINT
         &RESTART  OFF
           BACKUP_COPIES  1
           &EACH
             JUST_ENERGY  0
             QS_SCF  0
             MD  20
           &END EACH
         &END RESTART
       &END PRINT
     &END SCF
     &QS
       EPS_DEFAULT     1.0000000000000000E-14
       METHOD  GPW
     &END QS
     &MGRID
       NGRIDS  5
       CUTOFF     1.2000000000000000E+03
     &END MGRID
     &XC
       DENSITY_CUTOFF     1.0000000000000000E-10
       GRADIENT_CUTOFF     1.0000000000000000E-10
       TAU_CUTOFF     1.0000000000000000E-10
       &XC_FUNCTIONAL  NO_SHORTCUT
         &PBE  T
         &END PBE
       &END XC_FUNCTIONAL
       &VDW_POTENTIAL
         POTENTIAL_TYPE  PAIR_POTENTIAL
         &PAIR_POTENTIAL
           R_CUTOFF     1.0000000000000004E+01
           TYPE  DFTD3
           PARAMETER_FILE_NAME dftd3.dat
           REFERENCE_FUNCTIONAL PBE
           EPS_CN     9.9999999999999995E-07
           CALCULATE_C9_TERM  T
           REFERENCE_C9_TERM  T
           LONG_RANGE_CORRECTION  F
           VERBOSE_OUTPUT  F
         &END PAIR_POTENTIAL
       &END VDW_POTENTIAL
     &END XC
   &END DFT
   &SUBSYS
     &CELL
       A     1.2864472766435110E+01    0.0000000000000000E+00    0.0000000000000000E+00
       B    -6.4322363581020028E+00    1.1140960178524473E+01    0.0000000000000000E+00
       C     0.0000000000000000E+00    0.0000000000000000E+00    3.2000000000000000E+01
       MULTIPLE_UNIT_CELL  1 1 1
       &CELL_REF
         A     1.2982353780853531E+01    0.0000000000000000E+00    0.0000000000000000E+00
         B    -6.4911768904267628E+00    1.1243048175136114E+01    0.0000000000000000E+00
         C     0.0000000000000000E+00    0.0000000000000000E+00    3.2000000000000000E+01
         MULTIPLE_UNIT_CELL  1 1 1
       &END CELL_REF
     &END CELL
     &COORD
N    2.9550247944212640E-02    2.0272726838938357E+00    2.4778023001560583E+00
Ga    1.4757232316899578E-02    1.7689666864619757E-02    2.8235469914878935E+00
N    1.2212392054498904E-02    4.0895767293159246E-02    4.9817934596011009E+00
Ga    1.7246226934761764E-02    1.8628568197215358E+00    5.7636867291967047E+00
N    1.7733004930387722E-02    1.8824105512677010E+00    7.7575251376260450E+00
Ga    1.4547401562084996E-02    3.6120922367865835E-02    8.4060020671454208E+00
N    1.3990683038386919E-02    3.6738911390743020E-02    1.0382040558144778E+01
Ga    1.1160991434884910E-02    1.8752026053924100E+00    1.1037209181851839E+01
N    1.0612956558307162E-02    1.8565684342464490E+00    1.3029197304969870E+01
Ga    1.9553024689663006E-02    4.0292913466496119E-02    1.3825343018832186E+01
N    2.0364291013043875E-02    4.0987677988340139E-02    1.6036444881694891E+01
Ga    1.2344967791732468E-02    2.0999890905962428E+00    1.6466152000029730E+01
Ga   -3.7062656257074146E-02    3.7605265813500108E+00    1.4357050466946446E+00
N   -1.4806763557822529E+00    4.6191437558853297E+00    2.4927478848756808E+00
Ga   -1.6930774977335963E+00    2.7618931777818818E+00    3.2583423703988372E+00
N   -1.5909658757399820E+00    2.8206186650266787E+00    5.2165714440781441E+00
Ga   -1.6100881624098631E+00    4.6978888914717656E+00    5.7577259661572731E+00
N   -1.6037560244345230E+00    4.6856619449349095E+00    7.7566719700531177E+00
Ga   -1.5826762665522707E+00    2.8304964156629109E+00    8.4002933031576976E+00
N   -1.5838430503102259E+00    2.8281766320331729E+00    1.0395012563438536E+01
Ga   -1.6126336391670508E+00    4.6867675691300343E+00    1.1040337359512248E+01
N   -1.6296929836259939E+00    4.6944002961460924E+00    1.3034163096654247E+01
Ga   -1.5868326957973171E+00    2.8255937141824496E+00    1.3592217237052829E+01
N   -1.6139311715914810E+00    2.8026500315937062E+00    1.5550395244229856E+01
Ga   -1.4295405825470113E+00    4.5792953877756108E+00    1.6464873781483348E+01
N    3.1915421528200837E-03    3.7528676928690445E+00    1.7613012188704296E+01
N   -3.1995686964197310E+00    7.5837063352485314E+00    2.4774164470706523E+00
Ga   -3.1970549865464770E+00    5.6287167656305304E+00    2.8289295125108098E+00
N   -3.1993594237300109E+00    5.6031584404748624E+00    4.9800575559223201E+00
Ga   -3.2011814841418209E+00    7.4404210755617539E+00    5.7477328854779817E+00
N   -3.2022238925455229E+00    7.4528252371391996E+00    7.7511532287302627E+00
Ga   -3.2018580016687421E+00    5.6080334056176984E+00    8.4042249775367637E+00
N   -3.2028016986800960E+00    5.6060463178130764E+00    1.0381351764583476E+01
Ga   -3.2031312527133173E+00    7.4456214631945397E+00    1.1032335180301029E+01
N   -3.2040303179823333E+00    7.4241199522073043E+00    1.3029358581944516E+01
Ga   -3.2053578524529036E+00    5.6035908726072590E+00    1.3847475384846625E+01
N   -3.2052128287199073E+00    5.6024797315078079E+00    1.6038826779516949E+01
Ga   -3.2058123510475016E+00    7.6396061825854691E+00    1.6451976094437541E+01
Ga   -3.1955561645533268E+00    9.2761563678570607E+00    1.2659263173131892E+00
N   -4.7057122318997715E+00    1.0197210646600814E+01    2.4645526003796681E+00
Ga   -4.8943365260904326E+00    8.3442775322490039E+00    3.2112801124928811E+00
N   -4.8133857087950407E+00    8.3920185226846531E+00    5.1949429678454280E+00
Ga   -4.8394491971817386E+00    1.0258789431191822E+01    5.7550586905110421E+00
N   -4.8180988745799587E+00    1.0255593389071151E+01    7.7525981844234115E+00
Ga   -4.8008382849024960E+00    8.3950890446493744E+00    8.3933014069683516E+00
N   -4.7995664216248048E+00    8.3976278119375163E+00    1.0391032349712800E+01
Ga   -4.8245941849648872E+00    1.0255414483736752E+01    1.1029355288067020E+01
N   -4.8427787617301004E+00    1.0265939823308306E+01    1.3024241819651392E+01
Ga   -4.7993806672166608E+00    8.3982472731590558E+00    1.3587331679293397E+01
N   -4.8342306014252765E+00    8.3858716947933711E+00    1.5549202243120680E+01
Ga   -4.6426330051186513E+00    1.0150203609257380E+01    1.6453183136661806E+01
N   -3.2056051235211300E+00    9.3054192231396158E+00    1.7587469292841213E+01
N    3.2346848037478240E+00    1.8930903449058016E+00    2.6375775467005886E+00
Ga    3.2330640413538227E+00    3.0828144567651330E-02    3.2613086264820512E+00
N    3.2319792863068071E+00    5.5380827803814668E-02    5.2023053201081870E+00
Ga    3.2320926660607450E+00    1.9001356748354576E+00    5.8544040927141108E+00
N    3.2309227457371734E+00    1.8961617350214950E+00    7.8157479819526685E+00
Ga    3.2302846766738949E+00    2.3075972999848888E-02    8.4001047925089694E+00
N    3.2294062969925927E+00    2.3013665559633842E-02    1.0391856650298617E+01
Ga    3.2295218898545719E+00    1.8884628444071665E+00    1.1000475259627471E+01
N    3.2282529549181143E+00    1.8898668274616415E+00    1.2967903415342303E+01
Ga    3.2282426029863052E+00    2.1619076758279693E-02    1.3586625281825450E+01
N    3.2265057379751609E+00    5.1387577913560759E-02    1.5546775918930537E+01
Ga    3.2265914683662169E+00    1.8917655335058186E+00    1.5822891884948071E+01
N    1.5298702158561954E+00    4.6131284385669105E+00    2.3423274610362630E+00
Ga    1.6688051364475491E+00    2.8544879914200778E+00    3.2728958106885409E+00
N    1.6344109861279252E+00    2.8275500033476071E+00    5.1994051943765092E+00
Ga    1.6670089375656700E+00    4.7120277430810678E+00    5.8084773846072260E+00
N    1.6136384843185296E+00    4.6721992430549619E+00    7.8061947712681548E+00
Ga    1.6087292323719042E+00    2.8241013338921803E+00    8.4216002441198601E+00
N    1.6110314812924273E+00    2.8219096250935314E+00    1.0409100253902306E+01
Ga    1.6364201617878373E+00    4.6875690319744701E+00    1.1032994200072347E+01
N    1.6505376384695762E+00    4.6939339496794839E+00    1.3028778966768908E+01
Ga    1.6091012169297152E+00    2.8260800353135269E+00    1.3589388401791926E+01
N    1.6349536926888342E+00    2.8088540204009962E+00    1.5547070257806839E+01
Ga    1.4413110771911812E+00    4.5713897463855178E+00    1.6465971203699652E+01
N    2.3556808781025604E-02    7.4712596250801502E+00    2.5725434350913963E+00
Ga    6.1845066971557512E-02    5.7296929686699469E+00    3.2333898798568788E+00
N    2.7688790088128939E-02    5.5968788783864794E+00    5.1971745218051897E+00
Ga    1.9777288779680265E-02    7.4616921557238181E+00    5.8243631896015442E+00
N    1.4936705759542061E-02    7.4616763310961352E+00    7.8072176745665249E+00
Ga    6.8196119168453901E-03    5.5980764420784626E+00    8.4154147687435312E+00
N    8.1278443135403625E-03    5.5966566316270283E+00    1.0408411199437076E+01
Ga    9.1772062424680806E-03    7.4653930369478134E+00    1.0997285095026943E+01
N    1.2689168559507724E-02    7.4648118087351572E+00    1.2970970924754905E+01
Ga    1.1797100590272601E-02    5.5912342779125170E+00    1.3590113473042754E+01
N    1.6348615260219992E-02    5.6268350231700746E+00    1.5549266718177844E+01
Ga    9.5071581801186213E-03    7.4598829788972685E+00    1.5826460008255763E+01
N   -1.6919518887368805E+00    1.0197484290284370E+01    2.4660739590485061E+00
Ga   -1.5067315804422658E+00    8.3454532438667641E+00    3.2168963742114505E+00
N   -1.5892010859292045E+00    8.3928226669718118E+00    5.1990182175775557E+00
Ga   -1.5611230702164485E+00    1.0259454104934633E+01    5.7563850026795551E+00
N   -1.5852728916928751E+00    1.0256126051401864E+01    7.7536534205730376E+00
Ga   -1.6031836466117690E+00    8.3951020711714968E+00    8.3927305046938905E+00
N   -1.6068451028502955E+00    8.3981425675372279E+00    1.0390965464268444E+01
Ga   -1.5807979546174071E+00    1.0256005608843923E+01    1.1029950191882678E+01
N   -1.5653341833635881E+00    1.0266055496220657E+01    1.3024683017813027E+01
Ga   -1.6091975660864677E+00    8.3987587900484151E+00    1.3587263979506233E+01
N   -1.5765408440618167E+00    8.3856331283581724E+00    1.5549394309198384E+01
Ga   -1.7683029298199981E+00    1.0150530636968922E+01    1.6453151112630941E+01
N    6.4417817854827275E+00    2.0233440007191135E+00    2.4806861925209982E+00
Ga    6.4542531691439944E+00    1.5933375984133500E-02    2.8235417897117578E+00
N    6.4525857189831335E+00    3.9922421087604756E-02    4.9823163068838729E+00
Ga    6.4479164852742752E+00    1.8620546461937126E+00    5.7635611060415268E+00
N    6.4440302400944578E+00    1.8822833547412336E+00    7.7573881967150253E+00
Ga    6.4463525822085472E+00    3.6354640453062921E-02    8.4068737446386486E+00
N    6.4450106960400877E+00    3.6932312906247156E-02    1.0382372712150431E+01
Ga    6.4470006586835380E+00    1.8749524614760900E+00    1.1037913294574183E+01
N    6.4451042959441542E+00    1.8565603995546103E+00    1.3028861977541519E+01
Ga    6.4360657361289109E+00    4.1424371613255712E-02    1.3825900070467654E+01
N    6.4332788584160454E+00    4.1039531062781048E-02    1.6035995850269074E+01
Ga    6.4399071391677181E+00    2.1030209017622146E+00    1.6469307569921053E+01
Ga    6.5090169531768733E+00    3.7542427518547736E+00    1.4409910382940416E+00
N    4.9417553272377326E+00    4.6135904582430287E+00    2.3444711732455401E+00
Ga    4.8012786147434010E+00    2.8544713179525107E+00    3.2727515754168013E+00
N    4.8308524273987352E+00    2.8269306394006923E+00    5.1996185808477859E+00
Ga    4.7972727000840125E+00    4.7118628896173567E+00    5.8075836581917963E+00
N    4.8479011482597327E+00    4.6719051604463644E+00    7.8055860519986888E+00
Ga    4.8529425172327381E+00    2.8239247118131390E+00    8.4217100919841510E+00
N    4.8479331611769965E+00    2.8216340069618959E+00    1.0408717657867522E+01
Ga    4.8229809749328609E+00    4.6867421866272485E+00    1.1032957520889813E+01
N    4.8060016003332615E+00    4.6932227724465658E+00    1.3027940892484491E+01
Ga    4.8476025045481368E+00    2.8260878961374658E+00    1.3590116442533564E+01
N    4.8171630504895715E+00    2.8082740729429947E+00    1.5546855894998089E+01
Ga    5.0149173021036972E+00    4.5688385964894733E+00    1.6469195184665413E+01
N    6.4486234251330741E+00    3.7518644843445292E+00    1.7616907742947280E+01
N    3.2300907730301112E+00    7.5922871573249964E+00    2.4524995185548071E+00
Ga    3.2201943162752911E+00    5.6637069285037747E+00    1.8998802592341133E+00
N    3.2321398911451356E+00    5.6042221044428686E+00    5.2026103764309592E+00
Ga    3.2313190890879917E+00    7.4183894449496215E+00    5.7967791060293870E+00
N    3.2304682645000580E+00    7.4718953429599733E+00    7.8052131091626000E+00
Ga    3.2307228000761006E+00    5.6082870746728677E+00    8.4016684061682305E+00
N    3.2299389697970513E+00    5.6056368509763255E+00    1.0387667701258939E+01
Ga    3.2290655611804926E+00    7.4447164781571775E+00    1.1030063210026709E+01
N    3.2277696169658188E+00    7.4241427944713463E+00    1.3034096912847753E+01
Ga    3.2290635728357078E+00    5.5946814916112579E+00    1.3826711990448477E+01
N    3.2270627041092195E+00    5.5908690675425179E+00    1.6036655747161412E+01
Ga    3.2263795558843196E+00    7.5902441035905222E+00    1.6400259602312030E+01
Ga    3.2390842158295192E+00    9.3036757410325173E+00    1.4335588952520384E+00
N    1.7413407389460558E+00    1.0179939619657459E+01    2.4821456261297019E+00
Ga    1.5494873725836469E+00    8.3138968469097776E+00    3.2553324728713156E+00
N    1.6297830578062125E+00    8.3914803416836090E+00    5.2176210200678277E+00
Ga    1.6033692504939909E+00    1.0257640790793044E+01    5.7631104544003184E+00
N    1.6112999625315303E+00    1.0256923820314260E+01    7.7629509775354553E+00
Ga    1.6279910838745535E+00    8.4011253390219363E+00    8.4117562271112885E+00
N    1.6272309782293712E+00    8.4006678910486059E+00    1.0408288983264761E+01
Ga    1.6045327035469630E+00    1.0258911359378844E+01    1.1035408794945811E+01
N    1.5867350558089128E+00    1.0268498685269996E+01    1.3035021263565104E+01
Ga    1.6317602706246528E+00    8.3983124335978285E+00    1.3579374952189452E+01
N    1.6116365078797483E+00    8.3872252790768975E+00    1.5557530965139337E+01
Ga    1.7347005474731008E+00    1.0179891582600579E+01    1.6400129158836087E+01
N    3.2256038472982200E+00    9.3132420306356156E+00    1.7523279433918848E+01
N    9.6682036989998679E+00    1.8886863442354651E+00    2.5716034481550740E+00
Ga    9.6665043395530503E+00    1.3725060940941997E-01    3.2469265374519547E+00
N    9.6645692106717700E+00    4.0478676461966658E-02    5.2152087526556228E+00
Ga    9.6652343176634279E+00    1.8896983087102499E+00    5.8446019714039394E+00
N    9.6632516060864226E+00    1.8939289160750659E+00    7.8162545252930515E+00
Ga    9.6627515867963165E+00    2.3582422141535584E-02    8.4024892217519387E+00
N    9.6614292002557089E+00    2.2862772736895926E-02    1.0398231478557099E+01
Ga    9.6607177858294850E+00    1.8933865143485569E+00    1.0989567184561208E+01
N    9.6597875981568873E+00    1.8895327310750971E+00    1.2963583046870159E+01
Ga    9.6597122429706221E+00    2.4468056874871059E-02    1.3580444643560801E+01
N    9.6589411791581838E+00    4.2581500813915825E-02    1.5557670601850088E+01
Ga    9.6587866984058941E+00    1.8938942098068818E+00    1.5831219113630622E+01
N    7.9527772864948574E+00    4.6185013366164576E+00    2.4942761016410042E+00
Ga    8.1651529074636393E+00    2.7605344466946926E+00    3.2602002565560233E+00
N    8.0567733113525062E+00    2.8202591431804223E+00    5.2174014928968804E+00
Ga    8.0756378089998631E+00    4.6978347362038155E+00    5.7577673265418312E+00
N    8.0650902793004899E+00    4.6853049971270657E+00    7.7565292960561454E+00
Ga    8.0440664735357839E+00    2.8300668980778045E+00    8.4002259172673135E+00
N    8.0418387417529065E+00    2.8282089308253351E+00    1.0394638522682490E+01
Ga    8.0711996023735377E+00    4.6866317953215466E+00    1.1040062246619113E+01
N    8.0858616919584012E+00    4.6940696932422741E+00    1.3033237790347105E+01
Ga    8.0413139690261453E+00    2.8258559430766650E+00    1.3592136916374004E+01
N    8.0676898849923688E+00    2.8024127196077515E+00    1.5550166041635544E+01
Ga    7.8788794305141856E+00    4.5768159917041817E+00    1.6468974412752527E+01
N    6.4392888034376270E+00    7.4675499802093599E+00    2.5621196887757729E+00
Ga    6.4055245090733663E+00    5.7269523976156576E+00    3.2337042264322098E+00
N    6.4377230715496099E+00    5.5970999547803881E+00    5.1970735625321955E+00
Ga    6.4440030888243234E+00    7.4611760141025840E+00    5.8256067170391903E+00
N    6.4459887771909719E+00    7.4613150469287053E+00    7.8074291031074177E+00
Ga    6.4542142976876349E+00    5.5973582081710251E+00    8.4155827286346074E+00
N    6.4507743718661477E+00    5.5963262844773736E+00    1.0407911334924821E+01
Ga    6.4487051532750561E+00    7.4645232776359478E+00    1.0997175870982870E+01
N    6.4435582778411975E+00    7.4640816608812965E+00    1.2970745693718211E+01
Ga    6.4443611074302529E+00    5.5900665504090492E+00    1.3590133745358598E+01
N    6.4374650953620334E+00    5.6267704698222865E+00    1.5548987750968637E+01
Ga    6.4444955635910794E+00    7.4593561050016257E+00    1.5825675745349391E+01
N    4.7294209340816655E+00    1.0178930720268278E+01    2.4861066342798126E+00
Ga    4.9165333956432962E+00    8.3114271697664712E+00    3.2563595989143468E+00
N    4.8344213370149118E+00    8.3904060165231744E+00    5.2167777937823505E+00
Ga    4.8611729779852597E+00    1.0257853195198622E+01    5.7621527750118027E+00
N    4.8498560972317453E+00    1.0256450877222729E+01    7.7621545592303329E+00
Ga    4.8324273868283116E+00    8.4009048446854759E+00    8.4117853706050969E+00
N    4.8313639705778897E+00    8.4004999313957622E+00    1.0408128648392426E+01
Ga    4.8536092802250712E+00    1.0258938721714609E+01    1.1034674517126989E+01
N    4.8689468056005660E+00    1.0268681156817326E+01    1.3034699011100916E+01
Ga    4.8243448043082369E+00    8.3977678329637406E+00    1.3578710666427659E+01
N    4.8419308247457336E+00    8.3872459389617475E+00    1.5557332984795124E+01
Ga    4.7174256571456068E+00    1.0179682719051632E+01    1.6400567603312105E+01
O    3.1935616801410105E+00    5.8201560096795655E+00    9.8976978416563458E-03
H    3.2339277664083372E+00    1.8992854253171783E+00    1.6109276846406191E+00
C    3.9145415887906174E+00    6.8524651549611848E+00   -5.6908070967671309E-01
H    3.4755456413486132E+00    7.8896805053141366E+00   -3.2124319195347256E-01
H    4.9702074879473628E+00    6.9178239228117508E+00   -2.4522297136502449E-01
H    3.8600148806505583E+00    6.7869964980412991E+00   -1.6685533496716938E+00
     &END COORD
     &KIND C
       BASIS_SET DZVP-MOLOPT-SR-GTH-q4
       POTENTIAL GTH-PBE-q4
       &POTENTIAL
 2 2
  0.3384712400000000E+00 2 -0.8803673979999999E+01  0.1339210850000000E+01
 2
  0.3025757500000000E+00 1  0.9622486650000001E+01
  0.2915069400000000E+00 0
         # Potential name:  GTH-PBE-Q4  for symbol:  C
         # Potential read from the potential filename: GTH_POTENTIALS
       &END POTENTIAL
     &END KIND
     &KIND O
       BASIS_SET DZVP-MOLOPT-SR-GTH-q6
       POTENTIAL GTH-PBE-q6
       &POTENTIAL
 2 4
  0.2445543000000000E+00 2 -0.1666721480000000E+02  0.2487311320000000E+01
 2
  0.2209559200000000E+00 1  0.1833745811000000E+02
  0.2113324700000000E+00 0
         # Potential name:  GTH-PBE-Q6  for symbol:  O
         # Potential read from the potential filename: GTH_POTENTIALS
       &END POTENTIAL
     &END KIND
     &KIND H
       BASIS_SET DZVP-MOLOPT-SR-GTH-q1
       POTENTIAL GTH-PBE-q1
       &POTENTIAL
 1
  0.2000000000000000E+00 2 -0.4178900440000000E+01  0.7244633100000000E+00
 0
         # Potential name:  GTH-PBE-Q1  for symbol:  H
         # Potential read from the potential filename: GTH_POTENTIALS
       &END POTENTIAL
     &END KIND
     &KIND N
       BASIS_SET DZVP-MOLOPT-SR-GTH
       POTENTIAL GTH-PBE-q5
       &POTENTIAL
 2 3
  0.2837905100000000E+00 2 -0.1241522559000000E+02  0.1868095920000000E+01
 2
  0.2554050000000000E+00 1  0.1363026257000000E+02
  0.2454945300000000E+00 0
         # Potential name:  GTH-PBE-Q5  for symbol:  N
         # Potential read from the potential filename: GTH_POTENTIALS
       &END POTENTIAL
     &END KIND
     &KIND Ga
       BASIS_SET DZVP-MOLOPT-SR-GTH
       POTENTIAL GTH-PBE-q13
       &POTENTIAL
 2 1 10
  0.4900000000000000E+00 0
 3
  0.4167772300000000E+00 3  0.1047568975000000E+02 -0.4921768140000000E+01  0.8707055900000000E+00
  0.7770178090000000E+01 -0.2248152160000000E+01
  0.1784415450000000E+01
  0.5696265200000000E+00 2  0.1777985340000000E+01  0.1958597600000000E+00
 -0.2317443900000000E+00
  0.2381265000000000E+00 1 -0.1624868022000000E+02
         # Potential name:  GTH-PBE-Q13  for symbol:  GA
         # Potential read from the potential filename: GTH_POTENTIALS
       &END POTENTIAL
     &END KIND
     &TOPOLOGY
       NUMBER_OF_ATOMS  206
       MULTIPLE_UNIT_CELL  1 1 1
     &END TOPOLOGY
   &END SUBSYS
 &END FORCE_EVAL
