 # Version information for this restart file 
 # current date 2019-06-24 17:51:57.497
 # current working dir /scratch/rzk/rzk/GaN-carbene/443-adatoms-both-2x2/03-DissMethanol/01-O-GaSur-H-NSur
 # Program compiled at                              Sun Apr  7 00:48:11 EDT 2019
 # Program compiled on                          beluga2.int.ets1.calculquebec.ca
 # Program compiled for                        Beluga-Linux-x86-64-intel-openmpi
 # Source code revision number                                         svn:18619
 &GLOBAL
   PRINT_LEVEL  MEDIUM
   PROJECT_NAME TEST
   RUN_TYPE  GEO_OPT
 &END GLOBAL
 &MOTION
   &GEO_OPT
     MAX_ITER  500
     STEP_START_VAL  26
   &END GEO_OPT
 &END MOTION
 &FORCE_EVAL
   METHOD  QS
   STRESS_TENSOR  ANALYTICAL
   &DFT
     BASIS_SET_FILE_NAME BASIS_MOLOPT
     POTENTIAL_FILE_NAME GTH_POTENTIALS
     UKS  T
     SURFACE_DIPOLE_CORRECTION  T
     SURF_DIP_DIR  Z
     &SCF
       MAX_SCF  80
       EPS_SCF     5.0000000000000004E-06
       &OT  T
         PRECONDITIONER  FULL_ALL
       &END OT
       &OUTER_SCF  T
         OPTIMIZER  NONE
         EPS_SCF     5.0000000000000004E-06
         MAX_SCF  4
       &END OUTER_SCF
       &PRINT
         &RESTART  OFF
           BACKUP_COPIES  1
           &EACH
             JUST_ENERGY  0
             QS_SCF  0
             MD  20
           &END EACH
         &END RESTART
       &END PRINT
     &END SCF
     &QS
       EPS_DEFAULT     1.0000000000000000E-14
       METHOD  GPW
     &END QS
     &MGRID
       NGRIDS  5
       CUTOFF     1.2000000000000000E+03
     &END MGRID
     &XC
       DENSITY_CUTOFF     1.0000000000000000E-10
       GRADIENT_CUTOFF     1.0000000000000000E-10
       TAU_CUTOFF     1.0000000000000000E-10
       &XC_FUNCTIONAL  NO_SHORTCUT
         &PBE  T
         &END PBE
       &END XC_FUNCTIONAL
       &VDW_POTENTIAL
         POTENTIAL_TYPE  PAIR_POTENTIAL
         &PAIR_POTENTIAL
           R_CUTOFF     1.0000000000000004E+01
           TYPE  DFTD3
           PARAMETER_FILE_NAME dftd3.dat
           REFERENCE_FUNCTIONAL PBE
           EPS_CN     9.9999999999999995E-07
           CALCULATE_C9_TERM  T
           REFERENCE_C9_TERM  T
           LONG_RANGE_CORRECTION  F
           VERBOSE_OUTPUT  F
         &END PAIR_POTENTIAL
       &END VDW_POTENTIAL
     &END XC
   &END DFT
   &SUBSYS
     &CELL
       A     1.2864472766435110E+01    0.0000000000000000E+00    0.0000000000000000E+00
       B    -6.4322363581020028E+00    1.1140960178524473E+01    0.0000000000000000E+00
       C     0.0000000000000000E+00    0.0000000000000000E+00    3.2000000000000000E+01
       MULTIPLE_UNIT_CELL  1 1 1
       &CELL_REF
         A     1.2982353780853531E+01    0.0000000000000000E+00    0.0000000000000000E+00
         B    -6.4911768904267628E+00    1.1243048175136114E+01    0.0000000000000000E+00
         C     0.0000000000000000E+00    0.0000000000000000E+00    3.2000000000000000E+01
         MULTIPLE_UNIT_CELL  1 1 1
       &END CELL_REF
     &END CELL
     &COORD
N    2.9409506155008432E-02    2.0397476035856941E+00    2.4763009384191137E+00
Ga    1.9587867849444694E-02    3.8085232177198891E-02    2.8302683496392809E+00
N    1.3863376623633310E-02    5.3311628416025610E-02    4.9840320807687100E+00
Ga    1.8647398688921291E-02    1.8767109317502413E+00    5.7628148232502197E+00
N    2.0345673004000978E-02    1.8943583069883771E+00    7.7573650540664350E+00
Ga    1.6492283951576300E-02    4.7791612630612587E-02    8.4047807596491246E+00
N    1.8233434456356945E-02    4.7972252054686450E-02    1.0381292444690120E+01
Ga    1.5837649790033374E-02    1.8858965019132086E+00    1.1035491161057132E+01
N    1.7857399033536291E-02    1.8674946453143493E+00    1.3029807909866317E+01
Ga    2.6777583984515751E-02    4.7957266347526915E-02    1.3823948832849670E+01
N    2.7622509769221155E-02    4.9202411367313854E-02    1.6035692137988125E+01
Ga    2.2377224700408926E-02    2.0876788374156043E+00    1.6440870494621802E+01
Ga   -3.4631733283251573E-02    3.7718740877551094E+00    1.4265707890922272E+00
N   -1.4814986446089662E+00    4.6331918926667690E+00    2.4861068114579434E+00
Ga   -1.6905582612699608E+00    2.7808570987939190E+00    3.2544497676300619E+00
N   -1.5889627459003524E+00    2.8340079750105862E+00    5.2146010112269545E+00
Ga   -1.6079432928243587E+00    4.7110544037765871E+00    5.7556721153908121E+00
N   -1.6003853397222494E+00    4.6979339810431302E+00    7.7557460187233831E+00
Ga   -1.5793625644227389E+00    2.8428751387773818E+00    8.3990950216856408E+00
N   -1.5786141786319470E+00    2.8404269342509307E+00    1.0394701411215095E+01
Ga   -1.6081714463406718E+00    4.6993431113955211E+00    1.1038225637964725E+01
N   -1.6238150678884762E+00    4.7082503331400734E+00    1.3034462509104419E+01
Ga   -1.5787437109357816E+00    2.8390243314981292E+00    1.3585736507423540E+01
N   -1.6017942951079918E+00    2.8192348856138083E+00    1.5552531804354365E+01
Ga   -1.4427553894602976E+00    4.6084535219800467E+00    1.6439616821003156E+01
N    8.3651003257596383E-03    3.7667289438215770E+00    1.7569138423078332E+01
N   -3.1987162194578524E+00    7.5988327765143522E+00    2.4819840920698701E+00
Ga   -3.1974712084041981E+00    5.6408901545092975E+00    2.8240627831675793E+00
N   -3.1976879159576170E+00    5.6157686732634842E+00    4.9797505769999866E+00
Ga   -3.1992304564574670E+00    7.4510168690206386E+00    5.7483100149914490E+00
N   -3.1992097378062483E+00    7.4646687700029215E+00    7.7516321446450291E+00
Ga   -3.1986297715980343E+00    5.6197014074866836E+00    8.4030468438481574E+00
N   -3.1981044668047134E+00    5.6179592994370005E+00    1.0380666788439965E+01
Ga   -3.1983283503690436E+00    7.4576282248606907E+00    1.1031453365622950E+01
N   -3.1975797800908747E+00    7.4381781673942839E+00    1.3028331585902295E+01
Ga   -3.2023216211851642E+00    5.6199342314135574E+00    1.3843906915628244E+01
N   -3.1999561533727769E+00    5.6204725730287786E+00    1.6036753434436925E+01
Ga   -3.1965722021418030E+00    7.6696498046506090E+00    1.6466336512569093E+01
Ga   -3.1968587277456813E+00    9.2952978038648215E+00    1.2824111539141545E+00
N   -4.7042516336732847E+00    1.0211982638009278E+01    2.4715080644737024E+00
Ga   -4.8939438872645971E+00    8.3575152187844370E+00    3.2175131351050159E+00
N   -4.8117780028813737E+00    8.4051774357722611E+00    5.1987902809406457E+00
Ga   -4.8383196587307333E+00    1.0271417389438481E+01    5.7584398857571539E+00
N   -4.8154079769697304E+00    1.0267402767563199E+01    7.7550389938347211E+00
Ga   -4.7988020018851749E+00    8.4062531529632398E+00    8.3920290620781710E+00
N   -4.7947775813468203E+00    8.4092315814835477E+00    1.0390160865775686E+01
Ga   -4.8200961929141961E+00    1.0266536509021241E+01    1.1029146144240887E+01
N   -4.8353573188695300E+00    1.0277469286919157E+01    1.3024080814393338E+01
Ga   -4.7920629919162003E+00    8.4108273692258955E+00    1.3589557381268010E+01
N   -4.8243336795842300E+00    8.3981805568459560E+00    1.5550299323448101E+01
Ga   -4.6239023837250803E+00    1.0157540103411549E+01    1.6467755175543804E+01
N   -3.1964927017307438E+00    9.3236636897067946E+00    1.7614134307044605E+01
N    3.2368753386531988E+00    1.9065709526822294E+00    2.6409820957242842E+00
Ga    3.2340844613851121E+00    4.8038366693633712E-02    3.2693862568508467E+00
N    3.2332934072700255E+00    6.7643063222572797E-02    5.2081513423920356E+00
Ga    3.2329585359860302E+00    1.9137556836742684E+00    5.8562367013708458E+00
N    3.2329981643675119E+00    1.9078831109827907E+00    7.8175759131343074E+00
Ga    3.2330755276606191E+00    3.5068140982342677E-02    8.4016941597159303E+00
N    3.2342164293418474E+00    3.4719249512377356E-02    1.0393885232188978E+01
Ga    3.2343934237013916E+00    1.9004342543161239E+00    1.1000886896087518E+01
N    3.2344770732055643E+00    1.9027817362545365E+00    1.2970221109573163E+01
Ga    3.2350537637496322E+00    3.2410773492100690E-02    1.3588881380999712E+01
N    3.2341089620119399E+00    6.6194232332874928E-02    1.5548100350700617E+01
Ga    3.2379187556865410E+00    1.9041122203711462E+00    1.5822214387449911E+01
N    1.5240838801015126E+00    4.6241610314088950E+00    2.3401463684983033E+00
Ga    1.6685380989831384E+00    2.8691486898658920E+00    3.2690044425490687E+00
N    1.6360263514465163E+00    2.8395526853977078E+00    5.1975300997970582E+00
Ga    1.6691276348465305E+00    4.7246854782971166E+00    5.8042359003782726E+00
N    1.6163662881439274E+00    4.6837463616560822E+00    7.8042686980126197E+00
Ga    1.6114596682006692E+00    2.8364462890277040E+00    8.4211706741298045E+00
N    1.6154557900525115E+00    2.8338663623653106E+00    1.0409708155143518E+01
Ga    1.6413756897435023E+00    4.7001243091542566E+00    1.1030390326667252E+01
N    1.6582989395457621E+00    4.7075539269808599E+00    1.3028353364497770E+01
Ga    1.6156606645392648E+00    2.8395049407579407E+00    1.3583475472555733E+01
N    1.6417541727225935E+00    2.8255829382599669E+00    1.5548056300217182E+01
Ga    1.4704532451298391E+00    4.5981958648414665E+00    1.6439921265055638E+01
N    2.1275762364985479E-02    7.4820569051104346E+00    2.5681809178584265E+00
Ga    6.1630726174855224E-02    5.7385108008226489E+00    3.2269678806630653E+00
N    2.9335147888465210E-02    5.6085591642121111E+00    5.1927888327586711E+00
Ga    2.5238010232077744E-02    7.4729542557214170E+00    5.8175558599638419E+00
N    1.9500046081919707E-02    7.4736864251754538E+00    7.8024458324294601E+00
Ga    1.0656233316154515E-02    5.6103003157936087E+00    8.4127773331102578E+00
N    1.2801141738786458E-02    5.6091105392570810E+00    1.0407347928767466E+01
Ga    1.3496838778737297E-02    7.4775562933027411E+00    1.0997263421990151E+01
N    1.8846516388851292E-02    7.4763856498221619E+00    1.2971535677535289E+01
Ga    1.8899559435166313E-02    5.6037763114109200E+00    1.3583868643095105E+01
N    2.5735512922686502E-02    5.6377910483111018E+00    1.5549478084571943E+01
Ga    1.7802065448503018E-02    7.4762254162055539E+00    1.5827695847612175E+01
N   -1.6920950058410278E+00    1.0212155121809056E+01    2.4726583410235214E+00
Ga   -1.5045033874632772E+00    8.3585003484912601E+00    3.2203287329414345E+00
N   -1.5867881730669959E+00    8.4053986201575928E+00    5.2008079078518694E+00
Ga   -1.5595556917629487E+00    1.0271476017182533E+01    5.7595629446818331E+00
N   -1.5827619795031262E+00    1.0267446536108546E+01    7.7558074091363070E+00
Ga   -1.5991077785607164E+00    8.4059363362204635E+00    8.3914187071132833E+00
N   -1.6018447081361256E+00    8.4095413099672047E+00    1.0390514609457174E+01
Ga   -1.5755289142941455E+00    1.0267100517480012E+01    1.1030947207792069E+01
N   -1.5586653056380650E+00    1.0278112677299914E+01    1.3026041210787326E+01
Ga   -1.6031175121151469E+00    8.4112844756883458E+00    1.3589701277423913E+01
N   -1.5685552610564955E+00    8.3964527042473645E+00    1.5549818903499634E+01
Ga   -1.7664941418720175E+00    1.0159300353447158E+01    1.6467768475749732E+01
N    6.4414748956158814E+00    2.0374924209435825E+00    2.4825187301246854E+00
Ga    6.4491724839446567E+00    3.7977171557679122E-02    2.8323214157119563E+00
N    6.4533375975070415E+00    5.2425813830953072E-02    4.9851818635181928E+00
Ga    6.4500804292497635E+00    1.8753299793674940E+00    5.7650751265863551E+00
N    6.4472227085846407E+00    1.8935662763353645E+00    7.7587926395047129E+00
Ga    6.4499061580064811E+00    4.7343170618322210E-02    8.4062162502739461E+00
N    6.4498697420529920E+00    4.7855401370623177E-02    1.0382318256425965E+01
Ga    6.4521411682533065E+00    1.8856904020441001E+00    1.1038448044693403E+01
N    6.4524609491845526E+00    1.8683917018149758E+00    1.3030100134306263E+01
Ga    6.4423285376764703E+00    5.3196282453138247E-02    1.3833542495660767E+01
N    6.4412886539589760E+00    5.2087541171555223E-02    1.6035931557641089E+01
Ga    6.4514053750683207E+00    2.1137230792765522E+00    1.6468906342458883E+01
Ga    6.4999686828192891E+00    3.7729302975694918E+00    1.4433276450049206E+00
N    4.9473817660178643E+00    4.6277232704007911E+00    2.3626598180641474E+00
Ga    4.8024746765166331E+00    2.8703873334590151E+00    3.2780714456260713E+00
N    4.8321142984282881E+00    2.8383115305885820E+00    5.2048040410057714E+00
Ga    4.7988361597751865E+00    4.7247245073595172E+00    5.8065935425232773E+00
N    4.8503238523405408E+00    4.6836193374004340E+00    7.8057040272150875E+00
Ga    4.8556735664447404E+00    2.8358330943052632E+00    8.4214556086366059E+00
N    4.8527882219534568E+00    2.8330034840692986E+00    1.0409301974364714E+01
Ga    4.8283844686468784E+00    4.6990656975302469E+00    1.1030941153084092E+01
N    4.8141428180599295E+00    4.7067222676456710E+00    1.3026267765036314E+01
Ga    4.8558997582072569E+00    2.8400552873402747E+00    1.3589558103594804E+01
N    4.8258786090533672E+00    2.8249290285078836E+00    1.5547979857107212E+01
Ga    5.0286267829850502E+00    4.5850252359008126E+00    1.6468491154542374E+01
N    6.4555224754339253E+00    3.7614015739057081E+00    1.7618676608294905E+01
N    3.2336317097055667E+00    7.6090094320472073E+00    2.3679124160851304E+00
Ga    3.2168047604832957E+00    5.6430083998847334E+00    1.8283113898596588E+00
N    3.2342187824448270E+00    5.6176189874515110E+00    5.2026290769166739E+00
Ga    3.2334764533709190E+00    7.4293115777184537E+00    5.7959271905135266E+00
N    3.2330660430443383E+00    7.4845877845127546E+00    7.8040380930739701E+00
Ga    3.2333783905454907E+00    5.6199356916030281E+00    8.3990055105264680E+00
N    3.2345088497906609E+00    5.6177509958499652E+00    1.0385820393600143E+01
Ga    3.2339615774786057E+00    7.4567221826530217E+00    1.1028765620567830E+01
N    3.2355576934952119E+00    7.4380855794989058E+00    1.3032132185215293E+01
Ga    3.2396618456402484E+00    5.6106699021617459E+00    1.3822054220550893E+01
N    3.2376048060778380E+00    5.6100692634248155E+00    1.6034716410102423E+01
Ga    3.2384715548394776E+00    7.6192093216016197E+00    1.6407016030700461E+01
Ga    3.2350899953826433E+00    9.3705606781596629E+00    1.4521757518248395E+00
N    1.7374209739176107E+00    1.0204631672512782E+01    2.4942093562045313E+00
Ga    1.5557032635767136E+00    8.3166349462643971E+00    3.2337630946902647E+00
N    1.6367319037697912E+00    8.4014888544221407E+00    5.2003118043017631E+00
Ga    1.6042359606185483E+00    1.0266294859357361E+01    5.7593266136966417E+00
N    1.6136779538254027E+00    1.0266254247886398E+01    7.7597732259309486E+00
Ga    1.6308749293716076E+00    8.4122618797958957E+00    8.4119855836387138E+00
N    1.6313917527582436E+00    8.4123118422549794E+00    1.0408542903491892E+01
Ga    1.6093919093793048E+00    1.0270666702035754E+01    1.1036027344668113E+01
N    1.5935696111829218E+00    1.0281470397738493E+01    1.3035851800158651E+01
Ga    1.6390366316229465E+00    8.4107000924293569E+00    1.3579586428565676E+01
N    1.6203569507003854E+00    8.3973269730660931E+00    1.5556034917438044E+01
Ga    1.7477325093802318E+00    1.0192963268657344E+01    1.6407889028997158E+01
N    3.2267608260342904E+00    9.3326073043224422E+00    1.7533716145259259E+01
N    9.6681323077490156E+00    1.9077425882234391E+00    2.5723716141237136E+00
Ga    9.6669860842845647E+00    1.6638781358582067E-01    3.2625950068384086E+00
N    9.6659689847563790E+00    5.4878088807420795E-02    5.2221673915789264E+00
Ga    9.6667808366149739E+00    1.9074839310228608E+00    5.8450461494854107E+00
N    9.6662368392280076E+00    1.9060575306959915E+00    7.8165071118044427E+00
Ga    9.6652571073024500E+00    3.4322964896580599E-02    8.3989446654798900E+00
N    9.6656035880998381E+00    3.4445507611986635E-02    1.0396286515545395E+01
Ga    9.6656221208695943E+00    1.9052461586968679E+00    1.0986629963626847E+01
N    9.6683911499592501E+00    1.9033307387194227E+00    1.2962323642904293E+01
Ga    9.6677817000394430E+00    3.7103906553177489E-02    1.3579548461347583E+01
N    9.6718916313160275E+00    5.9455325468789254E-02    1.5553981927796267E+01
Ga    9.6664564968830806E+00    1.9069563320083678E+00    1.5832147379300277E+01
N    7.9535159782776743E+00    4.6339268736049348E+00    2.4918260497402365E+00
Ga    8.1628023776854146E+00    2.7797820368203174E+00    3.2570399918530186E+00
N    8.0576521302427810E+00    2.8334359051622542E+00    5.2166230855677389E+00
Ga    8.0775824296993992E+00    4.7105161757336749E+00    5.7575761805084520E+00
N    8.0681452848138377E+00    4.6972387926171901E+00    7.7569297312888121E+00
Ga    8.0468407369231514E+00    2.8420804150843035E+00    8.4000944848809436E+00
N    8.0462157504943033E+00    2.8398929762935352E+00    1.0394582934171666E+01
Ga    8.0756423354652132E+00    4.6987731848200340E+00    1.1038242064505630E+01
N    8.0920333913035449E+00    4.7072784625991764E+00    1.3031257201426028E+01
Ga    8.0489063348476790E+00    2.8395029258402191E+00    1.3590383341038729E+01
N    8.0793356864708095E+00    2.8201756040340182E+00    1.5548005530433622E+01
Ga    7.8834622664845355E+00    4.5897560850226951E+00    1.6468710468163124E+01
N    6.4442617469132744E+00    7.4789503854336408E+00    2.5640903381599247E+00
Ga    6.4059678224461365E+00    5.7381194226148935E+00    3.2372440166716050E+00
N    6.4401963110646161E+00    5.6101509399693876E+00    5.2004374453756785E+00
Ga    6.4421559726682007E+00    7.4742204342914516E+00    5.8213389806101858E+00
N    6.4470726631364643E+00    7.4742587782090695E+00    7.8043246785659139E+00
Ga    6.4565871117121345E+00    5.6099382590796862E+00    8.4131246079868287E+00
N    6.4555494553433697E+00    5.6088752395509349E+00    1.0406073619722912E+01
Ga    6.4540385234202517E+00    7.4768343993228896E+00    1.0996711571659741E+01
N    6.4515943923757009E+00    7.4771912551962663E+00    1.2969426223807183E+01
Ga    6.4520335224736360E+00    5.6040924224015365E+00    1.3588529331054385E+01
N    6.4488753355421959E+00    5.6407965934718698E+00    1.5545754355322130E+01
Ga    6.4544782420773865E+00    7.4735359301787661E+00    1.5824000010206561E+01
N    4.7324644333355073E+00    1.0203444877594936E+01    2.4951730913973806E+00
Ga    4.9118396922578498E+00    8.3156902659957979E+00    3.2355705416100471E+00
N    4.8309550655983058E+00    8.4014109665134598E+00    5.2011748738078527E+00
Ga    4.8630674447026392E+00    1.0266856417736145E+01    5.7591798735362421E+00
N    4.8526199156337908E+00    1.0266430321285004E+01    7.7596950597205963E+00
Ga    4.8351481647715930E+00    8.4123078371729161E+00    8.4121267065078840E+00
N    4.8359405787014618E+00    8.4121002078332765E+00    1.0407736225147406E+01
Ga    4.8577230720100655E+00    1.0270432061009712E+01    1.1033212908025762E+01
N    4.8757564626996137E+00    1.0280616252152264E+01    1.3032412192157878E+01
Ga    4.8331074866880348E+00    8.4102490107142316E+00    1.3578176518994866E+01
N    4.8537268375518829E+00    8.4005278730891959E+00    1.5552161276023234E+01
Ga    4.7155493707251397E+00    1.0185467194387861E+01    1.6408908592884011E+01
O    3.2489504375026979E+00    5.5839876838043399E+00   -2.6619218627396635E-02
H    3.2407276342963658E+00    1.9094577150237990E+00    1.6147158241255195E+00
C    4.0641912015210409E+00    6.5388299703373418E+00   -6.9018511965976614E-01
H    3.4495009220805244E+00    7.3428922409666928E+00   -1.1432111677148491E+00
H    4.8181417425627489E+00    7.0201078566858657E+00   -3.6960922529629861E-02
H    4.6160111368382237E+00    6.0529245568656691E+00   -1.5137311906322146E+00
     &END COORD
     &KIND C
       BASIS_SET DZVP-MOLOPT-SR-GTH-q4
       POTENTIAL GTH-PBE-q4
       &POTENTIAL
 2 2
  0.3384712400000000E+00 2 -0.8803673979999999E+01  0.1339210850000000E+01
 2
  0.3025757500000000E+00 1  0.9622486650000001E+01
  0.2915069400000000E+00 0
         # Potential name:  GTH-PBE-Q4  for symbol:  C
         # Potential read from the potential filename: GTH_POTENTIALS
       &END POTENTIAL
     &END KIND
     &KIND O
       BASIS_SET DZVP-MOLOPT-SR-GTH-q6
       POTENTIAL GTH-PBE-q6
       &POTENTIAL
 2 4
  0.2445543000000000E+00 2 -0.1666721480000000E+02  0.2487311320000000E+01
 2
  0.2209559200000000E+00 1  0.1833745811000000E+02
  0.2113324700000000E+00 0
         # Potential name:  GTH-PBE-Q6  for symbol:  O
         # Potential read from the potential filename: GTH_POTENTIALS
       &END POTENTIAL
     &END KIND
     &KIND H
       BASIS_SET DZVP-MOLOPT-SR-GTH-q1
       POTENTIAL GTH-PBE-q1
       &POTENTIAL
 1
  0.2000000000000000E+00 2 -0.4178900440000000E+01  0.7244633100000000E+00
 0
         # Potential name:  GTH-PBE-Q1  for symbol:  H
         # Potential read from the potential filename: GTH_POTENTIALS
       &END POTENTIAL
     &END KIND
     &KIND N
       BASIS_SET DZVP-MOLOPT-SR-GTH
       POTENTIAL GTH-PBE-q5
       &POTENTIAL
 2 3
  0.2837905100000000E+00 2 -0.1241522559000000E+02  0.1868095920000000E+01
 2
  0.2554050000000000E+00 1  0.1363026257000000E+02
  0.2454945300000000E+00 0
         # Potential name:  GTH-PBE-Q5  for symbol:  N
         # Potential read from the potential filename: GTH_POTENTIALS
       &END POTENTIAL
     &END KIND
     &KIND Ga
       BASIS_SET DZVP-MOLOPT-SR-GTH
       POTENTIAL GTH-PBE-q13
       &POTENTIAL
 2 1 10
  0.4900000000000000E+00 0
 3
  0.4167772300000000E+00 3  0.1047568975000000E+02 -0.4921768140000000E+01  0.8707055900000000E+00
  0.7770178090000000E+01 -0.2248152160000000E+01
  0.1784415450000000E+01
  0.5696265200000000E+00 2  0.1777985340000000E+01  0.1958597600000000E+00
 -0.2317443900000000E+00
  0.2381265000000000E+00 1 -0.1624868022000000E+02
         # Potential name:  GTH-PBE-Q13  for symbol:  GA
         # Potential read from the potential filename: GTH_POTENTIALS
       &END POTENTIAL
     &END KIND
     &TOPOLOGY
       NUMBER_OF_ATOMS  206
       MULTIPLE_UNIT_CELL  1 1 1
     &END TOPOLOGY
   &END SUBSYS
 &END FORCE_EVAL
