 # Version information for this restart file 
 # current date 2019-06-24 16:11:26.393
 # current working dir /scratch/rzk/rzk/GaN-carbene/443-adatoms-both-2x2/03-DissMethanol/01-O-GaSur-H-NSur
 # Program compiled at                              Sun Apr  7 00:48:11 EDT 2019
 # Program compiled on                          beluga2.int.ets1.calculquebec.ca
 # Program compiled for                        Beluga-Linux-x86-64-intel-openmpi
 # Source code revision number                                         svn:18619
 &GLOBAL
   PRINT_LEVEL  MEDIUM
   PROJECT_NAME TEST
   RUN_TYPE  GEO_OPT
 &END GLOBAL
 &MOTION
   &GEO_OPT
     MAX_ITER  500
     STEP_START_VAL  6
   &END GEO_OPT
 &END MOTION
 &FORCE_EVAL
   METHOD  QS
   STRESS_TENSOR  ANALYTICAL
   &DFT
     BASIS_SET_FILE_NAME BASIS_MOLOPT
     POTENTIAL_FILE_NAME GTH_POTENTIALS
     UKS  T
     SURFACE_DIPOLE_CORRECTION  T
     SURF_DIP_DIR  Z
     &SCF
       MAX_SCF  80
       EPS_SCF     5.0000000000000004E-06
       &OT  T
         PRECONDITIONER  FULL_ALL
       &END OT
       &OUTER_SCF  T
         OPTIMIZER  NONE
         EPS_SCF     5.0000000000000004E-06
         MAX_SCF  4
       &END OUTER_SCF
       &PRINT
         &RESTART  OFF
           BACKUP_COPIES  1
           &EACH
             JUST_ENERGY  0
             QS_SCF  0
             MD  20
           &END EACH
         &END RESTART
       &END PRINT
     &END SCF
     &QS
       EPS_DEFAULT     1.0000000000000000E-14
       METHOD  GPW
     &END QS
     &MGRID
       NGRIDS  5
       CUTOFF     1.2000000000000000E+03
     &END MGRID
     &XC
       DENSITY_CUTOFF     1.0000000000000000E-10
       GRADIENT_CUTOFF     1.0000000000000000E-10
       TAU_CUTOFF     1.0000000000000000E-10
       &XC_FUNCTIONAL  NO_SHORTCUT
         &PBE  T
         &END PBE
       &END XC_FUNCTIONAL
       &VDW_POTENTIAL
         POTENTIAL_TYPE  PAIR_POTENTIAL
         &PAIR_POTENTIAL
           R_CUTOFF     1.0000000000000004E+01
           TYPE  DFTD3
           PARAMETER_FILE_NAME dftd3.dat
           REFERENCE_FUNCTIONAL PBE
           EPS_CN     9.9999999999999995E-07
           CALCULATE_C9_TERM  T
           REFERENCE_C9_TERM  T
           LONG_RANGE_CORRECTION  F
           VERBOSE_OUTPUT  F
         &END PAIR_POTENTIAL
       &END VDW_POTENTIAL
     &END XC
   &END DFT
   &SUBSYS
     &CELL
       A     1.2864472766435110E+01    0.0000000000000000E+00    0.0000000000000000E+00
       B    -6.4322363581020028E+00    1.1140960178524473E+01    0.0000000000000000E+00
       C     0.0000000000000000E+00    0.0000000000000000E+00    3.2000000000000000E+01
       MULTIPLE_UNIT_CELL  1 1 1
       &CELL_REF
         A     1.2982353780853531E+01    0.0000000000000000E+00    0.0000000000000000E+00
         B    -6.4911768904267628E+00    1.1243048175136114E+01    0.0000000000000000E+00
         C     0.0000000000000000E+00    0.0000000000000000E+00    3.2000000000000000E+01
         MULTIPLE_UNIT_CELL  1 1 1
       &END CELL_REF
     &END CELL
     &COORD
N    2.9119531682078086E-02    2.0344589256344032E+00    2.4706011135596118E+00
Ga    1.3385249171252596E-02    4.9745353441398847E-02    2.8163369852421716E+00
N    2.1659307517711807E-02    5.0604258908867293E-02    4.9762632076751627E+00
Ga    1.5321377709733748E-02    1.8753665040843464E+00    5.7668879021146342E+00
N    1.8563624195784896E-02    1.8928436339892378E+00    7.7517244996480494E+00
Ga    1.8976959985041061E-02    4.7627771640918332E-02    8.4091391329826912E+00
N    2.0371462341235134E-02    4.7249340885213272E-02    1.0376220496293199E+01
Ga    2.0090232740496355E-02    1.8875431036478689E+00    1.1029214262429010E+01
N    2.0867232693033436E-02    1.8682073899281881E+00    1.3018142316206944E+01
Ga    1.9243458350238624E-02    4.8253881140191614E-02    1.3832043910238045E+01
N    1.8756089430327732E-02    4.5703120837736651E-02    1.6019931491039337E+01
Ga    1.9708172122157499E-02    2.0986759551507075E+00    1.6436193060197514E+01
Ga   -6.9936886793455742E-03    3.7897603056702618E+00    1.4330707361013599E+00
N   -1.4812314649259468E+00    4.6310496997782735E+00    2.4790380348654333E+00
Ga   -1.6897146895961814E+00    2.7708573050478797E+00    3.2360401202250757E+00
N   -1.5882750270009267E+00    2.8305594308851818E+00    5.1966436159447191E+00
Ga   -1.6073498142742970E+00    4.7030375967705931E+00    5.7555731036549291E+00
N   -1.5982911907721118E+00    4.6932535027787692E+00    7.7468888949922139E+00
Ga   -1.5805888007528111E+00    2.8391522021716957E+00    8.3972048057760489E+00
N   -1.5785718358692651E+00    2.8386323096466133E+00    1.0384773110340086E+01
Ga   -1.6025559820208093E+00    4.6997073002902505E+00    1.1027059200429804E+01
N   -1.6188310847789076E+00    4.7091829393864781E+00    1.3016649231677793E+01
Ga   -1.5762039675398316E+00    2.8404400776070831E+00    1.3575935940395604E+01
N   -1.6083877188590883E+00    2.8215851179332527E+00    1.5532551861195682E+01
Ga   -1.4207448470772304E+00    4.5937417619903336E+00    1.6435555127757365E+01
N    1.4447665334972886E-02    3.7593030350450349E+00    1.7561690583841997E+01
N   -3.1977535585615802E+00    7.5927490805919016E+00    2.4729339491706299E+00
Ga   -3.1902078239270510E+00    5.6172332521553052E+00    2.8188703770674426E+00
N   -3.1940481789193149E+00    5.6167002666455152E+00    4.9703553599276002E+00
Ga   -3.1980809661790404E+00    7.4466345161059655E+00    5.7549232449429866E+00
N   -3.1975405419661351E+00    7.4647069970485109E+00    7.7476546615267079E+00
Ga   -3.1959460565852598E+00    5.6176126659114578E+00    8.4010450150658365E+00
N   -3.1963377608032162E+00    5.6182799449808396E+00    1.0371018512127172E+01
Ga   -3.1963053717912366E+00    7.4563095534591524E+00    1.1029552786337019E+01
N   -3.1951266443606747E+00    7.4388601998465242E+00    1.3018873381534306E+01
Ga   -3.1953793100446535E+00    5.6176719729465763E+00    1.3831383496149709E+01
N   -3.1973936495436921E+00    5.6181676003242691E+00    1.6019623192735033E+01
Ga   -3.1964878457993557E+00    7.6656490612160288E+00    1.6433720271453144E+01
Ga   -3.1941528331122484E+00    9.2929196872769317E+00    1.3791426371276456E+00
N   -4.6972470759430234E+00    1.0202147803846763E+01    2.4630975344683081E+00
Ga   -4.9079228809414266E+00    8.3460691916998577E+00    3.2280158011522611E+00
N   -4.8054868297333275E+00    8.4046954331150303E+00    5.1941404752353888E+00
Ga   -4.8364362783243706E+00    1.0270290724359324E+01    5.7646214983709667E+00
N   -4.8139291027651412E+00    1.0265451839523021E+01    7.7513681338891596E+00
Ga   -4.7960356060225946E+00    8.4064928363697096E+00    8.3994016179225586E+00
N   -4.7934530824595143E+00    8.4096510358581664E+00    1.0387096791062422E+01
Ga   -4.8200314145924770E+00    1.0268215746314429E+01    1.1032087427041562E+01
N   -4.8351320997252092E+00    1.0278757654016935E+01    1.3020519349681242E+01
Ga   -4.7939777788887454E+00    8.4087278019499330E+00    1.3575653666392784E+01
N   -4.8250159856821933E+00    8.3905730814530166E+00    1.5532571377061135E+01
Ga   -4.6387440936263875E+00    1.0163581894765386E+01    1.6434554827597168E+01
N   -3.2012971635056289E+00    9.3273696802536499E+00    1.7560111515968664E+01
N    3.2404500242807619E+00    1.9065771361450043E+00    2.6435529129417437E+00
Ga    3.2363610278644694E+00    6.7313250372343439E-02    3.2754131779983973E+00
N    3.2354775053489475E+00    5.6081515307620400E-02    5.2051246677281302E+00
Ga    3.2359181889205790E+00    1.9073786547950091E+00    5.8521080565795076E+00
N    3.2357251159482039E+00    1.9041553548829835E+00    7.8073840002378088E+00
Ga    3.2355523579353727E+00    3.6352078950996146E-02    8.4020316356496831E+00
N    3.2354901152582349E+00    3.4822464047206673E-02    1.0385954580365341E+01
Ga    3.2354071422272748E+00    1.9060764002134656E+00    1.0982911351508914E+01
N    3.2372439990726019E+00    1.9051366082185572E+00    1.2949058669076813E+01
Ga    3.2373375029449472E+00    3.6113839030719769E-02    1.3577280503846923E+01
N    3.2387100989620090E+00    7.1281298498182696E-02    1.5534339633782904E+01
Ga    3.2394192136934521E+00    1.9073921707160941E+00    1.5812253640129844E+01
N    1.5019103732288730E+00    4.6131567416161658E+00    2.4254088790537924E+00
Ga    1.6629756278257211E+00    2.8361726134112311E+00    3.2894464480192380E+00
N    1.6331382389235154E+00    2.8324927222470109E+00    5.2084746283742032E+00
Ga    1.6802289095875362E+00    4.7279247888115403E+00    5.7739758378901147E+00
N    1.6294501075649852E+00    4.6894619097094674E+00    7.7694485900082864E+00
Ga    1.6161084636789127E+00    2.8414101835285215E+00    8.4010213131213884E+00
N    1.6165150027884465E+00    2.8386052934522588E+00    1.0385734121679423E+01
Ga    1.6447642637866937E+00    4.7006075872296957E+00    1.1021705431986581E+01
N    1.6612193163445603E+00    4.7093816699835251E+00    1.3012994249354399E+01
Ga    1.6181942172537815E+00    2.8413843262337317E+00    1.3575611934015601E+01
N    1.6490116181224814E+00    2.8237469220117162E+00    1.5532856230870916E+01
Ga    1.4548414608692100E+00    4.5904649174101602E+00    1.6437594983554551E+01
N    2.3657294791348819E-02    7.4800555639398567E+00    2.5585378364645028E+00
Ga    4.5173307466720811E-02    5.7437023654068735E+00    3.2468685342877639E+00
N    2.5430909557837375E-02    5.6133978831199931E+00    5.2005630396058304E+00
Ga    2.0370708703261384E-02    7.4736108105168508E+00    5.8313080137086777E+00
N    1.7619234992036600E-02    7.4739225724302205E+00    7.8007007037182374E+00
Ga    2.0008502016767269E-02    5.6052972132798038E+00    8.3949639812074839E+00
N    1.9159267312794926E-02    5.6051715860782334E+00    1.0383885673806697E+01
Ga    2.0787666563582635E-02    7.4741422103703048E+00    1.0978102225765063E+01
N    2.0806216561639636E-02    7.4756353708824914E+00    1.2945760258908026E+01
Ga    2.1974306956501519E-02    5.6066928219483687E+00    1.3573953222302750E+01
N    2.2326233285875692E-02    5.6414273160111970E+00    1.5530999794776807E+01
Ga    2.4406928682486985E-02    7.4763543246101536E+00    1.5812707485419594E+01
N   -1.6947158851082744E+00    1.0201604523093152E+01    2.4652766059086262E+00
Ga   -1.4891398035433632E+00    8.3465275900056373E+00    3.2347926169641683E+00
N   -1.5907346296524414E+00    8.4051401659111420E+00    5.1989724514655853E+00
Ga   -1.5564356227173295E+00    1.0271164051019626E+01    5.7655325582080845E+00
N   -1.5789337341616159E+00    1.0266341976265977E+01    7.7520180113327664E+00
Ga   -1.5973931231544924E+00    8.4062235455416019E+00    8.3970096954151838E+00
N   -1.6002487800210783E+00    8.4097240398986663E+00    1.0384412114120275E+01
Ga   -1.5732684845191889E+00    1.0267776477236199E+01    1.1029955252886854E+01
N   -1.5555599639787485E+00    1.0278454960053903E+01    1.3018670434059922E+01
Ga   -1.5965970087011236E+00    8.4091350892303094E+00    1.3575977602340471E+01
N   -1.5661726957085342E+00    8.3927274267134759E+00    1.5533350046672547E+01
Ga   -1.7591803540560038E+00    1.0160412681300659E+01    1.6436289933302895E+01
N    6.4543825967908877E+00    2.0272044522629336E+00    2.4747201989308487E+00
Ga    6.4633626492328080E+00    4.5255932886330522E-02    2.8144865008387354E+00
N    6.4506102383952877E+00    4.9067561413453344E-02    4.9760741682715119E+00
Ga    6.4577590050455846E+00    1.8729888691943275E+00    5.7687598801755620E+00
N    6.4534506607166806E+00    1.8925390849218531E+00    7.7533721268861271E+00
Ga    6.4531817307989598E+00    4.7269447115520009E-02    8.4088875239976542E+00
N    6.4516197906029635E+00    4.7358171516938691E-02    1.0375954209024204E+01
Ga    6.4516762113368973E+00    1.8879583285953379E+00    1.1027238035942222E+01
N    6.4525716858503772E+00    1.8685682430237980E+00    1.3016265197224815E+01
Ga    6.4539325370542109E+00    4.7859399462264342E-02    1.3826613812361321E+01
N    6.4539092103984874E+00    4.7334271817071616E-02    1.6020355441644657E+01
Ga    6.4540996959344019E+00    2.0899088731501205E+00    1.6433991179513814E+01
Ga    6.4948536675201929E+00    3.7813145005512219E+00    1.4443707881357999E+00
N    4.9842457945716356E+00    4.6148294489473045E+00    2.4345316473803589E+00
Ga    4.8198470373121625E+00    2.8339956524379146E+00    3.2904942088772007E+00
N    4.8405838864380666E+00    2.8304461445034912E+00    5.2102402284599796E+00
Ga    4.7938322365779085E+00    4.7276515265606518E+00    5.7722250518471752E+00
N    4.8431871747040640E+00    4.6895990552283218E+00    7.7690783533164502E+00
Ga    4.8554809885465824E+00    2.8414896581636500E+00    8.4006450066642895E+00
N    4.8548087205464352E+00    2.8386980087145672E+00    1.0386090291437094E+01
Ga    4.8269320463108603E+00    4.7006898708238563E+00    1.1021491690169242E+01
N    4.8126311119549339E+00    4.7087463249785051E+00    1.3012797327248251E+01
Ga    4.8561630053457199E+00    2.8412364720147205E+00    1.3574027462532356E+01
N    4.8322640564249673E+00    2.8260965626978032E+00    1.5534337240716182E+01
Ga    5.0054039161254691E+00    4.5996741057693349E+00    1.6433876506159546E+01
N    6.4486498798214207E+00    3.7597123604959810E+00    1.7578532149808332E+01
N    3.2350775690404783E+00    7.6369201712441361E+00    2.4963394506196166E+00
Ga    3.2236373090102401E+00    5.6456414434686693E+00    2.1245086543963438E+00
N    3.2365113009316882E+00    5.6131237688095066E+00    5.0910888719586929E+00
Ga    3.2340524459103563E+00    7.4170811861464765E+00    5.7566073254460033E+00
N    3.2354145582553282E+00    7.4708144955003117E+00    7.7646426568907128E+00
Ga    3.2362449843538799E+00    5.6194484689654303E+00    8.3864548878838789E+00
N    3.2361507481798748E+00    5.6179645501063744E+00    1.0364970854569190E+01
Ga    3.2358950334236298E+00    7.4552747569684046E+00    1.1019004924030440E+01
N    3.2363583119826971E+00    7.4385537763573177E+00    1.3011276063634845E+01
Ga    3.2363584403995014E+00    5.6189624071690005E+00    1.3824724762098974E+01
N    3.2378950279342100E+00    5.6196754403287956E+00    1.6019627197093769E+01
Ga    3.2379247762314631E+00    7.6588270530958251E+00    1.6431012656557058E+01
Ga    3.2438112729264912E+00    9.3213169358559291E+00    1.4618759712984206E+00
N    1.7353276136944944E+00    1.0204369287942319E+01    2.4785997432813680E+00
Ga    1.5297941778010464E+00    8.3447389656675597E+00    3.2611917964300838E+00
N    1.6275969430179758E+00    8.4052275371109761E+00    5.2147257085644450E+00
Ga    1.6069890030224738E+00    1.0272249177525961E+01    5.7613330558049611E+00
N    1.6180189182553555E+00    1.0269017506575894E+01    7.7525874137366717E+00
Ga    1.6404093792358558E+00    8.4071100126686513E+00    8.3908301189958614E+00
N    1.6386440244454912E+00    8.4093932786290253E+00    1.0382471207867876E+01
Ga    1.6136096289299566E+00    1.0266116088229845E+01    1.1024822904143015E+01
N    1.5971869263266631E+00    1.0277550348392452E+01    1.3014803322536714E+01
Ga    1.6401771504601552E+00    8.4088293245734818E+00    1.3570900613124161E+01
N    1.6160018219512660E+00    8.3957538108890084E+00    1.5531048389230824E+01
Ga    1.7888304880385635E+00    1.0168706479232629E+01    1.6431340692030236E+01
N    3.2319034876198662E+00    9.3285740504800483E+00    1.7577918592075306E+01
N    9.6728745308206054E+00    1.9039726272031181E+00    2.5422545464657897E+00
Ga    9.6685348059474361E+00    1.6533969313983601E-01    3.2373626027032030E+00
N    9.6679111205427315E+00    5.0110539664261267E-02    5.2003044778079808E+00
Ga    9.6697594167847853E+00    1.9026237264472734E+00    5.8295990327584217E+00
N    9.6683957266468639E+00    1.9049385775778716E+00    7.7991809354468682E+00
Ga    9.6679499064737442E+00    3.7727331187492753E-02    8.3977904961635108E+00
N    9.6683639372044894E+00    3.6376690501944371E-02    1.0385604946329719E+01
Ga    9.6673921166788652E+00    1.9049113620202212E+00    1.0984509292660595E+01
N    9.6674984801489927E+00    1.9045561322195048E+00    1.2951308004207695E+01
Ga    9.6689159437146142E+00    3.3785670460756888E-02    1.3573006848124887E+01
N    9.6705399974851343E+00    6.4471046408168461E-02    1.5531620665936906E+01
Ga    9.6672782532192016E+00    1.9035634426370576E+00    1.5808056691447131E+01
N    7.9688167150056097E+00    4.6299697936745163E+00    2.4839356477733365E+00
Ga    8.1728856954934219E+00    2.7680979241204784E+00    3.2431983580320272E+00
N    8.0616088536397417E+00    2.8299178330130212E+00    5.2007087532535454E+00
Ga    8.0834174941071151E+00    4.7031905583727953E+00    5.7575368370050430E+00
N    8.0707542564933519E+00    4.6934084936904936E+00    7.7483809693447441E+00
Ga    8.0526562212240442E+00    2.8390288610181496E+00    8.3965430296594370E+00
N    8.0497687477147881E+00    2.8391780453322206E+00    1.0384068400309594E+01
Ga    8.0746981228583259E+00    4.6997943443789927E+00    1.1026325902654884E+01
N    8.0919380544435295E+00    4.7084781580801112E+00    1.3015616536234148E+01
Ga    8.0489277558128975E+00    2.8407655421148257E+00    1.3575510463696174E+01
N    8.0763046908910674E+00    2.8267213803442193E+00    1.5534364863629124E+01
Ga    7.8984179325435617E+00    4.5972366614304345E+00    1.6432648965162919E+01
N    6.4409735376665473E+00    7.4769459450430578E+00    2.5546476803142752E+00
Ga    6.4371215511302005E+00    5.7398085037681783E+00    3.2506415743463064E+00
N    6.4510126336950231E+00    5.6146027039785062E+00    5.2042180368415076E+00
Ga    6.4519068519058242E+00    7.4736360341311299E+00    5.8351914884342317E+00
N    6.4538394107863200E+00    7.4739620432543852E+00    7.8036686239974493E+00
Ga    6.4520562573460190E+00    5.6049364013082608E+00    8.3956002996823802E+00
N    6.4527119119917824E+00    5.6052294419418711E+00    1.0385283696607626E+01
Ga    6.4495750650661714E+00    7.4739655097132252E+00    1.0978767868947140E+01
N    6.4516543840220750E+00    7.4744387038270848E+00    1.2947285290266821E+01
Ga    6.4520844449200938E+00    5.6055578812098004E+00    1.3573256358554906E+01
N    6.4547714053503888E+00    5.6353011938015261E+00    1.5532197084246340E+01
Ga    6.4499958462507303E+00    7.4739118414998895E+00    1.5809105342701034E+01
N    4.7424055079021805E+00    1.0202795289926335E+01    2.4850449278215438E+00
Ga    4.9408326259681523E+00    8.3441557405248723E+00    3.2734510723809462E+00
N    4.8431430914953566E+00    8.4053783522413639E+00    5.2212719864100468E+00
Ga    4.8646781776673569E+00    1.0274750058251927E+01    5.7630098611507652E+00
N    4.8539071728443739E+00    1.0269606427717472E+01    7.7535328110991104E+00
Ga    4.8304254648906433E+00    8.4075173807418491E+00    8.3907272315410300E+00
N    4.8328957359014728E+00    8.4097504482984036E+00    1.0382884211835510E+01
Ga    4.8588402543022786E+00    1.0266418461220365E+01    1.1026017442846385E+01
N    4.8758682175271026E+00    1.0277739674110636E+01    1.3015621988877831E+01
Ga    4.8329125300989420E+00    8.4089715270425902E+00    1.3571826036247751E+01
N    4.8597550163252343E+00    8.3962753715514626E+00    1.5530623950880253E+01
Ga    4.6826696804310819E+00    1.0166155396249893E+01    1.6430372042963427E+01
O    3.1777041799091488E+00    5.6412442988351410E+00    2.8593381776617699E-01
H    3.2377452653757373E+00    1.9266810510845898E+00    1.6243065625927313E+00
C    3.9875145566344186E+00    6.5984265762320931E+00   -3.7202447969015923E-01
H    3.3461702746045674E+00    7.2491731216390498E+00   -9.8939734121969536E-01
H    4.5833822177563279E+00    7.2561607308695706E+00    2.9033929694427807E-01
H    4.7209399145724733E+00    6.0840417794366930E+00   -1.0116305838909527E+00
     &END COORD
     &KIND C
       BASIS_SET DZVP-MOLOPT-SR-GTH-q4
       POTENTIAL GTH-PBE-q4
       &POTENTIAL
 2 2
  0.3384712400000000E+00 2 -0.8803673979999999E+01  0.1339210850000000E+01
 2
  0.3025757500000000E+00 1  0.9622486650000001E+01
  0.2915069400000000E+00 0
         # Potential name:  GTH-PBE-Q4  for symbol:  C
         # Potential read from the potential filename: GTH_POTENTIALS
       &END POTENTIAL
     &END KIND
     &KIND O
       BASIS_SET DZVP-MOLOPT-SR-GTH-q6
       POTENTIAL GTH-PBE-q6
       &POTENTIAL
 2 4
  0.2445543000000000E+00 2 -0.1666721480000000E+02  0.2487311320000000E+01
 2
  0.2209559200000000E+00 1  0.1833745811000000E+02
  0.2113324700000000E+00 0
         # Potential name:  GTH-PBE-Q6  for symbol:  O
         # Potential read from the potential filename: GTH_POTENTIALS
       &END POTENTIAL
     &END KIND
     &KIND H
       BASIS_SET DZVP-MOLOPT-SR-GTH-q1
       POTENTIAL GTH-PBE-q1
       &POTENTIAL
 1
  0.2000000000000000E+00 2 -0.4178900440000000E+01  0.7244633100000000E+00
 0
         # Potential name:  GTH-PBE-Q1  for symbol:  H
         # Potential read from the potential filename: GTH_POTENTIALS
       &END POTENTIAL
     &END KIND
     &KIND N
       BASIS_SET DZVP-MOLOPT-SR-GTH
       POTENTIAL GTH-PBE-q5
       &POTENTIAL
 2 3
  0.2837905100000000E+00 2 -0.1241522559000000E+02  0.1868095920000000E+01
 2
  0.2554050000000000E+00 1  0.1363026257000000E+02
  0.2454945300000000E+00 0
         # Potential name:  GTH-PBE-Q5  for symbol:  N
         # Potential read from the potential filename: GTH_POTENTIALS
       &END POTENTIAL
     &END KIND
     &KIND Ga
       BASIS_SET DZVP-MOLOPT-SR-GTH
       POTENTIAL GTH-PBE-q13
       &POTENTIAL
 2 1 10
  0.4900000000000000E+00 0
 3
  0.4167772300000000E+00 3  0.1047568975000000E+02 -0.4921768140000000E+01  0.8707055900000000E+00
  0.7770178090000000E+01 -0.2248152160000000E+01
  0.1784415450000000E+01
  0.5696265200000000E+00 2  0.1777985340000000E+01  0.1958597600000000E+00
 -0.2317443900000000E+00
  0.2381265000000000E+00 1 -0.1624868022000000E+02
         # Potential name:  GTH-PBE-Q13  for symbol:  GA
         # Potential read from the potential filename: GTH_POTENTIALS
       &END POTENTIAL
     &END KIND
     &TOPOLOGY
       NUMBER_OF_ATOMS  206
       MULTIPLE_UNIT_CELL  1 1 1
     &END TOPOLOGY
   &END SUBSYS
 &END FORCE_EVAL
