 # Version information for this restart file 
 # current date 2019-06-24 21:47:21.661
 # current working dir /scratch/rzk/rzk/GaN-carbene/443-adatoms-both-2x2/03-DissMethanol/01-O-GaSur-H-NSur
 # Program compiled at                              Sun Apr  7 00:48:11 EDT 2019
 # Program compiled on                          beluga2.int.ets1.calculquebec.ca
 # Program compiled for                        Beluga-Linux-x86-64-intel-openmpi
 # Source code revision number                                         svn:18619
 &GLOBAL
   PRINT_LEVEL  MEDIUM
   PROJECT_NAME TEST
   RUN_TYPE  GEO_OPT
 &END GLOBAL
 &MOTION
   &GEO_OPT
     MAX_ITER  500
     STEP_START_VAL  88
   &END GEO_OPT
 &END MOTION
 &FORCE_EVAL
   METHOD  QS
   STRESS_TENSOR  ANALYTICAL
   &DFT
     BASIS_SET_FILE_NAME BASIS_MOLOPT
     POTENTIAL_FILE_NAME GTH_POTENTIALS
     UKS  T
     SURFACE_DIPOLE_CORRECTION  T
     SURF_DIP_DIR  Z
     &SCF
       MAX_SCF  80
       EPS_SCF     5.0000000000000004E-06
       &OT  T
         PRECONDITIONER  FULL_ALL
       &END OT
       &OUTER_SCF  T
         OPTIMIZER  NONE
         EPS_SCF     5.0000000000000004E-06
         MAX_SCF  4
       &END OUTER_SCF
       &PRINT
         &RESTART  OFF
           BACKUP_COPIES  1
           &EACH
             JUST_ENERGY  0
             QS_SCF  0
             MD  20
           &END EACH
         &END RESTART
       &END PRINT
     &END SCF
     &QS
       EPS_DEFAULT     1.0000000000000000E-14
       METHOD  GPW
     &END QS
     &MGRID
       NGRIDS  5
       CUTOFF     1.2000000000000000E+03
     &END MGRID
     &XC
       DENSITY_CUTOFF     1.0000000000000000E-10
       GRADIENT_CUTOFF     1.0000000000000000E-10
       TAU_CUTOFF     1.0000000000000000E-10
       &XC_FUNCTIONAL  NO_SHORTCUT
         &PBE  T
         &END PBE
       &END XC_FUNCTIONAL
       &VDW_POTENTIAL
         POTENTIAL_TYPE  PAIR_POTENTIAL
         &PAIR_POTENTIAL
           R_CUTOFF     1.0000000000000004E+01
           TYPE  DFTD3
           PARAMETER_FILE_NAME dftd3.dat
           REFERENCE_FUNCTIONAL PBE
           EPS_CN     9.9999999999999995E-07
           CALCULATE_C9_TERM  T
           REFERENCE_C9_TERM  T
           LONG_RANGE_CORRECTION  F
           VERBOSE_OUTPUT  F
         &END PAIR_POTENTIAL
       &END VDW_POTENTIAL
     &END XC
   &END DFT
   &SUBSYS
     &CELL
       A     1.2864472766435110E+01    0.0000000000000000E+00    0.0000000000000000E+00
       B    -6.4322363581020028E+00    1.1140960178524473E+01    0.0000000000000000E+00
       C     0.0000000000000000E+00    0.0000000000000000E+00    3.2000000000000000E+01
       MULTIPLE_UNIT_CELL  1 1 1
       &CELL_REF
         A     1.2982353780853531E+01    0.0000000000000000E+00    0.0000000000000000E+00
         B    -6.4911768904267628E+00    1.1243048175136114E+01    0.0000000000000000E+00
         C     0.0000000000000000E+00    0.0000000000000000E+00    3.2000000000000000E+01
         MULTIPLE_UNIT_CELL  1 1 1
       &END CELL_REF
     &END CELL
     &COORD
N    2.9167168440919947E-02    2.0263350007890026E+00    2.4776194605365540E+00
Ga    1.4013574109810174E-02    1.6662497733098958E-02    2.8240074438127172E+00
N    1.2145138840966047E-02    4.0369433819106910E-02    4.9822467728168878E+00
Ga    1.7200159734709154E-02    1.8624806603265718E+00    5.7639394045822909E+00
N    1.7847909829499704E-02    1.8820938269321656E+00    7.7577907909540347E+00
Ga    1.4631132709297843E-02    3.5697961017491946E-02    8.4058513878692800E+00
N    1.4114070579890978E-02    3.6354287328965118E-02    1.0381761136396333E+01
Ga    1.1151235045536384E-02    1.8747202997583481E+00    1.1036928938594242E+01
N    1.0600165382005651E-02    1.8557410196470150E+00    1.3028527450569873E+01
Ga    1.9511241849808413E-02    4.0232128806139945E-02    1.3824489953430286E+01
N    2.0655963420106609E-02    3.9778901875638775E-02    1.6035662619322682E+01
Ga    1.2059133851361051E-02    2.0993908452161998E+00    1.6467990488515255E+01
Ga   -3.7291760645687011E-02    3.7602811572902248E+00    1.4374674645583778E+00
N   -1.4818285621660447E+00    4.6189011835253790E+00    2.4930485313147321E+00
Ga   -1.6933629570459015E+00    2.7610818041433132E+00    3.2586174157654679E+00
N   -1.5909878138033056E+00    2.8201820165286673E+00    5.2167548298835085E+00
Ga   -1.6103567059336199E+00    4.6972712951439464E+00    5.7584425269594623E+00
N   -1.6035923120591222E+00    4.6851192056181663E+00    7.7572686721545310E+00
Ga   -1.5827135202567555E+00    2.8298692893164841E+00    8.4002042463288387E+00
N   -1.5834685051771256E+00    2.8276877422605744E+00    1.0394745200528316E+01
Ga   -1.6123023376640055E+00    4.6859785642694316E+00    1.1040172922524944E+01
N   -1.6296639923440450E+00    4.6936664843104428E+00    1.3033499331460792E+01
Ga   -1.5860196149115322E+00    2.8254389824501556E+00    1.3591215391688788E+01
N   -1.6144510074365250E+00    2.8020219196728107E+00    1.5550087281553218E+01
Ga   -1.4281108367180206E+00    4.5775433740152032E+00    1.6467428844194160E+01
N    4.5041535694589890E-03    3.7507719180365506E+00    1.7616100354246175E+01
N   -3.1999445451047168E+00    7.5829394065554432E+00    2.4778353551969015E+00
Ga   -3.1975957123293401E+00    5.6287899914633135E+00    2.8303147363292362E+00
N   -3.1994707574748649E+00    5.6027318607594720E+00    4.9810651115241846E+00
Ga   -3.2013271301428214E+00    7.4399570538782021E+00    5.7487632242613831E+00
N   -3.2021030264840475E+00    7.4525366894574407E+00    7.7521673336303207E+00
Ga   -3.2017595822082758E+00    5.6074380243409694E+00    8.4042885154196387E+00
N   -3.2024304239322752E+00    5.6052874948284197E+00    1.0381320190517227E+01
Ga   -3.2030885773671285E+00    7.4444170078593705E+00    1.1032930607823721E+01
N   -3.2044912393174934E+00    7.4235105056467781E+00    1.3030209140576323E+01
Ga   -3.2044216342951550E+00    5.6023002529947821E+00    1.3847025319635147E+01
N   -3.2058170501238750E+00    5.6015975951462353E+00    1.6038719569118175E+01
Ga   -3.2060026224699607E+00    7.6383476763300111E+00    1.6451040834588866E+01
Ga   -3.1957993495551444E+00    9.2760320190593593E+00    1.2659135670298505E+00
N   -4.7063898729301847E+00    1.0197089418475999E+01    2.4652827977022760E+00
Ga   -4.8943087430069383E+00    8.3439850341671544E+00    3.2114961287959849E+00
N   -4.8130604397702070E+00    8.3918148121776106E+00    5.1955428325907107E+00
Ga   -4.8394966023133765E+00    1.0258354095946871E+01    5.7558234397300296E+00
N   -4.8178441187425598E+00    1.0254805993551374E+01    7.7534526105694450E+00
Ga   -4.8008621084897598E+00    8.3943490817373831E+00    8.3940295700982013E+00
N   -4.7993472343334265E+00    8.3969701688857157E+00    1.0391837625388334E+01
Ga   -4.8251713054081291E+00    1.0254822553557362E+01    1.1029791580317868E+01
N   -4.8428433690247035E+00    1.0264564926725431E+01    1.3024905347780201E+01
Ga   -4.7996085764200016E+00    8.3972698608595131E+00    1.3587306952839402E+01
N   -4.8351047732389629E+00    8.3843866653014025E+00    1.5549577910294220E+01
Ga   -4.6432626536339674E+00    1.0149208413747731E+01    1.6452066311865750E+01
N   -3.2053750874797666E+00    9.3047628187827591E+00    1.7586743541098535E+01
N    3.2346282244400069E+00    1.8922058970012690E+00    2.6385081242054245E+00
Ga    3.2328158387890462E+00    2.9710276019908763E-02    3.2625731692115245E+00
N    3.2319053599644496E+00    5.4625715045731570E-02    5.2033392717763611E+00
Ga    3.2321681595684697E+00    1.8996352879837095E+00    5.8544257078309512E+00
N    3.2306845607299364E+00    1.8957601480916064E+00    7.8157107708033751E+00
Ga    3.2303560617348333E+00    2.2937220501574609E-02    8.4001950581240798E+00
N    3.2290798568641601E+00    2.2188875138004792E-02    1.0392220721392412E+01
Ga    3.2286281312250535E+00    1.8880236001455717E+00    1.1000200339650663E+01
N    3.2276368846761168E+00    1.8885736491267426E+00    1.2968109785757608E+01
Ga    3.2275375458997728E+00    2.0679860710008612E-02    1.3586998964758374E+01
N    3.2264965584357048E+00    5.0553179644813512E-02    1.5547502910067994E+01
Ga    3.2262664289818099E+00    1.8909016647635746E+00    1.5823389237640345E+01
N    1.5299515624004218E+00    4.6130742889514647E+00    2.3425988840510290E+00
Ga    1.6682494598595812E+00    2.8537807078022728E+00    3.2732768829651233E+00
N    1.6343496364804850E+00    2.8270573068546572E+00    5.1997753457554206E+00
Ga    1.6676599339779896E+00    4.7117986244122578E+00    5.8080864317567436E+00
N    1.6135337445948643E+00    4.6715693430070182E+00    7.8058845357436546E+00
Ga    1.6087974498095772E+00    2.8238825618903394E+00    8.4215635741078483E+00
N    1.6105907139681288E+00    2.8214026350786692E+00    1.0408747348075659E+01
Ga    1.6359098380251131E+00    4.6867268081981024E+00    1.1032725453783442E+01
N    1.6499384649821991E+00    4.6929158914836790E+00    1.3027831064984843E+01
Ga    1.6082638268077125E+00    2.8257428629878634E+00    1.3589180914415511E+01
N    1.6346387056180338E+00    2.8076717212644913E+00    1.5547488222616661E+01
Ga    1.4401607323918320E+00    4.5701095051564344E+00    1.6467270601401285E+01
N    2.3254164635252293E-02    7.4710580353664202E+00    2.5735418062043385E+00
Ga    6.0960098747375256E-02    5.7292955957840928E+00    3.2341111324666789E+00
N    2.7472867082403769E-02    5.5960452952084978E+00    5.1978440114743583E+00
Ga    1.9243921958941680E-02    7.4611580063668077E+00    5.8251953364491884E+00
N    1.4650010677905957E-02    7.4608290342896266E+00    7.8080807760458546E+00
Ga    7.1353013088005313E-03    5.5972232330671252E+00    8.4155251234801796E+00
N    8.0414445850782654E-03    5.5956130666718327E+00    1.0408152071006214E+01
Ga    9.1505213662682605E-03    7.4636980940440232E+00    1.0997111500524156E+01
N    1.2094390648954557E-02    7.4637517613923929E+00    1.2971102512634227E+01
Ga    1.1592291545149494E-02    5.5897794337465623E+00    1.3589504698939598E+01
N    1.5462106634780318E-02    5.6258031146985186E+00    1.5548956472138556E+01
Ga    9.5010344247204934E-03    7.4589202912293002E+00    1.5827034353462361E+01
N   -1.6916790878262333E+00    1.0197531101244039E+01    2.4669167426226406E+00
Ga   -1.5075357440390189E+00    8.3452818920644205E+00    3.2171315108647631E+00
N   -1.5897957445810942E+00    8.3928739843522795E+00    5.1997157561059213E+00
Ga   -1.5609646065350125E+00    1.0259417282180763E+01    5.7571901384822697E+00
N   -1.5854685483203677E+00    1.0255265465992217E+01    7.7544666685022792E+00
Ga   -1.6029977075038842E+00    8.3943868884712245E+00    8.3934573384661739E+00
N   -1.6068267954129605E+00    8.3969515343598395E+00    1.0391675885133099E+01
Ga   -1.5811140774049721E+00    1.0254813792834852E+01    1.1029837643324781E+01
N   -1.5660946271693275E+00    1.0264707048091797E+01    1.3025211370457196E+01
Ga   -1.6094333018479614E+00    8.3971989454758056E+00    1.3587504318389707E+01
N   -1.5765234753072017E+00    8.3845190483586585E+00    1.5549919591362627E+01
Ga   -1.7677950178470607E+00    1.0149566795165054E+01    1.6451928995760920E+01
N    6.4416745388800809E+00    2.0226567042432717E+00    2.4810266718314651E+00
Ga    6.4544446111654334E+00    1.5434031862657007E-02    2.8242764896798698E+00
N    6.4527245533390074E+00    3.9626245002290290E-02    4.9829976859666330E+00
Ga    6.4478728656854170E+00    1.8618855046327085E+00    5.7638838107073997E+00
N    6.4440622432586485E+00    1.8819113009813355E+00    7.7576690124349694E+00
Ga    6.4463976622852206E+00    3.5851640075051878E-02    8.4063340823294475E+00
N    6.4448043930878667E+00    3.5979824193041118E-02    1.0382273533167844E+01
Ga    6.4470911046481838E+00    1.8745066518973663E+00    1.1037151216703970E+01
N    6.4448271455169239E+00    1.8557383734163047E+00    1.3028915720602789E+01
Ga    6.4358633118548010E+00    4.0112493027740781E-02    1.3825908421825227E+01
N    6.4322564934097670E+00    3.9999520696201413E-02    1.6035712147528578E+01
Ga    6.4405049359247286E+00    2.1009232105448175E+00    1.6468993355892259E+01
Ga    6.5082856634359416E+00    3.7544584504379830E+00    1.4427071476318083E+00
N    4.9417478224069891E+00    4.6132032601090129E+00    2.3462807104341183E+00
Ga    4.8015453209542587E+00    2.8537510180522085E+00    3.2739453324877439E+00
N    4.8308172094125181E+00    2.8264352634648069E+00    5.2004905707278271E+00
Ga    4.7969470803148182E+00    4.7114929958972223E+00    5.8073469906394566E+00
N    4.8477531114123211E+00    4.6714205382845382E+00    7.8053444561892897E+00
Ga    4.8527860501512139E+00    2.8236306151224762E+00    8.4210523864270872E+00
N    4.8474852275125242E+00    2.8209308569270921E+00    1.0408503913018487E+01
Ga    4.8225200896075542E+00    4.6863585176842530E+00    1.1032581732058226E+01
N    4.8060679646490598E+00    4.6926984600202371E+00    1.3027749378260953E+01
Ga    4.8467824063822684E+00    2.8256052057246390E+00    1.3589855403033798E+01
N    4.8175324874266368E+00    2.8071200290436127E+00    1.5547296977526953E+01
Ga    5.0151714405417387E+00    4.5686429025559878E+00    1.6468429669569041E+01
N    6.4483713242196368E+00    3.7499045398408937E+00    1.7615613445027218E+01
N    3.2295130038021704E+00    7.5922672106264244E+00    2.4583059460866852E+00
Ga    3.2212160987822238E+00    5.6654601667730136E+00    1.9074967024875595E+00
N    3.2322976925865250E+00    5.6031425407503344E+00    5.1994369443810013E+00
Ga    3.2314382536491153E+00    7.4166681350153336E+00    5.7967564400862370E+00
N    3.2305044264855538E+00    7.4709728541956393E+00    7.8055058655113134E+00
Ga    3.2305919913747356E+00    5.6073872698096388E+00    8.4011016022633989E+00
N    3.2293301364217784E+00    5.6046510861829608E+00    1.0387030007677595E+01
Ga    3.2290665723821301E+00    7.4435826385831643E+00    1.1029289511986667E+01
N    3.2279511974707407E+00    7.4232817870775971E+00    1.3033406470170391E+01
Ga    3.2278773950641511E+00    5.5933162129967409E+00    1.3826062548935017E+01
N    3.2269845855595962E+00    5.5892844677174560E+00    1.6036064893303216E+01
Ga    3.2269666254312011E+00    7.5890859030141566E+00    1.6400355748372139E+01
Ga    3.2386526433158398E+00    9.3003010228691529E+00    1.4336424582058502E+00
N    1.7410041664110154E+00    1.0179034597327398E+01    2.4821601619569704E+00
Ga    1.5487484339193407E+00    8.3139797634196970E+00    3.2576052258393369E+00
N    1.6296047619610969E+00    8.3912688133103011E+00    5.2196331780622867E+00
Ga    1.6033713556717462E+00    1.0257591679079471E+01    5.7642297481931921E+00
N    1.6115431115252570E+00    1.0256099921303466E+01    7.7640027689436684E+00
Ga    1.6281140829602090E+00    8.4000014215533856E+00    8.4113969306404837E+00
N    1.6269182050566220E+00    8.3991915726667870E+00    1.0408158094589288E+01
Ga    1.6049357485329239E+00    1.0257614948083907E+01    1.1034044106469786E+01
N    1.5866246051779571E+00    1.0267283415819188E+01    1.3034317850237473E+01
Ga    1.6315348994490364E+00    8.3966481805155944E+00    1.3578788230347190E+01
N    1.6116645164694612E+00    8.3870616896053392E+00    1.5557358576148756E+01
Ga    1.7348821328142976E+00    1.0179316929938679E+01    1.6401087321094668E+01
N    3.2260801922162252E+00    9.3116345865202934E+00    1.7523479292694148E+01
N    9.6676463980805050E+00    1.8881817512863164E+00    2.5722964527881405E+00
Ga    9.6664615518172461E+00    1.3604334033132912E-01    3.2462583536474647E+00
N    9.6646221833197234E+00    3.9690381517812866E-02    5.2150241055724358E+00
Ga    9.6649797658005312E+00    1.8891112761701983E+00    5.8441565154836264E+00
N    9.6634371657295937E+00    1.8933390393884648E+00    7.8159940827725549E+00
Ga    9.6629026055655878E+00    2.3157350039157618E-02    8.4023018575222572E+00
N    9.6618385477695607E+00    2.2157096019980966E-02    1.0398242350761235E+01
Ga    9.6614587439447739E+00    1.8928017585261590E+00    1.0988792631991915E+01
N    9.6600010859007543E+00    1.8886125738246253E+00    1.2963606122967716E+01
Ga    9.6601004414570024E+00    2.3128108093559134E-02    1.3579719003964081E+01
N    9.6588348173259604E+00    4.1030397150895619E-02    1.5556925267769445E+01
Ga    9.6583479826930763E+00    1.8924811858827257E+00    1.5831804042367027E+01
N    7.9531445825613218E+00    4.6183028575210399E+00    2.4949023859381061E+00
Ga    8.1646614699446936E+00    2.7601060789335001E+00    3.2608539979873887E+00
N    8.0565206769321271E+00    2.8198677375048549E+00    5.2178015695644042E+00
Ga    8.0754910429941305E+00    4.6971360850466564E+00    5.7583810245237670E+00
N    8.0652201289370939E+00    4.6848240658848797E+00    7.7570571168370845E+00
Ga    8.0442666581469631E+00    2.8294612847883500E+00    8.3997676051526202E+00
N    8.0422766615529628E+00    2.8276285577216638E+00    1.0394526190868309E+01
Ga    8.0715468279864915E+00    4.6861483961651000E+00    1.1039984019718629E+01
N    8.0856498344879650E+00    4.6937599526868397E+00    1.3033528970907808E+01
Ga    8.0414082525350032E+00    2.8255086297093368E+00    1.3591725738234089E+01
N    8.0675355619196143E+00    2.8018785419430641E+00    1.5550063964011320E+01
Ga    7.8788299965276236E+00    4.5760992938589942E+00    1.6468770106253604E+01
N    6.4388074253280294E+00    7.4669068044977971E+00    2.5635283248356697E+00
Ga    6.4060615469874795E+00    5.7263632085184160E+00    3.2354753258123710E+00
N    6.4378275941772332E+00    5.5964896747762722E+00    5.1983222778248841E+00
Ga    6.4443907047601554E+00    7.4605387331722648E+00    5.8265271730848340E+00
N    6.4463562393780025E+00    7.4607065921504194E+00    7.8083459265447654E+00
Ga    6.4539802845563417E+00    5.5965500653489384E+00    8.4151130946313515E+00
N    6.4508342225438833E+00    5.5955197951260995E+00    1.0407811351525536E+01
Ga    6.4486069447013756E+00    7.4637259811927308E+00    1.0997158945019626E+01
N    6.4435900468478069E+00    7.4636114768038002E+00    1.2970943670295947E+01
Ga    6.4441290784069203E+00    5.5896433190296806E+00    1.3589822484265669E+01
N    6.4380346514778122E+00    5.6260480162750355E+00    1.5548604886892283E+01
Ga    6.4433266221291854E+00    7.4585137692648837E+00    1.5826782443839450E+01
N    4.7291441428568675E+00    1.0178015849816058E+01    2.4860101018364680E+00
Ga    4.9166689109275881E+00    8.3118851492118768E+00    3.2583975011147257E+00
N    4.8346580752186776E+00    8.3900177517985313E+00    5.2185914383381427E+00
Ga    4.8611789934243879E+00    1.0257466500159456E+01    5.7631653847998328E+00
N    4.8499206640951513E+00    1.0255663754855869E+01    7.7631893365186917E+00
Ga    4.8323948985317191E+00    8.3998214175859953E+00    8.4114801901662890E+00
N    4.8313995287970775E+00    8.3996043072867508E+00    1.0408057852655951E+01
Ga    4.8540634538905723E+00    1.0258086212950078E+01    1.1033929199037297E+01
N    4.8693031098347230E+00    1.0267377520488804E+01    1.3034165751519980E+01
Ga    4.8241549418504395E+00    8.3967652345900063E+00    1.3578504075223067E+01
N    4.8418006843706873E+00    8.3870299741048324E+00    1.5556852983170833E+01
Ga    4.7174183615915162E+00    1.0178533419310638E+01    1.6400994036495838E+01
O    3.1979519802659073E+00    5.8349067046265111E+00    1.7329652400542326E-02
H    3.2339963772413345E+00    1.8975594627662251E+00    1.6120931340146172E+00
C    3.9084461197231493E+00    6.8779831290913602E+00   -5.5482997898683661E-01
H    3.4614999565967177E+00    7.9119651520755605E+00   -2.9870386523318848E-01
H    4.9638368555976884E+00    6.9516704854379325E+00   -2.3224416713798249E-01
H    3.8528879847659119E+00    6.8231395494158287E+00   -1.6542275432888891E+00
     &END COORD
     &KIND C
       BASIS_SET DZVP-MOLOPT-SR-GTH-q4
       POTENTIAL GTH-PBE-q4
       &POTENTIAL
 2 2
  0.3384712400000000E+00 2 -0.8803673979999999E+01  0.1339210850000000E+01
 2
  0.3025757500000000E+00 1  0.9622486650000001E+01
  0.2915069400000000E+00 0
         # Potential name:  GTH-PBE-Q4  for symbol:  C
         # Potential read from the potential filename: GTH_POTENTIALS
       &END POTENTIAL
     &END KIND
     &KIND O
       BASIS_SET DZVP-MOLOPT-SR-GTH-q6
       POTENTIAL GTH-PBE-q6
       &POTENTIAL
 2 4
  0.2445543000000000E+00 2 -0.1666721480000000E+02  0.2487311320000000E+01
 2
  0.2209559200000000E+00 1  0.1833745811000000E+02
  0.2113324700000000E+00 0
         # Potential name:  GTH-PBE-Q6  for symbol:  O
         # Potential read from the potential filename: GTH_POTENTIALS
       &END POTENTIAL
     &END KIND
     &KIND H
       BASIS_SET DZVP-MOLOPT-SR-GTH-q1
       POTENTIAL GTH-PBE-q1
       &POTENTIAL
 1
  0.2000000000000000E+00 2 -0.4178900440000000E+01  0.7244633100000000E+00
 0
         # Potential name:  GTH-PBE-Q1  for symbol:  H
         # Potential read from the potential filename: GTH_POTENTIALS
       &END POTENTIAL
     &END KIND
     &KIND N
       BASIS_SET DZVP-MOLOPT-SR-GTH
       POTENTIAL GTH-PBE-q5
       &POTENTIAL
 2 3
  0.2837905100000000E+00 2 -0.1241522559000000E+02  0.1868095920000000E+01
 2
  0.2554050000000000E+00 1  0.1363026257000000E+02
  0.2454945300000000E+00 0
         # Potential name:  GTH-PBE-Q5  for symbol:  N
         # Potential read from the potential filename: GTH_POTENTIALS
       &END POTENTIAL
     &END KIND
     &KIND Ga
       BASIS_SET DZVP-MOLOPT-SR-GTH
       POTENTIAL GTH-PBE-q13
       &POTENTIAL
 2 1 10
  0.4900000000000000E+00 0
 3
  0.4167772300000000E+00 3  0.1047568975000000E+02 -0.4921768140000000E+01  0.8707055900000000E+00
  0.7770178090000000E+01 -0.2248152160000000E+01
  0.1784415450000000E+01
  0.5696265200000000E+00 2  0.1777985340000000E+01  0.1958597600000000E+00
 -0.2317443900000000E+00
  0.2381265000000000E+00 1 -0.1624868022000000E+02
         # Potential name:  GTH-PBE-Q13  for symbol:  GA
         # Potential read from the potential filename: GTH_POTENTIALS
       &END POTENTIAL
     &END KIND
     &TOPOLOGY
       NUMBER_OF_ATOMS  206
       MULTIPLE_UNIT_CELL  1 1 1
     &END TOPOLOGY
   &END SUBSYS
 &END FORCE_EVAL
