 # Version information for this restart file 
 # current date 2019-06-24 22:48:24.279
 # current working dir /scratch/rzk/rzk/GaN-carbene/443-adatoms-both-2x2/03-DissMethanol/01-O-GaSur-H-NSur
 # Program compiled at                              Sun Apr  7 00:48:11 EDT 2019
 # Program compiled on                          beluga2.int.ets1.calculquebec.ca
 # Program compiled for                        Beluga-Linux-x86-64-intel-openmpi
 # Source code revision number                                         svn:18619
 &GLOBAL
   PRINT_LEVEL  MEDIUM
   PROJECT_NAME TEST
   RUN_TYPE  GEO_OPT
 &END GLOBAL
 &MOTION
   &GEO_OPT
     MAX_ITER  500
     STEP_START_VAL  112
   &END GEO_OPT
 &END MOTION
 &FORCE_EVAL
   METHOD  QS
   STRESS_TENSOR  ANALYTICAL
   &DFT
     BASIS_SET_FILE_NAME BASIS_MOLOPT
     POTENTIAL_FILE_NAME GTH_POTENTIALS
     UKS  T
     SURFACE_DIPOLE_CORRECTION  T
     SURF_DIP_DIR  Z
     &SCF
       MAX_SCF  80
       EPS_SCF     5.0000000000000004E-06
       &OT  T
         PRECONDITIONER  FULL_ALL
       &END OT
       &OUTER_SCF  T
         OPTIMIZER  NONE
         EPS_SCF     5.0000000000000004E-06
         MAX_SCF  4
       &END OUTER_SCF
       &PRINT
         &RESTART  OFF
           BACKUP_COPIES  1
           &EACH
             JUST_ENERGY  0
             QS_SCF  0
             MD  20
           &END EACH
         &END RESTART
       &END PRINT
     &END SCF
     &QS
       EPS_DEFAULT     1.0000000000000000E-14
       METHOD  GPW
     &END QS
     &MGRID
       NGRIDS  5
       CUTOFF     1.2000000000000000E+03
     &END MGRID
     &XC
       DENSITY_CUTOFF     1.0000000000000000E-10
       GRADIENT_CUTOFF     1.0000000000000000E-10
       TAU_CUTOFF     1.0000000000000000E-10
       &XC_FUNCTIONAL  NO_SHORTCUT
         &PBE  T
         &END PBE
       &END XC_FUNCTIONAL
       &VDW_POTENTIAL
         POTENTIAL_TYPE  PAIR_POTENTIAL
         &PAIR_POTENTIAL
           R_CUTOFF     1.0000000000000004E+01
           TYPE  DFTD3
           PARAMETER_FILE_NAME dftd3.dat
           REFERENCE_FUNCTIONAL PBE
           EPS_CN     9.9999999999999995E-07
           CALCULATE_C9_TERM  T
           REFERENCE_C9_TERM  T
           LONG_RANGE_CORRECTION  F
           VERBOSE_OUTPUT  F
         &END PAIR_POTENTIAL
       &END VDW_POTENTIAL
     &END XC
   &END DFT
   &SUBSYS
     &CELL
       A     1.2864472766435110E+01    0.0000000000000000E+00    0.0000000000000000E+00
       B    -6.4322363581020028E+00    1.1140960178524473E+01    0.0000000000000000E+00
       C     0.0000000000000000E+00    0.0000000000000000E+00    3.2000000000000000E+01
       MULTIPLE_UNIT_CELL  1 1 1
       &CELL_REF
         A     1.2982353780853531E+01    0.0000000000000000E+00    0.0000000000000000E+00
         B    -6.4911768904267628E+00    1.1243048175136114E+01    0.0000000000000000E+00
         C     0.0000000000000000E+00    0.0000000000000000E+00    3.2000000000000000E+01
         MULTIPLE_UNIT_CELL  1 1 1
       &END CELL_REF
     &END CELL
     &COORD
N    2.7540707946942074E-02    2.0252752282354094E+00    2.4774758980484486E+00
Ga    1.2489898668690809E-02    1.4596938896943960E-02    2.8233441853249994E+00
N    1.0965314394820220E-02    3.8944226834605161E-02    4.9821339054976939E+00
Ga    1.6746974563046520E-02    1.8609368461180482E+00    5.7630676333695678E+00
N    1.7786243151559036E-02    1.8806597655507080E+00    7.7571941068029826E+00
Ga    1.4703069145121468E-02    3.4219126730329459E-02    8.4052466053176094E+00
N    1.4668293619046598E-02    3.5717778875283462E-02    1.0381641940410280E+01
Ga    1.1759969048403377E-02    1.8740036760094636E+00    1.1036260281734965E+01
N    1.2146589352968064E-02    1.8563057673578847E+00    1.3028867820859171E+01
Ga    2.1270896579859210E-02    3.9498211283470974E-02    1.3823997543674071E+01
N    2.2588499865216514E-02    4.0714242649543542E-02    1.6035964448990860E+01
Ga    1.5546044288694130E-02    2.0947267632388993E+00    1.6459550112549476E+01
Ga   -3.9377572024999086E-02    3.7583854713381073E+00    1.4376348185400443E+00
N   -1.4828351437402798E+00    4.6171053713903030E+00    2.4932696305973567E+00
Ga   -1.6949167659495505E+00    2.7597847680946925E+00    3.2588619829922658E+00
N   -1.5917045358015292E+00    2.8186349345856692E+00    5.2167946532299903E+00
Ga   -1.6110217732668997E+00    4.6958108278759800E+00    5.7573997655213640E+00
N   -1.6038612495333058E+00    4.6840311312500162E+00    7.7564255299631357E+00
Ga   -1.5826967853006759E+00    2.8287976923752725E+00    8.3992709935921948E+00
N   -1.5829747956580549E+00    2.8272349064998346E+00    1.0394446673628140E+01
Ga   -1.6120575904624586E+00    4.6859037032699726E+00    1.1038965324286579E+01
N   -1.6281274848062557E+00    4.6944378448099586E+00    1.3033549044613045E+01
Ga   -1.5844913638194096E+00    2.8260724862309718E+00    1.3589781486945618E+01
N   -1.6105703876371891E+00    2.8033506586864836E+00    1.5550508838865570E+01
Ga   -1.4321826317067630E+00    4.5832083621815318E+00    1.6458434002644211E+01
N    4.2396284002646353E-03    3.7535089366431671E+00    1.7600780673069643E+01
N   -3.2017531348980306E+00    7.5811425130415513E+00    2.4759987853466874E+00
Ga   -3.1990071135622227E+00    5.6276802592662207E+00    2.8287282781986365E+00
N   -3.2003425759380484E+00    5.6008978046562694E+00    4.9799062684347124E+00
Ga   -3.2022306709019830E+00    7.4387028657581089E+00    5.7463243675758262E+00
N   -3.2024633312007196E+00    7.4514012283312123E+00    7.7504832732607882E+00
Ga   -3.2020039813029664E+00    5.6068092122580131E+00    8.4029397580884826E+00
N   -3.2020558459519557E+00    5.6052492624824088E+00    1.0380534784739945E+01
Ga   -3.2025870249012192E+00    7.4446705729469329E+00    1.1031705623800297E+01
N   -3.2027831590121498E+00    7.4245308088044126E+00    1.3028955590901463E+01
Ga   -3.2041989622421649E+00    5.6042704715821543E+00    1.3844678900483828E+01
N   -3.2037492776627179E+00    5.6041449883586321E+00    1.6037733537923046E+01
Ga   -3.2031471035559305E+00    7.6449832920424665E+00    1.6455632963608792E+01
Ga   -3.1976584132741692E+00    9.2742608633209880E+00    1.2588205485547375E+00
N   -4.7085141388079199E+00    1.0195357898574649E+01    2.4647027454522514E+00
Ga   -4.8954399893984117E+00    8.3425577466273957E+00    3.2087103994848047E+00
N   -4.8143905649323262E+00    8.3898087297745043E+00    5.1938519395526628E+00
Ga   -4.8403529719386453E+00    1.0256182337995854E+01    5.7544914145945807E+00
N   -4.8181939412400778E+00    1.0253421998615215E+01    7.7525393748534723E+00
Ga   -4.8008664722627978E+00    8.3931644180707394E+00    8.3926602833122619E+00
N   -4.7989314137079457E+00    8.3966160107711882E+00    1.0390768032777563E+01
Ga   -4.8242208743445731E+00    1.0254279332109565E+01    1.1028980654164480E+01
N   -4.8410585634480139E+00    1.0265311445856115E+01    1.3024186167739174E+01
Ga   -4.7977489295978675E+00    8.3980886978686868E+00    1.3587664362205084E+01
N   -4.8319699016967315E+00    8.3861597326651189E+00    1.5549573936798817E+01
Ga   -4.6378394055855416E+00    1.0149630818277597E+01    1.6456714098133688E+01
N   -3.2038522365070050E+00    9.3075980592491128E+00    1.7594570322060665E+01
N    3.2335803145009092E+00    1.8887003572901324E+00    2.6377715531480912E+00
Ga    3.2315171128836870E+00    2.5769885982063805E-02    3.2614658093377145E+00
N    3.2310610192675462E+00    5.2483059752898693E-02    5.2029473096682199E+00
Ga    3.2312928365378695E+00    1.8973440214981927E+00    5.8535364838510056E+00
N    3.2305284908918521E+00    1.8941353404884234E+00    7.8150903013144069E+00
Ga    3.2302279429928182E+00    2.1189184683675980E-02    8.3991114635244042E+00
N    3.2297598513240824E+00    2.1826909322527038E-02    1.0391621294359519E+01
Ga    3.2295569333392637E+00    1.8873207261831031E+00    1.0999693227820577E+01
N    3.2290662033684900E+00    1.8896839523835145E+00    1.2968255436658483E+01
Ga    3.2295909794517406E+00    2.1028939404339926E-02    1.3587062953449628E+01
N    3.2289658154281971E+00    5.2543325533943405E-02    1.5546913389224237E+01
Ga    3.2297329482199437E+00    1.8922485002758584E+00    1.5821884867087899E+01
N    1.5288705655520272E+00    4.6110480793305095E+00    2.3410664286755640E+00
Ga    1.6679877412363222E+00    2.8512424859113801E+00    3.2711743822032124E+00
N    1.6338764054786097E+00    2.8252393720102278E+00    5.1981809506073500E+00
Ga    1.6665426091227351E+00    4.7096387003157059E+00    5.8073284824349720E+00
N    1.6134482772020076E+00    4.6701349673210526E+00    7.8053801733483299E+00
Ga    1.6087845355747334E+00    2.8222411100756526E+00    8.4208252835845379E+00
N    1.6113285580839798E+00    2.8207920411508072E+00    1.0408592138771091E+01
Ga    1.6366723883300558E+00    4.6864187200954754E+00    1.1031730747551343E+01
N    1.6515747111778987E+00    4.6937899002452266E+00    1.3027819975773053E+01
Ga    1.6100130371332870E+00    2.8265515405366179E+00    1.3587324980397916E+01
N    1.6370778784190987E+00    2.8100881269180848E+00    1.5546631823277860E+01
Ga    1.4478851540923605E+00    4.5742371565702680E+00    1.6458822360363698E+01
N    2.2290283968445027E-02    7.4693061871953317E+00    2.5735660004277894E+00
Ga    6.0039906911147821E-02    5.7278633271834858E+00    3.2335097653521547E+00
N    2.6898303259870419E-02    5.5943067027627089E+00    5.1970699868336805E+00
Ga    1.7868682223077428E-02    7.4593505085284377E+00    5.8244588222938836E+00
N    1.4291139108442798E-02    7.4596099723382574E+00    7.8074261764340891E+00
Ga    6.8960615643039198E-03    5.5962289709379549E+00    8.4146186522532904E+00
N    8.6206828726215334E-03    5.5953721247325037E+00    1.0407817959732006E+01
Ga    9.3889752161207332E-03    7.4639406612358403E+00    1.0996379338463615E+01
N    1.3665933291849454E-02    7.4640180258454745E+00    1.2970616097607969E+01
Ga    1.3320191518957317E-02    5.5908351944890127E+00    1.3588021772033448E+01
N    1.9200102501936888E-02    5.6265985326684378E+00    1.5549105277475332E+01
Ga    1.1568603148385825E-02    7.4609477948311884E+00    1.5826659183618551E+01
N   -1.6926476520843678E+00    1.0195577434365028E+01    2.4664282892719340E+00
Ga   -1.5098278651445718E+00    8.3436666381506210E+00    3.2143082021727767E+00
N   -1.5904173462891509E+00    8.3907727576460172E+00    5.1981986553764168E+00
Ga   -1.5618361613866922E+00    1.0257102469260548E+01    5.7559617072689075E+00
N   -1.5854940331845524E+00    1.0253923813344841E+01    7.7536353189359879E+00
Ga   -1.6035382474150615E+00    8.3931894997938770E+00    8.3921132068551927E+00
N   -1.6064030390674608E+00    8.3968189470365999E+00    1.0390700263581213E+01
Ga   -1.5804998577221345E+00    1.0254546754220993E+01    1.1029242253560643E+01
N   -1.5642931596762406E+00    1.0265434760129743E+01    1.3024493256445533E+01
Ga   -1.6078341950849839E+00    8.3982758352688602E+00    1.3587635414977496E+01
N   -1.5741384777958674E+00    8.3858960970470502E+00    1.5549270471390336E+01
Ga   -1.7681811958341167E+00    1.0149701038237758E+01    1.6456729292141301E+01
N    6.4402173092195580E+00    2.0217155630500492E+00    2.4809922737194521E+00
Ga    6.4525314743977473E+00    1.3236325178005895E-02    2.8239986227818612E+00
N    6.4519499937630789E+00    3.8264980814003903E-02    4.9830845887711854E+00
Ga    6.4469045226822059E+00    1.8603780154837348E+00    5.7633835483066305E+00
N    6.4437354695132001E+00    1.8805293960354894E+00    7.7573177244916183E+00
Ga    6.4459865479832912E+00    3.4449048902591782E-02    8.4060690568292955E+00
N    6.4453047544327378E+00    3.5606024026468945E-02    1.0382114103738445E+01
Ga    6.4477252808120502E+00    1.8740063080478826E+00    1.1036619368794705E+01
N    6.4466512001484011E+00    1.8562573130290221E+00    1.3028317196764874E+01
Ga    6.4371500414175022E+00    4.0869580426165245E-02    1.3826501929039036E+01
N    6.4351274306004775E+00    4.1441555739144292E-02    1.6035465799038331E+01
Ga    6.4434100806482792E+00    2.1021748467754193E+00    1.6468754404534202E+01
Ga    6.5066516151414104E+00    3.7523295181104426E+00    1.4434250192214251E+00
N    4.9391191211963186E+00    4.6112818791693639E+00    2.3445988504307045E+00
Ga    4.7991489715081057E+00    2.8514660367266900E+00    3.2727299082448575E+00
N    4.8297244875431566E+00    2.8247865316196266E+00    5.1995319981990216E+00
Ga    4.7964433499801675E+00    4.7096871222506032E+00    5.8068200639690595E+00
N    4.8475098634080442E+00    4.6701234715892177E+00    7.8049690819260800E+00
Ga    4.8525122443820523E+00    2.8220692508606784E+00    8.4204827264040851E+00
N    4.8480277142307955E+00    2.8203926266247037E+00    1.0408142792267510E+01
Ga    4.8234052044137279E+00    4.6859627675951705E+00    1.1031614591482475E+01
N    4.8075880862376072E+00    4.6935338081577358E+00    1.3026837439997612E+01
Ga    4.8491994333021795E+00    2.8265682911650432E+00    1.3588820202251021E+01
N    4.8202873275291571E+00    2.8097475915912908E+00    1.5546513084952466E+01
Ga    5.0174194524046802E+00    4.5709344473645563E+00    1.6468177617617336E+01
N    6.4503151199975655E+00    3.7521790312058698E+00    1.7619279778875828E+01
N    3.2273603861857496E+00    7.5908362982450619E+00    2.4620349736736871E+00
Ga    3.2189774023595845E+00    5.6662433242733616E+00    1.9070900207994124E+00
N    3.2313938446433532E+00    5.6018730729600481E+00    5.2006709407192746E+00
Ga    3.2304260882003275E+00    7.4160236151222376E+00    5.7961587099632474E+00
N    3.2301796792460653E+00    7.4698059436320978E+00    7.8052375767998718E+00
Ga    3.2304181740686619E+00    5.6063628899457241E+00    8.4005767026598228E+00
N    3.2299964578889870E+00    5.6044433076862719E+00    1.0386831840601541E+01
Ga    3.2296206869118658E+00    7.4436723575744486E+00    1.1028850499433160E+01
N    3.2293422725104102E+00    7.4241115713853985E+00    1.3033128949821952E+01
Ga    3.2304970846154757E+00    5.5949195704827455E+00    1.3824353403089544E+01
N    3.2295800827373542E+00    5.5926274715861153E+00    1.6035680913179835E+01
Ga    3.2299853655521820E+00    7.5943774730232469E+00    1.6401346382528367E+01
Ga    3.2358296316444468E+00    9.2976418885673713E+00    1.4337365622911211E+00
N    1.7393074278060452E+00    1.0177682283992496E+01    2.4826427597284724E+00
Ga    1.5465864139799643E+00    8.3130664669000165E+00    3.2588652812653707E+00
N    1.6280295914149074E+00    8.3899767362948463E+00    5.2204951991507826E+00
Ga    1.6026041302685252E+00    1.0256372118020604E+01    5.7640844491715955E+00
N    1.6112547769939534E+00    1.0255166069653287E+01    7.7639812862585753E+00
Ga    1.6276652061282393E+00    8.3990374788597961E+00    8.4108807719253260E+00
N    1.6273397513197334E+00    8.3991389026726058E+00    1.0408056545026930E+01
Ga    1.6052114772224815E+00    1.0257569283025447E+01    1.1034322572606358E+01
N    1.5881532028536725E+00    1.0268070485119450E+01    1.3034738560586373E+01
Ga    1.6330459831045072E+00    8.3974539354606481E+00    1.3578944849003621E+01
N    1.6139024532602266E+00    8.3867658096836379E+00    1.5557263827954902E+01
Ga    1.7377316614826483E+00    1.0180843014878626E+01    1.6401667619743861E+01
N    3.2257250659904981E+00    9.3157555492638267E+00    1.7523406328312213E+01
N    9.6661457067336869E+00    1.8869067976898026E+00    2.5728984134191424E+00
Ga    9.6647116170340919E+00    1.3450145213340933E-01    3.2464815439643884E+00
N    9.6635798076545569E+00    3.8671650677746215E-02    5.2154240495745290E+00
Ga    9.6641508839143420E+00    1.8879296905023069E+00    5.8439340679851046E+00
N    9.6631464790595558E+00    1.8922403421293470E+00    7.8159035160073582E+00
Ga    9.6626451216000806E+00    2.2024044790156235E-02    8.4023021877934276E+00
N    9.6620780956219505E+00    2.1935823845652277E-02    1.0398488628318487E+01
Ga    9.6616799887517644E+00    1.8926665789941963E+00    1.0988160734081774E+01
N    9.6620150844487700E+00    1.8897670266418327E+00    1.2963030212349739E+01
Ga    9.6616540471249337E+00    2.4226956867077758E-02    1.3579753962696421E+01
N    9.6627612646603573E+00    4.3947228695913353E-02    1.5556633455784890E+01
Ga    9.6606874720049927E+00    1.8943089883071413E+00    1.5830577514034784E+01
N    7.9507184421546215E+00    4.6167494857943883E+00    2.4944500739216422E+00
Ga    8.1632201874184389E+00    2.7589593736424995E+00    3.2606997232264967E+00
N    8.0555416001743545E+00    2.8185636125150082E+00    5.2177089193784392E+00
Ga    8.0745513357344052E+00    4.6959882249906943E+00    5.7572556907419417E+00
N    8.0648334806448201E+00    4.6839097574689301E+00    7.7561683161544481E+00
Ga    8.0439282634157578E+00    2.8285719544229839E+00    8.3989648502051502E+00
N    8.0425957545719182E+00    2.8272246453655718E+00    1.0393905375657946E+01
Ga    8.0719040726047613E+00    4.6859536796619548E+00    1.1038437005851025E+01
N    8.0869683161335164E+00    4.6943418028592232E+00    1.3031915432762627E+01
Ga    8.0431007468745772E+00    2.8262789539728153E+00    1.3590642753983284E+01
N    8.0703281673856537E+00    2.8043431670823864E+00    1.5548833166837722E+01
Ga    7.8811921933809090E+00    4.5777256367158756E+00    1.6468300405050556E+01
N    6.4361188029499283E+00    7.4659512896626650E+00    2.5624349861508757E+00
Ga    6.4037161518656518E+00    5.7256470366179828E+00    3.2339682836757957E+00
N    6.4366494289273497E+00    5.5950281104309569E+00    5.1969932364870726E+00
Ga    6.4436970496851700E+00    7.4590830475503500E+00    5.8254755119644850E+00
N    6.4460172654724266E+00    7.4596441147848953E+00    7.8075084554508933E+00
Ga    6.4538457860905911E+00    5.5958168152645094E+00    8.4144108272865648E+00
N    6.4511891753671646E+00    5.5954321371433986E+00    1.0407108960009746E+01
Ga    6.4492942385448346E+00    7.4637460709743033E+00    1.0996279330721942E+01
N    6.4452039941026849E+00    7.4643681897201288E+00    1.2970043685326903E+01
Ga    6.4458476634548854E+00    5.5905765247827164E+00    1.3588929629847316E+01
N    6.4406035718477339E+00    5.6270195941735075E+00    1.5547843526168990E+01
Ga    6.4468067171746490E+00    7.4600257303162349E+00    1.5825521702899206E+01
N    4.7268360349169036E+00    1.0176656410655726E+01    2.4858055435912925E+00
Ga    4.9148357995192447E+00    8.3113153175774297E+00    3.2589212274241728E+00
N    4.8338979889053046E+00    8.3889360867599052E+00    5.2190552639410246E+00
Ga    4.8601047441193392E+00    1.0256426684469535E+01    5.7628359685211068E+00
N    4.8495944348026034E+00    1.0254778552568320E+01    7.7630438547445966E+00
Ga    4.8322557239686859E+00    8.3989222944783322E+00    8.4108862641965789E+00
N    4.8318122117432427E+00    8.3993273260113277E+00    1.0407696834815509E+01
Ga    4.8544692388150636E+00    1.0257752151791637E+01    1.1033632129956359E+01
N    4.8704441868873332E+00    1.0268021917084290E+01    1.3033822674541936E+01
Ga    4.8259910607437870E+00    8.3973632947034798E+00    1.3578481849599793E+01
N    4.8451596399953063E+00    8.3879096538244280E+00    1.5556031809754645E+01
Ga    4.7178896669072357E+00    1.0178372062635701E+01    1.6402207363409566E+01
O    3.1956981254214680E+00    5.8475368422298324E+00    1.6329823477600050E-02
H    3.2340269538909636E+00    1.8918203516040837E+00    1.6113745128791832E+00
C    3.9039956690428737E+00    6.8925266042638142E+00   -5.5010199300786078E-01
H    3.4545801978579314E+00    7.9265180914973534E+00   -2.8893066434885600E-01
H    4.9588984300548589E+00    6.9674987111135041E+00   -2.2653513048441967E-01
H    3.8438338490030004E+00    6.8460892821694346E+00   -1.6501973728210895E+00
     &END COORD
     &KIND C
       BASIS_SET DZVP-MOLOPT-SR-GTH-q4
       POTENTIAL GTH-PBE-q4
       &POTENTIAL
 2 2
  0.3384712400000000E+00 2 -0.8803673979999999E+01  0.1339210850000000E+01
 2
  0.3025757500000000E+00 1  0.9622486650000001E+01
  0.2915069400000000E+00 0
         # Potential name:  GTH-PBE-Q4  for symbol:  C
         # Potential read from the potential filename: GTH_POTENTIALS
       &END POTENTIAL
     &END KIND
     &KIND O
       BASIS_SET DZVP-MOLOPT-SR-GTH-q6
       POTENTIAL GTH-PBE-q6
       &POTENTIAL
 2 4
  0.2445543000000000E+00 2 -0.1666721480000000E+02  0.2487311320000000E+01
 2
  0.2209559200000000E+00 1  0.1833745811000000E+02
  0.2113324700000000E+00 0
         # Potential name:  GTH-PBE-Q6  for symbol:  O
         # Potential read from the potential filename: GTH_POTENTIALS
       &END POTENTIAL
     &END KIND
     &KIND H
       BASIS_SET DZVP-MOLOPT-SR-GTH-q1
       POTENTIAL GTH-PBE-q1
       &POTENTIAL
 1
  0.2000000000000000E+00 2 -0.4178900440000000E+01  0.7244633100000000E+00
 0
         # Potential name:  GTH-PBE-Q1  for symbol:  H
         # Potential read from the potential filename: GTH_POTENTIALS
       &END POTENTIAL
     &END KIND
     &KIND N
       BASIS_SET DZVP-MOLOPT-SR-GTH
       POTENTIAL GTH-PBE-q5
       &POTENTIAL
 2 3
  0.2837905100000000E+00 2 -0.1241522559000000E+02  0.1868095920000000E+01
 2
  0.2554050000000000E+00 1  0.1363026257000000E+02
  0.2454945300000000E+00 0
         # Potential name:  GTH-PBE-Q5  for symbol:  N
         # Potential read from the potential filename: GTH_POTENTIALS
       &END POTENTIAL
     &END KIND
     &KIND Ga
       BASIS_SET DZVP-MOLOPT-SR-GTH
       POTENTIAL GTH-PBE-q13
       &POTENTIAL
 2 1 10
  0.4900000000000000E+00 0
 3
  0.4167772300000000E+00 3  0.1047568975000000E+02 -0.4921768140000000E+01  0.8707055900000000E+00
  0.7770178090000000E+01 -0.2248152160000000E+01
  0.1784415450000000E+01
  0.5696265200000000E+00 2  0.1777985340000000E+01  0.1958597600000000E+00
 -0.2317443900000000E+00
  0.2381265000000000E+00 1 -0.1624868022000000E+02
         # Potential name:  GTH-PBE-Q13  for symbol:  GA
         # Potential read from the potential filename: GTH_POTENTIALS
       &END POTENTIAL
     &END KIND
     &TOPOLOGY
       NUMBER_OF_ATOMS  206
       MULTIPLE_UNIT_CELL  1 1 1
     &END TOPOLOGY
   &END SUBSYS
 &END FORCE_EVAL
