 # Version information for this restart file 
 # current date 2019-05-16 15:35:27.798
 # current working dir /lustre03/project/6004141/rzk/GaN-carbene/00-Surface/00-Preoptimization/334-native/Trial4
 # Program compiled at                              Sun Apr  7 00:48:11 EDT 2019
 # Program compiled on                          beluga2.int.ets1.calculquebec.ca
 # Program compiled for                        Beluga-Linux-x86-64-intel-openmpi
 # Source code revision number                                         svn:18619
 &GLOBAL
   PRINT_LEVEL  MEDIUM
   PROJECT_NAME TEST
   RUN_TYPE  GEO_OPT
 &END GLOBAL
 &MOTION
   &GEO_OPT
     MAX_ITER 500
   &END GEO_OPT
 &END MOTION
 &FORCE_EVAL
   METHOD  QS
   STRESS_TENSOR  ANALYTICAL
   &DFT
     BASIS_SET_FILE_NAME BASIS_MOLOPT
     POTENTIAL_FILE_NAME GTH_POTENTIALS
     &SCF
       MAX_SCF  100
       EPS_SCF     5.0000000000000004E-06
       &OT  T
         PRECONDITIONER  FULL_ALL
       &END OT
       &OUTER_SCF  T
         OPTIMIZER  NONE
         EPS_SCF     5.0000000000000004E-06
         MAX_SCF  4
       &END OUTER_SCF
       &PRINT
         &RESTART  OFF
           BACKUP_COPIES  1
           &EACH
             JUST_ENERGY  0
             QS_SCF  0
             MD  20
           &END EACH
         &END RESTART
       &END PRINT
     &END SCF
     &QS
       EPS_DEFAULT     1.0000000000000000E-14
       ALMO_SCF  F
       METHOD  GPW
     &END QS
     &MGRID
       NGRIDS  5
       CUTOFF     1.2000000000000000E+03
     &END MGRID
     &XC
       DENSITY_CUTOFF     1.0000000000000000E-10
       GRADIENT_CUTOFF     1.0000000000000000E-10
       TAU_CUTOFF     1.0000000000000000E-10
       &XC_FUNCTIONAL  NO_SHORTCUT
         &PBE  T
         &END PBE
       &END XC_FUNCTIONAL
       &VDW_POTENTIAL
         POTENTIAL_TYPE  PAIR_POTENTIAL
         &PAIR_POTENTIAL
           R_CUTOFF     1.0000000000000004E+01
           TYPE  DFTD3
           PARAMETER_FILE_NAME dftd3.dat
           REFERENCE_FUNCTIONAL PBE
           EPS_CN     9.9999999999999995E-07
           CALCULATE_C9_TERM  T
           REFERENCE_C9_TERM  T
           LONG_RANGE_CORRECTION  F
           VERBOSE_OUTPUT  F
         &END PAIR_POTENTIAL
       &END VDW_POTENTIAL
     &END XC
   &END DFT
   &SUBSYS
     &CELL
       A     9.7367653356401487E+00    0.0000000000000000E+00    0.0000000000000000E+00
       B    -4.8591341382960209E+00    8.4162672083210595E+00    0.0000000000000000E+00
       C     0.0000000000000000E+00    0.0000000000000000E+00    3.0744000000000000E+01
       MULTIPLE_UNIT_CELL  1 1 1
       &CELL_REF
         A     9.5580000000000034E+00    0.0000000000000000E+00    0.0000000000000000E+00
         B    -4.7790000000000017E+00    8.2774708093716640E+00    0.0000000000000000E+00
         C     0.0000000000000000E+00    0.0000000000000000E+00    3.0744000000000000E+01
         MULTIPLE_UNIT_CELL  1 1 1
       &END CELL_REF
     &END CELL
     &COORD
 Ga        -0.0484182996       -0.0335180360       -0.5295334557
  N        -0.0457625811        1.8414528341        0.6222082088
 Ga        -0.0470854978        1.8094881790        2.6512540727
  N        -0.0501646835       -0.0334780805        3.2849695456
 Ga        -0.0507698104       -0.0306022551        5.2749710032
  N        -0.0481243627        1.8437418931        5.8646872274
 Ga        -0.0503468986        1.8440244421        7.8633566102
  N        -0.0533438931       -0.0294382067        8.4658313978
 Ga        -0.0545298802       -0.0259219346       10.4637543902
  N        -0.0518428120        1.8450445918       11.0698762731
 Ga        -0.0542055397        1.8456257206       13.0704249105
  N        -0.0574996158       -0.0323536123       13.6631430244
 Ga        -0.0581748299       -0.0158410608       15.6676378998
  N        -0.0558274745        1.8658226731       16.1724181815
 Ga        -0.0589269968        1.8721932128       18.2061734191
  N        -0.0605383456       -0.0053866230       18.6108488660
 Ga        -1.6684917780        2.7704867172        0.3391850575
  N        -1.6694269689        4.6412159075        0.6232213365
 Ga        -1.6427048374        4.6572550176        2.6535877210
  N        -1.6698386867        2.7716419549        3.2441801359
 Ga        -1.6704691911        2.7738164528        5.2536131714
  N        -1.6706156032        4.6442192759        5.8626438472
 Ga        -1.6713763839        4.6460169565        7.8600361659
  N        -1.6730422971        2.7766898872        8.4694786007
 Ga        -1.6739338687        2.7791334065       10.4660378994
  N        -1.6719539783        4.6549606379       11.0666946644
 Ga        -1.6731045523        4.6553617216       13.0604823920
  N        -1.6845085209        2.7865987088       13.6486713619
 Ga        -1.6818606961        2.7883582323       15.6439770932
  N        -1.6843838590        4.6646779950       16.2676992561
 Ga        -1.6320908897        4.6552722410       18.2989206851
  N        -1.6940962351        2.7898624118       18.6751658566
 Ga        -3.2894252712        5.5770799371        0.3394029727
  N        -3.2813317510        7.4468678487        0.6221552406
 Ga        -3.3110864956        7.4632964084        2.6512116616
  N        -3.2896607805        5.5775045971        3.2438159551
 Ga        -3.2903561846        5.5798808529        5.2532148433
  N        -3.2848819439        7.4503865867        5.8628488130
 Ga        -3.2885247574        7.4530761306        7.8604372020
  N        -3.2926805138        5.5818688051        8.4633131488
 Ga        -3.2930587072        5.5856236462       10.4559668189
  N        -3.2909566935        7.4538938808       11.0685018271
 Ga        -3.2946837848        7.4571661213       13.0634899352
  N        -3.3042087785        5.5813137682       13.6803907020
 Ga        -3.3133336906        5.5797133476       15.6699983633
  N        -3.2882735802        7.4490478957       16.2641380008
 Ga        -3.2723722655        7.5122297242       18.2914128286
  N        -3.2711965448        5.6194180735       18.8534627073
 Ga         3.1969115293       -0.0337577195        0.3390160896
  N         3.1954127447        1.8354807765        0.6221222141
 Ga         3.2233595169        1.8522575526        2.6506860148
  N         3.1954813424       -0.0331639748        3.2439755993
 Ga         3.1946780571       -0.0304256202        5.2532016970
  N         3.1945177605        1.8390149497        5.8637804198
 Ga         3.1929144448        1.8408992714        7.8615483229
  N         3.1925606151       -0.0297595627        8.4682015592
 Ga         3.1920798366       -0.0278537167       10.4637620310
  N         3.1963703227        1.8443332205       11.0659618697
 Ga         3.1923699069        1.8439993988       13.0604481273
  N         3.1872260429       -0.0277759609       13.6703490507
 Ga         3.2065379031       -0.0303066696       15.6738682866
  N         3.2046688906        1.8509679361       16.2362934657
 Ga         3.1490544468        1.8035254421       18.2421989028
  N         3.1892488036       -0.0105667750       18.7774357550
 Ga         1.5769934731        2.7709336178        0.3390913941
  N         1.5831074440        4.6417158362        0.6233416390
 Ga         1.5544027985        4.6574020414        2.6534920924
  N         1.5759495570        2.7716664443        3.2441551456
 Ga         1.5751491337        2.7737979319        5.2535942803
  N         1.5804344290        4.6441818580        5.8625938135
 Ga         1.5770905219        4.6460432687        7.8599925954
  N         1.5727817639        2.7766321145        8.4694966880
 Ga         1.5713535016        2.7790456948       10.4660930591
  N         1.5743882694        4.6547827187       11.0667560270
 Ga         1.5710874781        4.6551798679       13.0605814160
  N         1.5763137286        2.7866757069       13.6494629832
 Ga         1.5720625384        2.7875654945       15.6453994640
  N         1.5791912611        4.6646748846       16.2705564273
 Ga         1.5229474174        4.6555948750       18.3027112975
  N         1.5775200910        2.7891655295       18.6728919930
 Ga        -0.0422253980        5.5772996241       -0.5111204318
  N        -0.0396057862        7.4512600605        0.6233629406
 Ga        -0.0409601656        7.4208886729        2.6536223459
  N        -0.0439901564        5.5773613613        3.2858148996
 Ga        -0.0446433123        5.5798084316        5.2758347129
  N        -0.0420261912        7.4551160453        5.8626655244
 Ga        -0.0440395590        7.4553810478        7.8599522523
  N        -0.0470163679        5.5821028390        8.4623797973
 Ga        -0.0481864499        5.5859256984       10.4581520103
  N        -0.0457197095        7.4542629818       11.0727509772
 Ga        -0.0476137013        7.4534209444       13.0693391530
  N        -0.0507279581        5.5803185365       13.6842623723
 Ga        -0.0526478515        5.6063272935       15.6919570031
  N        -0.0499900061        7.4600658751       16.3135761000
 Ga        -0.0509765044        7.4650895125       18.4170833493
  N        -0.0552758079        5.5977244087       18.7723164552
 Ga         6.4421200438       -0.0331968952        0.3391136863
  N         6.4488993247        1.8360858205        0.6224204611
 Ga         6.4189323116        1.8524985024        2.6507867466
  N         6.4411779705       -0.0330984695        3.2439626553
 Ga         6.4404433842       -0.0304165187        5.2531838379
  N         6.4458825056        1.8390827301        5.8637502756
 Ga         6.4434809971        1.8408732276        7.8615440540
  N         6.4377718160       -0.0297784006        8.4679421445
 Ga         6.4356042902       -0.0282441499       10.4633495010
  N         6.4366156601        1.8440509783       11.0653178107
 Ga         6.4365331458        1.8434015285       13.0594482366
  N         6.4356944588       -0.0278346075       13.6712464435
 Ga         6.4136647186       -0.0309591905       15.6751104419
  N         6.4237132606        1.8501614736       16.2376031263
 Ga         6.4722203802        1.8023606619       18.2440939863
  N         6.4260816172       -0.0115232185       18.7784241152
 Ga         4.8232551064        2.7707102438       -0.5375037532
  N         4.8257052992        4.6460116493        0.6221857632
 Ga         4.8243600709        4.6141942613        2.6509571903
  N         4.8212666111        2.7715972463        3.2854294566
 Ga         4.8205603982        2.7738394733        5.2753182151
  N         4.8232812424        4.6490103044        5.8615217842
 Ga         4.8211789227        4.6494551944        7.8583578666
  N         4.8182823687        2.7762982862        8.4607239127
 Ga         4.8167414049        2.7771734898       10.4553570498
  N         4.8195332077        4.6509736537       11.0584891841
 Ga         4.8175883688        4.6533732247       13.0451923661
  N         4.8151861899        2.7896780539       13.6659811777
 Ga         4.8138429124        2.7995385443       15.6507947850
  N         4.8162105424        4.6544876092       16.3387149117
 Ga         4.8146325093        4.6619606123       18.3527940157
  N         4.8111694641        2.7427284908       18.8790404264
 Ga         3.2040465611        5.5765798129        0.3394375609
  N         3.2011056745        7.4463224856        0.6220317609
 Ga         3.2289617267        7.4630942214        2.6512439812
  N         3.2018808517        5.5774409796        3.2437473101
 Ga         3.2010669755        5.5797831075        5.2531345378
  N         3.2008915552        7.4503605536        5.8627057297
 Ga         3.2001267502        7.4530455544        7.8602626808
  N         3.1985408356        5.5818750992        8.4632318294
 Ga         3.1961992759        5.5853540514       10.4558739821
  N         3.1993546051        7.4536067671       11.0684803699
 Ga         3.1985137371        7.4567781253       13.0634402198
  N         3.2023591648        5.5807382588       13.6810742862
 Ga         3.2092805720        5.5789530713       15.6709707565
  N         3.1893738567        7.4485409645       16.2652381353
 Ga         3.1696923092        7.5120711082       18.2929471098
  N         3.1622161796        5.6190917586       18.8544163819
  H         5.7044233954        2.3471340512       20.7725563123
  H         3.9516151241        2.3269345049       20.7864763367
  C         4.8170882418        2.9025245608       20.3493458122
  O         4.8097084318        4.1867762102       20.7323674384
     &END COORD

     &KIND C
       BASIS_SET DZVP-MOLOPT-SR-GTH-q4
       POTENTIAL GTH-PBE-q4
     &END KIND

     &KIND O
       BASIS_SET DZVP-MOLOPT-SR-GTH-q6
       POTENTIAL GTH-PBE-q6
     &END KIND

     &KIND H
       BASIS_SET DZVP-MOLOPT-SR-GTH-q1
       POTENTIAL GTH-PBE-q1
     &END KIND

     &KIND N
       BASIS_SET DZVP-MOLOPT-SR-GTH-q5
       POTENTIAL GTH-PBE-q5
     &END KIND

     &KIND Ga
       BASIS_SET DZVP-MOLOPT-SR-GTH-q13
       POTENTIAL GTH-PBE-q13
     &END KIND

     &TOPOLOGY
       MULTIPLE_UNIT_CELL  1 1 1
     &END TOPOLOGY
   &END SUBSYS
 &END FORCE_EVAL
