 # Version information for this restart file 
 # current date 2019-05-27 10:25:36.875
 # current working dir /lustre03/project/6004141/rzk/GaN-carbene/06-Formaldehyde/01-H2OC-Nsur
 # Program compiled at                              Sun Apr  7 00:48:11 EDT 2019
 # Program compiled on                          beluga2.int.ets1.calculquebec.ca
 # Program compiled for                        Beluga-Linux-x86-64-intel-openmpi
 # Source code revision number                                         svn:18619
 &GLOBAL
   PRINT_LEVEL  MEDIUM
   PROJECT_NAME TEST
   RUN_TYPE  GEO_OPT
 &END GLOBAL
 &MOTION
   &GEO_OPT
     MAX_ITER  500
     STEP_START_VAL  86
   &END GEO_OPT
 &END MOTION
 &FORCE_EVAL
   METHOD  QS
   STRESS_TENSOR  ANALYTICAL
   &DFT
     BASIS_SET_FILE_NAME BASIS_MOLOPT
     POTENTIAL_FILE_NAME GTH_POTENTIALS
     &SCF
       MAX_SCF  100
       EPS_SCF     5.0000000000000004E-06
       &OT  T
         PRECONDITIONER  FULL_ALL
       &END OT
       &OUTER_SCF  T
         OPTIMIZER  NONE
         EPS_SCF     5.0000000000000004E-06
         MAX_SCF  4
       &END OUTER_SCF
       &PRINT
         &RESTART  OFF
           BACKUP_COPIES  1
           &EACH
             JUST_ENERGY  0
             QS_SCF  0
             MD  20
           &END EACH
         &END RESTART
       &END PRINT
     &END SCF
     &QS
       EPS_DEFAULT     1.0000000000000000E-14
       ALMO_SCF  F
       METHOD  GPW
     &END QS
     &MGRID
       NGRIDS  5
       CUTOFF     1.2000000000000000E+03
     &END MGRID
     &XC
       DENSITY_CUTOFF     1.0000000000000000E-10
       GRADIENT_CUTOFF     1.0000000000000000E-10
       TAU_CUTOFF     1.0000000000000000E-10
       &XC_FUNCTIONAL  NO_SHORTCUT
         &PBE  T
         &END PBE
       &END XC_FUNCTIONAL
       &VDW_POTENTIAL
         POTENTIAL_TYPE  PAIR_POTENTIAL
         &PAIR_POTENTIAL
           R_CUTOFF     1.0000000000000005E+01
           TYPE  DFTD3
           PARAMETER_FILE_NAME dftd3.dat
           REFERENCE_FUNCTIONAL PBE
           EPS_CN     9.9999999999999995E-07
           CALCULATE_C9_TERM  T
           REFERENCE_C9_TERM  T
           LONG_RANGE_CORRECTION  F
           VERBOSE_OUTPUT  F
         &END PAIR_POTENTIAL
       &END VDW_POTENTIAL
     &END XC
   &END DFT
   &SUBSYS
     &CELL
       A     9.7367653356401487E+00    0.0000000000000000E+00    0.0000000000000000E+00
       B    -4.8591341382960209E+00    8.4162672083210595E+00    0.0000000000000000E+00
       C     0.0000000000000000E+00    0.0000000000000000E+00    3.0744000000000000E+01
       MULTIPLE_UNIT_CELL  1 1 1
       &CELL_REF
         A     9.5580000000000052E+00    0.0000000000000000E+00    0.0000000000000000E+00
         B    -4.7790000000000026E+00    8.2774708093716640E+00    0.0000000000000000E+00
         C     0.0000000000000000E+00    0.0000000000000000E+00    3.0744000000000000E+01
         MULTIPLE_UNIT_CELL  1 1 1
       &END CELL_REF
     &END CELL
     &COORD
Ga   -4.0616820419643838E-02   -4.0485106798065301E-02   -5.4547849398737791E-01
N   -3.6812593716383298E-02    1.8339077207730898E+00    6.0341958681357100E-01
Ga   -3.7091852276380510E-02    1.8017606427064976E+00    2.6336941036977186E+00
N   -3.9698662622210702E-02   -4.1901285596661779E-02    3.2653230346890374E+00
Ga   -3.8730386041656434E-02   -4.1107426278833882E-02    5.2549395700954591E+00
N   -3.6007305442115604E-02    1.8330114040198819E+00    5.8439096866776419E+00
Ga   -3.6776602015688338E-02    1.8305030256301404E+00    7.8420749215327037E+00
N   -3.9008707486716435E-02   -4.2133805419306322E-02    8.4459694918455579E+00
Ga   -3.8657910989781830E-02   -4.0996434646328357E-02    1.0442995121743731E+01
N   -3.7730974146788332E-02    1.8290302280326602E+00    1.1051892990692037E+01
Ga   -4.7655835468384485E-02    1.8237892819004409E+00    1.3050888649357443E+01
N   -4.7109120432311948E-02   -4.5558243562701432E-02    1.3661988232814632E+01
Ga   -4.8893186811144115E-02   -5.0878598346258401E-02    1.5674985772174530E+01
N   -6.0329806962639280E-02    1.8233564769890271E+00    1.6248789972156498E+01
Ga   -3.5469445517823162E-02    1.8173635495048828E+00    1.8347423542840634E+01
N   -3.1527282111627919E-02   -6.2712236034180899E-02    1.8723612803458394E+01
Ga   -1.6594479902378256E+00    2.7631846232854360E+00    3.1871945158054737E-01
N   -1.6600030567839936E+00    4.6342470420173800E+00    6.0216664042442480E-01
Ga   -1.6325788563187691E+00    4.6492222271422738E+00    2.6341015777165655E+00
N   -1.6592872811015218E+00    2.7640514632634079E+00    3.2259477939078143E+00
Ga   -1.6584952441261493E+00    2.7645611144030582E+00    5.2369319236720271E+00
N   -1.6577150924618067E+00    4.6348557212661294E+00    5.8453492358893913E+00
Ga   -1.6570707134208089E+00    4.6352886291553448E+00    7.8445301472652140E+00
N   -1.6580295012736352E+00    2.7639067849808949E+00    8.4470437087631591E+00
Ga   -1.6571249802961354E+00    2.7645176492340906E+00    1.0442115172582426E+01
N   -1.6555780614585547E+00    4.6362697163500872E+00    1.1045886640189424E+01
Ga   -1.6556566439957821E+00    4.6362916549473008E+00    1.3041277885235951E+01
N   -1.6659124124175468E+00    2.7673107803639554E+00    1.3649957227801540E+01
Ga   -1.6634560248988457E+00    2.7854278575371061E+00    1.5655323889690299E+01
N   -1.6515250524874765E+00    4.6548009369932561E+00    1.6226565083698404E+01
Ga   -1.6617841300733278E+00    4.6581970596903819E+00    1.8297655857175052E+01
N   -1.6403912947151866E+00    2.7933367448354223E+00    1.8740061168926754E+01
Ga   -3.2804749553900074E+00    5.5701229664785057E+00    3.1864624718201817E-01
N   -3.2726481313265756E+00    7.4399295655667492E+00    6.0301094398024402E-01
Ga   -3.3004188969651729E+00    7.4548833423533427E+00    2.6333395181198949E+00
N   -3.2789171813392621E+00    5.5692307392296296E+00    3.2256993253581721E+00
Ga   -3.2777846013992780E+00    5.5701472121693048E+00    5.2367597182585932E+00
N   -3.2728748023306946E+00    7.4403717435059198E+00    5.8446178952098995E+00
Ga   -3.2738857310285265E+00    7.4399490060075983E+00    7.8433106507975197E+00
N   -3.2780351536090588E+00    5.5701525010680850E+00    8.4487851674124634E+00
Ga   -3.2764851750604187E+00    5.5739285213890888E+00    1.0444696282582477E+01
N   -3.2750794102260539E+00    7.4453139718613039E+00    1.1051330711481196E+01
Ga   -3.2753437411941539E+00    7.4527656859410598E+00    1.3050488597671094E+01
N   -3.2808242369882779E+00    5.5771609590605209E+00    1.3636375270539849E+01
Ga   -3.2484970646994165E+00    5.5966238104608470E+00    1.5627626437089269E+01
N   -3.2775753341444065E+00    7.4595778195619147E+00    1.6234467197164264E+01
Ga   -3.2712990678886689E+00    7.4165534954587464E+00    1.8320171883779260E+01
N   -3.2586107117682235E+00    5.5706081668576761E+00    1.8787490177732703E+01
Ga    3.2059015692757526E+00   -4.0983296630130742E-02    3.1882993854679076E-01
N    3.2044190861885373E+00    1.8283206653552877E+00    6.0361745298769198E-01
Ga    3.2333188806480675E+00    1.8439464665395946E+00    2.6332830091149337E+00
N    3.2060757138396427E+00   -4.1593241956089447E-02    3.2258158779217347E+00
Ga    3.2072550825806472E+00   -4.0796507053557758E-02    5.2367782744291702E+00
N    3.2074500833168327E+00    1.8291743803252760E+00    5.8447804241678121E+00
Ga    3.2081386813338000E+00    1.8283987961270811E+00    7.8433643516207292E+00
N    3.2073168410876023E+00   -4.2534241918956751E-02    8.4476700002649832E+00
Ga    3.2083314691035620E+00   -4.2297337764148110E-02    1.0443315522725049E+01
N    3.2086488565845390E+00    1.8307364157079986E+00    1.1040387876847635E+01
Ga    3.2046942772191196E+00    1.8224600068307404E+00    1.3031223426411900E+01
N    3.2116625423406742E+00   -3.6914634589553540E-02    1.3655522505274618E+01
Ga    3.2170453007762720E+00   -3.9810661165649193E-02    1.5670829550791401E+01
N    3.2214571960450789E+00    1.8524201078262970E+00    1.6241621409863157E+01
Ga    3.1008268200552318E+00    1.7981695136458351E+00    1.8244866423126926E+01
N    3.2034779130548050E+00   -4.1594165250560249E-02    1.8663287450552620E+01
Ga    1.5857577267503815E+00    2.7638707837458445E+00    3.1903423174988715E-01
N    1.5917461530435404E+00    4.6349756909817197E+00    6.0246941204698246E-01
Ga    1.5650089432440526E+00    4.6495031588173124E+00    2.6344576359850871E+00
N    1.5863621083237478E+00    2.7638435550812179E+00    3.2256309596767672E+00
Ga    1.5873031714007086E+00    2.7642835799326231E+00    5.2366555399676518E+00
N    1.5923834682794613E+00    4.6345798403704501E+00    5.8445220594565512E+00
Ga    1.5901573177941515E+00    4.6339275068166055E+00    7.8430506386206602E+00
N    1.5858760224259161E+00    2.7627080342401893E+00    8.4460782637080101E+00
Ga    1.5842453111804209E+00    2.7611718453042817E+00    1.0440236850309160E+01
N    1.5915181948342616E+00    4.6326233764962224E+00    1.1044407608311685E+01
Ga    1.5847313016676645E+00    4.6264466623513041E+00    1.3035108982194576E+01
N    1.5822766102282853E+00    2.7539041082282041E+00    1.3648270941848180E+01
Ga    1.5785031893853412E+00    2.7347601329833773E+00    1.5641472498595315E+01
N    1.5820304088963841E+00    4.6225526815760141E+00    1.6246093471334387E+01
Ga    1.2986188592215806E+00    4.4561988203009220E+00    1.8190367695769591E+01
N    1.5816167801070222E+00    2.7500883353326553E+00    1.8843799758709718E+01
Ga   -3.3137424121514235E-02    5.5710154876927778E+00   -5.3304099351184842E-01
N   -3.0341849997932241E-02    7.4439077004102350E+00    6.0318555083157821E-01
Ga   -3.0378419318008599E-02    7.4131661288608743E+00    2.6347932462406800E+00
N   -3.3559739064864341E-02    5.5691214560813442E+00    3.2655605454194294E+00
Ga   -3.2398741588404834E-02    5.5699748563956142E+00    5.2556857929263261E+00
N   -2.9389087865161180E-02    7.4440843393754781E+00    5.8444178210916835E+00
Ga   -2.9911769076320985E-02    7.4415417115661890E+00    7.8430099154819413E+00
N   -3.2281077524465990E-02    5.5693644976096959E+00    8.4471714896322077E+00
Ga   -3.1872293539386087E-02    5.5715305663175263E+00    1.0445084669234618E+01
N   -2.7204761842002489E-02    7.4431833785887180E+00    1.1050809152586284E+01
Ga   -2.6442920505739324E-02    7.4461775407618234E+00    1.3049686770135915E+01
N   -2.7596929589225497E-02    5.5680080440960911E+00    1.3634116444788093E+01
Ga   -4.5395370916056756E-02    5.5899643720780894E+00    1.5629177127266164E+01
N   -1.3467267844364717E-02    7.4361492017993980E+00    1.6230922807783834E+01
Ga   -2.6096638760025236E-02    7.4566814370749031E+00    1.8294343374731788E+01
N   -3.5071966502074219E-02    5.6047591073817102E+00    1.8749137968890729E+01
Ga    6.4512727492504203E+00   -4.0178095657844151E-02    3.1860082532743517E-01
N    6.4579249778762247E+00    1.8289573261125447E+00    6.0409835886077312E-01
Ga    6.4301090978396571E+00    1.8439677838087734E+00    2.6336417077975649E+00
N    6.4515918047874239E+00   -4.1478598516052734E-02    3.2262155705888560E+00
Ga    6.4527949674784182E+00   -4.0724923674261136E-02    5.2370133313699538E+00
N    6.4579688541571798E+00    1.8291650589394481E+00    5.8448137729042742E+00
Ga    6.4569333786173644E+00    1.8290677448547610E+00    7.8434080688944494E+00
N    6.4528441865278907E+00   -4.2530532493546394E-02    8.4461067942194088E+00
Ga    6.4534932073812126E+00   -4.2691024085346613E-02    1.0440584118868871E+01
N    6.4562331408991493E+00    1.8290346924714413E+00    1.1041078198000951E+01
Ga    6.4621617731588490E+00    1.8269574071486194E+00    1.3032922823374861E+01
N    6.4615681012025572E+00   -3.7498619331918316E-02    1.3656811389913081E+01
Ga    6.4485571588030863E+00   -4.6348264138179128E-02    1.5660320938164558E+01
N    6.4293773834681058E+00    1.8501128562902929E+00    1.6252022531040350E+01
Ga    6.5841848626905426E+00    1.7950128167964821E+00    1.8241281070474344E+01
N    6.4117268740599727E+00    6.9320339392698509E-03    1.8787511395075299E+01
Ga    4.8322119304597644E+00    2.7640884806528270E+00   -5.5160425785262557E-01
N    4.8345919467852658E+00    4.6392162218114450E+00    6.0369195984725543E-01
Ga    4.8346497718846955E+00    4.6069375375942085E+00    2.6334121825940686E+00
N    4.8319199622317104E+00    2.7636219017067849E+00    3.2662739432382391E+00
Ga    4.8331133466740486E+00    2.7643118111885299E+00    5.2559835623716449E+00
N    4.8359721105406281E+00    4.6389143432542719E+00    5.8445999628989442E+00
Ga    4.8365610136375032E+00    4.6372880913497427E+00    7.8429688125993300E+00
N    4.8327544087174354E+00    2.7639213455290332E+00    8.4435691844208627E+00
Ga    4.8333689131273507E+00    2.7639082505615007E+00    1.0439140463018820E+01
N    4.8356769358325185E+00    4.6372584935329009E+00    1.1042100994692349E+01
Ga    4.8369197577642273E+00    4.6401219337022210E+00    1.3031246068510086E+01
N    4.8315540446583034E+00    2.7632059107463243E+00    1.3616239304687728E+01
Ga    4.8240746493139728E+00    2.7447733240881727E+00    1.5587338867312374E+01
N    4.8353803030017586E+00    4.6221513544930541E+00    1.6190836275981276E+01
Ga    5.0185184003928365E+00    4.6476057181832955E+00    1.8101700125694872E+01
N    4.6906469404301356E+00    2.8527387790516614E+00    1.9002617335864457E+01
Ga    3.2129151675431760E+00    5.5698997374248380E+00    3.1878426679249150E-01
N    3.2101833715291752E+00    7.4394001253026945E+00    6.0342373362910517E-01
Ga    3.2386892693349725E+00    7.4548664232923949E+00    2.6335846119587600E+00
N    3.2122134064604744E+00    5.5691329910879155E+00    3.2257783393923507E+00
Ga    3.2132311005685206E+00    5.5699548142275548E+00    5.2367417782153307E+00
N    3.2137641236313010E+00    7.4400096491062353E+00    5.8440966551367479E+00
Ga    3.2148836698473198E+00    7.4396520200636163E+00    7.8421585550610482E+00
N    3.2126423602221168E+00    5.5686574436407277E+00    8.4457151279661655E+00
Ga    3.2126962012467244E+00    5.5695076294602428E+00    1.0438733274316233E+01
N    3.2159335737548269E+00    7.4388840649291668E+00    1.1048613889505448E+01
Ga    3.2151697905633601E+00    7.4415637493318254E+00    1.3042831866735236E+01
N    3.2079359238569980E+00    5.5619073538772543E+00    1.3649476511118637E+01
Ga    3.1960394290720306E+00    5.5697854408250036E+00    1.5630433388185862E+01
N    3.2033652995652049E+00    7.4024439409657257E+00    1.6293487656022208E+01
Ga    3.1726980302588514E+00    7.5810899802004563E+00    1.8307555283744875E+01
N    3.4675700436686649E+00    5.5812935725159685E+00    1.9082794944355957E+01
H    5.4519811059066479E+00    3.6611705067230162E+00    2.0785191608736870E+01
H    3.9209130226400659E+00    2.5793516345714105E+00    2.0940992109088921E+01
C    4.6657995664866476E+00    3.0680048639143602E+00    2.0303887261899092E+01
O    3.4172389281813524E+00    5.2697678875235452E+00    2.0277157348499372E+01
     &END COORD
     &KIND C
       BASIS_SET DZVP-MOLOPT-SR-GTH-q4
       POTENTIAL GTH-PBE-q4
       &POTENTIAL
 2 2
  0.3384712400000000E+00 2 -0.8803673979999999E+01  0.1339210850000000E+01
 2
  0.3025757500000000E+00 1  0.9622486650000001E+01
  0.2915069400000000E+00 0
         # Potential name:  GTH-PBE-Q4  for symbol:  C
         # Potential read from the potential filename: GTH_POTENTIALS
       &END POTENTIAL
     &END KIND
     &KIND O
       BASIS_SET DZVP-MOLOPT-SR-GTH-q6
       POTENTIAL GTH-PBE-q6
       &POTENTIAL
 2 4
  0.2445543000000000E+00 2 -0.1666721480000000E+02  0.2487311320000000E+01
 2
  0.2209559200000000E+00 1  0.1833745811000000E+02
  0.2113324700000000E+00 0
         # Potential name:  GTH-PBE-Q6  for symbol:  O
         # Potential read from the potential filename: GTH_POTENTIALS
       &END POTENTIAL
     &END KIND
     &KIND H
       BASIS_SET DZVP-MOLOPT-SR-GTH-q1
       POTENTIAL GTH-PBE-q1
       &POTENTIAL
 1
  0.2000000000000000E+00 2 -0.4178900440000000E+01  0.7244633100000000E+00
 0
         # Potential name:  GTH-PBE-Q1  for symbol:  H
         # Potential read from the potential filename: GTH_POTENTIALS
       &END POTENTIAL
     &END KIND
     &KIND N
       BASIS_SET DZVP-MOLOPT-SR-GTH-q5
       POTENTIAL GTH-PBE-q5
       &POTENTIAL
 2 3
  0.2837905100000000E+00 2 -0.1241522559000000E+02  0.1868095920000000E+01
 2
  0.2554050000000000E+00 1  0.1363026257000000E+02
  0.2454945300000000E+00 0
         # Potential name:  GTH-PBE-Q5  for symbol:  N
         # Potential read from the potential filename: GTH_POTENTIALS
       &END POTENTIAL
     &END KIND
     &KIND Ga
       BASIS_SET DZVP-MOLOPT-SR-GTH-q13
       POTENTIAL GTH-PBE-q13
       &POTENTIAL
 2 1 10
  0.4900000000000000E+00 0
 3
  0.4167772300000000E+00 3  0.1047568975000000E+02 -0.4921768140000000E+01  0.8707055900000000E+00
  0.7770178090000000E+01 -0.2248152160000000E+01
  0.1784415450000000E+01
  0.5696265200000000E+00 2  0.1777985340000000E+01  0.1958597600000000E+00
 -0.2317443900000000E+00
  0.2381265000000000E+00 1 -0.1624868022000000E+02
         # Potential name:  GTH-PBE-Q13  for symbol:  GA
         # Potential read from the potential filename: GTH_POTENTIALS
       &END POTENTIAL
     &END KIND
     &TOPOLOGY
       NUMBER_OF_ATOMS  148
       MULTIPLE_UNIT_CELL  1 1 1
     &END TOPOLOGY
   &END SUBSYS
 &END FORCE_EVAL
