 # Version information for this restart file 
 # current date 2019-05-27 10:21:37.399
 # current working dir /lustre03/project/6004141/rzk/GaN-carbene/06-Formaldehyde/01-H2OC-Nsur
 # Program compiled at                              Sun Apr  7 00:48:11 EDT 2019
 # Program compiled on                          beluga2.int.ets1.calculquebec.ca
 # Program compiled for                        Beluga-Linux-x86-64-intel-openmpi
 # Source code revision number                                         svn:18619
 &GLOBAL
   PRINT_LEVEL  MEDIUM
   PROJECT_NAME TEST
   RUN_TYPE  GEO_OPT
 &END GLOBAL
 &MOTION
   &GEO_OPT
     MAX_ITER  500
     STEP_START_VAL  84
   &END GEO_OPT
 &END MOTION
 &FORCE_EVAL
   METHOD  QS
   STRESS_TENSOR  ANALYTICAL
   &DFT
     BASIS_SET_FILE_NAME BASIS_MOLOPT
     POTENTIAL_FILE_NAME GTH_POTENTIALS
     &SCF
       MAX_SCF  100
       EPS_SCF     5.0000000000000004E-06
       &OT  T
         PRECONDITIONER  FULL_ALL
       &END OT
       &OUTER_SCF  T
         OPTIMIZER  NONE
         EPS_SCF     5.0000000000000004E-06
         MAX_SCF  4
       &END OUTER_SCF
       &PRINT
         &RESTART  OFF
           BACKUP_COPIES  1
           &EACH
             JUST_ENERGY  0
             QS_SCF  0
             MD  20
           &END EACH
         &END RESTART
       &END PRINT
     &END SCF
     &QS
       EPS_DEFAULT     1.0000000000000000E-14
       ALMO_SCF  F
       METHOD  GPW
     &END QS
     &MGRID
       NGRIDS  5
       CUTOFF     1.2000000000000000E+03
     &END MGRID
     &XC
       DENSITY_CUTOFF     1.0000000000000000E-10
       GRADIENT_CUTOFF     1.0000000000000000E-10
       TAU_CUTOFF     1.0000000000000000E-10
       &XC_FUNCTIONAL  NO_SHORTCUT
         &PBE  T
         &END PBE
       &END XC_FUNCTIONAL
       &VDW_POTENTIAL
         POTENTIAL_TYPE  PAIR_POTENTIAL
         &PAIR_POTENTIAL
           R_CUTOFF     1.0000000000000005E+01
           TYPE  DFTD3
           PARAMETER_FILE_NAME dftd3.dat
           REFERENCE_FUNCTIONAL PBE
           EPS_CN     9.9999999999999995E-07
           CALCULATE_C9_TERM  T
           REFERENCE_C9_TERM  T
           LONG_RANGE_CORRECTION  F
           VERBOSE_OUTPUT  F
         &END PAIR_POTENTIAL
       &END VDW_POTENTIAL
     &END XC
   &END DFT
   &SUBSYS
     &CELL
       A     9.7367653356401487E+00    0.0000000000000000E+00    0.0000000000000000E+00
       B    -4.8591341382960209E+00    8.4162672083210595E+00    0.0000000000000000E+00
       C     0.0000000000000000E+00    0.0000000000000000E+00    3.0744000000000000E+01
       MULTIPLE_UNIT_CELL  1 1 1
       &CELL_REF
         A     9.5580000000000052E+00    0.0000000000000000E+00    0.0000000000000000E+00
         B    -4.7790000000000026E+00    8.2774708093716640E+00    0.0000000000000000E+00
         C     0.0000000000000000E+00    0.0000000000000000E+00    3.0744000000000000E+01
         MULTIPLE_UNIT_CELL  1 1 1
       &END CELL_REF
     &END CELL
     &COORD
Ga   -4.1348018625558550E-02   -4.0933076355198529E-02   -5.4518156518705929E-01
N   -3.7467191777540154E-02    1.8334719404686619E+00    6.0330094197787942E-01
Ga   -3.7380257954191601E-02    1.8013728803485174E+00    2.6336478385528204E+00
N   -3.9958810080242720E-02   -4.2332448592527265E-02    3.2651517415245035E+00
Ga   -3.8491631558008492E-02   -4.1433981213666107E-02    5.2547852800563843E+00
N   -3.5686299206407479E-02    1.8326464929699404E+00    5.8436820683032886E+00
Ga   -3.6277633291000623E-02    1.8303518186050785E+00    7.8418371854831701E+00
N   -3.8556576111400113E-02   -4.2290802893782516E-02    8.4458483982549772E+00
Ga   -3.8247766043865934E-02   -4.1049223867220451E-02    1.0442899569650645E+01
N   -3.7379223638847180E-02    1.8289857000998686E+00    1.1051758009094925E+01
Ga   -4.7501013166401949E-02    1.8237644605009198E+00    1.3050723641892882E+01
N   -4.7163772916048459E-02   -4.5566067726780395E-02    1.3661829994805696E+01
Ga   -4.9127541771822214E-02   -5.0912757199361926E-02    1.5674768601912797E+01
N   -6.0592285677810540E-02    1.8232846575216186E+00    1.6248838124385767E+01
Ga   -3.5762009211647482E-02    1.8176414677365147E+00    1.8347552816266447E+01
N   -3.1688111446653990E-02   -6.2447290759027434E-02    1.8723613017666018E+01
Ga   -1.6601408534702453E+00    2.7627148138655895E+00    3.1873051801541480E-01
N   -1.6607511308688614E+00    4.6336800326415304E+00    6.0216083572460255E-01
Ga   -1.6328041951745000E+00    4.6488327872339150E+00    2.6338544478625714E+00
N   -1.6595069075479516E+00    2.7636412856189958E+00    3.2257804868242896E+00
Ga   -1.6582123156260016E+00    2.7642915172645992E+00    5.2367427276615715E+00
N   -1.6574640081240997E+00    4.6346295739364907E+00    5.8451501732754929E+00
Ga   -1.6566716267687476E+00    4.6351823147570350E+00    7.8443262071029825E+00
N   -1.6575105965160293E+00    2.7638072801951497E+00    8.4468647472700429E+00
Ga   -1.6566496235491814E+00    2.7644859849576982E+00    1.0441927949375589E+01
N   -1.6551537756369592E+00    4.6361860898974605E+00    1.1045717631215236E+01
Ga   -1.6554265740661032E+00    4.6362709107451874E+00    1.3041079500299672E+01
N   -1.6657167431707554E+00    2.7672967109362605E+00    1.3649830473357548E+01
Ga   -1.6634531138701780E+00    2.7855011902495348E+00    1.5655161928407370E+01
N   -1.6516225349949052E+00    4.6549603470887551E+00    1.6226202876984718E+01
Ga   -1.6616413114884596E+00    4.6584617492915239E+00    1.8297177062506957E+01
N   -1.6406260993362962E+00    2.7937809100947262E+00    1.8740026673085932E+01
Ga   -3.2811156076547547E+00    5.5696048440137904E+00    3.1866061061036716E-01
N   -3.2733491248712121E+00    7.4394105736461142E+00    6.0284515699004193E-01
Ga   -3.3007061196639729E+00    7.4544258392756584E+00    2.6332536823152033E+00
N   -3.2790979245907184E+00    5.5688574985766124E+00    3.2254972176753824E+00
Ga   -3.2775823998985181E+00    5.5698433183377798E+00    5.2364995219512736E+00
N   -3.2726730353664730E+00    7.4400815252679449E+00    5.8443953321402828E+00
Ga   -3.2734237026256450E+00    7.4397594530768858E+00    7.8431137335933112E+00
N   -3.2776397933483845E+00    5.5700187512089618E+00    8.4487067214175351E+00
Ga   -3.2760962833596867E+00    5.5738720031397460E+00    1.0444665216028097E+01
N   -3.2746797650901214E+00    7.4452780489549815E+00    1.1051266688017018E+01
Ga   -3.2753184689201551E+00    7.4526553150056802E+00    1.3050475860973350E+01
N   -3.2806644996145300E+00    5.5769857233141646E+00    1.3636029637477433E+01
Ga   -3.2485553090231503E+00    5.5967279358218800E+00    1.5627142204710140E+01
N   -3.2777794424191762E+00    7.4597288824033985E+00    1.6234102517698730E+01
Ga   -3.2715055838050988E+00    7.4167942405820799E+00    1.8319262397642468E+01
N   -3.2587791609750765E+00    5.5707984789901204E+00    1.8786181372836626E+01
Ga    3.2052095868087198E+00   -4.1541750100852835E-02    3.1892982892279770E-01
N    3.2036759215553281E+00    1.8277935724655057E+00    6.0360021671061215E-01
Ga    3.2330663431453655E+00    1.8434915513785701E+00    2.6331446852351270E+00
N    3.2058499612480045E+00   -4.2071367656313682E-02    3.2256385687128981E+00
Ga    3.2074836346372240E+00   -4.1115954884571045E-02    5.2365659383434258E+00
N    3.2077476654215098E+00    1.8288521770177819E+00    5.8446058280257480E+00
Ga    3.2085731651584841E+00    1.8282300421809579E+00    7.8431818001294360E+00
N    3.2077248162248755E+00   -4.2668268739621339E-02    8.4474628204849829E+00
Ga    3.2086832977027404E+00   -4.2323729498430669E-02    1.0443222343368930E+01
N    3.2090223818283046E+00    1.8306828896459428E+00    1.1040261091993109E+01
Ga    3.2047934731108128E+00    1.8223213493090427E+00    1.3031105298776600E+01
N    3.2117089330049899E+00   -3.7017356972241268E-02    1.3655327538898751E+01
Ga    3.2168889878971534E+00   -3.9754794655814746E-02    1.5670655592568892E+01
N    3.2213115006173276E+00    1.8525211686831566E+00    1.6241381877350886E+01
Ga    3.1007974509285781E+00    1.7984664936480430E+00    1.8244685707524368E+01
N    3.2032826399691010E+00   -4.1378744990577636E-02    1.8662787766818731E+01
Ga    1.5850648772332794E+00    2.7634260334692957E+00    3.1908233041451317E-01
N    1.5912440857432177E+00    4.6344139788217866E+00    6.0252802137009831E-01
Ga    1.5647817730887621E+00    4.6490641469282306E+00    2.6342765894318076E+00
N    1.5861576052266364E+00    2.7633819290424340E+00    3.2254620026883565E+00
Ga    1.5875984738234605E+00    2.7639792905510521E+00    5.2364661144964231E+00
N    1.5926307913027631E+00    4.6342620977779552E+00    5.8443861093245930E+00
Ga    1.5905444926899066E+00    4.6337695730900075E+00    7.8428982242964889E+00
N    1.5863465331012285E+00    2.7625359896995447E+00    8.4460179492833110E+00
Ga    1.5846118854473406E+00    2.7610905567781008E+00    1.0440160122838865E+01
N    1.5919018083870742E+00    4.6326009212581045E+00    1.1044134121894084E+01
Ga    1.5848448823000802E+00    4.6263549877396555E+00    1.3034762631961103E+01
N    1.5823285268397975E+00    2.7539536623883136E+00    1.3648153169312938E+01
Ga    1.5782161248117836E+00    2.7346508778975887E+00    1.5641449660207522E+01
N    1.5818477159503841E+00    4.6224777097084324E+00    1.6246002995879220E+01
Ga    1.2988807936751625E+00    4.4564091581303895E+00    1.8190417375373613E+01
N    1.5814921757879354E+00    2.7502453219279834E+00    1.8843603121787563E+01
Ga   -3.3763066667556928E-02    5.5704480376092071E+00   -5.3345391252086782E-01
N   -3.1015844569520758E-02    7.4434603261972407E+00    6.0316573877019086E-01
Ga   -3.0648980246444770E-02    7.4126758346982884E+00    2.6345760458741090E+00
N   -3.3726617485246448E-02    5.5686933986512406E+00    3.2654772810297206E+00
Ga   -3.2139502444893608E-02    5.5696917830839823E+00    5.2555412375671517E+00
N   -2.9084030802367964E-02    7.4438337697755212E+00    5.8442236046229583E+00
Ga   -2.9482700129608519E-02    7.4414288287790038E+00    7.8427526816832636E+00
N   -3.1907124518431237E-02    5.5692577580643636E+00    8.4470140366794091E+00
Ga   -3.1520591907167321E-02    5.5714830057039526E+00    1.0444966191573929E+01
N   -2.6816273965927232E-02    7.4432291823807413E+00    1.1050535243276389E+01
Ga   -2.6314138584481641E-02    7.4462846784487935E+00    1.3049517940274066E+01
N   -2.7391000427865596E-02    5.5681182987649231E+00    1.3633828765583202E+01
Ga   -4.5490533132741921E-02    5.5901735969667197E+00    1.5628969755844528E+01
N   -1.3662958633376071E-02    7.4362895124847777E+00    1.6230721801895420E+01
Ga   -2.6184954394123300E-02    7.4570704771768792E+00    1.8294242352150562E+01
N   -3.4990292084122909E-02    5.6051197051484021E+00    1.8749225093403435E+01
Ga    6.4505749354738677E+00   -4.0776093622102251E-02    3.1865096135168847E-01
N    6.4572578538131307E+00    1.8284106497982409E+00    6.0400596662389783E-01
Ga    6.4298697997205609E+00    1.8434978155391422E+00    2.6335506939591022E+00
N    6.4513545141054474E+00   -4.1917133241144260E-02    3.2260348126464669E+00
Ga    6.4530641433488558E+00   -4.1004785921848766E-02    5.2367769987081028E+00
N    6.4583032047719930E+00    1.8289081796392204E+00    5.8446202590741718E+00
Ga    6.4574208608368560E+00    1.8289315966766877E+00    7.8431739958090114E+00
N    6.4533502778444287E+00   -4.2651321323360553E-02    8.4458629380109045E+00
Ga    6.4539161412397990E+00   -4.2722802384127789E-02    1.0440333325161586E+01
N    6.4566555450059164E+00    1.8289873875990827E+00    1.1040899509375306E+01
Ga    6.4624208346548428E+00    1.8269514247402525E+00    1.3032724273411086E+01
N    6.4616507824856813E+00   -3.7413023568886296E-02    1.3656791140441022E+01
Ga    6.4484980329749231E+00   -4.6189009283308088E-02    1.5660314397047388E+01
N    6.4293028885569257E+00    1.8502562932682411E+00    1.6251997034130184E+01
Ga    6.5837712816952090E+00    1.7955913832719832E+00    1.8241401186741420E+01
N    6.4115166339812211E+00    7.3943496503825878E-03    1.8787863527559146E+01
Ga    4.8314110817871185E+00    2.7634578192469110E+00   -5.5143909640140054E-01
N    4.8339971944709728E+00    4.6386555575460555E+00    6.0366627673714068E-01
Ga    4.8344037352131863E+00    4.6065173382531563E+00    2.6333213792918584E+00
N    4.8317023040593208E+00    2.7631708696338868E+00    3.2661536316403463E+00
Ga    4.8333512761692781E+00    2.7640014814886422E+00    5.2558931962167321E+00
N    4.8362317865134319E+00    4.6386442766831824E+00    5.8443457329862829E+00
Ga    4.8369991588334864E+00    4.6371307474675465E+00    7.8427701793310831E+00
N    4.8332506739481111E+00    2.7637584327832099E+00    8.4434577577883392E+00
Ga    4.8337815683824621E+00    2.7639003946671168E+00    1.0439050837558382E+01
N    4.8360182401500342E+00    4.6371668869624934E+00    1.1041942339236638E+01
Ga    4.8370281808432525E+00    4.6399683752217484E+00    1.3031067296206928E+01
N    4.8316940162091653E+00    2.7630320936176851E+00    1.3616022418043798E+01
Ga    4.8239789472485723E+00    2.7448189634420479E+00    1.5587081399418915E+01
N    4.8351489277005326E+00    4.6222238745036233E+00    1.6190208513492188E+01
Ga    5.0181529316528035E+00    4.6478696685150700E+00    1.8101021875331444E+01
N    4.6907322009363783E+00    2.8532150922063764E+00    1.9002162101423419E+01
Ga    3.2123060074368173E+00    5.5693223417944315E+00    3.1883211199643480E-01
N    3.2095714960839117E+00    7.4388650511095102E+00    6.0326951985669686E-01
Ga    3.2383725525639364E+00    7.4544078681292749E+00    2.6334344787442787E+00
N    3.2120016518636234E+00    5.5687597721249542E+00    3.2256120127586838E+00
Ga    3.2134466700071473E+00    5.5696547572286681E+00    5.2365468140160623E+00
N    3.2140501209058208E+00    7.4397579743696500E+00    5.8438477117695511E+00
Ga    3.2153408818467786E+00    7.4395080294425435E+00    7.8418839131867575E+00
N    3.2130740290543329E+00    5.5685209175707753E+00    8.4454892642496802E+00
Ga    3.2130822548996298E+00    5.5694585290212855E+00    1.0438511710571433E+01
N    3.2162734959540620E+00    7.4388529072084095E+00    1.1048452561112619E+01
Ga    3.2151208199324253E+00    7.4415351546659316E+00    1.3042578663778757E+01
N    3.2079857934677301E+00    5.5618711885420939E+00    1.3649164259772460E+01
Ga    3.1958100280223669E+00    5.5699786448777857E+00    1.5630018960660241E+01
N    3.2030691317205018E+00    7.4023186310750599E+00    1.6293739232494314E+01
Ga    3.1724571622398190E+00    7.5813322948280790E+00    1.8307858547827568E+01
N    3.4677453987079958E+00    5.5812872215977833E+00    1.9082939358121084E+01
H    5.4521846532505807E+00    3.6616798923535172E+00    2.0784354136661165E+01
H    3.9206361333115800E+00    2.5806310129748860E+00    2.0940244102188817E+01
C    4.6657593105193973E+00    3.0689692735489129E+00    2.0303266790493691E+01
O    3.4193186897503036E+00    5.2698620437990256E+00    2.0277528906197354E+01
     &END COORD
     &KIND C
       BASIS_SET DZVP-MOLOPT-SR-GTH-q4
       POTENTIAL GTH-PBE-q4
       &POTENTIAL
 2 2
  0.3384712400000000E+00 2 -0.8803673979999999E+01  0.1339210850000000E+01
 2
  0.3025757500000000E+00 1  0.9622486650000001E+01
  0.2915069400000000E+00 0
         # Potential name:  GTH-PBE-Q4  for symbol:  C
         # Potential read from the potential filename: GTH_POTENTIALS
       &END POTENTIAL
     &END KIND
     &KIND O
       BASIS_SET DZVP-MOLOPT-SR-GTH-q6
       POTENTIAL GTH-PBE-q6
       &POTENTIAL
 2 4
  0.2445543000000000E+00 2 -0.1666721480000000E+02  0.2487311320000000E+01
 2
  0.2209559200000000E+00 1  0.1833745811000000E+02
  0.2113324700000000E+00 0
         # Potential name:  GTH-PBE-Q6  for symbol:  O
         # Potential read from the potential filename: GTH_POTENTIALS
       &END POTENTIAL
     &END KIND
     &KIND H
       BASIS_SET DZVP-MOLOPT-SR-GTH-q1
       POTENTIAL GTH-PBE-q1
       &POTENTIAL
 1
  0.2000000000000000E+00 2 -0.4178900440000000E+01  0.7244633100000000E+00
 0
         # Potential name:  GTH-PBE-Q1  for symbol:  H
         # Potential read from the potential filename: GTH_POTENTIALS
       &END POTENTIAL
     &END KIND
     &KIND N
       BASIS_SET DZVP-MOLOPT-SR-GTH-q5
       POTENTIAL GTH-PBE-q5
       &POTENTIAL
 2 3
  0.2837905100000000E+00 2 -0.1241522559000000E+02  0.1868095920000000E+01
 2
  0.2554050000000000E+00 1  0.1363026257000000E+02
  0.2454945300000000E+00 0
         # Potential name:  GTH-PBE-Q5  for symbol:  N
         # Potential read from the potential filename: GTH_POTENTIALS
       &END POTENTIAL
     &END KIND
     &KIND Ga
       BASIS_SET DZVP-MOLOPT-SR-GTH-q13
       POTENTIAL GTH-PBE-q13
       &POTENTIAL
 2 1 10
  0.4900000000000000E+00 0
 3
  0.4167772300000000E+00 3  0.1047568975000000E+02 -0.4921768140000000E+01  0.8707055900000000E+00
  0.7770178090000000E+01 -0.2248152160000000E+01
  0.1784415450000000E+01
  0.5696265200000000E+00 2  0.1777985340000000E+01  0.1958597600000000E+00
 -0.2317443900000000E+00
  0.2381265000000000E+00 1 -0.1624868022000000E+02
         # Potential name:  GTH-PBE-Q13  for symbol:  GA
         # Potential read from the potential filename: GTH_POTENTIALS
       &END POTENTIAL
     &END KIND
     &TOPOLOGY
       NUMBER_OF_ATOMS  148
       MULTIPLE_UNIT_CELL  1 1 1
     &END TOPOLOGY
   &END SUBSYS
 &END FORCE_EVAL
