 # Version information for this restart file 
 # current date 2019-05-27 10:23:14.613
 # current working dir /lustre03/project/6004141/rzk/GaN-carbene/06-Formaldehyde/01-H2OC-Nsur
 # Program compiled at                              Sun Apr  7 00:48:11 EDT 2019
 # Program compiled on                          beluga2.int.ets1.calculquebec.ca
 # Program compiled for                        Beluga-Linux-x86-64-intel-openmpi
 # Source code revision number                                         svn:18619
 &GLOBAL
   PRINT_LEVEL  MEDIUM
   PROJECT_NAME TEST
   RUN_TYPE  GEO_OPT
 &END GLOBAL
 &MOTION
   &GEO_OPT
     MAX_ITER  500
     STEP_START_VAL  85
   &END GEO_OPT
 &END MOTION
 &FORCE_EVAL
   METHOD  QS
   STRESS_TENSOR  ANALYTICAL
   &DFT
     BASIS_SET_FILE_NAME BASIS_MOLOPT
     POTENTIAL_FILE_NAME GTH_POTENTIALS
     &SCF
       MAX_SCF  100
       EPS_SCF     5.0000000000000004E-06
       &OT  T
         PRECONDITIONER  FULL_ALL
       &END OT
       &OUTER_SCF  T
         OPTIMIZER  NONE
         EPS_SCF     5.0000000000000004E-06
         MAX_SCF  4
       &END OUTER_SCF
       &PRINT
         &RESTART  OFF
           BACKUP_COPIES  1
           &EACH
             JUST_ENERGY  0
             QS_SCF  0
             MD  20
           &END EACH
         &END RESTART
       &END PRINT
     &END SCF
     &QS
       EPS_DEFAULT     1.0000000000000000E-14
       ALMO_SCF  F
       METHOD  GPW
     &END QS
     &MGRID
       NGRIDS  5
       CUTOFF     1.2000000000000000E+03
     &END MGRID
     &XC
       DENSITY_CUTOFF     1.0000000000000000E-10
       GRADIENT_CUTOFF     1.0000000000000000E-10
       TAU_CUTOFF     1.0000000000000000E-10
       &XC_FUNCTIONAL  NO_SHORTCUT
         &PBE  T
         &END PBE
       &END XC_FUNCTIONAL
       &VDW_POTENTIAL
         POTENTIAL_TYPE  PAIR_POTENTIAL
         &PAIR_POTENTIAL
           R_CUTOFF     1.0000000000000005E+01
           TYPE  DFTD3
           PARAMETER_FILE_NAME dftd3.dat
           REFERENCE_FUNCTIONAL PBE
           EPS_CN     9.9999999999999995E-07
           CALCULATE_C9_TERM  T
           REFERENCE_C9_TERM  T
           LONG_RANGE_CORRECTION  F
           VERBOSE_OUTPUT  F
         &END PAIR_POTENTIAL
       &END VDW_POTENTIAL
     &END XC
   &END DFT
   &SUBSYS
     &CELL
       A     9.7367653356401487E+00    0.0000000000000000E+00    0.0000000000000000E+00
       B    -4.8591341382960209E+00    8.4162672083210595E+00    0.0000000000000000E+00
       C     0.0000000000000000E+00    0.0000000000000000E+00    3.0744000000000000E+01
       MULTIPLE_UNIT_CELL  1 1 1
       &CELL_REF
         A     9.5580000000000052E+00    0.0000000000000000E+00    0.0000000000000000E+00
         B    -4.7790000000000026E+00    8.2774708093716640E+00    0.0000000000000000E+00
         C     0.0000000000000000E+00    0.0000000000000000E+00    3.0744000000000000E+01
         MULTIPLE_UNIT_CELL  1 1 1
       &END CELL_REF
     &END CELL
     &COORD
Ga   -4.0906412231626728E-02   -4.0133280212666954E-02   -5.4618050765651727E-01
N   -3.7017957272294275E-02    1.8342765018882308E+00    6.0341310000204484E-01
Ga   -3.7180650849307981E-02    1.8019759370837680E+00    2.6336318674440804E+00
N   -3.9740651211546581E-02   -4.1697294311972173E-02    3.2653191592635920E+00
Ga   -3.8631170742353761E-02   -4.0969953975450724E-02    5.2549306153242581E+00
N   -3.5893345864508250E-02    1.8331321865660581E+00    5.8439456478064802E+00
Ga   -3.6616175901399955E-02    1.8304714781283931E+00    7.8421256637904806E+00
N   -3.8887293490191009E-02   -4.2185530843323292E-02    8.4460609317176836E+00
Ga   -3.8629485339530603E-02   -4.1192869244064130E-02    1.0443117381341771E+01
N   -3.7628646681968352E-02    1.8288130572106962E+00    1.1051989321523729E+01
Ga   -4.7603733000764252E-02    1.8235505977388278E+00    1.3050971671972746E+01
N   -4.7243830554160142E-02   -4.5814983371917362E-02    1.3662094708543307E+01
Ga   -4.8923052633233502E-02   -5.1159132339744506E-02    1.5675054463611559E+01
N   -6.0358817885292987E-02    1.8230840827970081E+00    1.6248714779861544E+01
Ga   -3.5415413055081113E-02    1.8171341120944979E+00    1.8347232625072344E+01
N   -3.1649096833124446E-02   -6.2950390791585903E-02    1.8723422189162189E+01
Ga   -1.6596674533397215E+00    2.7634679952421792E+00    3.1870679805222452E-01
N   -1.6601797111170116E+00    4.6345498456584311E+00    6.0216423978237710E-01
Ga   -1.6326543272639760E+00    4.6494274405343958E+00    2.6342329181403854E+00
N   -1.6593544445321204E+00    2.7642704809535723E+00    3.2260320995503546E+00
Ga   -1.6583769723966062E+00    2.7646956142806074E+00    5.2370098766518147E+00
N   -1.6576090799432008E+00    4.6349683467686251E+00    5.8454309896015717E+00
Ga   -1.6569419130617959E+00    4.6353044846108027E+00    7.8445660875461174E+00
N   -1.6578943105187873E+00    2.7638673233384945E+00    8.4471215371994592E+00
Ga   -1.6570056373521722E+00    2.7643749466878078E+00    1.0442190656260969E+01
N   -1.6555067145823430E+00    4.6361803864134989E+00    1.1045899210392591E+01
Ga   -1.6556116684897313E+00    4.6360957593779712E+00    1.3041298068415347E+01
N   -1.6658716096847452E+00    2.7671408511251285E+00    1.3650023992342510E+01
Ga   -1.6633419745110281E+00    2.7853267267159270E+00    1.5655352228850880E+01
N   -1.6515377963053959E+00    4.6546144131069873E+00    1.6226630092447802E+01
Ga   -1.6615803053010618E+00    4.6579685047241881E+00    1.8297617282199329E+01
N   -1.6402170442347841E+00    2.7931232575898730E+00    1.8740078670035139E+01
Ga   -3.2806546710958315E+00    5.5705107056102756E+00    3.1864843527124581E-01
N   -3.2728600484934520E+00    7.4402940377199416E+00    6.0291985134465875E-01
Ga   -3.3004915727092943E+00    7.4550946179700448E+00    2.6332934116211169E+00
N   -3.2789759647963370E+00    5.5694169090041887E+00    3.2257654900990458E+00
Ga   -3.2776833302567914E+00    5.5702960568766615E+00    5.2368249347387668E+00
N   -3.2727658191422746E+00    7.4404986011508418E+00    5.8446612639326334E+00
Ga   -3.2737816486553939E+00    7.4399268575820958E+00    7.8433321477721432E+00
N   -3.2779200042552783E+00    5.5701339525233404E+00    8.4488487584511418E+00
Ga   -3.2764636441255814E+00    5.5737607687296249E+00    1.0444804051976114E+01
N   -3.2751242404656602E+00    7.4450790615776103E+00    1.1051426879490645E+01
Ga   -3.2754223221402379E+00    7.4524564208788169E+00    1.3050667975512658E+01
N   -3.2808705586990023E+00    5.5768461587436375E+00    1.3636438285246724E+01
Ga   -3.2485598548672923E+00    5.5963031433896155E+00    1.5627702702919100E+01
N   -3.2777145388982678E+00    7.4591732168816680E+00    1.6234506669428207E+01
Ga   -3.2714941668536479E+00    7.4162306848299178E+00    1.8320046970908404E+01
N   -3.2585662715005466E+00    5.5702197150387178E+00    1.8787475102330060E+01
Ga    3.2057039539351586E+00   -4.0752000779435055E-02    3.1878013945814737E-01
N    3.2042369821336023E+00    1.8285358629607902E+00    6.0368760116894071E-01
Ga    3.2332434974084689E+00    1.8441017268026283E+00    2.6333752253690799E+00
N    3.2060096625328134E+00   -4.1439130743769328E-02    3.2259018294401858E+00
Ga    3.2073507199311790E+00   -4.0702086352694546E-02    5.2368694976894812E+00
N    3.2075554818031424E+00    1.8292780209993138E+00    5.8448087608635841E+00
Ga    3.2082795383753853E+00    1.8283849711260447E+00    7.8433884322895429E+00
N    3.2074426346565428E+00   -4.2575345386532286E-02    8.4477923081309338E+00
Ga    3.2083263723114586E+00   -4.2498891824463605E-02    1.0443434617898479E+01
N    3.2087178306792317E+00    1.8305617838144634E+00    1.1040412338693933E+01
Ga    3.2047217198017641E+00    1.8222276223238552E+00    1.3031246385870420E+01
N    3.2115874646167502E+00   -3.7168081195195400E-02    1.3655638798428100E+01
Ga    3.2169260878292243E+00   -4.0017676969467356E-02    1.5670993451862499E+01
N    3.2215311492678329E+00    1.8521922365132888E+00    1.6241605949617572E+01
Ga    3.1008167195355147E+00    1.7978942985966344E+00    1.8244796000659321E+01
N    3.2031699551202157E+00   -4.1851506529630239E-02    1.8663237585727465E+01
Ga    1.5855769186692512E+00    2.7641379752052204E+00    3.1903327142872273E-01
N    1.5916133459662074E+00    4.6352535456807145E+00    6.0250299393705775E-01
Ga    1.5649783448719816E+00    4.6497214377843070E+00    2.6346021844198879E+00
N    1.5863197452615163E+00    2.7640692484731741E+00    3.2257129588665463E+00
Ga    1.5873866641171850E+00    2.7644188500165128E+00    5.2367302626155832E+00
N    1.5924973619841707E+00    4.6347226395191434E+00    5.8445702999898952E+00
Ga    1.5903059453864632E+00    4.6339188513746503E+00    7.8430650099404096E+00
N    1.5860237455866051E+00    2.7626795403802862E+00    8.4461729179701521E+00
Ga    1.5843196078251132E+00    2.7610104341562329E+00    1.0440362687956972E+01
N    1.5915169578099337E+00    4.6324657458152689E+00    1.1044425795557849E+01
Ga    1.5846251207006750E+00    4.6262320924662603E+00    1.3035135883266287E+01
N    1.5823314447535450E+00    2.7536925175170630E+00    1.3648311128595836E+01
Ga    1.5784502331861567E+00    2.7345379099372495E+00    1.5641447454681119E+01
N    1.5821028182149268E+00    4.6224495079748422E+00    1.6246049088259959E+01
Ga    1.2987092236805058E+00    4.4561803764209316E+00    1.8190408960980285E+01
N    1.5816227183165728E+00    2.7499103596790078E+00    1.8843311950881802E+01
Ga   -3.3304352579904641E-02    5.5714107198544420E+00   -5.3252034516479063E-01
N   -3.0535094091079087E-02    7.4441390149776918E+00    6.0316438880545720E-01
Ga   -3.0463171248426089E-02    7.4133832710571985E+00    2.6349021989290575E+00
N   -3.3616157665525122E-02    5.5693311259214422E+00    3.2656017461840707E+00
Ga   -3.2299700314486257E-02    5.5700859873799953E+00    5.2557466753391990E+00
N   -2.9271647823108982E-02    7.4441890685332988E+00    5.8444582160483858E+00
Ga   -2.9815094705619469E-02    7.4415414081130384E+00    7.8429630731316848E+00
N   -3.2119830148622429E-02    5.5693912539542332E+00    8.4472269786443963E+00
Ga   -3.1819662380234114E-02    5.5714339708128167E+00    1.0445085011204094E+01
N   -2.7187570118312326E-02    7.4430243256396862E+00    1.1050902619196821E+01
Ga   -2.6439019948408617E-02    7.4459679827652154E+00    1.3049808819940118E+01
N   -2.7638894223631787E-02    5.5677955322264854E+00    1.3634252902530497E+01
Ga   -4.5414711055170566E-02    5.5898976782117344E+00    1.5629350090439511E+01
N   -1.3439927427488587E-02    7.4360418430737694E+00    1.6231099011622980E+01
Ga   -2.6139940593495337E-02    7.4567079915271899E+00    1.8294676504977414E+01
N   -3.4926377439977861E-02    5.6047433332650360E+00    1.8749213204564111E+01
Ga    6.4510730330689512E+00   -3.9952654503717669E-02    3.1855704625809034E-01
N    6.4577134529000251E+00    1.8291926114430219E+00    6.0413600614990604E-01
Ga    6.4300410179107992E+00    1.8441159449554920E+00    2.6337508644939027E+00
N    6.4515142749171392E+00   -4.1323726532357691E-02    3.2263004080416939E+00
Ga    6.4529035861763351E+00   -4.0616010619319874E-02    5.2370957524124675E+00
N    6.4580776983836206E+00    1.8292799917410461E+00    5.8448252212118863E+00
Ga    6.4570586649227604E+00    1.8290858206428247E+00    7.8433819714943702E+00
N    6.4529152050433769E+00   -4.2529805582603004E-02    8.4461569407110044E+00
Ga    6.4534888013803071E+00   -4.2790625633273613E-02    1.0440590994146028E+01
N    6.4563470855887433E+00    1.8289204978920379E+00    1.1041082740067685E+01
Ga    6.4621923433065858E+00    1.8267717245065180E+00    1.3032925907123978E+01
N    6.4615555853881101E+00   -3.7617502107955628E-02    1.3656987283193429E+01
Ga    6.4485181666393219E+00   -4.6462357215320299E-02    1.5660486223205163E+01
N    6.4294562320670492E+00    1.8499593737353517E+00    1.6252359255812376E+01
Ga    6.5842204300893963E+00    1.7949275486020431E+00    1.8241528274659451E+01
N    6.4115889527975813E+00    7.0672349028925181E-03    1.8788161110915329E+01
Ga    4.8320132998858458E+00    2.7642805501197705E+00   -5.5159441415080923E-01
N    4.8344297689917202E+00    4.6394902373180722E+00    6.0373480636083987E-01
Ga    4.8345861621614556E+00    4.6070932393294379E+00    2.6334840349889772E+00
N    4.8318661087842081E+00    2.7637805909446325E+00    3.2663923884286845E+00
Ga    4.8332006439543811E+00    2.7644514455429055E+00    5.2560286197351394E+00
N    4.8360899616449728E+00    4.6390397252271454E+00    5.8446526475292320E+00
Ga    4.8366716465409452E+00    4.6373049658750416E+00    7.8430335895603251E+00
N    4.8328744811645210E+00    2.7639165113310469E+00    8.4436274185109621E+00
Ga    4.8334453377944380E+00    2.7637302884284036E+00    1.0439223997114144E+01
N    4.8356795561276478E+00    4.6371067307692408E+00    1.1042139398571631E+01
Ga    4.8369152542108180E+00    4.6398718248944766E+00    1.3031275939426346E+01
N    4.8316040904563264E+00    2.7629778359672144E+00    1.3616364927562740E+01
Ga    4.8241327072029936E+00    2.7445712695987186E+00    1.5587448636245055E+01
N    4.8353091539966337E+00    4.6219098318360219E+00    1.6191038620054648E+01
Ga    5.0184132850530245E+00    4.6473487485304377E+00    1.8101990255401784E+01
N    4.6908415836931381E+00    2.8522215672271836E+00    1.9002576622659383E+01
Ga    3.2127540940026575E+00    5.5702571602593913E+00    3.1878679475517985E-01
N    3.2099710982646701E+00    7.4397181228354503E+00    6.0339376651546239E-01
Ga    3.2386160127414279E+00    7.4550959430339869E+00    2.6335436535380938E+00
N    3.2121860862866884E+00    5.5693340378138352E+00    3.2258640137253836E+00
Ga    3.2133537395057608E+00    5.5701116634201968E+00    5.2368147425858522E+00
N    3.2138775291364983E+00    7.4401503687241819E+00    5.8441404608880045E+00
Ga    3.2150155751202671E+00    7.4396541249054309E+00    7.8421857326547313E+00
N    3.2127481302100174E+00    5.5686634588721953E+00    8.4457984498509280E+00
Ga    3.2126950541646453E+00    5.5693747890789957E+00    1.0438834181765097E+01
N    3.2158924606494597E+00    7.4387276417327799E+00    1.1048625187719681E+01
Ga    3.2150708153501775E+00    7.4413842685727154E+00    1.3042856001287978E+01
N    3.2078664486770623E+00    5.5616859646943055E+00    1.3649566954128401E+01
Ga    3.1960368901080929E+00    5.5697146697851760E+00    1.5630538192173763E+01
N    3.2031863729321675E+00    7.4023573904389197E+00    1.6293856230794873E+01
Ga    3.1723349822019928E+00    7.5809835631039766E+00    1.8307955953061438E+01
N    3.4671840784493044E+00    5.5809577504354566E+00    1.9083200344976497E+01
H    5.4527004423881307E+00    3.6604889458418710E+00    2.0784648940744098E+01
H    3.9216399691402595E+00    2.5785058058285593E+00    2.0941196955934934E+01
C    4.6662997678159268E+00    3.0669244099193338E+00    2.0303733389829862E+01
O    3.4177495747854700E+00    5.2696317107667348E+00    2.0277795360790634E+01
     &END COORD
     &KIND C
       BASIS_SET DZVP-MOLOPT-SR-GTH-q4
       POTENTIAL GTH-PBE-q4
       &POTENTIAL
 2 2
  0.3384712400000000E+00 2 -0.8803673979999999E+01  0.1339210850000000E+01
 2
  0.3025757500000000E+00 1  0.9622486650000001E+01
  0.2915069400000000E+00 0
         # Potential name:  GTH-PBE-Q4  for symbol:  C
         # Potential read from the potential filename: GTH_POTENTIALS
       &END POTENTIAL
     &END KIND
     &KIND O
       BASIS_SET DZVP-MOLOPT-SR-GTH-q6
       POTENTIAL GTH-PBE-q6
       &POTENTIAL
 2 4
  0.2445543000000000E+00 2 -0.1666721480000000E+02  0.2487311320000000E+01
 2
  0.2209559200000000E+00 1  0.1833745811000000E+02
  0.2113324700000000E+00 0
         # Potential name:  GTH-PBE-Q6  for symbol:  O
         # Potential read from the potential filename: GTH_POTENTIALS
       &END POTENTIAL
     &END KIND
     &KIND H
       BASIS_SET DZVP-MOLOPT-SR-GTH-q1
       POTENTIAL GTH-PBE-q1
       &POTENTIAL
 1
  0.2000000000000000E+00 2 -0.4178900440000000E+01  0.7244633100000000E+00
 0
         # Potential name:  GTH-PBE-Q1  for symbol:  H
         # Potential read from the potential filename: GTH_POTENTIALS
       &END POTENTIAL
     &END KIND
     &KIND N
       BASIS_SET DZVP-MOLOPT-SR-GTH-q5
       POTENTIAL GTH-PBE-q5
       &POTENTIAL
 2 3
  0.2837905100000000E+00 2 -0.1241522559000000E+02  0.1868095920000000E+01
 2
  0.2554050000000000E+00 1  0.1363026257000000E+02
  0.2454945300000000E+00 0
         # Potential name:  GTH-PBE-Q5  for symbol:  N
         # Potential read from the potential filename: GTH_POTENTIALS
       &END POTENTIAL
     &END KIND
     &KIND Ga
       BASIS_SET DZVP-MOLOPT-SR-GTH-q13
       POTENTIAL GTH-PBE-q13
       &POTENTIAL
 2 1 10
  0.4900000000000000E+00 0
 3
  0.4167772300000000E+00 3  0.1047568975000000E+02 -0.4921768140000000E+01  0.8707055900000000E+00
  0.7770178090000000E+01 -0.2248152160000000E+01
  0.1784415450000000E+01
  0.5696265200000000E+00 2  0.1777985340000000E+01  0.1958597600000000E+00
 -0.2317443900000000E+00
  0.2381265000000000E+00 1 -0.1624868022000000E+02
         # Potential name:  GTH-PBE-Q13  for symbol:  GA
         # Potential read from the potential filename: GTH_POTENTIALS
       &END POTENTIAL
     &END KIND
     &TOPOLOGY
       NUMBER_OF_ATOMS  148
       MULTIPLE_UNIT_CELL  1 1 1
     &END TOPOLOGY
   &END SUBSYS
 &END FORCE_EVAL
