 # Version information for this restart file 
 # current date 2019-05-27 21:39:39.477
 # current working dir /lustre03/project/6004141/rzk/GaN-carbene/334-native/08-2Methanol-Htransfer/02-NH-constraint/2.64
 # Program compiled at                              Sun Apr  7 00:48:11 EDT 2019
 # Program compiled on                          beluga2.int.ets1.calculquebec.ca
 # Program compiled for                        Beluga-Linux-x86-64-intel-openmpi
 # Source code revision number                                         svn:18619
 &GLOBAL
   PRINT_LEVEL  MEDIUM
   PROJECT_NAME TEST
   RUN_TYPE  GEO_OPT
 &END GLOBAL
 &MOTION
   &GEO_OPT
     MAX_ITER  500
     STEP_START_VAL  52
   &END GEO_OPT
   &CONSTRAINT
     &COLLECTIVE
       COLVAR  1
       INTERMOLECULAR  T
       TARGET     4.9888769908180972E+00
       &RESTRAINT
         K     1.0000000000000001E-01
       &END RESTRAINT
     &END COLLECTIVE
     &COLVAR_RESTART
           4.9888769908180972E+00
     &END COLVAR_RESTART
   &END CONSTRAINT
 &END MOTION
 &FORCE_EVAL
   METHOD  QS
   STRESS_TENSOR  ANALYTICAL
   &DFT
     BASIS_SET_FILE_NAME BASIS_MOLOPT
     POTENTIAL_FILE_NAME GTH_POTENTIALS
     &SCF
       MAX_SCF  100
       EPS_SCF     5.0000000000000004E-06
       &OT  T
         PRECONDITIONER  FULL_ALL
       &END OT
       &OUTER_SCF  T
         OPTIMIZER  NONE
         EPS_SCF     5.0000000000000004E-06
         MAX_SCF  4
       &END OUTER_SCF
       &PRINT
         &RESTART  OFF
           BACKUP_COPIES  1
           &EACH
             JUST_ENERGY  0
             QS_SCF  0
             MD  20
           &END EACH
         &END RESTART
       &END PRINT
     &END SCF
     &QS
       EPS_DEFAULT     1.0000000000000000E-14
       ALMO_SCF  F
       METHOD  GPW
     &END QS
     &MGRID
       NGRIDS  5
       CUTOFF     1.2000000000000000E+03
     &END MGRID
     &XC
       DENSITY_CUTOFF     1.0000000000000000E-10
       GRADIENT_CUTOFF     1.0000000000000000E-10
       TAU_CUTOFF     1.0000000000000000E-10
       &XC_FUNCTIONAL  NO_SHORTCUT
         &PBE  T
         &END PBE
       &END XC_FUNCTIONAL
       &VDW_POTENTIAL
         POTENTIAL_TYPE  PAIR_POTENTIAL
         &PAIR_POTENTIAL
           R_CUTOFF     1.0000000000000005E+01
           TYPE  DFTD3
           PARAMETER_FILE_NAME dftd3.dat
           REFERENCE_FUNCTIONAL PBE
           EPS_CN     9.9999999999999995E-07
           CALCULATE_C9_TERM  T
           REFERENCE_C9_TERM  T
           LONG_RANGE_CORRECTION  F
           VERBOSE_OUTPUT  F
         &END PAIR_POTENTIAL
       &END VDW_POTENTIAL
     &END XC
   &END DFT
   &SUBSYS
     &CELL
       A     9.7367653356401487E+00    0.0000000000000000E+00    0.0000000000000000E+00
       B    -4.8591341382960209E+00    8.4162672083210595E+00    0.0000000000000000E+00
       C     0.0000000000000000E+00    0.0000000000000000E+00    3.0744000000000000E+01
       MULTIPLE_UNIT_CELL  1 1 1
       &CELL_REF
         A     9.5580000000000052E+00    0.0000000000000000E+00    0.0000000000000000E+00
         B    -4.7790000000000026E+00    8.2774708093716640E+00    0.0000000000000000E+00
         C     0.0000000000000000E+00    0.0000000000000000E+00    3.0744000000000000E+01
         MULTIPLE_UNIT_CELL  1 1 1
       &END CELL_REF
     &END CELL
     &COORD
Ga    1.2567394269949437E-02   -2.8829361933629940E-03   -5.3383016445611098E-01
N    1.4220489479622681E-02    1.8704705203766254E+00    6.0307626926250146E-01
Ga    1.4076029393261290E-02    1.8385458855047754E+00    2.6351537572518144E+00
N    1.0790152179859255E-02   -4.8818358316069996E-03    3.2662266707665673E+00
Ga    1.0750739078911853E-02   -4.6965001246811128E-03    5.2567356389574336E+00
N    1.3384755197079014E-02    1.8699061786526241E+00    5.8442868187628756E+00
Ga    1.2919559017854644E-02    1.8669936457453655E+00    7.8438610832499283E+00
N    1.1448919051693623E-02   -6.1478786280444540E-03    8.4445028498418573E+00
Ga    1.2886238641894339E-02   -6.9621250698395443E-03    1.0442796453244267E+01
N    1.1235756737238324E-02    1.8653610260478739E+00    1.1045098791341202E+01
Ga    1.7208812383045145E-02    1.8604748529124429E+00    1.3039317409817162E+01
N    2.4099179646818816E-02   -1.1754925166341100E-02    1.3633999613265754E+01
Ga    4.1406703571830641E-02   -3.6513755802571310E-02    1.5627211001431192E+01
N    3.4417994943837286E-02    1.8452339689395321E+00    1.6206966201915627E+01
Ga    5.9641825368051828E-02    1.8183830734104531E+00    1.8263147287481470E+01
N    5.2687415337553535E-02   -5.0095922326869068E-02    1.8675506375843138E+01
Ga   -1.6087556571776582E+00    2.8017430869944184E+00    3.2141463192557379E-01
N   -1.6096841095336245E+00    4.6717107322284388E+00    6.0307024627185246E-01
Ga   -1.5815631874813054E+00    4.6867739678129654E+00    2.6339632834114659E+00
N   -1.6085982827113723E+00    2.8008026787855771E+00    3.2245755917479855E+00
Ga   -1.6086410033669787E+00    2.8010933504236326E+00    5.2360615408922966E+00
N   -1.6087959708014417E+00    4.6708694681423015E+00    5.8429281347869493E+00
Ga   -1.6089090776275237E+00    4.6700916011747697E+00    7.8415451254860145E+00
N   -1.6099345489924461E+00    2.7998971259203822E+00    8.4477977127879171E+00
Ga   -1.6109153431523620E+00    2.8009986904141080E+00    1.0443802498254616E+01
N   -1.6127897650184804E+00    4.6707672157645650E+00    1.1051536295805102E+01
Ga   -1.6176624359525142E+00    4.6683126219806743E+00    1.3049208654739740E+01
N   -1.5997822164951498E+00    2.7990266152439416E+00    1.3668100813078803E+01
Ga   -1.5967949638380003E+00    2.8094269271415397E+00    1.5676016458970880E+01
N   -1.5911629056913581E+00    4.6727844149682829E+00    1.6308553909314220E+01
Ga   -1.4991783867177639E+00    4.6600979867346828E+00    1.8384719585094505E+01
N   -1.5163384320551516E+00    2.7666714497072564E+00    1.8759615857482835E+01
Ga   -3.2289113469471302E+00    5.6073326334158926E+00    3.2111223121187810E-01
N   -3.2223444014445786E+00    7.4778845662188660E+00    6.0329024258549735E-01
Ga   -3.2497665013274677E+00    7.4919738128615014E+00    2.6354064774325558E+00
N   -3.2284170944086306E+00    5.6062283479371251E+00    3.2251731311831158E+00
Ga   -3.2287707247964157E+00    5.6064153428233237E+00    5.2367206308425480E+00
N   -3.2231738543947270E+00    7.4764440858707752E+00    5.8429403670897608E+00
Ga   -3.2254770361905822E+00    7.4754283490981841E+00    7.8416489858546718E+00
N   -3.2301382882258545E+00    5.6046225800135128E+00    8.4445475663484739E+00
Ga   -3.2314891905118963E+00    5.6030524492516021E+00    1.0439568462281407E+01
N   -3.2236219179067018E+00    7.4714424009644986E+00    1.1049337887949319E+01
Ga   -3.2171479594759393E+00    7.4639570300681779E+00    1.3047721207304647E+01
N   -3.2361439262246381E+00    5.5965103163410115E+00    1.3686366419494258E+01
Ga   -3.2185679365024700E+00    5.5889924255264214E+00    1.5722806619787791E+01
N   -3.1965656103238942E+00    7.4542964648203718E+00    1.6279325105058465E+01
Ga   -3.1824295595556213E+00    7.4127271092601728E+00    1.8341407207080287E+01
N   -3.1361161140943907E+00    5.5527528839143976E+00    1.8887941747306975E+01
Ga    3.2574531034028142E+00   -3.7265510982222873E-03    3.2099552332911224E-01
N    3.2553044765040755E+00    1.8656822356558957E+00    6.0435584329653569E-01
Ga    3.2833687269718266E+00    1.8806240213249952E+00    2.6346161485129977E+00
N    3.2568024793887798E+00   -4.9313472852833056E-03    3.2254193236625452E+00
Ga    3.2568610182387170E+00   -4.7859849264508788E-03    5.2369192775251481E+00
N    3.2571428557617357E+00    1.8654102526755134E+00    5.8434454381422825E+00
Ga    3.2570915920977552E+00    1.8650696054019782E+00    7.8423086927336954E+00
N    3.2544250113431299E+00   -5.6789735611392101E-03    8.4452006339513446E+00
Ga    3.2550658550767939E+00   -6.9851640610668697E-03    1.0440257481601257E+01
N    3.2616595981923378E+00    1.8634135511093253E+00    1.1048058682228838E+01
Ga    3.2681903239579237E+00    1.8558201862056429E+00    1.3045729486655638E+01
N    3.2574493922341925E+00   -1.3416853663196606E-02    1.3661350140521655E+01
Ga    3.2690512171270294E+00   -2.3516177377250602E-02    1.5671404190151135E+01
N    3.2962132699237836E+00    1.8440028523451897E+00    1.6249314700597076E+01
Ga    3.3506862947480238E+00    1.8318194735824540E+00    1.8286960331885616E+01
N    3.3140709244159949E+00   -5.4785998743676692E-02    1.8742476734210403E+01
Ga    1.6370456181454729E+00    2.8020217898313891E+00    3.2097342706492776E-01
N    1.6430286617970102E+00    4.6720919626485715E+00    6.0307508828248435E-01
Ga    1.6151984484303727E+00    4.6865107275228688E+00    2.6341880006804224E+00
N    1.6366838070099790E+00    2.8008747369765730E+00    3.2257089693978211E+00
Ga    1.6368511806557402E+00    2.8011395875294922E+00    5.2375832719374413E+00
N    1.6418265315517229E+00    4.6710098447248063E+00    5.8455059572082666E+00
Ga    1.6399472316529400E+00    4.6702602343095476E+00    7.8460780519045805E+00
N    1.6363434299730921E+00    2.7979365905948868E+00    8.4464503103302135E+00
Ga    1.6365954942433727E+00    2.7966280550775044E+00    1.0442615016234347E+01
N    1.6317579288578519E+00    4.6677198645043623E+00    1.1037354326986835E+01
Ga    1.6250856875218513E+00    4.6654132240004307E+00    1.3031624884557322E+01
N    1.6418236066694702E+00    2.7872001246914824E+00    1.3636577015556727E+01
Ga    1.6701102409917035E+00    2.7759583400737347E+00    1.5630948721522293E+01
N    1.6247177315861701E+00    4.6606685610866698E+00    1.6124343757820178E+01
Ga    1.7012251842583728E+00    4.6225493390681143E+00    1.8103980777499775E+01
N    1.7025520264429337E+00    2.7651128463007120E+00    1.8557981531909036E+01
Ga    1.6754974715115705E-02    5.6082067910929432E+00   -5.4683807673489682E-01
N    2.0348348189629991E-02    7.4816518666643450E+00    6.0350096919875873E-01
Ga    1.9881313337623406E-02    7.4493143789895617E+00    2.6341968020519388E+00
N    1.7124034884338165E-02    5.6060313614343853E+00    3.2661362362200101E+00
Ga    1.7229474186320339E-02    5.6063835392826533E+00    5.2564341774703331E+00
N    1.9938184301718641E-02    7.4807509758623194E+00    5.8444927160333933E+00
Ga    1.8916180234481567E-02    7.4782230639748866E+00    7.8440662496115232E+00
N    1.3863421885601208E-02    5.6047323329837200E+00    8.4435306568109816E+00
Ga    1.0800335045538218E-02    5.6041266166077888E+00    1.0441115373906809E+01
N    1.8296294399682115E-02    7.4774090015464054E+00    1.1039399606903800E+01
Ga    1.6302202044517117E-02    7.4785163005556718E+00    1.3032108004341696E+01
N    2.1467912517582513E-03    5.6075478148461766E+00    1.3627987035698126E+01
Ga    8.2835330129977602E-04    5.5978967591541080E+00    1.5623230012643811E+01
N    4.5285333287937199E-02    7.4641949394511871E+00    1.6253368779685189E+01
Ga    7.1152813485252292E-02    7.4153240123799931E+00    1.8338306716108910E+01
N    1.7900456655544189E-01    5.5576537448302448E+00    1.8864179012957738E+01
Ga    6.5014091986263143E+00   -3.1330856781305767E-03    3.2084309205667777E-01
N    6.5085706657638083E+00    1.8664783247403511E+00    6.0384269161838899E-01
Ga    6.4803434243453122E+00    1.8809586037480430E+00    2.6343141161444943E+00
N    6.5021180928699485E+00   -4.7754338937191368E-03    3.2255532336347015E+00
Ga    6.5022147717020156E+00   -4.5264478786584067E-03    5.2375514724257286E+00
N    6.5073553356711695E+00    1.8662073280997171E+00    5.8435575836274527E+00
Ga    6.5048702745023714E+00    1.8662314606994259E+00    7.8423819913565609E+00
N    6.5001263428924512E+00   -3.3399214779766574E-03    8.4470483075236853E+00
Ga    6.5002788750158205E+00    1.6103378851253249E-04    1.0443680568328210E+01
N    6.5033515446798393E+00    1.8717642421273006E+00    1.1053646753184204E+01
Ga    6.5057249426202226E+00    1.8744271792548373E+00    1.3052684711030249E+01
N    6.4932901375470404E+00    2.6465782635947880E-03    1.3630649314695063E+01
Ga    6.5089247655536973E+00    7.8809787601991556E-03    1.5631905754632372E+01
N    6.5202338206453421E+00    1.8726595611756474E+00    1.6256785355355895E+01
Ga    6.5984160376825978E+00    1.8424275637148257E+00    1.8312243277262681E+01
N    6.5839206509586896E+00   -6.8821179924198062E-02    1.8660511616901676E+01
Ga    4.8820745694026249E+00    2.8024291132404100E+00   -5.4488261909485791E-01
N    4.8857220117434066E+00    4.6768925848994103E+00    6.0437482272464660E-01
Ga    4.8851336904958673E+00    4.6444255369328697E+00    2.6344659543280700E+00
N    4.8822022202683311E+00    2.8007225738076813E+00    3.2657506387644988E+00
Ga    4.8822435761283485E+00    2.8012927254967672E+00    5.2556807776947414E+00
N    4.8847202551230540E+00    4.6754408152622728E+00    5.8440463711545538E+00
Ga    4.8820480384450997E+00    4.6734850715002381E+00    7.8435967720895308E+00
N    4.8809935178446020E+00    2.8001241946028244E+00    8.4447085981568826E+00
Ga    4.8820091916349666E+00    2.8019523535823692E+00    1.0442605251254221E+01
N    4.8855326492623519E+00    4.6715744360674831E+00    1.1049203431230849E+01
Ga    4.8827440267199567E+00    4.6714059939260837E+00    1.3049823833218268E+01
N    4.8799115801799573E+00    2.8034278647716291E+00    1.3665855422966139E+01
Ga    4.8869755756419586E+00    2.7960264683405311E+00    1.5687923812764016E+01
N    4.8410564691122611E+00    4.6874713996946946E+00    1.6147883579252174E+01
Ga    4.9603402789122040E+00    4.6076335759268359E+00    1.9124602740026319E+01
N    4.9685833227050535E+00    2.7237567653086678E+00    1.8830417017354865E+01
Ga    3.2633479734202906E+00    5.6065688578391688E+00    3.2087662226338176E-01
N    3.2624159179619769E+00    7.4773441845781106E+00    6.0246788605359647E-01
Ga    3.2897884055469833E+00    7.4918174760758189E+00    2.6348523005735611E+00
N    3.2624152037935028E+00    5.6064417903190886E+00    3.2256515392616598E+00
Ga    3.2622366546478720E+00    5.6067484328395638E+00    5.2377572910013033E+00
N    3.2629283089813934E+00    7.4767384007734838E+00    5.8458849902706138E+00
Ga    3.2626964717069802E+00    7.4756019787629535E+00    7.8466345148502281E+00
N    3.2608657400263796E+00    5.6050913851611872E+00    8.4504833375217459E+00
Ga    3.2599994859247183E+00    5.6058455007276029E+00    1.0450342936915144E+01
N    3.2638016620832984E+00    7.4827827646680767E+00    1.1038517638522462E+01
Ga    3.2608723040735481E+00    7.4854243940655101E+00    1.3033816806887167E+01
N    3.2469358920393852E+00    5.6078998686759629E+00    1.3590548696625181E+01
Ga    3.2471486613297400E+00    5.6178334786293389E+00    1.5585199187085800E+01
N    3.2757257459638160E+00    7.4872216844457062E+00    1.6135865323396114E+01
Ga    3.3410173819758815E+00    7.4546078751654630E+00    1.8141629676656841E+01
N    3.4472624222667898E+00    5.5025417856426833E+00    1.8329857217860877E+01
O    1.4984741532427939E+00    4.8858288089720734E+00    2.1165247344916242E+01
H    9.4663388035362972E-01    5.2972667312949415E+00    2.0408022308445783E+01
C    8.1308723628027268E-01    3.6673510783317225E+00    2.1534470998766309E+01
H   -1.1881248997283283E-03    3.4436091101375794E+00    2.0822864833695775E+01
H    1.5158512804653552E+00    2.8232668696238328E+00    2.1519019689251966E+01
H    3.8923475124471879E-01    3.7743155840188223E+00    2.2543279160366872E+01
O    4.1391224170912215E+00    4.7488638661432088E+00    2.1045533320530158E+01
H    3.1140007210395404E+00    4.8149979196081496E+00    2.1026153554022230E+01
C    4.5258832238522944E+00    3.7421785616181817E+00    2.2018273263361937E+01
H    4.3858906601024961E+00    2.7305975099609152E+00    2.1610839955061135E+01
H    5.5863482608508033E+00    3.8967075890276752E+00    2.2249693502293468E+01
H    3.9277225274966128E+00    3.8766918617034007E+00    2.2927764841611605E+01
     &END COORD
     &KIND C
       BASIS_SET DZVP-MOLOPT-SR-GTH-q4
       POTENTIAL GTH-PBE-q4
       &POTENTIAL
 2 2
  0.3384712400000000E+00 2 -0.8803673979999999E+01  0.1339210850000000E+01
 2
  0.3025757500000000E+00 1  0.9622486650000001E+01
  0.2915069400000000E+00 0
         # Potential name:  GTH-PBE-Q4  for symbol:  C
         # Potential read from the potential filename: GTH_POTENTIALS
       &END POTENTIAL
     &END KIND
     &KIND O
       BASIS_SET DZVP-MOLOPT-SR-GTH-q6
       POTENTIAL GTH-PBE-q6
       &POTENTIAL
 2 4
  0.2445543000000000E+00 2 -0.1666721480000000E+02  0.2487311320000000E+01
 2
  0.2209559200000000E+00 1  0.1833745811000000E+02
  0.2113324700000000E+00 0
         # Potential name:  GTH-PBE-Q6  for symbol:  O
         # Potential read from the potential filename: GTH_POTENTIALS
       &END POTENTIAL
     &END KIND
     &KIND H
       BASIS_SET DZVP-MOLOPT-SR-GTH-q1
       POTENTIAL GTH-PBE-q1
       &POTENTIAL
 1
  0.2000000000000000E+00 2 -0.4178900440000000E+01  0.7244633100000000E+00
 0
         # Potential name:  GTH-PBE-Q1  for symbol:  H
         # Potential read from the potential filename: GTH_POTENTIALS
       &END POTENTIAL
     &END KIND
     &KIND N
       BASIS_SET DZVP-MOLOPT-SR-GTH-q5
       POTENTIAL GTH-PBE-q5
       &POTENTIAL
 2 3
  0.2837905100000000E+00 2 -0.1241522559000000E+02  0.1868095920000000E+01
 2
  0.2554050000000000E+00 1  0.1363026257000000E+02
  0.2454945300000000E+00 0
         # Potential name:  GTH-PBE-Q5  for symbol:  N
         # Potential read from the potential filename: GTH_POTENTIALS
       &END POTENTIAL
     &END KIND
     &KIND Ga
       BASIS_SET DZVP-MOLOPT-SR-GTH-q13
       POTENTIAL GTH-PBE-q13
       &POTENTIAL
 2 1 10
  0.4900000000000000E+00 0
 3
  0.4167772300000000E+00 3  0.1047568975000000E+02 -0.4921768140000000E+01  0.8707055900000000E+00
  0.7770178090000000E+01 -0.2248152160000000E+01
  0.1784415450000000E+01
  0.5696265200000000E+00 2  0.1777985340000000E+01  0.1958597600000000E+00
 -0.2317443900000000E+00
  0.2381265000000000E+00 1 -0.1624868022000000E+02
         # Potential name:  GTH-PBE-Q13  for symbol:  GA
         # Potential read from the potential filename: GTH_POTENTIALS
       &END POTENTIAL
     &END KIND
     &TOPOLOGY
       COORD_FILE_NAME ../start-first.xyz
       COORD_FILE_FORMAT  XYZ
       NUMBER_OF_ATOMS  156
       MULTIPLE_UNIT_CELL  1 1 1
     &END TOPOLOGY
     &COLVAR
       &DISTANCE
         ATOMS  32 148
       &END DISTANCE
       &PRINT
       &END PRINT
     &END COLVAR
   &END SUBSYS
 &END FORCE_EVAL
