 # Version information for this restart file 
 # current date 2019-05-27 21:40:24.938
 # current working dir /lustre03/project/6004141/rzk/GaN-carbene/334-native/08-2Methanol-Htransfer/02-NH-constraint/2.64
 # Program compiled at                              Sun Apr  7 00:48:11 EDT 2019
 # Program compiled on                          beluga2.int.ets1.calculquebec.ca
 # Program compiled for                        Beluga-Linux-x86-64-intel-openmpi
 # Source code revision number                                         svn:18619
 &GLOBAL
   PRINT_LEVEL  MEDIUM
   PROJECT_NAME TEST
   RUN_TYPE  GEO_OPT
 &END GLOBAL
 &MOTION
   &GEO_OPT
     MAX_ITER  500
     STEP_START_VAL  53
   &END GEO_OPT
   &CONSTRAINT
     &COLLECTIVE
       COLVAR  1
       INTERMOLECULAR  T
       TARGET     4.9888769908180972E+00
       &RESTRAINT
         K     1.0000000000000001E-01
       &END RESTRAINT
     &END COLLECTIVE
     &COLVAR_RESTART
           4.9888769908180972E+00
     &END COLVAR_RESTART
   &END CONSTRAINT
 &END MOTION
 &FORCE_EVAL
   METHOD  QS
   STRESS_TENSOR  ANALYTICAL
   &DFT
     BASIS_SET_FILE_NAME BASIS_MOLOPT
     POTENTIAL_FILE_NAME GTH_POTENTIALS
     &SCF
       MAX_SCF  100
       EPS_SCF     5.0000000000000004E-06
       &OT  T
         PRECONDITIONER  FULL_ALL
       &END OT
       &OUTER_SCF  T
         OPTIMIZER  NONE
         EPS_SCF     5.0000000000000004E-06
         MAX_SCF  4
       &END OUTER_SCF
       &PRINT
         &RESTART  OFF
           BACKUP_COPIES  1
           &EACH
             JUST_ENERGY  0
             QS_SCF  0
             MD  20
           &END EACH
         &END RESTART
       &END PRINT
     &END SCF
     &QS
       EPS_DEFAULT     1.0000000000000000E-14
       ALMO_SCF  F
       METHOD  GPW
     &END QS
     &MGRID
       NGRIDS  5
       CUTOFF     1.2000000000000000E+03
     &END MGRID
     &XC
       DENSITY_CUTOFF     1.0000000000000000E-10
       GRADIENT_CUTOFF     1.0000000000000000E-10
       TAU_CUTOFF     1.0000000000000000E-10
       &XC_FUNCTIONAL  NO_SHORTCUT
         &PBE  T
         &END PBE
       &END XC_FUNCTIONAL
       &VDW_POTENTIAL
         POTENTIAL_TYPE  PAIR_POTENTIAL
         &PAIR_POTENTIAL
           R_CUTOFF     1.0000000000000005E+01
           TYPE  DFTD3
           PARAMETER_FILE_NAME dftd3.dat
           REFERENCE_FUNCTIONAL PBE
           EPS_CN     9.9999999999999995E-07
           CALCULATE_C9_TERM  T
           REFERENCE_C9_TERM  T
           LONG_RANGE_CORRECTION  F
           VERBOSE_OUTPUT  F
         &END PAIR_POTENTIAL
       &END VDW_POTENTIAL
     &END XC
   &END DFT
   &SUBSYS
     &CELL
       A     9.7367653356401487E+00    0.0000000000000000E+00    0.0000000000000000E+00
       B    -4.8591341382960209E+00    8.4162672083210595E+00    0.0000000000000000E+00
       C     0.0000000000000000E+00    0.0000000000000000E+00    3.0744000000000000E+01
       MULTIPLE_UNIT_CELL  1 1 1
       &CELL_REF
         A     9.5580000000000052E+00    0.0000000000000000E+00    0.0000000000000000E+00
         B    -4.7790000000000026E+00    8.2774708093716640E+00    0.0000000000000000E+00
         C     0.0000000000000000E+00    0.0000000000000000E+00    3.0744000000000000E+01
         MULTIPLE_UNIT_CELL  1 1 1
       &END CELL_REF
     &END CELL
     &COORD
Ga    1.2514056994425886E-02   -3.0182885819677921E-03   -5.3433934088688750E-01
N    1.4190462969536638E-02    1.8703013349060809E+00    6.0310192203232471E-01
Ga    1.4025296996397480E-02    1.8385947144723123E+00    2.6352004888297813E+00
N    1.0724687714027646E-02   -4.8828682762075918E-03    3.2662623325471287E+00
Ga    1.0748300485789227E-02   -4.6596076004159865E-03    5.2568390070478426E+00
N    1.3418327280668552E-02    1.8699358393949503E+00    5.8443125641648423E+00
Ga    1.3041798133914408E-02    1.8669946179328962E+00    7.8438962891618242E+00
N    1.1534445791903856E-02   -6.0787643947278697E-03    8.4445646661586871E+00
Ga    1.3004122337006267E-02   -6.9761248238699057E-03    1.0442743494307326E+01
N    1.1342485315958531E-02    1.8653422421880663E+00    1.1045190351257371E+01
Ga    1.7377424294403841E-02    1.8605763859715700E+00    1.3039281805052870E+01
N    2.4138643055414709E-02   -1.1609510439731149E-02    1.3633994206542736E+01
Ga    4.1707620795207755E-02   -3.6146386918833616E-02    1.5627072620832898E+01
N    3.4585939130262179E-02    1.8455076651787210E+00    1.6206921646351141E+01
Ga    5.9538646128523345E-02    1.8188739249659938E+00    1.8262906366977017E+01
N    5.2669799816720146E-02   -4.9902700579150444E-02    1.8675095063444427E+01
Ga   -1.6087659872417681E+00    2.8017254692737734E+00    3.2118597532266918E-01
N   -1.6097862895630415E+00    4.6716158188127714E+00    6.0332717551787940E-01
Ga   -1.5816568723523829E+00    4.6867636434452216E+00    2.6340947617878312E+00
N   -1.6086284747636568E+00    2.8007887354532057E+00    3.2247281467799915E+00
Ga   -1.6086211282162208E+00    2.8010923959830474E+00    5.2361980955513499E+00
N   -1.6087819044226845E+00    4.6708948119127882E+00    5.8429874572162923E+00
Ga   -1.6088610424703775E+00    4.6701241930084425E+00    7.8415950916064556E+00
N   -1.6098931048767382E+00    2.7998857965490962E+00    8.4477617526216626E+00
Ga   -1.6108150425640448E+00    2.8008931350202220E+00    1.0443709220271813E+01
N   -1.6126962729733647E+00    4.6707609303028370E+00    1.1051489360856369E+01
Ga   -1.6176654285079106E+00    4.6683636148988548E+00    1.3049151318233815E+01
N   -1.5997349304462840E+00    2.7990494289545120E+00    1.3668044861537304E+01
Ga   -1.5966361244704417E+00    2.8094915434401826E+00    1.5675735083888952E+01
N   -1.5911918064237289E+00    4.6727665999430723E+00    1.6308568862117497E+01
Ga   -1.4992802961943412E+00    4.6602631167593467E+00    1.8384599314131069E+01
N   -1.5164255265297419E+00    2.7669004125433276E+00    1.8759790944681317E+01
Ga   -3.2289214423423802E+00    5.6072368285566583E+00    3.2091215964216485E-01
N   -3.2224647283714050E+00    7.4778681598916785E+00    6.0333940712332657E-01
Ga   -3.2497868562429044E+00    7.4919455819284178E+00    2.6354394509698111E+00
N   -3.2284893408623550E+00    5.6062557672868847E+00    3.2253132542175180E+00
Ga   -3.2287907369534734E+00    5.6064636562887866E+00    5.2368523160861340E+00
N   -3.2231576547878618E+00    7.4765063140460644E+00    5.8429530811772992E+00
Ga   -3.2254253414382670E+00    7.4755172485032206E+00    7.8417007688397655E+00
N   -3.2301034860038493E+00    5.6046547405145581E+00    8.4444964278043457E+00
Ga   -3.2315043491939210E+00    5.6030468662466397E+00    1.0439452047951884E+01
N   -3.2235358057749757E+00    7.4714324857874894E+00    1.1049283827590260E+01
Ga   -3.2171295213341433E+00    7.4640174879245809E+00    1.3047589680501686E+01
N   -3.2360145125333504E+00    5.5965478329456850E+00    1.3686422987585141E+01
Ga   -3.2184272272732328E+00    5.5894008525148227E+00    1.5722817049092235E+01
N   -3.1967085384515648E+00    7.4543614589592062E+00    1.6279487839089473E+01
Ga   -3.1826075409683376E+00    7.4126989994059125E+00    1.8341289166284461E+01
N   -3.1362401010718903E+00    5.5527124953012565E+00    1.8887830554875279E+01
Ga    3.2574690556923716E+00   -3.8301388878882584E-03    3.2077397150962139E-01
N    3.2553224334386188E+00    1.8656552486396523E+00    6.0424294867542816E-01
Ga    3.2833002983052788E+00    1.8806379630796153E+00    2.6345877541403930E+00
N    3.2567198298577145E+00   -4.9017814552539700E-03    3.2255275757169790E+00
Ga    3.2568546502442355E+00   -4.6837030131494485E-03    5.2370215944536831E+00
N    3.2571826719773336E+00    1.8655035697246496E+00    5.8434508368369054E+00
Ga    3.2571905784581441E+00    1.8651850418389131E+00    7.8423801086680296E+00
N    3.2545013605122031E+00   -5.6073397873747498E-03    8.4451903428024337E+00
Ga    3.2551156910600998E+00   -6.9420130744554118E-03    1.0440229846979447E+01
N    3.2616939788227430E+00    1.8633674687901491E+00    1.1048053734790892E+01
Ga    3.2682236734631629E+00    1.8557996284864056E+00    1.3045717482016213E+01
N    3.2574936435419874E+00   -1.3441079408028590E-02    1.3661610830235215E+01
Ga    3.2690326690750577E+00   -2.3406808617270087E-02    1.5671779517241927E+01
N    3.2962928248626326E+00    1.8441106711255917E+00    1.6249594392744225E+01
Ga    3.3505595263968266E+00    1.8315365967102759E+00    1.8287114111673812E+01
N    3.3141105967443099E+00   -5.5253277598918335E-02    1.8742732188051477E+01
Ga    1.6370018706680698E+00    2.8020173823958840E+00    3.2078794930892524E-01
N    1.6430174929983716E+00    4.6720150026521647E+00    6.0330850577853423E-01
Ga    1.6151567189115450E+00    4.6865306445300012E+00    2.6342694286828685E+00
N    1.6366259057780321E+00    2.8008940997281604E+00    3.2258458262331069E+00
Ga    1.6368793065074667E+00    2.8011882586712917E+00    5.2377132625893763E+00
N    1.6418742665205228E+00    4.6710777088026330E+00    5.8456220348251628E+00
Ga    1.6400865860526659E+00    4.6703234299279330E+00    7.8461972394940869E+00
N    1.6363855611964235E+00    2.7980084754332846E+00    8.4465161332879610E+00
Ga    1.6367153415320947E+00    2.7966172070387580E+00    1.0442619808612603E+01
N    1.6318544491497573E+00    4.6677186310343162E+00    1.1037490573590475E+01
Ga    1.6252815253337907E+00    4.6653579053954557E+00    1.3031691978596806E+01
N    1.6419550741931483E+00    2.7872410734114337E+00    1.3636792999392400E+01
Ga    1.6702251396010306E+00    2.7758630115125325E+00    1.5631013730354516E+01
N    1.6249362637232159E+00    4.6605412172345515E+00    1.6124452604609438E+01
Ga    1.7013467678421890E+00    4.6224358728496560E+00    1.8103932096729817E+01
N    1.7027549359511656E+00    2.7649623654875297E+00    1.8558007122488370E+01
Ga    1.6723533744947176E-02    5.6081184125647541E+00   -5.4747275733906298E-01
N    2.0318173524275698E-02    7.4816376675729863E+00    6.0371366925745540E-01
Ga    1.9837593609822322E-02    7.4493838173799665E+00    2.6343187034322231E+00
N    1.7068234230888810E-02    5.6060507365490126E+00    3.2662848236594537E+00
Ga    1.7248351298105521E-02    5.6064491286019100E+00    5.2566158840483768E+00
N    1.9950869372948900E-02    7.4808379238863800E+00    5.8445486251577501E+00
Ga    1.8994529972086231E-02    7.4783184838426369E+00    7.8441406186996137E+00
N    1.3943774945943116E-02    5.6047624241984177E+00    8.4434598885867462E+00
Ga    1.0960851256994746E-02    5.6040870626543082E+00    1.0440993810335829E+01
N    1.8381542189912094E-02    7.4773369515290105E+00    1.1039358362944178E+01
Ga    1.6322598506916551E-02    7.4785273833255355E+00    1.3032067582800121E+01
N    2.2537294410033466E-03    5.6074999936580783E+00    1.3628305393216648E+01
Ga    9.5498810642669638E-04    5.5976017964402027E+00    1.5623484101233506E+01
N    4.5350842509013695E-02    7.4641768543826617E+00    1.6253438849636492E+01
Ga    7.0913473715198433E-02    7.4151838696753511E+00    1.8338324210878721E+01
N    1.7907615903379487E-01    5.5573683175748823E+00    1.8864347846835319E+01
Ga    6.5013265312037110E+00   -3.2243849348360990E-03    3.2062492388846653E-01
N    6.5085203122378772E+00    1.8664400233240233E+00    6.0376753778465631E-01
Ga    6.4803315629443068E+00    1.8809517318299764E+00    2.6342767783835805E+00
N    6.5021034647860407E+00   -4.7542935289890979E-03    3.2257051390582898E+00
Ga    6.5022778762854436E+00   -4.4578682979697385E-03    5.2376993765776287E+00
N    6.5073532625258359E+00    1.8662686871766723E+00    5.8435248634544275E+00
Ga    6.5048440567894223E+00    1.8662420068999475E+00    7.8424076941374441E+00
N    6.5002251341045971E+00   -3.3188527585603497E-03    8.4470370014534950E+00
Ga    6.5004247239588393E+00    2.9355905368108215E-05    1.0443627515049041E+01
N    6.5034057154640212E+00    1.8716751973770662E+00    1.1053559383062677E+01
Ga    6.5056682558878061E+00    1.8743588601148979E+00    1.3052514838421487E+01
N    6.4934447726500020E+00    2.5710593454395443E-03    1.3630582307244493E+01
Ga    6.5091606657987642E+00    7.9851348927349082E-03    1.5631847898656337E+01
N    6.5205472203607249E+00    1.8728389756037376E+00    1.6256568424553073E+01
Ga    6.5983089794958545E+00    1.8421276311400840E+00    1.8312281930684279E+01
N    6.5838609130762196E+00   -6.9107372984097290E-02    1.8660418931330774E+01
Ga    4.8821270279370275E+00    2.8023165405888273E+00   -5.4553195147173417E-01
N    4.8856608097674448E+00    4.6767706322562335E+00    6.0427746287840678E-01
Ga    4.8850587711785414E+00    4.6444767223893697E+00    2.6344622770874579E+00
N    4.8821659611648931E+00    2.8007440459182211E+00    3.2657034654316277E+00
Ga    4.8822733707851382E+00    2.8013521490853499E+00    5.2556379866335030E+00
N    4.8847294792497031E+00    4.6754738879228794E+00    5.8440523083525617E+00
Ga    4.8820640835791655E+00    4.6734740049556844E+00    7.8436381072839358E+00
N    4.8810711517639112E+00    2.8001669150768325E+00    8.4447132904856943E+00
Ga    4.8819801947628649E+00    2.8019400299751771E+00    1.0442596219445385E+01
N    4.8856443148861564E+00    4.6714868296913030E+00    1.1049273251513798E+01
Ga    4.8827929609401615E+00    4.6713551684132124E+00    1.3049836893680258E+01
N    4.8800038785986812E+00    2.8033938589500185E+00    1.3665889857290662E+01
Ga    4.8869702301396005E+00    2.7959017025854935E+00    1.5688101576827796E+01
N    4.8412331280440490E+00    4.6875005909849294E+00    1.6147625587449703E+01
Ga    4.9605047149787094E+00    4.6075234649300336E+00    1.9124825378273471E+01
N    4.9685198990894541E+00    2.7235507205510037E+00    1.8830335892063335E+01
Ga    3.2632424828195687E+00    5.6064782440599421E+00    3.2067260460214997E-01
N    3.2624311335397853E+00    7.4773210912203263E+00    6.0249676436717869E-01
Ga    3.2896846593776412E+00    7.4917870290818449E+00    2.6348770405298914E+00
N    3.2623519402935561E+00    5.6064773744655190E+00    3.2258038212767111E+00
Ga    3.2622744155988239E+00    5.6068338828965754E+00    5.2378801352977655E+00
N    3.2629741875153000E+00    7.4767788753720206E+00    5.8459805053554144E+00
Ga    3.2628002970527663E+00    7.4756245021477472E+00    7.8467762515019643E+00
N    3.2609765061774132E+00    5.6051140845278455E+00    8.4505481478354714E+00
Ga    3.2601877836036937E+00    5.6057846703152485E+00    1.0450351256286170E+01
N    3.2639863039910475E+00    7.4827445713480465E+00    1.1038519634506279E+01
Ga    3.2610604757170818E+00    7.4853951400759513E+00    1.3033626755499233E+01
N    3.2470080557660879E+00    5.6079894424360761E+00    1.3590585934997554E+01
Ga    3.2471229116914082E+00    5.6178835889443448E+00    1.5585118872207723E+01
N    3.2760459280820555E+00    7.4873187543322102E+00    1.6135757556565284E+01
Ga    3.3411584671493015E+00    7.4546028278792029E+00    1.8141499575052045E+01
N    3.4475501830547781E+00    5.5022497195849658E+00    1.8329445141927167E+01
O    1.4984980187439867E+00    4.8852217649423588E+00    2.1165393933310668E+01
H    9.4675014802687774E-01    5.2963487102933664E+00    2.0407923046013021E+01
C    8.1352999346590438E-01    3.6665259744376848E+00    2.1534596826935250E+01
H   -1.2841815463025814E-03    3.4426632804626216E+00    2.0823444413783431E+01
H    1.5164271245954883E+00    2.8229151632423832E+00    2.1519072310517167E+01
H    3.8974026096380276E-01    3.7730042794313654E+00    2.2543436392255266E+01
O    4.1387304284703390E+00    4.7490535626949875E+00    2.1045101403806644E+01
H    3.1135097076805014E+00    4.8150627994624324E+00    2.1025989809049953E+01
C    4.5255736276717222E+00    3.7428025332199897E+00    2.2018181874718476E+01
H    4.3855076718420456E+00    2.7312375513569505E+00    2.1611267462560612E+01
H    5.5858731926334242E+00    3.8974315719863775E+00    2.2249585198479412E+01
H    3.9272288191352964E+00    3.8773790122691039E+00    2.2927533765872873E+01
     &END COORD
     &KIND C
       BASIS_SET DZVP-MOLOPT-SR-GTH-q4
       POTENTIAL GTH-PBE-q4
       &POTENTIAL
 2 2
  0.3384712400000000E+00 2 -0.8803673979999999E+01  0.1339210850000000E+01
 2
  0.3025757500000000E+00 1  0.9622486650000001E+01
  0.2915069400000000E+00 0
         # Potential name:  GTH-PBE-Q4  for symbol:  C
         # Potential read from the potential filename: GTH_POTENTIALS
       &END POTENTIAL
     &END KIND
     &KIND O
       BASIS_SET DZVP-MOLOPT-SR-GTH-q6
       POTENTIAL GTH-PBE-q6
       &POTENTIAL
 2 4
  0.2445543000000000E+00 2 -0.1666721480000000E+02  0.2487311320000000E+01
 2
  0.2209559200000000E+00 1  0.1833745811000000E+02
  0.2113324700000000E+00 0
         # Potential name:  GTH-PBE-Q6  for symbol:  O
         # Potential read from the potential filename: GTH_POTENTIALS
       &END POTENTIAL
     &END KIND
     &KIND H
       BASIS_SET DZVP-MOLOPT-SR-GTH-q1
       POTENTIAL GTH-PBE-q1
       &POTENTIAL
 1
  0.2000000000000000E+00 2 -0.4178900440000000E+01  0.7244633100000000E+00
 0
         # Potential name:  GTH-PBE-Q1  for symbol:  H
         # Potential read from the potential filename: GTH_POTENTIALS
       &END POTENTIAL
     &END KIND
     &KIND N
       BASIS_SET DZVP-MOLOPT-SR-GTH-q5
       POTENTIAL GTH-PBE-q5
       &POTENTIAL
 2 3
  0.2837905100000000E+00 2 -0.1241522559000000E+02  0.1868095920000000E+01
 2
  0.2554050000000000E+00 1  0.1363026257000000E+02
  0.2454945300000000E+00 0
         # Potential name:  GTH-PBE-Q5  for symbol:  N
         # Potential read from the potential filename: GTH_POTENTIALS
       &END POTENTIAL
     &END KIND
     &KIND Ga
       BASIS_SET DZVP-MOLOPT-SR-GTH-q13
       POTENTIAL GTH-PBE-q13
       &POTENTIAL
 2 1 10
  0.4900000000000000E+00 0
 3
  0.4167772300000000E+00 3  0.1047568975000000E+02 -0.4921768140000000E+01  0.8707055900000000E+00
  0.7770178090000000E+01 -0.2248152160000000E+01
  0.1784415450000000E+01
  0.5696265200000000E+00 2  0.1777985340000000E+01  0.1958597600000000E+00
 -0.2317443900000000E+00
  0.2381265000000000E+00 1 -0.1624868022000000E+02
         # Potential name:  GTH-PBE-Q13  for symbol:  GA
         # Potential read from the potential filename: GTH_POTENTIALS
       &END POTENTIAL
     &END KIND
     &TOPOLOGY
       COORD_FILE_NAME ../start-first.xyz
       COORD_FILE_FORMAT  XYZ
       NUMBER_OF_ATOMS  156
       MULTIPLE_UNIT_CELL  1 1 1
     &END TOPOLOGY
     &COLVAR
       &DISTANCE
         ATOMS  32 148
       &END DISTANCE
       &PRINT
       &END PRINT
     &END COLVAR
   &END SUBSYS
 &END FORCE_EVAL
