 # Version information for this restart file 
 # current date 2019-05-27 21:38:50.387
 # current working dir /lustre03/project/6004141/rzk/GaN-carbene/334-native/08-2Methanol-Htransfer/02-NH-constraint/2.64
 # Program compiled at                              Sun Apr  7 00:48:11 EDT 2019
 # Program compiled on                          beluga2.int.ets1.calculquebec.ca
 # Program compiled for                        Beluga-Linux-x86-64-intel-openmpi
 # Source code revision number                                         svn:18619
 &GLOBAL
   PRINT_LEVEL  MEDIUM
   PROJECT_NAME TEST
   RUN_TYPE  GEO_OPT
 &END GLOBAL
 &MOTION
   &GEO_OPT
     MAX_ITER  500
     STEP_START_VAL  51
   &END GEO_OPT
   &CONSTRAINT
     &COLLECTIVE
       COLVAR  1
       INTERMOLECULAR  T
       TARGET     4.9888769908180972E+00
       &RESTRAINT
         K     1.0000000000000001E-01
       &END RESTRAINT
     &END COLLECTIVE
     &COLVAR_RESTART
           4.9888769908180972E+00
     &END COLVAR_RESTART
   &END CONSTRAINT
 &END MOTION
 &FORCE_EVAL
   METHOD  QS
   STRESS_TENSOR  ANALYTICAL
   &DFT
     BASIS_SET_FILE_NAME BASIS_MOLOPT
     POTENTIAL_FILE_NAME GTH_POTENTIALS
     &SCF
       MAX_SCF  100
       EPS_SCF     5.0000000000000004E-06
       &OT  T
         PRECONDITIONER  FULL_ALL
       &END OT
       &OUTER_SCF  T
         OPTIMIZER  NONE
         EPS_SCF     5.0000000000000004E-06
         MAX_SCF  4
       &END OUTER_SCF
       &PRINT
         &RESTART  OFF
           BACKUP_COPIES  1
           &EACH
             JUST_ENERGY  0
             QS_SCF  0
             MD  20
           &END EACH
         &END RESTART
       &END PRINT
     &END SCF
     &QS
       EPS_DEFAULT     1.0000000000000000E-14
       ALMO_SCF  F
       METHOD  GPW
     &END QS
     &MGRID
       NGRIDS  5
       CUTOFF     1.2000000000000000E+03
     &END MGRID
     &XC
       DENSITY_CUTOFF     1.0000000000000000E-10
       GRADIENT_CUTOFF     1.0000000000000000E-10
       TAU_CUTOFF     1.0000000000000000E-10
       &XC_FUNCTIONAL  NO_SHORTCUT
         &PBE  T
         &END PBE
       &END XC_FUNCTIONAL
       &VDW_POTENTIAL
         POTENTIAL_TYPE  PAIR_POTENTIAL
         &PAIR_POTENTIAL
           R_CUTOFF     1.0000000000000005E+01
           TYPE  DFTD3
           PARAMETER_FILE_NAME dftd3.dat
           REFERENCE_FUNCTIONAL PBE
           EPS_CN     9.9999999999999995E-07
           CALCULATE_C9_TERM  T
           REFERENCE_C9_TERM  T
           LONG_RANGE_CORRECTION  F
           VERBOSE_OUTPUT  F
         &END PAIR_POTENTIAL
       &END VDW_POTENTIAL
     &END XC
   &END DFT
   &SUBSYS
     &CELL
       A     9.7367653356401487E+00    0.0000000000000000E+00    0.0000000000000000E+00
       B    -4.8591341382960209E+00    8.4162672083210595E+00    0.0000000000000000E+00
       C     0.0000000000000000E+00    0.0000000000000000E+00    3.0744000000000000E+01
       MULTIPLE_UNIT_CELL  1 1 1
       &CELL_REF
         A     9.5580000000000052E+00    0.0000000000000000E+00    0.0000000000000000E+00
         B    -4.7790000000000026E+00    8.2774708093716640E+00    0.0000000000000000E+00
         C     0.0000000000000000E+00    0.0000000000000000E+00    3.0744000000000000E+01
         MULTIPLE_UNIT_CELL  1 1 1
       &END CELL_REF
     &END CELL
     &COORD
Ga    1.3252317201772392E-02   -3.3074238299303825E-03   -5.3209418813656439E-01
N    1.4978198565339025E-02    1.8698998333294949E+00    6.0346393077420568E-01
Ga    1.4560388878054579E-02    1.8394134107813240E+00    2.6359672083986463E+00
N    1.1182084548592215E-02   -4.0485402911005176E-03    3.2667942347773309E+00
Ga    1.0967535131633897E-02   -3.5179290508069797E-03    5.2575099907894991E+00
N    1.3599618640145960E-02    1.8710713728413766E+00    5.8446656220239808E+00
Ga    1.2811498371279127E-02    1.8676740726290004E+00    7.8442277742817987E+00
N    1.1214811436233081E-02   -5.5867758077946328E-03    8.4447347704675551E+00
Ga    1.2352836434448174E-02   -7.0913420467089965E-03    1.0442902084811724E+01
N    1.0744117572926891E-02    1.8652026294725661E+00    1.1045185540554586E+01
Ga    1.6762771171982736E-02    1.8600681477216257E+00    1.3039380218942009E+01
N    2.3365521264980468E-02   -1.2212830840087226E-02    1.3633822243400786E+01
Ga    4.0779986292302665E-02   -3.6687361753896031E-02    1.5627109639971701E+01
N    3.3641518914141730E-02    1.8454765520504335E+00    1.6206205952702167E+01
Ga    5.8475347847389093E-02    1.8199567037951649E+00    1.8262141213794202E+01
N    5.1015537833285239E-02   -4.9242121818016585E-02    1.8673204684669347E+01
Ga   -1.6079757841682620E+00    2.8017659104771582E+00    3.2153704895661472E-01
N   -1.6091928832754925E+00    4.6716123117378059E+00    6.0432544065528604E-01
Ga   -1.5810986186278009E+00    4.6875344927099922E+00    2.6344915034559824E+00
N   -1.6082595673247435E+00    2.8015162153457043E+00    3.2250966565844172E+00
Ga   -1.6084768614900073E+00    2.8021378442895282E+00    5.2366512865475601E+00
N   -1.6087011883619311E+00    4.6719628003443656E+00    5.8432962354509810E+00
Ga   -1.6091705707726378E+00    4.6707409571806924E+00    7.8418872888416216E+00
N   -1.6101753577590989E+00    2.8004638764250349E+00    8.4478870432088158E+00
Ga   -1.6113906986481550E+00    2.8007171185333797E+00    1.0443762479533230E+01
N   -1.6133262698279904E+00    4.6705253296142182E+00    1.1051417807990132E+01
Ga   -1.6182553735713570E+00    4.6678227309357645E+00    1.3048780181034198E+01
N   -1.6007295433648818E+00    2.7984432366039940E+00    1.3667623995481129E+01
Ga   -1.5975442963265600E+00    2.8091296546585895E+00    1.5674987672327719E+01
N   -1.5920750380344260E+00    4.6720714578286318E+00    1.6308173718169044E+01
Ga   -1.5006739486832570E+00    4.6608303785509113E+00    1.8384360832517920E+01
N   -1.5176330589843108E+00    2.7674916058156298E+00    1.8760010405259351E+01
Ga   -3.2282236128050443E+00    5.6071613140757082E+00    3.2125152489538245E-01
N   -3.2220554072059238E+00    7.4780989412650012E+00    6.0384995042748213E-01
Ga   -3.2493138550674314E+00    7.4927069071767667E+00    2.6361466752645470E+00
N   -3.2281514533886333E+00    5.6070116264849794E+00    3.2256138740983116E+00
Ga   -3.2286613538195512E+00    5.6074888894098631E+00    5.2372046198213464E+00
N   -3.2229706089864223E+00    7.4775200531633921E+00    5.8432611471071425E+00
Ga   -3.2256778083621671E+00    7.4759717911152190E+00    7.8420000963736003E+00
N   -3.2304106943379285E+00    5.6051421139373314E+00    8.4448168556380097E+00
Ga   -3.2322200564502439E+00    5.6028965282427547E+00    1.0439733977012931E+01
N   -3.2242731971641398E+00    7.4712439877737067E+00    1.1049208938081099E+01
Ga   -3.2178353587790109E+00    7.4635548011292530E+00    1.3047456600306120E+01
N   -3.2365196690582070E+00    5.5958404432932047E+00    1.3685690527806853E+01
Ga   -3.2193479255029764E+00    5.5885745974091847E+00    1.5721844176533507E+01
N   -3.1975158562521870E+00    7.4535226737970390E+00    1.6278805495719553E+01
Ga   -3.1840180264116933E+00    7.4130734331709487E+00    1.8340334736320361E+01
N   -3.1376943733797442E+00    5.5532344701909722E+00    1.8887725388700421E+01
Ga    3.2583046020377191E+00   -3.8127762191666435E-03    3.2108971584801943E-01
N    3.2562479442041252E+00    1.8658164727620177E+00    6.0420479859038356E-01
Ga    3.2838890543930579E+00    1.8814164028368543E+00    2.6348395343931199E+00
N    3.2571525306461133E+00   -3.9509235421795108E-03    3.2258802474708332E+00
Ga    3.2570384626745610E+00   -3.5171173485655928E-03    5.2374375968331330E+00
N    3.2572794311736115E+00    1.8665674364262608E+00    5.8437529943305835E+00
Ga    3.2569174944931323E+00    1.8657248176486960E+00    7.8427100215047352E+00
N    3.2541986033901713E+00   -5.1762530535264884E-03    8.4453121207311224E+00
Ga    3.2543993757976648E+00   -7.2179334904562452E-03    1.0440276261920607E+01
N    3.2610197354007719E+00    1.8630076988922757E+00    1.1047957084535589E+01
Ga    3.2673631923266568E+00    1.8550490490685152E+00    1.3045471649391780E+01
N    3.2569099579677583E+00   -1.4082281067446216E-02    1.3661423099670731E+01
Ga    3.2679380096550785E+00   -2.3911858089393622E-02    1.5671312799808812E+01
N    3.2952263542978710E+00    1.8434851902371867E+00    1.6249683140771442E+01
Ga    3.3489715088296652E+00    1.8324445924965613E+00    1.8287145856507337E+01
N    3.3123908335023726E+00   -5.4588452708302579E-02    1.8742681003343037E+01
Ga    1.6377963204594781E+00    2.8020818962787248E+00    3.2100486803640510E-01
N    1.6438494703784088E+00    4.6720135014216035E+00    6.0424880562629557E-01
Ga    1.6155282505111441E+00    4.6872972374570123E+00    2.6345950167707590E+00
N    1.6372037995545849E+00    2.8016339285289438E+00    3.2261426446979815E+00
Ga    1.6371172383136467E+00    2.8022761761533741E+00    5.2380845408140040E+00
N    1.6420203945918392E+00    4.6721223673674332E+00    5.8459454900278480E+00
Ga    1.6398953436691686E+00    4.6709166458012517E+00    7.8465110958955089E+00
N    1.6361770676625118E+00    2.7985840939444557E+00    8.4466994994717517E+00
Ga    1.6361302740261758E+00    2.7964376873457750E+00    1.0442761160449329E+01
N    1.6312661911650639E+00    4.6674756135637239E+00    1.1037535778786449E+01
Ga    1.6246970159468090E+00    4.6648232897880764E+00    1.3031670734429955E+01
N    1.6413735003087371E+00    2.7867509533385997E+00    1.3636816858160856E+01
Ga    1.6697382227707380E+00    2.7756331119638107E+00    1.5631035505112536E+01
N    1.6243725177408703E+00    4.6601976348637963E+00    1.6125655481643118E+01
Ga    1.6998555772877910E+00    4.6229818260384725E+00    1.8105418148713852E+01
N    1.7011918268097539E+00    2.7653566942974872E+00    1.8560204740275704E+01
Ga    1.7446945713715762E-02    5.6080641966525659E+00   -5.4873506361248903E-01
N    2.1049543845310971E-02    7.4818085861183548E+00    6.0473093136466871E-01
Ga    2.0320491706740978E-02    7.4500926433877295E+00    2.6348594198781607E+00
N    1.7507061902606012E-02    5.6068413433298874E+00    3.2669646319301271E+00
Ga    1.7412352831136516E-02    5.6075084770902777E+00    5.2571988275634114E+00
N    2.0108679110465145E-02    7.4819147676379805E+00    5.8448736448954666E+00
Ga    1.8795025445198052E-02    7.4788548224818650E+00    7.8444342751100455E+00
N    1.3696767683221032E-02    5.6052322824841392E+00    8.4435992126741439E+00
Ga    1.0396646029776500E-02    5.6038423928423713E+00    1.0441001146310160E+01
N    1.7677623922936547E-02    7.4770087000761469E+00    1.1039413601032759E+01
Ga    1.5607870007309796E-02    7.4777409077567194E+00    1.3032012336826064E+01
N    1.5869121396750005E-03    5.6066096518984310E+00    1.3628381822164778E+01
Ga    4.1976373815132926E-04    5.5967841408624377E+00    1.5623772555077208E+01
N    4.4312747431803128E-02    7.4635165848659168E+00    1.6253746675620249E+01
Ga    6.9288848251446170E-02    7.4159695489149327E+00    1.8338564815678346E+01
N    1.7701454813538361E-01    5.5581682697390340E+00    1.8864738259226424E+01
Ga    6.5019926576219396E+00   -3.2284822582106928E-03    3.2096324177426638E-01
N    6.5091868377379791E+00    1.8665300855026015E+00    6.0392641250715118E-01
Ga    6.4807101233338154E+00    1.8817018442781948E+00    2.6346003299004934E+00
N    6.5025954856079844E+00   -3.8592462797496846E-03    3.2261137462970257E+00
Ga    6.5024405163576153E+00   -3.3542007479395461E-03    5.2381502910142004E+00
N    6.5074856084823081E+00    1.8672815554035884E+00    5.8438827891335920E+00
Ga    6.5046334858373793E+00    1.8667380231384534E+00    7.8427934973600477E+00
N    6.4999906283716689E+00   -2.9430435124538881E-03    8.4472011004391305E+00
Ga    6.4998713051936639E+00   -3.9974096645350608E-04    1.0443666654497894E+01
N    6.5027815722234692E+00    1.8712762509588015E+00    1.1053380659495305E+01
Ga    6.5048927924737896E+00    1.8734664234796672E+00    1.3052050802181519E+01
N    6.4927866838485002E+00    1.7652249463910392E-03    1.3630486237695576E+01
Ga    6.5084648495091750E+00    6.9372017343400415E-03    1.5631559086440875E+01
N    6.5198360132753486E+00    1.8719912842124864E+00    1.6256377784563664E+01
Ga    6.5970953450594001E+00    1.8431373398280999E+00    1.8311812586396922E+01
N    6.5819499027665103E+00   -6.8053544272165450E-02    1.8660440600895672E+01
Ga    4.8831034969506568E+00    2.8020618782769251E+00   -5.4550415217674175E-01
N    4.8863575273922004E+00    4.6765473493323730E+00    6.0423091377939375E-01
Ga    4.8855195961164499E+00    4.6451234264529582E+00    2.6348227785519747E+00
N    4.8826044260664689E+00    2.8015261943299810E+00    3.2660555686386474E+00
Ga    4.8824144264058411E+00    2.8023661528289034E+00    5.2562216901685970E+00
N    4.8848695101386603E+00    4.6765003987353539E+00    5.8444190686643669E+00
Ga    4.8818651346519388E+00    4.6740415876833383E+00    7.8440321803156481E+00
N    4.8807353428463411E+00    2.8006054975752432E+00    8.4448019171312421E+00
Ga    4.8812625807270589E+00    2.8016823686552490E+00    1.0442606505610385E+01
N    4.8849952121789730E+00    4.6711175338684949E+00    1.1049382501820499E+01
Ga    4.8820518745714825E+00    4.6705760613060372E+00    1.3050031783386144E+01
N    4.8793683019810627E+00    2.8022565619572872E+00    1.3665681339332780E+01
Ga    4.8860709247069440E+00    2.7950311648980941E+00    1.5687777990383418E+01
N    4.8410417713175438E+00    4.6861546533388170E+00    1.6145976099315718E+01
Ga    4.9590985599808102E+00    4.6081274635447942E+00    1.9126495016372356E+01
N    4.9674762382119484E+00    2.7244058698249165E+00    1.8829439951272093E+01
Ga    3.2639838167173632E+00    5.6064231186023843E+00    3.2097390845730622E-01
N    3.2635004295920864E+00    7.4775528158383633E+00    6.0301890383046386E-01
Ga    3.2901426180668150E+00    7.4924872697470555E+00    2.6356506000448006E+00
N    3.2629160842827964E+00    5.6072039566341161E+00    3.2261472360334937E+00
Ga    3.2624538028876473E+00    5.6078300345130501E+00    5.2383036626557518E+00
N    3.2631310920772227E+00    7.4778189254979601E+00    5.8462613587237637E+00
Ga    3.2625441583189927E+00    7.4761345296187685E+00    7.8470076963384434E+00
N    3.2607123263297511E+00    5.6056465207379791E+00    8.4508200065830810E+00
Ga    3.2596446346851646E+00    5.6056077106088331E+00    1.0450617505285177E+01
N    3.2633583099251231E+00    7.4824878679884206E+00    1.1038776573616845E+01
Ga    3.2604328438094532E+00    7.4846279953447405E+00    1.3033862676458284E+01
N    3.2463791398862147E+00    5.6071632811710037E+00    1.3590688199409025E+01
Ga    3.2469084930791459E+00    5.6167303398044961E+00    1.5585284147652166E+01
N    3.2749709545044592E+00    7.4863390071804163E+00    1.6136072932060799E+01
Ga    3.3388730400000646E+00    7.4548030298378851E+00    1.8141863655469148E+01
N    3.4452703626263634E+00    5.5031521837929898E+00    1.8332785860274278E+01
O    1.4977968205836252E+00    4.8895575464368681E+00    2.1166555275575629E+01
H    9.4703854328809267E-01    5.3009993466074290E+00    2.0408773148660170E+01
C    8.0667024562070189E-01    3.6760644147483066E+00    2.1540035710225208E+01
H    3.1431968562468911E-03    3.4428324813272422E+00    2.0819606604631449E+01
H    1.5096578389837019E+00    2.8330011775974913E+00    2.1545873386393474E+01
H    3.6745553046164359E-01    3.7949294840137182E+00    2.2540361111269178E+01
O    4.1373609144151144E+00    4.7446352978955142E+00    2.1047458305544573E+01
H    3.1122345601646026E+00    4.8142198376139511E+00    2.1027103343603734E+01
C    4.5188787343680090E+00    3.7345609433148557E+00    2.2018572118025475E+01
H    4.3641547082218617E+00    2.7243338691085053E+00    2.1614493337039058E+01
H    5.5823185668457311E+00    3.8769963456846654E+00    2.2242493245882585E+01
H    3.9287244042070992E+00    3.8775171935135062E+00    2.2931750976293049E+01
     &END COORD
     &KIND C
       BASIS_SET DZVP-MOLOPT-SR-GTH-q4
       POTENTIAL GTH-PBE-q4
       &POTENTIAL
 2 2
  0.3384712400000000E+00 2 -0.8803673979999999E+01  0.1339210850000000E+01
 2
  0.3025757500000000E+00 1  0.9622486650000001E+01
  0.2915069400000000E+00 0
         # Potential name:  GTH-PBE-Q4  for symbol:  C
         # Potential read from the potential filename: GTH_POTENTIALS
       &END POTENTIAL
     &END KIND
     &KIND O
       BASIS_SET DZVP-MOLOPT-SR-GTH-q6
       POTENTIAL GTH-PBE-q6
       &POTENTIAL
 2 4
  0.2445543000000000E+00 2 -0.1666721480000000E+02  0.2487311320000000E+01
 2
  0.2209559200000000E+00 1  0.1833745811000000E+02
  0.2113324700000000E+00 0
         # Potential name:  GTH-PBE-Q6  for symbol:  O
         # Potential read from the potential filename: GTH_POTENTIALS
       &END POTENTIAL
     &END KIND
     &KIND H
       BASIS_SET DZVP-MOLOPT-SR-GTH-q1
       POTENTIAL GTH-PBE-q1
       &POTENTIAL
 1
  0.2000000000000000E+00 2 -0.4178900440000000E+01  0.7244633100000000E+00
 0
         # Potential name:  GTH-PBE-Q1  for symbol:  H
         # Potential read from the potential filename: GTH_POTENTIALS
       &END POTENTIAL
     &END KIND
     &KIND N
       BASIS_SET DZVP-MOLOPT-SR-GTH-q5
       POTENTIAL GTH-PBE-q5
       &POTENTIAL
 2 3
  0.2837905100000000E+00 2 -0.1241522559000000E+02  0.1868095920000000E+01
 2
  0.2554050000000000E+00 1  0.1363026257000000E+02
  0.2454945300000000E+00 0
         # Potential name:  GTH-PBE-Q5  for symbol:  N
         # Potential read from the potential filename: GTH_POTENTIALS
       &END POTENTIAL
     &END KIND
     &KIND Ga
       BASIS_SET DZVP-MOLOPT-SR-GTH-q13
       POTENTIAL GTH-PBE-q13
       &POTENTIAL
 2 1 10
  0.4900000000000000E+00 0
 3
  0.4167772300000000E+00 3  0.1047568975000000E+02 -0.4921768140000000E+01  0.8707055900000000E+00
  0.7770178090000000E+01 -0.2248152160000000E+01
  0.1784415450000000E+01
  0.5696265200000000E+00 2  0.1777985340000000E+01  0.1958597600000000E+00
 -0.2317443900000000E+00
  0.2381265000000000E+00 1 -0.1624868022000000E+02
         # Potential name:  GTH-PBE-Q13  for symbol:  GA
         # Potential read from the potential filename: GTH_POTENTIALS
       &END POTENTIAL
     &END KIND
     &TOPOLOGY
       COORD_FILE_NAME ../start-first.xyz
       COORD_FILE_FORMAT  XYZ
       NUMBER_OF_ATOMS  156
       MULTIPLE_UNIT_CELL  1 1 1
     &END TOPOLOGY
     &COLVAR
       &DISTANCE
         ATOMS  32 148
       &END DISTANCE
       &PRINT
       &END PRINT
     &END COLVAR
   &END SUBSYS
 &END FORCE_EVAL
