#p

i =       16, E =     -8504.7202741423

0 1
 N                 -0.00802531    2.04554205    2.50542276
 Ga                -0.00593036    0.09636883    2.84860386
 N                 -0.00406880    0.05173050    5.01231266
 Ga                 0.00074181    1.88527980    5.79280002
 N                 -0.00143561    1.89351230    7.79045556
 Ga                 0.00064124    0.04987442    8.44122123
 N                 -0.00100339    0.04693903   10.41282185
 Ga                -0.00117330    1.88631576   11.06987357
 N                 -0.00157295    1.86630676   13.06033287
 Ga                -0.00097293    0.04724211   13.87493025
 N                 -0.00250460    0.04574040   16.06419183
 Ga                -0.00216832    2.09452235   16.48320448
 Ga                -0.04494545    3.71777728    1.31400393
 N                 -1.48515552    4.62813349    2.48525324
 Ga                -1.67884457    2.79118872    3.27357048
 N                 -1.61397962    2.83725957    5.24894643
 Ga                -1.63591800    4.70298426    5.80295872
 N                 -1.61891686    4.69880801    7.79381178
 Ga                -1.59765255    2.83879065    8.43649248
 N                 -1.59873168    2.83912787   10.42736959
 Ga                -1.62633621    4.69734057   11.07257780
 N                 -1.64265355    4.70757759   13.06190048
 Ga                -1.59910771    2.83795032   13.62075396
 N                 -1.63041624    2.82005881   15.57781865
 Ga                -1.44446652    4.59237093   16.48414970
 N                 -0.00779304    3.75604999   17.61231771
 N                 -3.21338483    7.59827814    2.50087849
 Ga                -3.19250842    5.59458608    2.84607062
 N                 -3.21601082    5.61930233    5.00873981
 Ga                -3.22610486    7.44121847    5.79669718
 N                 -3.21725863    7.46588799    7.78548335
 Ga                -3.21763601    5.61909265    8.44454420
 N                 -3.21814711    5.61838100   10.41418020
 Ga                -3.21988226    7.45647539   11.07247679
 N                 -3.21809773    7.43680976   13.06125724
 Ga                -3.21789361    5.61691003   13.87634998
 N                 -3.21967654    5.61695906   16.06520068
 Ga                -3.21918945    7.66526056   16.48399565
 Ga                -3.24817523    9.35483897    1.44339611
 N                 -4.72758805   10.20482701    2.50975566
 Ga                -4.93437520    8.34854303    3.26397818
 N                 -4.82757060    8.40328718    5.22838821
 Ga                -4.85321330   10.27836925    5.78714990
 N                 -4.83475233   10.26550336    7.78276399
 Ga                -4.81721851    8.41121228    8.43430854
 N                 -4.81492008    8.40917113   10.42402929
 Ga                -4.84103076   10.26850431   11.06950004
 N                 -4.85769048   10.27794121   13.05924885
 Ga                -4.81515783    8.40912824   13.62108900
 N                 -4.84645177    8.39099787   15.57748834
 Ga                -4.66185453   10.16383649   16.48330876
 N                 -3.22547821    9.32782428   17.61208917
 N                  3.19909563    1.92415949    2.58930733
 Ga                 3.20323305    0.17970458    3.26671365
 N                  3.21561327    0.05222391    5.23132317
 Ga                 3.20519820    1.91362728    5.86672680
 N                  3.21436820    1.90466341    7.83986192
 Ga                 3.21173487    0.03889903    8.43298127
 N                  3.21377571    0.03380781   10.42264594
 Ga                 3.21365171    1.90368472   11.02393010
 N                  3.21497617    1.90354801   12.99098569
 Ga                 3.21445617    0.03512008   13.62039066
 N                  3.21545253    0.06859623   15.57671317
 Ga                 3.21561202    1.90441139   15.86109904
 N                  1.46743494    4.61711024    2.46321434
 Ga                 1.66828536    2.80302891    3.26020777
 N                  1.60671426    2.83969844    5.23801262
 Ga                 1.65141667    4.70996339    5.79824031
 N                  1.61241062    4.69612856    7.79752409
 Ga                 1.59596334    2.83919337    8.43495451
 N                  1.59506261    2.83832146   10.42593249
 Ga                 1.62241147    4.69669855   11.07121165
 N                  1.63873559    4.70746508   13.06077274
 Ga                 1.59613597    2.83821257   13.61985012
 N                  1.62599796    2.82199863   15.57683164
 Ga                 1.43373179    4.58883743   16.48549628
 N                  0.00329075    7.46846688    2.68810322
 Ga                 0.00811424    5.60184473    3.30978132
 N                 -0.00087699    5.63434220    5.24596270
 Ga                -0.00074875    7.46761986    5.90571522
 N                 -0.00210643    7.47600154    7.85915854
 Ga                -0.00029005    5.60197536    8.44752263
 N                 -0.00263772    5.60466830   10.43270008
 Ga                -0.00359773    7.47416102   11.02974141
 N                 -0.00226784    7.47487702   12.99498980
 Ga                -0.00151684    5.60446508   13.62124426
 N                 -0.00070348    5.63909000   15.57793070
 Ga                -0.00083353    7.47485324   15.86163470
 N                 -1.71313746   10.19739450    2.50740085
 Ga                -1.59157882    8.38959590    3.31885628
 N                 -1.59658821    8.39849758    5.24520074
 Ga                -1.58812560   10.28511339    5.80171523
 N                 -1.60116035   10.26451242    7.78845479
 Ga                -1.62325192    8.41067480    8.44392688
 N                 -1.62295502    8.40959623   10.42852475
 Ga                -1.59710289   10.26935221   11.07162123
 N                 -1.57788938   10.27817620   13.06035470
 Ga                -1.62107525    8.40940258   13.62182332
 N                 -1.59065955    8.39295420   15.57816730
 Ga                -1.78301479   10.16005913   16.48573770
 N                  6.42824257    2.03241602    2.53898647
 Ga                 6.42781924    0.06251771    2.87887085
 N                  6.43027929    0.05094426    5.01918804
 Ga                 6.42444765    1.88647477    5.80133588
 N                  6.42916745    1.89313114    7.79202184
 Ga                 6.42787650    0.04991597    8.44741010
 N                  6.42909739    0.04702195   10.41579353
 Ga                 6.42954026    1.88785309   11.06980178
 N                  6.43045931    1.86711253   13.06011598
 Ga                 6.42997417    0.04733062   13.87288871
 N                  6.42834607    0.04608378   16.06620613
 Ga                 6.42968525    2.08683943   16.48137613
 Ga                 6.45553789    3.74543876    1.51580453
 N                  4.93473834    4.62873841    2.48449110
 Ga                 4.70056441    2.79451684    3.28934877
 N                  4.81836802    2.84007380    5.24529725
 Ga                 4.77966013    4.71763364    5.79964809
 N                  4.81646989    4.69545985    7.79859587
 Ga                 4.83034981    2.83975768    8.43670385
 N                  4.83309835    2.83816851   10.42660079
 Ga                 4.80802353    4.69779967   11.06846635
 N                  4.79127900    4.70696740   13.05932946
 Ga                 4.83310571    2.83830548   13.61936935
 N                  4.80838475    2.82414156   15.57989639
 Ga                 4.97964678    4.59761361   16.48126160
 N                  6.42316445    3.75703429   17.62543555
 N                  3.20772067    7.62429862    2.49736883
 N                  3.21375345    5.62586846    5.04166220
 Ga                 3.22177239    7.42445970    5.81092643
 N                  3.21407850    7.47051697    7.80323889
 Ga                 3.21423584    5.61738939    8.44491734
 N                  3.21459633    5.61809288   10.41665733
 Ga                 3.21588634    7.45614362   11.07297497
 N                  3.21451049    7.43785071   13.06227642
 Ga                 3.21452448    5.61656883   13.87158025
 N                  3.21297622    5.61629141   16.06614906
 Ga                 3.21433013    7.65711482   16.48214842
 Ga                 3.23478975    9.38431483    1.46277033
 N                  1.70340256   10.20065815    2.52487703
 Ga                 1.59016812    8.38780943    3.33736367
 N                  1.59548907    8.40019266    5.25868129
 Ga                 1.57971846   10.28287463    5.81482695
 N                  1.59505600   10.26576063    7.79890546
 Ga                 1.61889308    8.41062963    8.45197005
 N                  1.61672095    8.41003853   10.43521118
 Ga                 1.59059439   10.27010294   11.07375184
 N                  1.57415669   10.27852472   13.06245121
 Ga                 1.61713922    8.40924018   13.62159202
 N                  1.59203791    8.39460260   15.58157444
 Ga                 1.76519655   10.16749028   16.48237459
 N                  3.20846633    9.32748669   17.62567228
 N                  9.65479227    1.91417479    2.61459940
 Ga                 9.65184180    0.17722327    3.29740234
 N                  9.64319327    0.04972415    5.25419335
 Ga                 9.65336300    1.91115010    5.88061875
 N                  9.64662425    1.90490700    7.84949742
 Ga                 9.64877057    0.03815905    8.44174863
 N                  9.64656838    0.03389508   10.42930693
 Ga                 9.64585354    1.90502168   11.02512584
 N                  9.64502060    1.90349864   12.99362777
 Ga                 9.64715221    0.03456850   13.62113135
 N                  9.64672862    0.06322005   15.58057126
 Ga                 9.64438863    1.90278389   15.85888953
 N                  7.93206241    4.63195865    2.52988140
 Ga                 8.15050001    2.77739001    3.30417888
 N                  8.04006538    2.83421883    5.25737634
 Ga                 8.06059485    4.70938849    5.79738766
 N                  8.04938588    4.69847573    7.78981710
 Ga                 8.02841654    2.84030758    8.43561752
 N                  8.02633108    2.83966484   10.42539379
 Ga                 8.05337157    4.69835538   11.07040344
 N                  8.07048729    4.70729626   13.06051631
 Ga                 8.02707518    2.83909605   13.62046048
 N                  8.05225976    2.82425726   15.58048391
 Ga                 7.87494725    4.59496017   16.48155733
 N                  6.41628132    7.47432705    2.58243962
 Ga                 6.41576872    5.73695751    3.28914820
 N                  6.42672257    5.62190698    5.24439619
 Ga                 6.42806280    7.47806719    5.87097296
 N                  6.43086178    7.47702916    7.84104622
 Ga                 6.43087477    5.60779512    8.43726481
 N                  6.43177341    5.60603854   10.42709843
 Ga                 6.43107122    7.47424635   11.02689956
 N                  6.42983839    7.47365714   12.99450377
 Ga                 6.43086522    5.60376477   13.62052847
 N                  6.43036197    5.63338423   15.58012098
 Ga                 6.42865436    7.47293091   15.85849811
 N                  4.71805216   10.21029867    2.52642340
 Ga                 4.91592895    8.35143543    3.28608021
 N                  4.81784038    8.40675657    5.24416915
 Ga                 4.85071216   10.27779213    5.80193950
 N                  4.83278324   10.26686090    7.79354440
 Ga                 4.81449110    8.41149239    8.44215105
 N                  4.81267585    8.41020739   10.43010934
 Ga                 4.83928976   10.26941157   11.07206685
 N                  4.85466512   10.27833309   13.06157373
 Ga                 4.81147019    8.40985028   13.62135598
 N                  4.83686443    8.39456022   15.58080168
 Ga                 4.65937866   10.16504359   16.48182016
 O                  0.04048033    3.71305632   -0.50798487
 H                  2.29975198    6.24690366    0.28039616
 C                  0.64834307    2.56851738   -1.12154938
 H                  1.71077697    2.45097379   -0.84136494
 H                  0.13391239    1.62574668   -0.86754514
 H                  0.59107929    2.70972180   -2.21210835
 Ga                 3.17271255    5.61468973    2.55750475
 O                  3.08021118    5.64738070    0.45775355
 H                  2.98846199    4.72048574    0.16396153
 C                  6.42224615    7.45217524    0.96880268
 H                  5.55265019    7.91455269    0.47893317
 H                  7.33786503    7.91689988    0.56984524
 H                  6.41447231    6.37561655    0.76604511

