 # Version information for this restart file 
 # current date 2019-06-29 07:14:42.907
 # current working dir /scratch/rzk/rzk/GaN-carbene/443-adatoms-both-2x2/07-CH3O-H2O-H3C/01-UseUnoptimized-0501
 # Program compiled at                              Sun Apr  7 00:48:11 EDT 2019
 # Program compiled on                          beluga2.int.ets1.calculquebec.ca
 # Program compiled for                        Beluga-Linux-x86-64-intel-openmpi
 # Source code revision number                                         svn:18619
 &GLOBAL
   PRINT_LEVEL  MEDIUM
   PROJECT_NAME TEST
   RUN_TYPE  GEO_OPT
 &END GLOBAL
 &MOTION
   &GEO_OPT
     MAX_ITER  500
     STEP_START_VAL  35
   &END GEO_OPT
 &END MOTION
 &FORCE_EVAL
   METHOD  QS
   STRESS_TENSOR  ANALYTICAL
   &DFT
     BASIS_SET_FILE_NAME BASIS_MOLOPT
     POTENTIAL_FILE_NAME GTH_POTENTIALS
     UKS  T
     SURFACE_DIPOLE_CORRECTION  T
     SURF_DIP_DIR  Z
     &SCF
       MAX_SCF  80
       EPS_SCF     5.0000000000000004E-06
       &OT  T
         PRECONDITIONER  FULL_ALL
       &END OT
       &OUTER_SCF  T
         OPTIMIZER  NONE
         EPS_SCF     5.0000000000000004E-06
         MAX_SCF  4
       &END OUTER_SCF
       &PRINT
         &RESTART  OFF
           BACKUP_COPIES  1
           &EACH
             JUST_ENERGY  0
             QS_SCF  0
             MD  20
           &END EACH
         &END RESTART
       &END PRINT
     &END SCF
     &QS
       EPS_DEFAULT     1.0000000000000000E-14
       METHOD  GPW
     &END QS
     &MGRID
       NGRIDS  5
       CUTOFF     1.2000000000000000E+03
     &END MGRID
     &XC
       DENSITY_CUTOFF     1.0000000000000000E-10
       GRADIENT_CUTOFF     1.0000000000000000E-10
       TAU_CUTOFF     1.0000000000000000E-10
       &XC_FUNCTIONAL  NO_SHORTCUT
         &PBE  T
         &END PBE
       &END XC_FUNCTIONAL
       &VDW_POTENTIAL
         POTENTIAL_TYPE  PAIR_POTENTIAL
         &PAIR_POTENTIAL
           R_CUTOFF     1.0000000000000004E+01
           TYPE  DFTD3
           PARAMETER_FILE_NAME dftd3.dat
           REFERENCE_FUNCTIONAL PBE
           EPS_CN     9.9999999999999995E-07
           CALCULATE_C9_TERM  T
           REFERENCE_C9_TERM  T
           LONG_RANGE_CORRECTION  F
           VERBOSE_OUTPUT  F
         &END PAIR_POTENTIAL
       &END VDW_POTENTIAL
     &END XC
   &END DFT
   &SUBSYS
     &CELL
       A     1.2864472766435110E+01    0.0000000000000000E+00    0.0000000000000000E+00
       B    -6.4322363581020028E+00    1.1140960178524473E+01    0.0000000000000000E+00
       C     0.0000000000000000E+00    0.0000000000000000E+00    3.2000000000000000E+01
       MULTIPLE_UNIT_CELL  1 1 1
       &CELL_REF
         A     1.2982353780853531E+01    0.0000000000000000E+00    0.0000000000000000E+00
         B    -6.4911768904267628E+00    1.1243048175136114E+01    0.0000000000000000E+00
         C     0.0000000000000000E+00    0.0000000000000000E+00    3.2000000000000000E+01
         MULTIPLE_UNIT_CELL  1 1 1
       &END CELL_REF
     &END CELL
     &COORD
N   -9.5636172162361858E-04    2.0403662525380346E+00    2.5115674754244499E+00
Ga   -2.6270516564957744E-02    8.2887027811021891E-02    2.8551173431931507E+00
N   -2.9261925294389226E-03    4.4663280032538374E-02    5.0219718760397996E+00
Ga   -1.1702849280270339E-03    1.8778447056473397E+00    5.8095153044396888E+00
N   -3.9284281345265352E-03    1.8899972965974710E+00    7.8122921279108235E+00
Ga   -4.7608110137403346E-03    4.6348626029819713E-02    8.4480774989005702E+00
N   -1.9767465293083191E-03    4.7704442240828704E-02    1.0425384808206987E+01
Ga   -1.9582759726335655E-03    1.8871047916533301E+00    1.1074457193031662E+01
N   -1.1219216870516965E-03    1.8650936819041739E+00    1.3074918313780143E+01
Ga    6.0855279643047956E-04    3.7923001231009584E-02    1.3862298735083215E+01
N    4.8553303339766056E-03    3.4653786460832017E-02    1.6080490121127610E+01
Ga    4.0522148561271322E-04    2.0368623080119437E+00    1.6435673694481920E+01
Ga    9.6551792941302252E-03    3.7710142627539391E+00    1.3988395017841957E+00
N   -1.4809711122172160E+00    4.6120968805249403E+00    2.5219720739312828E+00
Ga   -1.6767452561271277E+00    2.7765161590543928E+00    3.2875907207028239E+00
N   -1.6150962577098102E+00    2.8249170620967585E+00    5.2671544280344538E+00
Ga   -1.6224812074895529E+00    4.6949943038959683E+00    5.8089530303995129E+00
N   -1.6234481623056058E+00    4.6953998523156928E+00    7.8109577359048323E+00
Ga   -1.6012273473056975E+00    2.8375448562498784E+00    8.4440943856773156E+00
N   -1.5978196726628218E+00    2.8418218519400082E+00    1.0443652323778304E+01
Ga   -1.6257676607889957E+00    4.7009118858063612E+00    1.1076824357008656E+01
N   -1.6429658691677915E+00    4.7093373066018360E+00    1.3077193773316619E+01
Ga   -1.5970907881700285E+00    2.8394440447965867E+00    1.3618938750995998E+01
N   -1.6141033695786484E+00    2.8257609643288943E+00    1.5597495220449090E+01
Ga   -1.4952703387612292E+00    4.6237085819962838E+00    1.6435284136364093E+01
N   -7.1676257201543029E-03    3.7588327407177737E+00    1.7563682751625546E+01
N   -3.2361288790679796E+00    7.5866340801448899E+00    2.5265545261990630E+00
Ga   -3.1747791718126566E+00    5.5795287426352802E+00    2.8728721644784043E+00
N   -3.2169065806833101E+00    5.6109125985992607E+00    5.0192107516836071E+00
Ga   -3.2112852114458006E+00    7.4337512939068429E+00    5.8068096175670192E+00
N   -3.2200422192864147E+00    7.4635554275842182E+00    7.7977489555380668E+00
Ga   -3.2174787461382630E+00    5.6170370113682466E+00    8.4513518724675816E+00
N   -3.2177072953443111E+00    5.6200409202544206E+00    1.0426924348752774E+01
Ga   -3.2162604057650079E+00    7.4609224283031894E+00    1.1075243716713485E+01
N   -3.2178579279053601E+00    7.4418362420374251E+00    1.3070439792512454E+01
Ga   -3.2261560571369459E+00    5.6239433872565021E+00    1.3869369591652262E+01
N   -3.2263117274067925E+00    5.6262428297455260E+00    1.6079991495358026E+01
Ga   -3.2166463438786548E+00    7.6902381657860772E+00    1.6507608791307543E+01
Ga   -3.1860799378405655E+00    9.3384441675035443E+00    1.4981970909997371E+00
N   -4.7277230196708571E+00    1.0184802950138293E+01    2.5163916766394405E+00
Ga   -4.8774484423627671E+00    8.3818076636180123E+00    3.3363534531844135E+00
N   -4.8485853129638272E+00    8.3878239344253753E+00    5.2592414593873373E+00
Ga   -4.8603240091257662E+00    1.0283366099382009E+01    5.8096952071596002E+00
N   -4.8359257255768684E+00    1.0261774334174428E+01    7.8001851894049770E+00
Ga   -4.8159848071052878E+00    8.4084388940576353E+00    8.4440709237153140E+00
N   -4.8134805769328315E+00    8.4100798680966076E+00    1.0434926876732845E+01
Ga   -4.8388155137183073E+00    1.0268696314853999E+01    1.1072959789790318E+01
N   -4.8550659318956306E+00    1.0276274273601308E+01    1.3068564297824571E+01
Ga   -4.8122451169454052E+00    8.4109833771551816E+00    1.3632923000585253E+01
N   -4.8470516544473270E+00    8.3896526773397717E+00    1.5592590288647367E+01
Ga   -4.6346093603781444E+00    1.0147035545972434E+01    1.6507890455732767E+01
N   -3.2117021444125307E+00    9.3312972176030033E+00    1.7671417024492435E+01
N    3.1929543517348131E+00    1.9122656178923252E+00    2.6050551891800100E+00
Ga    3.2046393062939638E+00    1.7242354876727692E-01    3.2899868029333019E+00
N    3.2074522018636689E+00    4.3232624883154977E-02    5.2519632389198705E+00
Ga    3.2080530570083039E+00    1.9101728868562591E+00    5.8804733990959015E+00
N    3.2150330588210903E+00    1.9029564170465085E+00    7.8591425500877543E+00
Ga    3.2156069267461533E+00    3.6007412932133796E-02    8.4411467970545324E+00
N    3.2152622835097624E+00    3.4414316059006911E-02    1.0435928913332456E+01
Ga    3.2144309313873012E+00    1.9007891135904542E+00    1.1038944748164315E+01
N    3.2136285153790682E+00    1.9046579736049891E+00    1.3012789739816863E+01
Ga    3.2155503403764181E+00    3.2191196101021398E-02    1.3630616314614313E+01
N    3.2124026413264923E+00    7.1638327053580461E-02    1.5590699774078551E+01
Ga    3.2188858679907959E+00    1.9033037303997871E+00    1.5860127366719372E+01
N    1.4802934746955749E+00    4.6082768793856275E+00    2.5358110845630994E+00
Ga    1.6782471640115944E+00    2.7998069620830934E+00    3.3014451915356942E+00
N    1.6044554313751425E+00    2.8281381045160074E+00    5.2713377904523986E+00
Ga    1.6464618503800308E+00    4.7088194334858686E+00    5.8261387885228038E+00
N    1.5999838395949917E+00    4.6860199988610516E+00    7.8411321422172700E+00
Ga    1.5936094406295160E+00    2.8352608660942535E+00    8.4533629672073545E+00
N    1.5963274555813842E+00    2.8358402625741665E+00    1.0452102113336307E+01
Ga    1.6215804076903364E+00    4.7003263256339105E+00    1.1070142665803195E+01
N    1.6398575272923663E+00    4.7085273586360765E+00    1.3075182293211316E+01
Ga    1.5960143810074685E+00    2.8389295375807806E+00    1.3618346733658885E+01
N    1.6148818939326366E+00    2.8281668083541933E+00    1.5595985325166950E+01
Ga    1.4893096140296478E+00    4.6193766523422255E+00    1.6435021656954138E+01
N    7.1344615493310762E-03    7.4505166937310729E+00    2.6082124184852304E+00
Ga    2.2897169181001060E-02    5.6988031859440440E+00    3.3045311318579511E+00
N   -1.5530707219129946E-03    5.6145795124678886E+00    5.2713833127929961E+00
Ga    1.2964499429473666E-02    7.4677553684893327E+00    5.8683852595770487E+00
N   -1.4142553267210193E-03    7.4760124094864562E+00    7.8520880906829253E+00
Ga   -5.3548564992743092E-03    5.6090605300216243E+00    8.4500696000033173E+00
N   -5.6470278541776884E-03    5.6101140129046181E+00    1.0450222318491063E+01
Ga   -5.4184593704335645E-03    7.4790456872592097E+00    1.1035451465000621E+01
N   -7.7197729465724768E-04    7.4740707606411254E+00    1.3010912226177384E+01
Ga   -8.1037159094050112E-04    5.6054436421228191E+00    1.3618909011649782E+01
N    2.7441579081776139E-03    5.6250931321448725E+00    1.5597095800627129E+01
Ga    2.8259654427950252E-03    7.4748704734622820E+00    1.5863013193468714E+01
N   -1.7161120092988487E+00    1.0195030556347984E+01    2.5337268121527123E+00
Ga   -1.4936913977530266E+00    8.3271567451073114E+00    3.2897538749648896E+00
N   -1.6118455221848016E+00    8.3955414917905937E+00    5.2498866981239374E+00
Ga   -1.5885756657595922E+00    1.0269457665532897E+01    5.8001752304739460E+00
N   -1.6032232943579909E+00    1.0263837056811626E+01    7.7961593672456262E+00
Ga   -1.6160754890627917E+00    8.4093868186572482E+00    8.4366713705414007E+00
N   -1.6216001773626534E+00    8.4118803549326824E+00    1.0432808674563518E+01
Ga   -1.5937343685178393E+00    1.0269480690789059E+01    1.1075686776223050E+01
N   -1.5770256386502643E+00    1.0278732225770144E+01    1.3072055899753050E+01
Ga   -1.6212403111042237E+00    8.4112980666536448E+00    1.3631237490828097E+01
N   -1.5849975195575730E+00    8.3850656198495237E+00    1.5590454287271260E+01
Ga   -1.7879172813239921E+00    1.0153018974131344E+01    1.6505368944323546E+01
N    6.4246913883568437E+00    2.0217802455360943E+00    2.5474800317980226E+00
Ga    6.4482697725207085E+00    2.9708449153895616E-02    2.8818581088706043E+00
N    6.4248096816327651E+00    4.2232816851019497E-02    5.0232830129087214E+00
Ga    6.4198104644583234E+00    1.8715455461502692E+00    5.8022686557192795E+00
N    6.4268457273857180E+00    1.8914152033460581E+00    7.8000127769135936E+00
Ga    6.4299969882960886E+00    4.5528574122939175E-02    8.4432163200619730E+00
N    6.4307040937375994E+00    4.7972452191431619E-02    1.0420894936372752E+01
Ga    6.4323566373555110E+00    1.8854054874424961E+00    1.1077476206465498E+01
N    6.4337770481967604E+00    1.8681592189441951E+00    1.3070943139425996E+01
Ga    6.4310210469000362E+00    4.8773374939544971E-02    1.3881916135474922E+01
N    6.4270716487542243E+00    4.5552029002577203E-02    1.6080055249530442E+01
Ga    6.4344325738469088E+00    2.0960214255778316E+00    1.6491356265475069E+01
Ga    6.4631076121764588E+00    3.6924859996257511E+00    1.5011542012619994E+00
N    4.9283465615484943E+00    4.6299408069918879E+00    2.3944971104311286E+00
Ga    4.6881025805900798E+00    2.7975682556145660E+00    3.2867598645740368E+00
N    4.8199561984026156E+00    2.8408912395898747E+00    5.2452355940806612E+00
Ga    4.7627843726365606E+00    4.7076358987125317E+00    5.8438368006515269E+00
N    4.8303187749453702E+00    4.6840160324501952E+00    7.8407411889314158E+00
Ga    4.8337210821264245E+00    2.8307551507992916E+00    8.4565172575934024E+00
N    4.8331355019324507E+00    2.8344821678128236E+00    1.0447992378137597E+01
Ga    4.8074859824944935E+00    4.6990396440839062E+00    1.1070960775948331E+01
N    4.7960381815619746E+00    4.7079725356702378E+00    1.3067158077864645E+01
Ga    4.8372700410868061E+00    2.8402882362526456E+00    1.3625972741436803E+01
N    4.8022088758647543E+00    2.8237088630561589E+00    1.5586189433938920E+01
Ga    5.0061956754094981E+00    4.5845525913771601E+00    1.6495359775462628E+01
N    6.4319907831639513E+00    3.7484645690341054E+00    1.7633420738978668E+01
N    3.2196276226064597E+00    7.5809604529609453E+00    2.3754432143907844E+00
N    3.2159435005947641E+00    5.6131532118040228E+00    5.1919247942192079E+00
Ga    3.2036132566450957E+00    7.4142443635209574E+00    5.8268766018887508E+00
N    3.2139006869988833E+00    7.4821782790546507E+00    7.8331114106821769E+00
Ga    3.2111032802830715E+00    5.6177272461878029E+00    8.4391379092802588E+00
N    3.2142541754729352E+00    5.6190283190376471E+00    1.0426160738727823E+01
Ga    3.2133164936496126E+00    7.4583957378609362E+00    1.1070006628329626E+01
N    3.2172632392301401E+00    7.4424949800265212E+00    1.3068373789516480E+01
Ga    3.2248134701125020E+00    5.6216485626322497E+00    1.3858644392036062E+01
N    3.2240850908000014E+00    5.6186346907982418E+00    1.6074765635490955E+01
Ga    3.2176534756832265E+00    7.6595581035091653E+00    1.6476259742656470E+01
Ga    3.1739858731368464E+00    9.4084404046437928E+00    1.3006441699689824E+00
N    1.7123872494883514E+00    1.0193478038964283E+01    2.5242098402261224E+00
Ga    1.5466677551395407E+00    8.3212291286732949E+00    3.2406565028790268E+00
N    1.6171320029901557E+00    8.3924189962857536E+00    5.2233072641465501E+00
Ga    1.5837320987529835E+00    1.0257570395349219E+01    5.7892038369913683E+00
N    1.5924497144145919E+00    1.0262937826241957E+01    7.7936198013874449E+00
Ga    1.6110400613618336E+00    8.4130818504799709E+00    8.4499270410463723E+00
N    1.6125546774621984E+00    8.4128070977414744E+00    1.0445518839603848E+01
Ga    1.5900427679609865E+00    1.0270946146874339E+01    1.1076279601974433E+01
N    1.5774746088200768E+00    1.0279466935332906E+01    1.3072365069502293E+01
Ga    1.6199738547117615E+00    8.4107592031673715E+00    1.3624145019708950E+01
N    1.5945822072659059E+00    8.3871120225837839E+00    1.5589030889237469E+01
Ga    1.7558974659115500E+00    1.0173093988433491E+01    1.6474470042421444E+01
N    3.2045285689993732E+00    9.3346448624774645E+00    1.7599295690046262E+01
N    9.6588329480808088E+00    1.8944920695118992E+00    2.6282537127449315E+00
Ga    9.6532029428748007E+00    1.3376945136473098E-01    3.2774317545297715E+00
N    9.6479471701278605E+00    3.9583627224154684E-02    5.2525331724980617E+00
Ga    9.6515525055112903E+00    1.8935826602782824E+00    5.8820264991552360E+00
N    9.6448217798938440E+00    1.9015482585157166E+00    7.8605340367811278E+00
Ga    9.6427540673992169E+00    3.0768429322414068E-02    8.4344091351648647E+00
N    9.6460513295350321E+00    3.3930761848268973E-02    1.0433447502613859E+01
Ga    9.6464164507187160E+00    1.9045182584615690E+00    1.1025127425135176E+01
N    9.6515201281689951E+00    1.9054252744472482E+00    1.3000962993579330E+01
Ga    9.6493361749018298E+00    3.5462401193662639E-02    1.3624037399852156E+01
N    9.6556635592272126E+00    6.5311595450930182E-02    1.5588975219159041E+01
Ga    9.6477360631320970E+00    1.9013604362492924E+00    1.5860281444401602E+01
N    7.9124450725409776E+00    4.6229490502435899E+00    2.5330653306722590E+00
Ga    8.1552674397456162E+00    2.7537025114353959E+00    3.3150729274628024E+00
N    8.0362458430040000E+00    2.8276876453340387E+00    5.2681977397746671E+00
Ga    8.0656068607465894E+00    4.6997384332898440E+00    5.8047215315197480E+00
N    8.0468810804412918E+00    4.6972671420699266E+00    7.7982726653773566E+00
Ga    8.0253956276127489E+00    2.8351246374204893E+00    8.4373034385216776E+00
N    8.0268460468133860E+00    2.8408468279331869E+00    1.0433003806436520E+01
Ga    8.0556896670375959E+00    4.6982627941611579E+00    1.1076808557913209E+01
N    8.0707661088698650E+00    4.7082431872881303E+00    1.3068489031975291E+01
Ga    8.0302859049911053E+00    2.8401687796178750E+00    1.3626191894154273E+01
N    8.0658999033351417E+00    2.8236086198340793E+00    1.5585358158873813E+01
Ga    7.8612818825046009E+00    4.5852557305486590E+00    1.6497479054926622E+01
N    6.4205971503678558E+00    7.4686178004025559E+00    2.5982454800012178E+00
Ga    6.3826513337879547E+00    5.6536716516458876E+00    3.3197463039883557E+00
N    6.4192648214397856E+00    5.6237797947241521E+00    5.2441368404825033E+00
Ga    6.4084357710955047E+00    7.4673944342996839E+00    5.9040944570443594E+00
N    6.4262752179656859E+00    7.4707106288343237E+00    7.8615295873406827E+00
Ga    6.4339277546304450E+00    5.6009332697366130E+00    8.4613621834946482E+00
N    6.4355731647294032E+00    5.6091069300575436E+00    1.0447749989907015E+01
Ga    6.4350027950705329E+00    7.4778380877350257E+00    1.1039035519022134E+01
N    6.4335300563709907E+00    7.4764803973702350E+00    1.3009375196160370E+01
Ga    6.4330515925431984E+00    5.6052981689434178E+00    1.3626452022110509E+01
N    6.4323314350468594E+00    5.6370468089979422E+00    1.5585741347896965E+01
Ga    6.4296924111492366E+00    7.4715732354770301E+00    1.5860697697255430E+01
N    4.7205426152809267E+00    1.0180088126430253E+01    2.5083846535571164E+00
Ga    4.7991647083770346E+00    8.3600617991618016E+00    3.2794755888714513E+00
N    4.8250345565510155E+00    8.3843933159192918E+00    5.2223387521198950E+00
Ga    4.8467114781778218E+00    1.0268493695979366E+01    5.7943781026237922E+00
N    4.8331576810679522E+00    1.0259681375655392E+01    7.7951676213985959E+00
Ga    4.8082555025388691E+00    8.4128669200596775E+00    8.4585212507782757E+00
N    4.8163126306745276E+00    8.4112060523908099E+00    1.0448019881831932E+01
Ga    4.8365358113373089E+00    1.0270305063293057E+01    1.1073490704598598E+01
N    4.8544033779571700E+00    1.0277186513632262E+01    1.3067955839160783E+01
Ga    4.8141718463551104E+00    8.4100076827701926E+00    1.3623756119016640E+01
N    4.8381898684939770E+00    8.3940677705247513E+00    1.5587161067123469E+01
Ga    4.6626814232075597E+00    1.0162580557647397E+01    1.6478275065714676E+01
O    5.7930158815679722E-01    3.9514581317250870E+00   -3.6735443088916542E-01
H    2.4229359335938407E+00    6.4185875717161505E+00   -1.7023207011875613E-01
C    8.3302951320209107E-01    2.6873194956828588E+00   -1.0200319079805915E+00
H    1.6938187119804662E+00    2.1516040115737720E+00   -5.6256239508317440E-01
H   -5.7544840598608087E-02    2.0302959615379637E+00   -9.6137151038441038E-01
H    1.0334632003297684E+00    2.8814549676755794E+00   -2.0833522565209881E+00
Ga    3.1381972485420988E+00    5.5887466175921006E+00    2.1988913921399083E+00
O    2.7706675221155459E+00    5.5303152271781908E+00    6.3147206923127766E-02
H    1.9947510613958739E+00    4.9029742908606657E+00   -1.2857005727017365E-01
C    6.4487256121736740E+00    7.4511822937144752E+00    1.1078269926627342E+00
H    5.8912794591794757E+00    8.3057121163396701E+00    6.8790753901013180E-01
H    7.4832461933580179E+00    7.5027288069252025E+00    7.2591098452440772E-01
H    5.9941212688107131E+00    6.5228808428160230E+00    7.1813709192339203E-01
     &END COORD
     &KIND C
       BASIS_SET DZVP-MOLOPT-SR-GTH-q4
       POTENTIAL GTH-PBE-q4
       &POTENTIAL
 2 2
  0.3384712400000000E+00 2 -0.8803673979999999E+01  0.1339210850000000E+01
 2
  0.3025757500000000E+00 1  0.9622486650000001E+01
  0.2915069400000000E+00 0
         # Potential name:  GTH-PBE-Q4  for symbol:  C
         # Potential read from the potential filename: GTH_POTENTIALS
       &END POTENTIAL
     &END KIND
     &KIND O
       BASIS_SET DZVP-MOLOPT-SR-GTH-q6
       POTENTIAL GTH-PBE-q6
       &POTENTIAL
 2 4
  0.2445543000000000E+00 2 -0.1666721480000000E+02  0.2487311320000000E+01
 2
  0.2209559200000000E+00 1  0.1833745811000000E+02
  0.2113324700000000E+00 0
         # Potential name:  GTH-PBE-Q6  for symbol:  O
         # Potential read from the potential filename: GTH_POTENTIALS
       &END POTENTIAL
     &END KIND
     &KIND H
       BASIS_SET DZVP-MOLOPT-SR-GTH-q1
       POTENTIAL GTH-PBE-q1
       &POTENTIAL
 1
  0.2000000000000000E+00 2 -0.4178900440000000E+01  0.7244633100000000E+00
 0
         # Potential name:  GTH-PBE-Q1  for symbol:  H
         # Potential read from the potential filename: GTH_POTENTIALS
       &END POTENTIAL
     &END KIND
     &KIND N
       BASIS_SET DZVP-MOLOPT-SR-GTH
       POTENTIAL GTH-PBE-q5
       &POTENTIAL
 2 3
  0.2837905100000000E+00 2 -0.1241522559000000E+02  0.1868095920000000E+01
 2
  0.2554050000000000E+00 1  0.1363026257000000E+02
  0.2454945300000000E+00 0
         # Potential name:  GTH-PBE-Q5  for symbol:  N
         # Potential read from the potential filename: GTH_POTENTIALS
       &END POTENTIAL
     &END KIND
     &KIND Ga
       BASIS_SET DZVP-MOLOPT-SR-GTH
       POTENTIAL GTH-PBE-q13
       &POTENTIAL
 2 1 10
  0.4900000000000000E+00 0
 3
  0.4167772300000000E+00 3  0.1047568975000000E+02 -0.4921768140000000E+01  0.8707055900000000E+00
  0.7770178090000000E+01 -0.2248152160000000E+01
  0.1784415450000000E+01
  0.5696265200000000E+00 2  0.1777985340000000E+01  0.1958597600000000E+00
 -0.2317443900000000E+00
  0.2381265000000000E+00 1 -0.1624868022000000E+02
         # Potential name:  GTH-PBE-Q13  for symbol:  GA
         # Potential read from the potential filename: GTH_POTENTIALS
       &END POTENTIAL
     &END KIND
     &TOPOLOGY
       NUMBER_OF_ATOMS  212
       MULTIPLE_UNIT_CELL  1 1 1
     &END TOPOLOGY
   &END SUBSYS
 &END FORCE_EVAL
