 # Version information for this restart file 
 # current date 2019-06-29 07:10:22.651
 # current working dir /scratch/rzk/rzk/GaN-carbene/443-adatoms-both-2x2/07-CH3O-H2O-H3C/01-UseUnoptimized-0501
 # Program compiled at                              Sun Apr  7 00:48:11 EDT 2019
 # Program compiled on                          beluga2.int.ets1.calculquebec.ca
 # Program compiled for                        Beluga-Linux-x86-64-intel-openmpi
 # Source code revision number                                         svn:18619
 &GLOBAL
   PRINT_LEVEL  MEDIUM
   PROJECT_NAME TEST
   RUN_TYPE  GEO_OPT
 &END GLOBAL
 &MOTION
   &GEO_OPT
     MAX_ITER  500
     STEP_START_VAL  34
   &END GEO_OPT
 &END MOTION
 &FORCE_EVAL
   METHOD  QS
   STRESS_TENSOR  ANALYTICAL
   &DFT
     BASIS_SET_FILE_NAME BASIS_MOLOPT
     POTENTIAL_FILE_NAME GTH_POTENTIALS
     UKS  T
     SURFACE_DIPOLE_CORRECTION  T
     SURF_DIP_DIR  Z
     &SCF
       MAX_SCF  80
       EPS_SCF     5.0000000000000004E-06
       &OT  T
         PRECONDITIONER  FULL_ALL
       &END OT
       &OUTER_SCF  T
         OPTIMIZER  NONE
         EPS_SCF     5.0000000000000004E-06
         MAX_SCF  4
       &END OUTER_SCF
       &PRINT
         &RESTART  OFF
           BACKUP_COPIES  1
           &EACH
             JUST_ENERGY  0
             QS_SCF  0
             MD  20
           &END EACH
         &END RESTART
       &END PRINT
     &END SCF
     &QS
       EPS_DEFAULT     1.0000000000000000E-14
       METHOD  GPW
     &END QS
     &MGRID
       NGRIDS  5
       CUTOFF     1.2000000000000000E+03
     &END MGRID
     &XC
       DENSITY_CUTOFF     1.0000000000000000E-10
       GRADIENT_CUTOFF     1.0000000000000000E-10
       TAU_CUTOFF     1.0000000000000000E-10
       &XC_FUNCTIONAL  NO_SHORTCUT
         &PBE  T
         &END PBE
       &END XC_FUNCTIONAL
       &VDW_POTENTIAL
         POTENTIAL_TYPE  PAIR_POTENTIAL
         &PAIR_POTENTIAL
           R_CUTOFF     1.0000000000000004E+01
           TYPE  DFTD3
           PARAMETER_FILE_NAME dftd3.dat
           REFERENCE_FUNCTIONAL PBE
           EPS_CN     9.9999999999999995E-07
           CALCULATE_C9_TERM  T
           REFERENCE_C9_TERM  T
           LONG_RANGE_CORRECTION  F
           VERBOSE_OUTPUT  F
         &END PAIR_POTENTIAL
       &END VDW_POTENTIAL
     &END XC
   &END DFT
   &SUBSYS
     &CELL
       A     1.2864472766435110E+01    0.0000000000000000E+00    0.0000000000000000E+00
       B    -6.4322363581020028E+00    1.1140960178524473E+01    0.0000000000000000E+00
       C     0.0000000000000000E+00    0.0000000000000000E+00    3.2000000000000000E+01
       MULTIPLE_UNIT_CELL  1 1 1
       &CELL_REF
         A     1.2982353780853531E+01    0.0000000000000000E+00    0.0000000000000000E+00
         B    -6.4911768904267628E+00    1.1243048175136114E+01    0.0000000000000000E+00
         C     0.0000000000000000E+00    0.0000000000000000E+00    3.2000000000000000E+01
         MULTIPLE_UNIT_CELL  1 1 1
       &END CELL_REF
     &END CELL
     &COORD
N    1.5189154123047598E-03    2.0400146707716327E+00    2.5202691221251268E+00
Ga   -1.7909962919379466E-02    8.1972396075087925E-02    2.8588805439243798E+00
N   -3.0131833028296828E-03    4.3803724800483147E-02    5.0287820323829999E+00
Ga   -2.2691826126217864E-03    1.8786389973307092E+00    5.8111281446484577E+00
N   -3.4140153483726292E-03    1.8897292867421431E+00    7.8115711049769763E+00
Ga   -4.0469008066599263E-03    4.6949778284688583E-02    8.4496759974587352E+00
N   -4.5579576994139839E-04    4.7428416860204894E-02    1.0424543105280637E+01
Ga   -9.0652732967369998E-04    1.8871505724382196E+00    1.1074757350372510E+01
N    7.8197588542260868E-04    1.8677364302652948E+00    1.3075671232737738E+01
Ga    5.2459001227801727E-03    3.9632219878132986E-02    1.3865932618160445E+01
N   -4.8935945322467749E-04    3.7928650296131232E-02    1.6078898284279894E+01
Ga    1.2275310335612068E-03    2.0490163510453869E+00    1.6451437754057892E+01
Ga    2.1964248111726418E-02    3.7566682110507013E+00    1.4021303739718218E+00
N   -1.4754675279765765E+00    4.6111495043386803E+00    2.5169666632204950E+00
Ga   -1.6753790765364718E+00    2.7823512880320234E+00    3.2870572456332932E+00
N   -1.6144813393661450E+00    2.8266625185727787E+00    5.2648622581274749E+00
Ga   -1.6236962383754667E+00    4.6964160120431995E+00    5.8073341263529086E+00
N   -1.6227370589221835E+00    4.6953986219302504E+00    7.8075614630572954E+00
Ga   -1.6003020928238134E+00    2.8385654137244813E+00    8.4443735546360568E+00
N   -1.5977820429560265E+00    2.8413762095021617E+00    1.0441189143824049E+01
Ga   -1.6251739818787587E+00    4.7009822565439148E+00    1.1076774083499645E+01
N   -1.6409528823068502E+00    4.7103059983434248E+00    1.3077752164969302E+01
Ga   -1.5969681972839846E+00    2.8396463228045885E+00    1.3620325399348356E+01
N   -1.6167951428558223E+00    2.8249351185055689E+00    1.5594513090616827E+01
Ga   -1.4841697574589425E+00    4.6177543210883840E+00    1.6451087833840781E+01
N   -8.4714842195607720E-03    3.7575721819875247E+00    1.7575618614916937E+01
N   -3.2294116499805727E+00    7.5875929492143355E+00    2.5232745751787613E+00
Ga   -3.1714306962516075E+00    5.5845722266872668E+00    2.8636771228663735E+00
N   -3.2182174362473610E+00    5.6114763860856574E+00    5.0184285309310486E+00
Ga   -3.2105605549443532E+00    7.4345773326848974E+00    5.8034604447994251E+00
N   -3.2196252052570049E+00    7.4640389157541289E+00    7.7950379764826758E+00
Ga   -3.2161963138877336E+00    5.6171517179702501E+00    8.4494753691136459E+00
N   -3.2169499583620338E+00    5.6211359185043062E+00    1.0423276600541156E+01
Ga   -3.2161442594716223E+00    7.4607739305682808E+00    1.1074226828989245E+01
N   -3.2159553059431292E+00    7.4424321666100086E+00    1.3065670863302792E+01
Ga   -3.2235534846928520E+00    5.6269255989048474E+00    1.3872417337883874E+01
N   -3.2242283523934598E+00    5.6214322940694297E+00    1.6079073324028617E+01
Ga   -3.2163909493028497E+00    7.6807586445259091E+00    1.6513855734000423E+01
Ga   -3.1840268500733857E+00    9.3415388056439586E+00    1.4724201004006954E+00
N   -4.7281363448960159E+00    1.0186684054323978E+01    2.5172352492953336E+00
Ga   -4.8639775030094787E+00    8.3832070679612531E+00    3.3315571916255622E+00
N   -4.8457496366151087E+00    8.3881785262801607E+00    5.2551057234051530E+00
Ga   -4.8584819156218160E+00    1.0282755765198999E+01    5.8081518437208244E+00
N   -4.8352682653059800E+00    1.0262213211460546E+01    7.7998176310914165E+00
Ga   -4.8149315210156960E+00    8.4084554815865378E+00    8.4431068339165201E+00
N   -4.8137154950624463E+00    8.4104353151153930E+00    1.0432336680335709E+01
Ga   -4.8383227234372086E+00    1.0269381058482127E+01    1.1072659808676404E+01
N   -4.8530080337748007E+00    1.0278164472892483E+01    1.3063934561929653E+01
Ga   -4.8099538935474166E+00    8.4130307940248112E+00    1.3632287324841505E+01
N   -4.8384966193304688E+00    8.3958528687245888E+00    1.5589342180904072E+01
Ga   -4.6428571999243857E+00    1.0154405260965067E+01    1.6514306692103332E+01
N   -3.2119667354622443E+00    9.3314601961983321E+00    1.7656793795916077E+01
N    3.1928747839922376E+00    1.9119662264311434E+00    2.6131190341261421E+00
Ga    3.2067116492854821E+00    1.6821139321410275E-01    3.2855938712031270E+00
N    3.2108385364592804E+00    4.5253739375586861E-02    5.2502718818854435E+00
Ga    3.2103024445744262E+00    1.9110641154898422E+00    5.8783999857075502E+00
N    3.2167146516387475E+00    1.9040017919027687E+00    7.8555759548264934E+00
Ga    3.2157321262123881E+00    3.8007274366895910E-02    8.4405670509387924E+00
N    3.2149606918974136E+00    3.5295094910494790E-02    1.0434011958064026E+01
Ga    3.2147366180041601E+00    1.9022967888158200E+00    1.1036447000866101E+01
N    3.2148100120131486E+00    1.9040311166948127E+00    1.3008940409638429E+01
Ga    3.2171009229064076E+00    3.1881986832864882E-02    1.3631485158427008E+01
N    3.2130707949226003E+00    6.3889282468641090E-02    1.5589112355552002E+01
Ga    3.2205890540115316E+00    1.8987785215026132E+00    1.5861321244327641E+01
N    1.4817213191055547E+00    4.6106755907910602E+00    2.5336316820067211E+00
Ga    1.6800239892267899E+00    2.7989560624031817E+00    3.3078339156504781E+00
N    1.6060624415144320E+00    2.8290193206541154E+00    5.2740560384624215E+00
Ga    1.6447064331228509E+00    4.7095380963374378E+00    5.8252178504474390E+00
N    1.6038527460554082E+00    4.6879332544015400E+00    7.8372712138846889E+00
Ga    1.5947513054257554E+00    2.8364470372864177E+00    8.4510346827263572E+00
N    1.5966388680234695E+00    2.8360778240530689E+00    1.0447558326344248E+01
Ga    1.6225369935085012E+00    4.7001826215355402E+00    1.1069606896666668E+01
N    1.6408298392594927E+00    4.7093052071837436E+00    1.3072794867095460E+01
Ga    1.5987262800824411E+00    2.8407400941030159E+00    1.3620210579126764E+01
N    1.6201926751147795E+00    2.8257853347576583E+00    1.5594574157853597E+01
Ga    1.4771994619607802E+00    4.6118088533063268E+00    1.6451456953524470E+01
N    6.9546351886647234E-03    7.4500890645999034E+00    2.6087380424156366E+00
Ga    2.0500525486950194E-02    5.6969061614423824E+00    3.3008801609276084E+00
N   -9.4520324107687584E-04    5.6160021729488205E+00    5.2706443335706989E+00
Ga    1.0897436902402873E-02    7.4669829536703087E+00    5.8707867812073520E+00
N    1.7115350989377987E-04    7.4774195637448440E+00    7.8523730570543453E+00
Ga   -4.3489751973200272E-03    5.6081942763539470E+00    8.4495999712894179E+00
N   -4.9436752473991435E-03    5.6096841272297508E+00    1.0446829164827008E+01
Ga   -3.5191149557913443E-03    7.4779007951706831E+00    1.1036109047960869E+01
N   -9.3474644554878913E-04    7.4754969263582138E+00    1.3009746133307390E+01
Ga    1.8349823135116064E-03    5.6065767100822539E+00    1.3620744678134370E+01
N    2.7882233131351483E-03    5.6303138128111554E+00    1.5595235274212602E+01
Ga   -2.2029017622707692E-03    7.4786843233345373E+00    1.5862845605315830E+01
N   -1.7128710123897961E+00    1.0194874483653775E+01    2.5329502756840370E+00
Ga   -1.4963552901521475E+00    8.3295560649868339E+00    3.2841818260918161E+00
N   -1.6095735768123658E+00    8.3984141616340207E+00    5.2478946043835855E+00
Ga   -1.5875808802822677E+00    1.0271230547182489E+01    5.8010261111334200E+00
N   -1.6017098818940094E+00    1.0265244051177367E+01    7.7973082937569655E+00
Ga   -1.6155752025658436E+00    8.4086743637286769E+00    8.4382045411076092E+00
N   -1.6209931777359547E+00    8.4111526208271492E+00    1.0432884060742268E+01
Ga   -1.5939177106941638E+00    1.0269671398934854E+01    1.1073643562918315E+01
N   -1.5763385415401237E+00    1.0279236296869295E+01    1.3066418844561348E+01
Ga   -1.6216444536315298E+00    8.4132533863660850E+00    1.3632365544776677E+01
N   -1.5928422758341778E+00    8.3912259363946227E+00    1.5589376977955075E+01
Ga   -1.7823931518171057E+00    1.0158306945324743E+01    1.6511418749890062E+01
N    6.4248204807155460E+00    2.0200268439655753E+00    2.5414158073979936E+00
Ga    6.4415341844002318E+00    3.1407021786213928E-02    2.8797895942714358E+00
N    6.4285000393986778E+00    4.6567318436796172E-02    5.0228783329150737E+00
Ga    6.4229541951569979E+00    1.8774700657732852E+00    5.8028320508822651E+00
N    6.4290729462177749E+00    1.8922188670499502E+00    7.7989582416976315E+00
Ga    6.4317538237976803E+00    4.6600747415169272E-02    8.4449443057998330E+00
N    6.4314332164957575E+00    4.7968414332021737E-02    1.0419734647009031E+01
Ga    6.4333335310411179E+00    1.8863972415963279E+00    1.1075813816489633E+01
N    6.4342535872640561E+00    1.8689192312345446E+00    1.3068137688087479E+01
Ga    6.4288310852816410E+00    4.8694001460579631E-02    1.3877970257561714E+01
N    6.4331298465877920E+00    4.7259668994420273E-02    1.6072897336575885E+01
Ga    6.4344750469939616E+00    2.0927777059152382E+00    1.6490407897076896E+01
Ga    6.4612199230300211E+00    3.6951599094197918E+00    1.4930572330819893E+00
N    4.9232670693615415E+00    4.6325791103292540E+00    2.3955185614458054E+00
Ga    4.6908911328707834E+00    2.7978102297299330E+00    3.2823700760706389E+00
N    4.8229891422371161E+00    2.8426619932416850E+00    5.2421116525251907E+00
Ga    4.7683592837341138E+00    4.7087981080531272E+00    5.8412613433585916E+00
N    4.8297294070111798E+00    4.6866106824459592E+00    7.8368442528384987E+00
Ga    4.8337743394582207E+00    2.8323278857675134E+00    8.4555971410747741E+00
N    4.8340646276299992E+00    2.8355542671695790E+00    1.0445857273561042E+01
Ga    4.8079133850052180E+00    4.6996159760717768E+00    1.1070477494410893E+01
N    4.7946699010294740E+00    4.7091607206665538E+00    1.3063564199876710E+01
Ga    4.8370959256603250E+00    2.8418788172281197E+00    1.3623703323411048E+01
N    4.8038792602374034E+00    2.8247196372743657E+00    1.5582007079841164E+01
Ga    5.0022048152718481E+00    4.5866693266709264E+00    1.6494169863477037E+01
N    6.4323644786890428E+00    3.7479727352827386E+00    1.7630791045039281E+01
N    3.2151571959181835E+00    7.5805672368875454E+00    2.3862775943383907E+00
N    3.2188682165841711E+00    5.6141962944656285E+00    5.1848683919549563E+00
Ga    3.2066367217518379E+00    7.4162257956790469E+00    5.8298340291185111E+00
N    3.2159318034892648E+00    7.4804255834244291E+00    7.8306698393100218E+00
Ga    3.2121200806380541E+00    5.6176862118583131E+00    8.4418492964120428E+00
N    3.2157030741230290E+00    5.6196397406251650E+00    1.0425780190026192E+01
Ga    3.2145775807430366E+00    7.4580897589039177E+00    1.1070076571229073E+01
N    3.2175359337011122E+00    7.4403956923724799E+00    1.3065494387420465E+01
Ga    3.2239377540856511E+00    5.6206594231577061E+00    1.3861500734527290E+01
N    3.2233340211141281E+00    5.6206841900064770E+00    1.6075946466717706E+01
Ga    3.2184765469359742E+00    7.6626868376671267E+00    1.6479818529912468E+01
Ga    3.1750429319879485E+00    9.4045365866883230E+00    1.3438686375139521E+00
N    1.7103148128617423E+00    1.0192631201952684E+01    2.5300803121763815E+00
Ga    1.5375014122156576E+00    8.3181652945534523E+00    3.2539059498536789E+00
N    1.6188462845104801E+00    8.3953082392935094E+00    5.2306825309270373E+00
Ga    1.5852054836561260E+00    1.0261184411197389E+01    5.7941060322784983E+00
N    1.5947925925355513E+00    1.0264375612716423E+01    7.7947290794725754E+00
Ga    1.6126891728026789E+00    8.4128282349790098E+00    8.4507302629715451E+00
N    1.6146832588528586E+00    8.4126046590013939E+00    1.0444288204801067E+01
Ga    1.5919604595664301E+00    1.0271275634110268E+01    1.1075110998396543E+01
N    1.5772223495896336E+00    1.0280624139618412E+01    1.3070468993685068E+01
Ga    1.6217562003337134E+00    8.4107420956805221E+00    1.3622288258073869E+01
N    1.5937938703623480E+00    8.3882103157777799E+00    1.5585022012198925E+01
Ga    1.7605683250302586E+00    1.0173305514652338E+01    1.6477412944819296E+01
N    3.2043849461599372E+00    9.3350067748910579E+00    1.7613154619676845E+01
N    9.6591511752910044E+00    1.8980682566939671E+00    2.6316228927404617E+00
Ga    9.6518399561027071E+00    1.4278630054060662E-01    3.2842788590238441E+00
N    9.6481779479196597E+00    4.2176055761004590E-02    5.2544576027920744E+00
Ga    9.6535392030220901E+00    1.8989844452246036E+00    5.8804103100386058E+00
N    9.6461893064596573E+00    1.9022515393629369E+00    7.8561262079982974E+00
Ga    9.6454608242698434E+00    3.3119991528353869E-02    8.4357010916868074E+00
N    9.6482758671216189E+00    3.4846999870922615E-02    1.0432719023683498E+01
Ga    9.6475791324515523E+00    1.9045633406561773E+00    1.1027278990771640E+01
N    9.6518189620734791E+00    1.9057802580985346E+00    1.3001476242168904E+01
Ga    9.6502725174787773E+00    3.6066437605782424E-02    1.3622352788635979E+01
N    9.6554549396221852E+00    6.7730336439476763E-02    1.5583879536993829E+01
Ga    9.6470402239965605E+00    1.9033621659469777E+00    1.5865888685196705E+01
N    7.9180607922423132E+00    4.6250616088647893E+00    2.5259798199647459E+00
Ga    8.1526844300865076E+00    2.7597662376593042E+00    3.3077978352276758E+00
N    8.0377976194617631E+00    2.8308259749382065E+00    5.2624156068582399E+00
Ga    8.0667533531374005E+00    4.7025210325576206E+00    5.8030031001534281E+00
N    8.0474514433280131E+00    4.6987615863947596E+00    7.7957867780752181E+00
Ga    8.0291289793956917E+00    2.8369566087137579E+00    8.4385454271876572E+00
N    8.0289628153975414E+00    2.8412903461074310E+00    1.0433305813086738E+01
Ga    8.0572563690264367E+00    4.6993441040252328E+00    1.1076281244393083E+01
N    8.0725353119449412E+00    4.7093815610574055E+00    1.3067278012484911E+01
Ga    8.0310530053929252E+00    2.8409463342482537E+00    1.3624347080943949E+01
N    8.0638793676600820E+00    2.8247783048303385E+00    1.5580853288447519E+01
Ga    7.8655839085932122E+00    4.5872233715270161E+00    1.6496020824457037E+01
N    6.4217212067484253E+00    7.4708967537418882E+00    2.5987424724386003E+00
Ga    6.3898571662054229E+00    5.6493885561043875E+00    3.3150813358568860E+00
N    6.4211361072305833E+00    5.6239131537258791E+00    5.2379819029329084E+00
Ga    6.4136804148901225E+00    7.4671656488470157E+00    5.8997957462333623E+00
N    6.4277597385815808E+00    7.4727002500480868E+00    7.8561838224061740E+00
Ga    6.4349254709784161E+00    5.6033861467939206E+00    8.4590205995071113E+00
N    6.4361844473729652E+00    5.6098208976787323E+00    1.0445036058599323E+01
Ga    6.4343151961502008E+00    7.4781112864153272E+00    1.1036106373947023E+01
N    6.4350227411220526E+00    7.4783012307035808E+00    1.3005278918591246E+01
Ga    6.4324470475176518E+00    5.6064295048314872E+00    1.3623868917707297E+01
N    6.4324437410681368E+00    5.6374745195885927E+00    1.5581928476491965E+01
Ga    6.4362045689610037E+00    7.4748119414686336E+00    1.5857993639981002E+01
N    4.7196307400606239E+00    1.0181596315325342E+01    2.5137093091835512E+00
Ga    4.8034261342837148E+00    8.3601224347972227E+00    3.2905847208425389E+00
N    4.8252372951363407E+00    8.3848222283681082E+00    5.2259905980241577E+00
Ga    4.8490580764992952E+00    1.0269658230475397E+01    5.7970321628750074E+00
N    4.8337960339196595E+00    1.0259720887344251E+01    7.7948614630503394E+00
Ga    4.8099756058332277E+00    8.4127724253169021E+00    8.4570440647465706E+00
N    4.8168339205060473E+00    8.4122368333595166E+00    1.0444461259082452E+01
Ga    4.8385406954480334E+00    1.0271513652107554E+01    1.1074288801964659E+01
N    4.8564707723774747E+00    1.0279224219858797E+01    1.3067620073886101E+01
Ga    4.8140070569562114E+00    8.4104275023158515E+00    1.3621192376963124E+01
N    4.8410982885166307E+00    8.3939310103032057E+00    1.5582882861745476E+01
Ga    4.6605520223821770E+00    1.0163498304935676E+01    1.6481916337774518E+01
O    6.2381215348095675E-01    3.8954326451041759E+00   -3.6030695282172565E-01
H    2.3528377349723666E+00    6.4138280126207716E+00   -1.1924445561903464E-01
C    8.1693723497809834E-01    2.6273562186871686E+00   -1.0202736668279715E+00
H    1.6952799888573014E+00    2.0927881228481060E+00   -6.2001751275029260E-01
H   -6.4467131515948836E-02    1.9778948827732847E+00   -8.9847797711004707E-01
H    9.6095161468048496E-01    2.8150924362341740E+00   -2.0952735295328822E+00
Ga    3.1402680826953615E+00    5.5848704898885346E+00    2.2166205495398450E+00
O    2.7594414597416876E+00    5.5426955599718166E+00    6.4752678368959801E-02
H    2.0064799833472420E+00    4.8777592820103273E+00   -1.1744754650789618E-01
C    6.4399370004409011E+00    7.4702478578441829E+00    1.1071319413672236E+00
H    5.7863677548706001E+00    8.2589644834189109E+00    6.9440669101702313E-01
H    7.4580326143905458E+00    7.6417252659186934E+00    7.1430631381236509E-01
H    6.0885447768804672E+00    6.5054078956081014E+00    7.0286533638287041E-01
     &END COORD
     &KIND C
       BASIS_SET DZVP-MOLOPT-SR-GTH-q4
       POTENTIAL GTH-PBE-q4
       &POTENTIAL
 2 2
  0.3384712400000000E+00 2 -0.8803673979999999E+01  0.1339210850000000E+01
 2
  0.3025757500000000E+00 1  0.9622486650000001E+01
  0.2915069400000000E+00 0
         # Potential name:  GTH-PBE-Q4  for symbol:  C
         # Potential read from the potential filename: GTH_POTENTIALS
       &END POTENTIAL
     &END KIND
     &KIND O
       BASIS_SET DZVP-MOLOPT-SR-GTH-q6
       POTENTIAL GTH-PBE-q6
       &POTENTIAL
 2 4
  0.2445543000000000E+00 2 -0.1666721480000000E+02  0.2487311320000000E+01
 2
  0.2209559200000000E+00 1  0.1833745811000000E+02
  0.2113324700000000E+00 0
         # Potential name:  GTH-PBE-Q6  for symbol:  O
         # Potential read from the potential filename: GTH_POTENTIALS
       &END POTENTIAL
     &END KIND
     &KIND H
       BASIS_SET DZVP-MOLOPT-SR-GTH-q1
       POTENTIAL GTH-PBE-q1
       &POTENTIAL
 1
  0.2000000000000000E+00 2 -0.4178900440000000E+01  0.7244633100000000E+00
 0
         # Potential name:  GTH-PBE-Q1  for symbol:  H
         # Potential read from the potential filename: GTH_POTENTIALS
       &END POTENTIAL
     &END KIND
     &KIND N
       BASIS_SET DZVP-MOLOPT-SR-GTH
       POTENTIAL GTH-PBE-q5
       &POTENTIAL
 2 3
  0.2837905100000000E+00 2 -0.1241522559000000E+02  0.1868095920000000E+01
 2
  0.2554050000000000E+00 1  0.1363026257000000E+02
  0.2454945300000000E+00 0
         # Potential name:  GTH-PBE-Q5  for symbol:  N
         # Potential read from the potential filename: GTH_POTENTIALS
       &END POTENTIAL
     &END KIND
     &KIND Ga
       BASIS_SET DZVP-MOLOPT-SR-GTH
       POTENTIAL GTH-PBE-q13
       &POTENTIAL
 2 1 10
  0.4900000000000000E+00 0
 3
  0.4167772300000000E+00 3  0.1047568975000000E+02 -0.4921768140000000E+01  0.8707055900000000E+00
  0.7770178090000000E+01 -0.2248152160000000E+01
  0.1784415450000000E+01
  0.5696265200000000E+00 2  0.1777985340000000E+01  0.1958597600000000E+00
 -0.2317443900000000E+00
  0.2381265000000000E+00 1 -0.1624868022000000E+02
         # Potential name:  GTH-PBE-Q13  for symbol:  GA
         # Potential read from the potential filename: GTH_POTENTIALS
       &END POTENTIAL
     &END KIND
     &TOPOLOGY
       NUMBER_OF_ATOMS  212
       MULTIPLE_UNIT_CELL  1 1 1
     &END TOPOLOGY
   &END SUBSYS
 &END FORCE_EVAL
