 # Version information for this restart file 
 # current date 2019-06-29 09:31:13.982
 # current working dir /scratch/rzk/rzk/GaN-carbene/443-adatoms-both-2x2/07-CH3O-H2O-H3C/01-UseUnoptimized-0501
 # Program compiled at                              Sun Apr  7 00:48:11 EDT 2019
 # Program compiled on                          beluga2.int.ets1.calculquebec.ca
 # Program compiled for                        Beluga-Linux-x86-64-intel-openmpi
 # Source code revision number                                         svn:18619
 &GLOBAL
   PRINT_LEVEL  MEDIUM
   PROJECT_NAME TEST
   RUN_TYPE  GEO_OPT
 &END GLOBAL
 &MOTION
   &GEO_OPT
     MAX_ITER  500
     STEP_START_VAL  88
   &END GEO_OPT
 &END MOTION
 &FORCE_EVAL
   METHOD  QS
   STRESS_TENSOR  ANALYTICAL
   &DFT
     BASIS_SET_FILE_NAME BASIS_MOLOPT
     POTENTIAL_FILE_NAME GTH_POTENTIALS
     UKS  T
     SURFACE_DIPOLE_CORRECTION  T
     SURF_DIP_DIR  Z
     &SCF
       MAX_SCF  80
       EPS_SCF     5.0000000000000004E-06
       &OT  T
         PRECONDITIONER  FULL_ALL
       &END OT
       &OUTER_SCF  T
         OPTIMIZER  NONE
         EPS_SCF     5.0000000000000004E-06
         MAX_SCF  4
       &END OUTER_SCF
       &PRINT
         &RESTART  OFF
           BACKUP_COPIES  1
           &EACH
             JUST_ENERGY  0
             QS_SCF  0
             MD  20
           &END EACH
         &END RESTART
       &END PRINT
     &END SCF
     &QS
       EPS_DEFAULT     1.0000000000000000E-14
       METHOD  GPW
     &END QS
     &MGRID
       NGRIDS  5
       CUTOFF     1.2000000000000000E+03
     &END MGRID
     &XC
       DENSITY_CUTOFF     1.0000000000000000E-10
       GRADIENT_CUTOFF     1.0000000000000000E-10
       TAU_CUTOFF     1.0000000000000000E-10
       &XC_FUNCTIONAL  NO_SHORTCUT
         &PBE  T
         &END PBE
       &END XC_FUNCTIONAL
       &VDW_POTENTIAL
         POTENTIAL_TYPE  PAIR_POTENTIAL
         &PAIR_POTENTIAL
           R_CUTOFF     1.0000000000000004E+01
           TYPE  DFTD3
           PARAMETER_FILE_NAME dftd3.dat
           REFERENCE_FUNCTIONAL PBE
           EPS_CN     9.9999999999999995E-07
           CALCULATE_C9_TERM  T
           REFERENCE_C9_TERM  T
           LONG_RANGE_CORRECTION  F
           VERBOSE_OUTPUT  F
         &END PAIR_POTENTIAL
       &END VDW_POTENTIAL
     &END XC
   &END DFT
   &SUBSYS
     &CELL
       A     1.2864472766435110E+01    0.0000000000000000E+00    0.0000000000000000E+00
       B    -6.4322363581020028E+00    1.1140960178524473E+01    0.0000000000000000E+00
       C     0.0000000000000000E+00    0.0000000000000000E+00    3.2000000000000000E+01
       MULTIPLE_UNIT_CELL  1 1 1
       &CELL_REF
         A     1.2982353780853531E+01    0.0000000000000000E+00    0.0000000000000000E+00
         B    -6.4911768904267628E+00    1.1243048175136114E+01    0.0000000000000000E+00
         C     0.0000000000000000E+00    0.0000000000000000E+00    3.2000000000000000E+01
         MULTIPLE_UNIT_CELL  1 1 1
       &END CELL_REF
     &END CELL
     &COORD
N    2.0397163723591552E-03    2.0471033354585351E+00    2.5089463938762986E+00
Ga   -2.9264728825771798E-02    9.3297680850885620E-02    2.8609345514717441E+00
N   -1.6903120610774654E-03    4.9756977570493625E-02    5.0253420649022740E+00
Ga   -4.1204125448506866E-03    1.8843278054103372E+00    5.8070558131972065E+00
N   -5.9326833749540897E-03    1.8908317108136503E+00    7.8088426145122041E+00
Ga   -7.4995627759906437E-03    4.7740329062172029E-02    8.4484614612469375E+00
N   -5.4297980532519927E-03    4.5803642773479848E-02    1.0423950391557788E+01
Ga   -5.8782518472060043E-03    1.8854824531508834E+00    1.1073040848945691E+01
N   -6.1773554154160009E-03    1.8647280523440537E+00    1.3074273480159471E+01
Ga   -5.0247872766141363E-03    3.5939707623451646E-02    1.3865355970510960E+01
N   -5.2550463716421556E-03    3.2935817853362380E-02    1.6074184308118756E+01
Ga   -5.5005367560633728E-03    2.0322777237774226E+00    1.6434999274652061E+01
Ga    2.8047895449979758E-02    3.7708044213110035E+00    1.3886105804033266E+00
N   -1.4770639919518440E+00    4.6204641320330104E+00    2.5041500810132988E+00
Ga   -1.6765762749128157E+00    2.7896108015655310E+00    3.2725525760233998E+00
N   -1.6146740460508522E+00    2.8318827146789802E+00    5.2552348986986255E+00
Ga   -1.6258710855472294E+00    4.6989612127231899E+00    5.8037449783471056E+00
N   -1.6260873497228898E+00    4.6962804948979349E+00    7.8053172136130637E+00
Ga   -1.6039214058049300E+00    2.8384463379552258E+00    8.4405334082796326E+00
N   -1.6023085654963292E+00    2.8395949321060474E+00    1.0438723108113026E+01
Ga   -1.6292586823753172E+00    4.6988824903652882E+00    1.1073115392020917E+01
N   -1.6477959364788484E+00    4.7083567843764413E+00    1.3074287072186364E+01
Ga   -1.6037221726457709E+00    2.8380370162530597E+00    1.3617598467036014E+01
N   -1.6190124211606129E+00    2.8288615275268572E+00    1.5596899830597552E+01
Ga   -1.5032325086472313E+00    4.6252869715702456E+00    1.6435073984010003E+01
N   -6.3485155352235199E-03    3.7612599080749116E+00    1.7559357008817290E+01
N   -3.2298714213308535E+00    7.5967144862719014E+00    2.5274608569890296E+00
Ga   -3.1718117780474482E+00    5.5869882187280959E+00    2.8603900632925083E+00
N   -3.2201364226601452E+00    5.6169989459042489E+00    5.0145977967329971E+00
Ga   -3.2125705586388298E+00    7.4378620567578162E+00    5.8059400196120690E+00
N   -3.2223874682455302E+00    7.4644909858111070E+00    7.7967193058460627E+00
Ga   -3.2199251510315117E+00    5.6169996654862517E+00    8.4496505629656813E+00
N   -3.2226803955732573E+00    5.6187601722224141E+00    1.0423917873314560E+01
Ga   -3.2202773560633551E+00    7.4590393202223408E+00    1.1073089773082609E+01
N   -3.2219905627002796E+00    7.4398978004831982E+00    1.3065757870334190E+01
Ga   -3.2310935338479858E+00    5.6234889525914520E+00    1.3866301647186564E+01
N   -3.2341765789205801E+00    5.6246697637824399E+00    1.6074287813192505E+01
Ga   -3.2236517266453499E+00    7.6810181645392923E+00    1.6503620468889064E+01
Ga   -3.1876080379637544E+00    9.3480218398966901E+00    1.5294497879988811E+00
N   -4.7259276057415089E+00    1.0191325609275706E+01    2.5219680264368316E+00
Ga   -4.8754696653412770E+00    8.3831292502867978E+00    3.3393896770540077E+00
N   -4.8472824196056834E+00    8.3933637499512734E+00    5.2593584255506309E+00
Ga   -4.8597535072057472E+00    1.0287256132767293E+01    5.8109405078158742E+00
N   -4.8374237500849029E+00    1.0263485116956955E+01    7.8012124351758469E+00
Ga   -4.8184575301196277E+00    8.4090059537179869E+00    8.4455057692824855E+00
N   -4.8178380392925089E+00    8.4093028670545493E+00    1.0434498393147781E+01
Ga   -4.8432252386165828E+00    1.0268316090413359E+01    1.1073076782129547E+01
N   -4.8597865511057510E+00    1.0276313283461011E+01    1.3065820856559339E+01
Ga   -4.8185311145603835E+00    8.4091006458144406E+00    1.3629470974021263E+01
N   -4.8464759663482253E+00    8.3930735952071078E+00    1.5586797242406615E+01
Ga   -4.6514326405701061E+00    1.0154308816736178E+01    1.6503545351140993E+01
N   -3.2128905908781031E+00    9.3360124835192906E+00    1.7646758577403904E+01
N    3.1924906685657155E+00    1.9200198536787048E+00    2.6120136183370946E+00
Ga    3.2077787285701982E+00    1.8418974288618362E-01    3.2987415126684669E+00
N    3.2103114081361479E+00    4.9437407943228422E-02    5.2563994886510006E+00
Ga    3.2088270587342222E+00    1.9159458502675268E+00    5.8844245784434994E+00
N    3.2149768310273790E+00    1.9047505902646726E+00    7.8597494837240491E+00
Ga    3.2140167499257988E+00    3.7958777988866231E-02    8.4436468809460798E+00
N    3.2117481222546638E+00    3.4001617684520910E-02    1.0437079202321312E+01
Ga    3.2112402644155567E+00    1.9022463555046034E+00    1.1036543069385196E+01
N    3.2087023279466167E+00    1.9040714311737295E+00    1.3010146114740728E+01
Ga    3.2109667446872594E+00    3.2241198068084412E-02    1.3629455860973614E+01
N    3.2037389952335262E+00    6.8950119971575560E-02    1.5588604788954012E+01
Ga    3.2121688768035161E+00    1.9028828963957003E+00    1.5865801924485636E+01
N    1.4763152994293596E+00    4.6145676564634259E+00    2.5444867301420411E+00
Ga    1.6756669078081345E+00    2.8063031692413722E+00    3.3060111883099812E+00
N    1.6055190478324717E+00    2.8313056963876488E+00    5.2744593902778725E+00
Ga    1.6439907806480685E+00    4.7131604390500224E+00    5.8193468518189597E+00
N    1.6031487155052289E+00    4.6893678135609944E+00    7.8339684947389614E+00
Ga    1.5917686938501614E+00    2.8379578015767648E+00    8.4494730453816977E+00
N    1.5924453299213879E+00    2.8353087962531585E+00    1.0447096032228371E+01
Ga    1.6187944682629429E+00    4.6994898810540970E+00    1.1069026671641671E+01
N    1.6360956393562345E+00    4.7086742637874242E+00    1.3073121034984460E+01
Ga    1.5911581943620428E+00    2.8392590412006320E+00    1.3617498901720358E+01
N    1.6072766629250999E+00    2.8291294604757278E+00    1.5597027201358138E+01
Ga    1.4918571544763297E+00    4.6250907886019847E+00    1.6435051476404428E+01
N    1.1696482224577838E-02    7.4571632188205461E+00    2.6137204491744961E+00
Ga    1.9717119509657273E-02    5.7022581961314662E+00    3.3019548112306460E+00
N   -4.1316203342905578E-03    5.6205415450975087E+00    5.2710367403310441E+00
Ga    1.3230995959881774E-02    7.4717135424005185E+00    5.8710828677912579E+00
N   -1.7125501960006692E-03    7.4780999998772533E+00    7.8520812856777615E+00
Ga   -6.0382071403789353E-03    5.6081720136730704E+00    8.4452101949368110E+00
N   -8.5179487199333291E-03    5.6078176775128235E+00    1.0444411037602544E+01
Ga   -6.3302237368340905E-03    7.4765085778774285E+00    1.1033398783298702E+01
N   -6.2630579807314915E-03    7.4726804745939193E+00    1.3008049322263735E+01
Ga   -5.1794502691662192E-03    5.6046400538170467E+00    1.3617138317336630E+01
N   -5.6420870564113310E-03    5.6231425901462782E+00    1.5596950424694365E+01
Ga   -5.7500852766246271E-03    7.4758306198363389E+00    1.5866252719918904E+01
N   -1.7134006288619079E+00    1.0202746817745791E+01    2.5420567164021639E+00
Ga   -1.4844474597182260E+00    8.3331582758628393E+00    3.2962084280386086E+00
N   -1.6112101815540336E+00    8.4022049957402967E+00    5.2536736275387632E+00
Ga   -1.5864033580737158E+00    1.0275414633285862E+01    5.8048150295320227E+00
N   -1.6034173476893381E+00    1.0265790668576273E+01    7.7998614820401899E+00
Ga   -1.6176554896108077E+00    8.4088561985551280E+00    8.4385194103210299E+00
N   -1.6246078231635801E+00    8.4102072540768642E+00    1.0433858085705021E+01
Ga   -1.5966322006079190E+00    1.0268777184678479E+01    1.1075701844328497E+01
N   -1.5807146692686900E+00    1.0278347778969934E+01    1.3070517001975352E+01
Ga   -1.6257560773374600E+00    8.4101342352831630E+00    1.3629175643149781E+01
N   -1.5978433845212674E+00    8.3856432101360703E+00    1.5588357926689048E+01
Ga   -1.7792611873015385E+00    1.0163799348365668E+01    1.6502109956375612E+01
N    6.4229006574344725E+00    2.0294471632641420E+00    2.5428406726947101E+00
Ga    6.4537729895520020E+00    3.9294118109202421E-02    2.8801049231367397E+00
N    6.4258237726900829E+00    5.0805043847365672E-02    5.0251576391736252E+00
Ga    6.4224619454637271E+00    1.8803968482538111E+00    5.8031232610827104E+00
N    6.4266364458409404E+00    1.8930038131755940E+00    7.7996948100090879E+00
Ga    6.4307837807923161E+00    4.7034517816920605E-02    8.4460995793866260E+00
N    6.4277197700878359E+00    4.7709660352007389E-02    1.0422281556515413E+01
Ga    6.4293872901501716E+00    1.8851214353311518E+00    1.1079093917958247E+01
N    6.4283647729250513E+00    1.8665270130395877E+00    1.3072906074219837E+01
Ga    6.4272590496406643E+00    4.7463559081701953E-02    1.3886199667182506E+01
N    6.4259671509188374E+00    4.7004995406393454E-02    1.6076720484681612E+01
Ga    6.4261011349400796E+00    2.0962660837216420E+00    1.6503581302049259E+01
Ga    6.4512424224275087E+00    3.7095031899240460E+00    1.4944355001496485E+00
N    4.9200205601820439E+00    4.6377945520925499E+00    2.4146065032996380E+00
Ga    4.6918978167372636E+00    2.8040269116322496E+00    3.2876033262176358E+00
N    4.8211170430781518E+00    2.8451564094512185E+00    5.2469439025287086E+00
Ga    4.7654056029047052E+00    4.7135416247345674E+00    5.8395878532391645E+00
N    4.8259814059415778E+00    4.6882184695589402E+00    7.8358238189058769E+00
Ga    4.8325756205441825E+00    2.8342913712130184E+00    8.4567037995575536E+00
N    4.8311574186764084E+00    2.8351135322726213E+00    1.0447972247455851E+01
Ga    4.8039483371638605E+00    4.6984812995832259E+00    1.1073581324042889E+01
N    4.7896718815051624E+00    4.7071453929581732E+00    1.3067694743967309E+01
Ga    4.8316234489314924E+00    2.8396215363355677E+00    1.3628976372244320E+01
N    4.7959695438880923E+00    2.8264535459797111E+00    1.5588333826689466E+01
Ga    4.9994612219816661E+00    4.5865953550070309E+00    1.6504386801016100E+01
N    6.4262903684636434E+00    3.7507188690638937E+00    1.7649793780965322E+01
N    3.2165103914821795E+00    7.5915122648929243E+00    2.3939232195192797E+00
N    3.2174107829206409E+00    5.6173952391967719E+00    5.1709491887686800E+00
Ga    3.2051484899424141E+00    7.4213743151254885E+00    5.8212217134403552E+00
N    3.2137084234632654E+00    7.4804353600860614E+00    7.8270949840786708E+00
Ga    3.2098533321202405E+00    5.6199832124096609E+00    8.4425301814296798E+00
N    3.2123636823617026E+00    5.6190768462117884E+00    1.0426770416542523E+01
Ga    3.2104190977887854E+00    7.4581620848377348E+00    1.1072307675461799E+01
N    3.2115324932687743E+00    7.4401741358479869E+00    1.3067180286437726E+01
Ga    3.2206429212044991E+00    5.6231340380433519E+00    1.3863482549097135E+01
N    3.2228176386735816E+00    5.6241528687347273E+00    1.6074566988902205E+01
Ga    3.2123332253124310E+00    7.6794938544967977E+00    1.6500981244267990E+01
Ga    3.1763101873677959E+00    9.4166401268886428E+00    1.2937584184834829E+00
N    1.7108403679750788E+00    1.0201630424234169E+01    2.5281191472914202E+00
Ga    1.5475633431138229E+00    8.3330136806163750E+00    3.2453395546431856E+00
N    1.6160961631117536E+00    8.3999844621031574E+00    5.2291508016625396E+00
Ga    1.5859859472724143E+00    1.0265084072823642E+01    5.7894596865571870E+00
N    1.5925703370424777E+00    1.0265560194689620E+01    7.7932254551454614E+00
Ga    1.6122693868930338E+00    8.4139927060409008E+00    8.4488316964448487E+00
N    1.6111861022057783E+00    8.4125102924787587E+00    1.0443665165710529E+01
Ga    1.5879842228600498E+00    1.0270703614431707E+01    1.1077248943943255E+01
N    1.5709146660252307E+00    1.0279556080826879E+01    1.3072131348001603E+01
Ga    1.6149809870053191E+00    8.4100653460509420E+00    1.3627562148591748E+01
N    1.5863305167952764E+00    8.3857047750233225E+00    1.5587762008403436E+01
Ga    1.7659780123125086E+00    1.0164333061753631E+01    1.6500196595405129E+01
N    3.2009004961072423E+00    9.3360055332266718E+00    1.7643754962069092E+01
N    9.6559667115614101E+00    1.9060408880756148E+00    2.6253736971166748E+00
Ga    9.6511912900414760E+00    1.4442095596467522E-01    3.2722353293021866E+00
N    9.6470028532784671E+00    4.8612633491753592E-02    5.2485415706972640E+00
Ga    9.6525963645251878E+00    1.9029362482407859E+00    5.8726028629620881E+00
N    9.6429914714495943E+00    1.9044027702212729E+00    7.8511927061617666E+00
Ga    9.6425300481951428E+00    3.4965725957855943E-02    8.4325785203665831E+00
N    9.6430838380218411E+00    3.4472526540351836E-02    1.0431250636332726E+01
Ga    9.6425656121162646E+00    1.9035639066620860E+00    1.1027136557261754E+01
N    9.6447032039044700E+00    1.9049376112541081E+00    1.3002931125708027E+01
Ga    9.6431745442911989E+00    3.4564315847011494E-02    1.3629191426332238E+01
N    9.6494148961045578E+00    6.9766240607960425E-02    1.5588990139626805E+01
Ga    9.6412922050596812E+00    1.9031083807020293E+00    1.5869717636435706E+01
N    7.9160114259988976E+00    4.6386199941194644E+00    2.5235000245919932E+00
Ga    8.1513391062754206E+00    2.7686887405061382E+00    3.3028626518770494E+00
N    8.0352526804515296E+00    2.8365259316159168E+00    5.2589096747709831E+00
Ga    8.0631424814493275E+00    4.7069219990640594E+00    5.8019661373575619E+00
N    8.0438828808680096E+00    4.6998794187198527E+00    7.7952432526424280E+00
Ga    8.0261192462606470E+00    2.8376078373647613E+00    8.4366121326765704E+00
N    8.0237748990624649E+00    2.8397231336816877E+00    1.0432976941260151E+01
Ga    8.0509832322548771E+00    4.6963929590164017E+00    1.1077076919564776E+01
N    8.0658068765325339E+00    4.7064384412614553E+00    1.3068634859088993E+01
Ga    8.0242584072341412E+00    2.8387950690893273E+00    1.3630330546168734E+01
N    8.0579064002259191E+00    2.8261915502075707E+00    1.5589315101858251E+01
Ga    7.8531896513898189E+00    4.5864963281954703E+00    1.6505020809688730E+01
N    6.4162837830357589E+00    7.4775842652105959E+00    2.6032237819165154E+00
Ga    6.3826555972584282E+00    5.6573498469796801E+00    3.3180973562354561E+00
N    6.4195223170165150E+00    5.6302230073435720E+00    5.2414338318902063E+00
Ga    6.4076858117592517E+00    7.4738823820535218E+00    5.9022158390783659E+00
N    6.4244615537505565E+00    7.4741733203026994E+00    7.8595552282613159E+00
Ga    6.4309706256910646E+00    5.6043661700770819E+00    8.4595417321541486E+00
N    6.4312736654021618E+00    5.6078236928616532E+00    1.0446075506937055E+01
Ga    6.4289824003574250E+00    7.4765039821045951E+00    1.1038003571596812E+01
N    6.4279720024472349E+00    7.4751033930085047E+00    1.3005934399110368E+01
Ga    6.4272215307690059E+00    5.6052173231999634E+00    1.3629149383043590E+01
N    6.4268245922375788E+00    5.6371455652727880E+00    1.5586952735638313E+01
Ga    6.4268399909968066E+00    7.4741167079696309E+00    1.5864185771391817E+01
N    4.7214863339339628E+00    1.0196062331461643E+01    2.5096563506538550E+00
Ga    4.7949000137577276E+00    8.3804323523565607E+00    3.2819365595881838E+00
N    4.8248105130838690E+00    8.3918495153398336E+00    5.2240397978747675E+00
Ga    4.8450033910566592E+00    1.0274120674263356E+01    5.7927284193941944E+00
N    4.8315261797847482E+00    1.0261814931384077E+01    7.7927280876301621E+00
Ga    4.8058367750274398E+00    8.4143207874830370E+00    8.4566362017955097E+00
N    4.8118224200304516E+00    8.4115682565872909E+00    1.0444883900104481E+01
Ga    4.8321248686840335E+00    1.0270196990322519E+01    1.1075269349185945E+01
N    4.8490784114340890E+00    1.0277790171918697E+01    1.3067855212690473E+01
Ga    4.8082346154997131E+00    8.4093089559647076E+00    1.3627973256869693E+01
N    4.8355887114273690E+00    8.3931336587995009E+00    1.5586400579232492E+01
Ga    4.6411177108961086E+00    1.0154644638167554E+01    1.6501642914767089E+01
O    6.5093614553099233E-01    3.9871975968786004E+00   -3.6074600849181121E-01
H    2.5073215794519332E+00    6.4544383189498005E+00   -1.0279912103252632E-01
C    9.7990453184604265E-01    2.7820934876475958E+00   -1.0837986219003621E+00
H    1.7125019216308714E+00    2.1647200545384364E+00   -5.3802615549042743E-01
H    8.2156966847943144E-02    2.1759728751428216E+00   -1.2772293295475163E+00
H    1.4139249307053101E+00    3.0775680388391642E+00   -2.0495818152860603E+00
Ga    3.1383907160228484E+00    5.5979886276541313E+00    2.2609571454750546E+00
O    2.8134667544907219E+00    5.5529146985187348E+00    1.0689967272055545E-01
H    2.0094861176307930E+00    4.9503671890945133E+00   -8.5537124062901523E-02
C    6.4476599450768033E+00    7.4807925756630622E+00    1.1126344334986882E+00
H    6.4297551038254408E+00    8.5105087630609564E+00    7.2673844115179020E-01
H    7.3561523828597126E+00    6.9862448223374223E+00    7.3821510874382412E-01
H    5.5766654250134691E+00    6.9510950582151132E+00    6.9866576661263791E-01
     &END COORD
     &KIND C
       BASIS_SET DZVP-MOLOPT-SR-GTH-q4
       POTENTIAL GTH-PBE-q4
       &POTENTIAL
 2 2
  0.3384712400000000E+00 2 -0.8803673979999999E+01  0.1339210850000000E+01
 2
  0.3025757500000000E+00 1  0.9622486650000001E+01
  0.2915069400000000E+00 0
         # Potential name:  GTH-PBE-Q4  for symbol:  C
         # Potential read from the potential filename: GTH_POTENTIALS
       &END POTENTIAL
     &END KIND
     &KIND O
       BASIS_SET DZVP-MOLOPT-SR-GTH-q6
       POTENTIAL GTH-PBE-q6
       &POTENTIAL
 2 4
  0.2445543000000000E+00 2 -0.1666721480000000E+02  0.2487311320000000E+01
 2
  0.2209559200000000E+00 1  0.1833745811000000E+02
  0.2113324700000000E+00 0
         # Potential name:  GTH-PBE-Q6  for symbol:  O
         # Potential read from the potential filename: GTH_POTENTIALS
       &END POTENTIAL
     &END KIND
     &KIND H
       BASIS_SET DZVP-MOLOPT-SR-GTH-q1
       POTENTIAL GTH-PBE-q1
       &POTENTIAL
 1
  0.2000000000000000E+00 2 -0.4178900440000000E+01  0.7244633100000000E+00
 0
         # Potential name:  GTH-PBE-Q1  for symbol:  H
         # Potential read from the potential filename: GTH_POTENTIALS
       &END POTENTIAL
     &END KIND
     &KIND N
       BASIS_SET DZVP-MOLOPT-SR-GTH
       POTENTIAL GTH-PBE-q5
       &POTENTIAL
 2 3
  0.2837905100000000E+00 2 -0.1241522559000000E+02  0.1868095920000000E+01
 2
  0.2554050000000000E+00 1  0.1363026257000000E+02
  0.2454945300000000E+00 0
         # Potential name:  GTH-PBE-Q5  for symbol:  N
         # Potential read from the potential filename: GTH_POTENTIALS
       &END POTENTIAL
     &END KIND
     &KIND Ga
       BASIS_SET DZVP-MOLOPT-SR-GTH
       POTENTIAL GTH-PBE-q13
       &POTENTIAL
 2 1 10
  0.4900000000000000E+00 0
 3
  0.4167772300000000E+00 3  0.1047568975000000E+02 -0.4921768140000000E+01  0.8707055900000000E+00
  0.7770178090000000E+01 -0.2248152160000000E+01
  0.1784415450000000E+01
  0.5696265200000000E+00 2  0.1777985340000000E+01  0.1958597600000000E+00
 -0.2317443900000000E+00
  0.2381265000000000E+00 1 -0.1624868022000000E+02
         # Potential name:  GTH-PBE-Q13  for symbol:  GA
         # Potential read from the potential filename: GTH_POTENTIALS
       &END POTENTIAL
     &END KIND
     &TOPOLOGY
       NUMBER_OF_ATOMS  212
       MULTIPLE_UNIT_CELL  1 1 1
     &END TOPOLOGY
   &END SUBSYS
 &END FORCE_EVAL
