 # Version information for this restart file 
 # current date 2019-06-29 09:28:51.421
 # current working dir /scratch/rzk/rzk/GaN-carbene/443-adatoms-both-2x2/07-CH3O-H2O-H3C/01-UseUnoptimized-0501
 # Program compiled at                              Sun Apr  7 00:48:11 EDT 2019
 # Program compiled on                          beluga2.int.ets1.calculquebec.ca
 # Program compiled for                        Beluga-Linux-x86-64-intel-openmpi
 # Source code revision number                                         svn:18619
 &GLOBAL
   PRINT_LEVEL  MEDIUM
   PROJECT_NAME TEST
   RUN_TYPE  GEO_OPT
 &END GLOBAL
 &MOTION
   &GEO_OPT
     MAX_ITER  500
     STEP_START_VAL  87
   &END GEO_OPT
 &END MOTION
 &FORCE_EVAL
   METHOD  QS
   STRESS_TENSOR  ANALYTICAL
   &DFT
     BASIS_SET_FILE_NAME BASIS_MOLOPT
     POTENTIAL_FILE_NAME GTH_POTENTIALS
     UKS  T
     SURFACE_DIPOLE_CORRECTION  T
     SURF_DIP_DIR  Z
     &SCF
       MAX_SCF  80
       EPS_SCF     5.0000000000000004E-06
       &OT  T
         PRECONDITIONER  FULL_ALL
       &END OT
       &OUTER_SCF  T
         OPTIMIZER  NONE
         EPS_SCF     5.0000000000000004E-06
         MAX_SCF  4
       &END OUTER_SCF
       &PRINT
         &RESTART  OFF
           BACKUP_COPIES  1
           &EACH
             JUST_ENERGY  0
             QS_SCF  0
             MD  20
           &END EACH
         &END RESTART
       &END PRINT
     &END SCF
     &QS
       EPS_DEFAULT     1.0000000000000000E-14
       METHOD  GPW
     &END QS
     &MGRID
       NGRIDS  5
       CUTOFF     1.2000000000000000E+03
     &END MGRID
     &XC
       DENSITY_CUTOFF     1.0000000000000000E-10
       GRADIENT_CUTOFF     1.0000000000000000E-10
       TAU_CUTOFF     1.0000000000000000E-10
       &XC_FUNCTIONAL  NO_SHORTCUT
         &PBE  T
         &END PBE
       &END XC_FUNCTIONAL
       &VDW_POTENTIAL
         POTENTIAL_TYPE  PAIR_POTENTIAL
         &PAIR_POTENTIAL
           R_CUTOFF     1.0000000000000004E+01
           TYPE  DFTD3
           PARAMETER_FILE_NAME dftd3.dat
           REFERENCE_FUNCTIONAL PBE
           EPS_CN     9.9999999999999995E-07
           CALCULATE_C9_TERM  T
           REFERENCE_C9_TERM  T
           LONG_RANGE_CORRECTION  F
           VERBOSE_OUTPUT  F
         &END PAIR_POTENTIAL
       &END VDW_POTENTIAL
     &END XC
   &END DFT
   &SUBSYS
     &CELL
       A     1.2864472766435110E+01    0.0000000000000000E+00    0.0000000000000000E+00
       B    -6.4322363581020028E+00    1.1140960178524473E+01    0.0000000000000000E+00
       C     0.0000000000000000E+00    0.0000000000000000E+00    3.2000000000000000E+01
       MULTIPLE_UNIT_CELL  1 1 1
       &CELL_REF
         A     1.2982353780853531E+01    0.0000000000000000E+00    0.0000000000000000E+00
         B    -6.4911768904267628E+00    1.1243048175136114E+01    0.0000000000000000E+00
         C     0.0000000000000000E+00    0.0000000000000000E+00    3.2000000000000000E+01
         MULTIPLE_UNIT_CELL  1 1 1
       &END CELL_REF
     &END CELL
     &COORD
N    2.0484392375019226E-03    2.0471809101154377E+00    2.5088928743372994E+00
Ga   -2.9484363266069256E-02    9.3756890498708251E-02    2.8612779829631965E+00
N   -1.6919730381027408E-03    4.9898751261692673E-02    5.0254364078818075E+00
Ga   -4.0862253245050025E-03    1.8847810402692675E+00    5.8068024401332758E+00
N   -5.9591747115078199E-03    1.8912375998429223E+00    7.8087716467090731E+00
Ga   -7.3163152164030434E-03    4.8170963567345730E-02    8.4486661359822399E+00
N   -5.4209861958184908E-03    4.6062034452370892E-02    1.0424190943316367E+01
Ga   -5.8195593918588034E-03    1.8858468935851995E+00    1.1073478760610175E+01
N   -6.0275713172522729E-03    1.8648560677950488E+00    1.3074499273782523E+01
Ga   -4.9024945792455138E-03    3.5947208997899258E-02    1.3865661378758555E+01
N   -4.4259794726862660E-03    3.3373620236631547E-02    1.6073681267385620E+01
Ga   -5.0869790557306832E-03    2.0326190731931302E+00    1.6434392536588856E+01
Ga    2.8553520280018528E-02    3.7710175965982429E+00    1.3887836581619637E+00
N   -1.4769975823474271E+00    4.6203738980334883E+00    2.5037270962626712E+00
Ga   -1.6766577193131085E+00    2.7895368662199393E+00    3.2722647227501791E+00
N   -1.6148677486290675E+00    2.8318776986274155E+00    5.2550652930003494E+00
Ga   -1.6258872995366638E+00    4.6988034755632722E+00    5.8038564976746523E+00
N   -1.6260742729977895E+00    4.6964078137490226E+00    7.8054166206352633E+00
Ga   -1.6038091373310124E+00    2.8387609800569673E+00    8.4408698572465983E+00
N   -1.6022651408213744E+00    2.8400196522465007E+00    1.0438920238059577E+01
Ga   -1.6291273912703534E+00    4.6993750239808678E+00    1.1073547421520585E+01
N   -1.6474703084959388E+00    4.7086746785067524E+00    1.3074481353293445E+01
Ga   -1.6036749145955034E+00    2.8383412304103821E+00    1.3617627958776300E+01
N   -1.6184963217144968E+00    2.8290135236995222E+00    1.5596859015111958E+01
Ga   -1.5028694295779588E+00    4.6255293167825169E+00    1.6434394379169195E+01
N   -6.4292156953011373E-03    3.7612708801873076E+00    1.7559524675858540E+01
N   -3.2299483934152775E+00    7.5966305565743051E+00    2.5269043940434788E+00
Ga   -3.1719358121239130E+00    5.5865436143358664E+00    2.8602152235390164E+00
N   -3.2201964435404586E+00    5.6170529720709208E+00    5.0147697833757254E+00
Ga   -3.2125778890851002E+00    7.4378449985082895E+00    5.8060749930871793E+00
N   -3.2222486327166378E+00    7.4645412829544551E+00    7.7968673641727877E+00
Ga   -3.2197905289864250E+00    5.6171077324799290E+00    8.4498538431409891E+00
N   -3.2225002733373422E+00    5.6189125601278338E+00    1.0423954161356933E+01
Ga   -3.2199503961975076E+00    7.4591403932359155E+00    1.1073253729789521E+01
N   -3.2217097757451931E+00    7.4401276472760030E+00    1.3065557775215506E+01
Ga   -3.2309932886458044E+00    5.6237322113821371E+00    1.3866457545673564E+01
N   -3.2339356627969642E+00    5.6248505996817624E+00    1.6073539120179202E+01
Ga   -3.2232196815199483E+00    7.6820651666034925E+00    1.6504070328488989E+01
Ga   -3.1879772086197105E+00    9.3478164168356557E+00    1.5294743652847058E+00
N   -4.7259882517906648E+00    1.0191299235201502E+01    2.5214889493690325E+00
Ga   -4.8756385412742276E+00    8.3830396879590374E+00    3.3391292956220431E+00
N   -4.8473464493067535E+00    8.3934434815499834E+00    5.2591248662248322E+00
Ga   -4.8595500171939685E+00    1.0287400607355545E+01    5.8109062497676591E+00
N   -4.8373086096215641E+00    1.0263621316853873E+01    7.8012858328626740E+00
Ga   -4.8182463332279051E+00    8.4091412424286691E+00    8.4457976270633335E+00
N   -4.8176634210941565E+00    8.4093254525466516E+00    1.0434534036108198E+01
Ga   -4.8430253795750016E+00    1.0268424229599768E+01    1.1073219036009778E+01
N   -4.8597060118964190E+00    1.0276431236047546E+01    1.3065663605092620E+01
Ga   -4.8183747310123222E+00    8.4090374615736714E+00    1.3629553035605504E+01
N   -4.8462087341333380E+00    8.3931660680276305E+00    1.5586622477014327E+01
Ga   -4.6503611794442854E+00    1.0154068312514552E+01    1.6504136318436235E+01
N   -3.2129529111181618E+00    9.3361605684327067E+00    1.7648508261696321E+01
N    3.1926200347058313E+00    1.9202529852610830E+00    2.6111442329533032E+00
Ga    3.2077714071055543E+00    1.8452134019037353E-01    3.2982308643776523E+00
N    3.2103415626364136E+00    4.9660757443286789E-02    5.2559491495006077E+00
Ga    3.2088288718577465E+00    1.9159829223966733E+00    5.8846232283026669E+00
N    3.2149442137894302E+00    1.9048450371359922E+00    7.8597078874642641E+00
Ga    3.2142035562863538E+00    3.8141997432067115E-02    8.4439517209116168E+00
N    3.2119600325650781E+00    3.4161478534647439E-02    1.0437129419277685E+01
Ga    3.2115133998639318E+00    1.9025980532209177E+00    1.1036581501713728E+01
N    3.2088910707943961E+00    1.9044668216306890E+00    1.3010103848722022E+01
Ga    3.2112429764402268E+00    3.2406380059998741E-02    1.3629311807680862E+01
N    3.2040602241204312E+00    6.9197931179527522E-02    1.5588315021202646E+01
Ga    3.2122162963991916E+00    1.9030074329426097E+00    1.5865541496481587E+01
N    1.4761498261095909E+00    4.6145210621429955E+00    2.5447073347547668E+00
Ga    1.6758157202563417E+00    2.8063807290570266E+00    3.3060568301519742E+00
N    1.6058029964442626E+00    2.8313157987494830E+00    5.2743429625465446E+00
Ga    1.6441532975836941E+00    4.7132260695975088E+00    5.8192900386935165E+00
N    1.6030589397573407E+00    4.6895234065846099E+00    7.8339397904156725E+00
Ga    1.5918108506639188E+00    2.8381534403531408E+00    8.4495359936747239E+00
N    1.5924951556256797E+00    2.8356912209669551E+00    1.0447148672755118E+01
Ga    1.6188384845974098E+00    4.6999445943852569E+00    1.1069397209951697E+01
N    1.6362010596795671E+00    4.7089921264023209E+00    1.3073357492911315E+01
Ga    1.5913007217314996E+00    2.8395726266287449E+00    1.3617577052225231E+01
N    1.6073390063699817E+00    2.8293120865394576E+00    1.5596887675202668E+01
Ga    1.4918990477086647E+00    4.6251004018578445E+00    1.6434499593049129E+01
N    1.1790204166210528E-02    7.4568043449481385E+00    2.6132544629760135E+00
Ga    1.9663097907454834E-02    5.7020959202595707E+00    3.3024158809281752E+00
N   -4.2076641611138131E-03    5.6204318787701721E+00    5.2714348074133799E+00
Ga    1.3014717123030237E-02    7.4716705673142654E+00    5.8711887913120657E+00
N   -1.8299478849270287E-03    7.4782756993489610E+00    7.8521542117323042E+00
Ga   -6.0478400486889518E-03    5.6083375105556561E+00    8.4451609484168166E+00
N   -8.4654710608454906E-03    5.6081240419687743E+00    1.0444396227348532E+01
Ga   -6.2037844717759026E-03    7.4768296475072038E+00    1.1033538518980588E+01
N   -5.8211771145896757E-03    7.4728199932406945E+00    1.3008027057825979E+01
Ga   -5.0179055938103512E-03    5.6049774518514415E+00    1.3617322934884950E+01
N   -5.3262869890617227E-03    5.6231723532549225E+00    1.5596979918650902E+01
Ga   -5.6046365350167250E-03    7.4756710957189565E+00    1.5866359134857213E+01
N   -1.7135258648097831E+00    1.0202620531216800E+01    2.5414135577898822E+00
Ga   -1.4841193780188988E+00    8.3330326238575889E+00    3.2958534699083408E+00
N   -1.6113664144769761E+00    8.4023198234479608E+00    5.2535501539122018E+00
Ga   -1.5866670406361929E+00    1.0275472254621629E+01    5.8048563145056926E+00
N   -1.6034218520433712E+00    1.0265831878968587E+01    7.7998221869943505E+00
Ga   -1.6176565803092233E+00    8.4091113254369141E+00    8.4387464272179571E+00
N   -1.6244892395225015E+00    8.4104347067855780E+00    1.0433867995361036E+01
Ga   -1.5962042071792482E+00    1.0269017356709981E+01    1.1075890019426398E+01
N   -1.5804031859793344E+00    1.0278510408495908E+01    1.3070485396397792E+01
Ga   -1.6253368949919653E+00    8.4102139147640536E+00    1.3629124723568038E+01
N   -1.5972993386589880E+00    8.3856850225293282E+00    1.5588095933718035E+01
Ga   -1.7798836778195650E+00    1.0163364284035298E+01    1.6502566393792634E+01
N    6.4228712481381995E+00    2.0293214834196025E+00    2.5428801819188203E+00
Ga    6.4538646945125420E+00    3.9669625001384143E-02    2.8804702814997065E+00
N    6.4255956306370692E+00    5.0834522700108409E-02    5.0253847260152096E+00
Ga    6.4223618079859000E+00    1.8805604684927710E+00    5.8031245191922860E+00
N    6.4266785080435813E+00    1.8931430585019944E+00    7.7995862682684542E+00
Ga    6.4306463463142949E+00    4.7290273955145470E-02    8.4460606518459791E+00
N    6.4278968275380484E+00    4.7989529743993009E-02    1.0422148358306071E+01
Ga    6.4295514470025337E+00    1.8852671937858732E+00    1.1079086040788598E+01
N    6.4286105025699900E+00    1.8665942878576871E+00    1.3072648335269600E+01
Ga    6.4275367969687265E+00    4.7764930367271981E-02    1.3886538504242592E+01
N    6.4255714271902917E+00    4.7389372672932709E-02    1.6075729377595039E+01
Ga    6.4263498564889323E+00    2.0972788111630631E+00    1.6503407463337275E+01
Ga    6.4510108653278921E+00    3.7096023541572887E+00    1.4936682364665295E+00
N    4.9199023992126509E+00    4.6376150295155556E+00    2.4146240580722376E+00
Ga    4.6921944409077287E+00    2.8038748874962955E+00    3.2877462181959922E+00
N    4.8209960161765748E+00    2.8450854994102679E+00    5.2469942562266692E+00
Ga    4.7650178496370685E+00    4.7136362441680530E+00    5.8393404029700600E+00
N    4.8259572869899898E+00    4.6883665636581977E+00    7.8356716332670526E+00
Ga    4.8326092754757006E+00    2.8343717513951883E+00    8.4564976822509692E+00
N    4.8314471967201538E+00    2.8354542700972942E+00    1.0447746126264379E+01
Ga    4.8041299861250488E+00    4.6987057294524366E+00    1.1073641319878179E+01
N    4.7897742315319185E+00    4.7074637163428514E+00    1.3067423562717082E+01
Ga    4.8321590761856177E+00    2.8399472007963436E+00    1.3628716270584974E+01
N    4.7959861553362018E+00    2.8262586906975673E+00    1.5587893818050125E+01
Ga    5.0002913544042800E+00    4.5862322724433726E+00    1.6504263735083725E+01
N    6.4264819259948798E+00    3.7509643105384334E+00    1.7650780123601301E+01
N    3.2164177328507146E+00    7.5915613378435731E+00    2.3938062435773673E+00
N    3.2172750869502935E+00    5.6175292704067941E+00    5.1705091612319727E+00
Ga    3.2049430071055656E+00    7.4211602698804455E+00    5.8214870883956769E+00
N    3.2136227703222691E+00    7.4806718934590046E+00    7.8274419896999339E+00
Ga    3.2098316353612151E+00    5.6200181267240694E+00    8.4427078502622557E+00
N    3.2124750999009475E+00    5.6193682300419630E+00    1.0426825589093015E+01
Ga    3.2103988942017816E+00    7.4583535789324564E+00    1.1072635644873177E+01
N    3.2116576316981842E+00    7.4403805148966615E+00    1.3067230566495269E+01
Ga    3.2209782877076987E+00    5.6233701648823695E+00    1.3863432927622146E+01
N    3.2229329548104020E+00    5.6235267313876367E+00    1.6073935612807929E+01
Ga    3.2124351507182665E+00    7.6784299275839087E+00    1.6499671998086562E+01
Ga    3.1761115624362510E+00    9.4166383480750326E+00    1.2952950303315731E+00
N    1.7106888522756849E+00    1.0201694562790998E+01    2.5284306096161600E+00
Ga    1.5473269588168508E+00    8.3328264405740029E+00    3.2459313459259747E+00
N    1.6160393829826638E+00    8.4001238371976807E+00    5.2296067138475975E+00
Ga    1.5858369088101525E+00    1.0265261921730124E+01    5.7896499517309801E+00
N    1.5924876369318934E+00    1.0265793378601549E+01    7.7934222671264477E+00
Ga    1.6120950845219522E+00    8.4142825380681661E+00    8.4490679205671739E+00
N    1.6113499348433629E+00    8.4128388912521928E+00    1.0443875186102652E+01
Ga    1.5878058200349943E+00    1.0270977096399479E+01    1.1077557745437232E+01
N    1.5711034851489172E+00    1.0279645616711591E+01    1.3072249362969400E+01
Ga    1.6151269141691149E+00    8.4102266916788402E+00    1.3627454905387305E+01
N    1.5866024859471226E+00    8.3857450626308303E+00    1.5587822865569747E+01
Ga    1.7651592931072209E+00    1.0164959099353588E+01    1.6498813852257783E+01
N    3.2011010963887299E+00    9.3362714867728425E+00    1.7641532293012258E+01
N    9.6559533749297906E+00    1.9061968050632505E+00    2.6243854253693177E+00
Ga    9.6511472409909107E+00    1.4499371437560254E-01    3.2727657686701233E+00
N    9.6469248367198475E+00    4.8909415007072576E-02    5.2488721023346301E+00
Ga    9.6526152336086035E+00    1.9032431751075001E+00    5.8730456102090249E+00
N    9.6430753346842533E+00    1.9047508758627671E+00    7.8514560604463144E+00
Ga    9.6422927376296848E+00    3.5323557435986690E-02    8.4330147965336870E+00
N    9.6430518444733213E+00    3.4686091848786051E-02    1.0431590553769501E+01
Ga    9.6424562793325848E+00    1.9039461622110578E+00    1.1027307430658251E+01
N    9.6449040174160441E+00    1.9050624582891444E+00    1.3002895306595086E+01
Ga    9.6433042311104042E+00    3.4758868757089480E-02    1.3628958411418846E+01
N    9.6497512916294141E+00    6.9861390870316675E-02    1.5588977577727173E+01
Ga    9.6419007555486971E+00    1.9034105253725304E+00    1.5869785293259087E+01
N    7.9159308027188899E+00    4.6385656044893517E+00    2.5235019712293267E+00
Ga    8.1513078394710767E+00    2.7684828735661018E+00    3.3028658219510629E+00
N    8.0352784984385117E+00    2.8365350815240205E+00    5.2589589781265120E+00
Ga    8.0630622075437515E+00    4.7069324672794615E+00    5.8021320044980405E+00
N    8.0440362405770998E+00    4.7000314180478231E+00    7.7953985166904562E+00
Ga    8.0259746655407085E+00    2.8377671935690114E+00    8.4365681760305780E+00
N    8.0237721215436029E+00    2.8400847305107404E+00    1.0432884437116565E+01
Ga    8.0512053275135944E+00    4.6966129329916226E+00    1.1077221388390615E+01
N    8.0661408033811064E+00    4.7067320839809375E+00    1.3068360751802635E+01
Ga    8.0244030564921101E+00    2.8390772654236893E+00    1.3630067398777607E+01
N    8.0585565623823356E+00    2.8259723074900949E+00    1.5588872360025340E+01
Ga    7.8527607754471038E+00    4.5861486340527104E+00    1.6504627502873358E+01
N    6.4161567794346812E+00    7.4774525579830726E+00    2.6025890843360697E+00
Ga    6.3822808372211783E+00    5.6571092105272562E+00    3.3178304602580440E+00
N    6.4194600025770869E+00    5.6302256073465085E+00    5.2412951577363733E+00
Ga    6.4076542172894184E+00    7.4739077734036750E+00    5.9023235844177417E+00
N    6.4245522172133267E+00    7.4743413271919188E+00    7.8597480353103739E+00
Ga    6.4309991982739909E+00    5.6043562878148752E+00    8.4595189430973772E+00
N    6.4314897332145442E+00    5.6079492053179401E+00    1.0445960329825359E+01
Ga    6.4291578985912761E+00    7.4764916847176588E+00    1.1038242180010126E+01
N    6.4279743678961552E+00    7.4751722258294500E+00    1.3005808325942001E+01
Ga    6.4275168530574742E+00    5.6051667864002068E+00    1.3629047157897174E+01
N    6.4270874853970446E+00    5.6374717883356755E+00    1.5586583204089029E+01
Ga    6.4272171599974648E+00    7.4742472202498087E+00    1.5863981949134089E+01
N    4.7211958061685637E+00    1.0196078011548828E+01    2.5098266480306215E+00
Ga    4.7949419285563755E+00    8.3802142424935422E+00    3.2820841684698951E+00
N    4.8246738145655135E+00    8.3920504070271047E+00    5.2242585762594667E+00
Ga    4.8449101629101472E+00    1.0274330361634146E+01    5.7932206801042172E+00
N    4.8314747656066279E+00    1.0262100208725673E+01    7.7932750606324381E+00
Ga    4.8058808106878841E+00    8.4144485696360967E+00    8.4570226929205869E+00
N    4.8119252556518148E+00    8.4116970689381230E+00    1.0445210784763548E+01
Ga    4.8321017477259751E+00    1.0270364182005503E+01    1.1075636989073329E+01
N    4.8492752578896283E+00    1.0277876345148817E+01    1.3067905550894325E+01
Ga    4.8083903212105179E+00    8.4093485132289914E+00    1.3627947778482206E+01
N    4.8355841656433096E+00    8.3933569649721331E+00    1.5586452774661426E+01
Ga    4.6423104236156680E+00    1.0155310831408041E+01    1.6500257526632396E+01
O    6.5244722543210376E-01    3.9867217949754674E+00   -3.5996866428970020E-01
H    2.5075389411701252E+00    6.4556945449102932E+00   -1.0160116564153429E-01
C    9.8037804616888169E-01    2.7813834356628804E+00   -1.0834408964515285E+00
H    1.7112418903035098E+00    2.1634878773349380E+00   -5.3720999449873263E-01
H    8.2123693903279144E-02    2.1767278368172942E+00   -1.2782919523281782E+00
H    1.4171403645675213E+00    3.0771393089216486E+00   -2.0479590775474525E+00
Ga    3.1386760737689805E+00    5.5976467927102451E+00    2.2622350243099740E+00
O    2.8137876583276480E+00    5.5536506538509167E+00    1.0889871112260041E-01
H    2.0100019312851511E+00    4.9511247324636933E+00   -8.5970345042017615E-02
C    6.4471933537213406E+00    7.4815197250668559E+00    1.1120321068827614E+00
H    6.4331009013528631E+00    8.5114069815546127E+00    7.2691822278985285E-01
H    7.3537676453070588E+00    6.9837352970755795E+00    7.3794867179746770E-01
H    5.5748292578064724E+00    6.9553844850279729E+00    6.9733429796596313E-01
     &END COORD
     &KIND C
       BASIS_SET DZVP-MOLOPT-SR-GTH-q4
       POTENTIAL GTH-PBE-q4
       &POTENTIAL
 2 2
  0.3384712400000000E+00 2 -0.8803673979999999E+01  0.1339210850000000E+01
 2
  0.3025757500000000E+00 1  0.9622486650000001E+01
  0.2915069400000000E+00 0
         # Potential name:  GTH-PBE-Q4  for symbol:  C
         # Potential read from the potential filename: GTH_POTENTIALS
       &END POTENTIAL
     &END KIND
     &KIND O
       BASIS_SET DZVP-MOLOPT-SR-GTH-q6
       POTENTIAL GTH-PBE-q6
       &POTENTIAL
 2 4
  0.2445543000000000E+00 2 -0.1666721480000000E+02  0.2487311320000000E+01
 2
  0.2209559200000000E+00 1  0.1833745811000000E+02
  0.2113324700000000E+00 0
         # Potential name:  GTH-PBE-Q6  for symbol:  O
         # Potential read from the potential filename: GTH_POTENTIALS
       &END POTENTIAL
     &END KIND
     &KIND H
       BASIS_SET DZVP-MOLOPT-SR-GTH-q1
       POTENTIAL GTH-PBE-q1
       &POTENTIAL
 1
  0.2000000000000000E+00 2 -0.4178900440000000E+01  0.7244633100000000E+00
 0
         # Potential name:  GTH-PBE-Q1  for symbol:  H
         # Potential read from the potential filename: GTH_POTENTIALS
       &END POTENTIAL
     &END KIND
     &KIND N
       BASIS_SET DZVP-MOLOPT-SR-GTH
       POTENTIAL GTH-PBE-q5
       &POTENTIAL
 2 3
  0.2837905100000000E+00 2 -0.1241522559000000E+02  0.1868095920000000E+01
 2
  0.2554050000000000E+00 1  0.1363026257000000E+02
  0.2454945300000000E+00 0
         # Potential name:  GTH-PBE-Q5  for symbol:  N
         # Potential read from the potential filename: GTH_POTENTIALS
       &END POTENTIAL
     &END KIND
     &KIND Ga
       BASIS_SET DZVP-MOLOPT-SR-GTH
       POTENTIAL GTH-PBE-q13
       &POTENTIAL
 2 1 10
  0.4900000000000000E+00 0
 3
  0.4167772300000000E+00 3  0.1047568975000000E+02 -0.4921768140000000E+01  0.8707055900000000E+00
  0.7770178090000000E+01 -0.2248152160000000E+01
  0.1784415450000000E+01
  0.5696265200000000E+00 2  0.1777985340000000E+01  0.1958597600000000E+00
 -0.2317443900000000E+00
  0.2381265000000000E+00 1 -0.1624868022000000E+02
         # Potential name:  GTH-PBE-Q13  for symbol:  GA
         # Potential read from the potential filename: GTH_POTENTIALS
       &END POTENTIAL
     &END KIND
     &TOPOLOGY
       NUMBER_OF_ATOMS  212
       MULTIPLE_UNIT_CELL  1 1 1
     &END TOPOLOGY
   &END SUBSYS
 &END FORCE_EVAL
