 # Version information for this restart file 
 # current date 2019-06-29 07:06:01.232
 # current working dir /scratch/rzk/rzk/GaN-carbene/443-adatoms-both-2x2/07-CH3O-H2O-H3C/01-UseUnoptimized-0501
 # Program compiled at                              Sun Apr  7 00:48:11 EDT 2019
 # Program compiled on                          beluga2.int.ets1.calculquebec.ca
 # Program compiled for                        Beluga-Linux-x86-64-intel-openmpi
 # Source code revision number                                         svn:18619
 &GLOBAL
   PRINT_LEVEL  MEDIUM
   PROJECT_NAME TEST
   RUN_TYPE  GEO_OPT
 &END GLOBAL
 &MOTION
   &GEO_OPT
     MAX_ITER  500
     STEP_START_VAL  33
   &END GEO_OPT
 &END MOTION
 &FORCE_EVAL
   METHOD  QS
   STRESS_TENSOR  ANALYTICAL
   &DFT
     BASIS_SET_FILE_NAME BASIS_MOLOPT
     POTENTIAL_FILE_NAME GTH_POTENTIALS
     UKS  T
     SURFACE_DIPOLE_CORRECTION  T
     SURF_DIP_DIR  Z
     &SCF
       MAX_SCF  80
       EPS_SCF     5.0000000000000004E-06
       &OT  T
         PRECONDITIONER  FULL_ALL
       &END OT
       &OUTER_SCF  T
         OPTIMIZER  NONE
         EPS_SCF     5.0000000000000004E-06
         MAX_SCF  4
       &END OUTER_SCF
       &PRINT
         &RESTART  OFF
           BACKUP_COPIES  1
           &EACH
             JUST_ENERGY  0
             QS_SCF  0
             MD  20
           &END EACH
         &END RESTART
       &END PRINT
     &END SCF
     &QS
       EPS_DEFAULT     1.0000000000000000E-14
       METHOD  GPW
     &END QS
     &MGRID
       NGRIDS  5
       CUTOFF     1.2000000000000000E+03
     &END MGRID
     &XC
       DENSITY_CUTOFF     1.0000000000000000E-10
       GRADIENT_CUTOFF     1.0000000000000000E-10
       TAU_CUTOFF     1.0000000000000000E-10
       &XC_FUNCTIONAL  NO_SHORTCUT
         &PBE  T
         &END PBE
       &END XC_FUNCTIONAL
       &VDW_POTENTIAL
         POTENTIAL_TYPE  PAIR_POTENTIAL
         &PAIR_POTENTIAL
           R_CUTOFF     1.0000000000000004E+01
           TYPE  DFTD3
           PARAMETER_FILE_NAME dftd3.dat
           REFERENCE_FUNCTIONAL PBE
           EPS_CN     9.9999999999999995E-07
           CALCULATE_C9_TERM  T
           REFERENCE_C9_TERM  T
           LONG_RANGE_CORRECTION  F
           VERBOSE_OUTPUT  F
         &END PAIR_POTENTIAL
       &END VDW_POTENTIAL
     &END XC
   &END DFT
   &SUBSYS
     &CELL
       A     1.2864472766435110E+01    0.0000000000000000E+00    0.0000000000000000E+00
       B    -6.4322363581020028E+00    1.1140960178524473E+01    0.0000000000000000E+00
       C     0.0000000000000000E+00    0.0000000000000000E+00    3.2000000000000000E+01
       MULTIPLE_UNIT_CELL  1 1 1
       &CELL_REF
         A     1.2982353780853531E+01    0.0000000000000000E+00    0.0000000000000000E+00
         B    -6.4911768904267628E+00    1.1243048175136114E+01    0.0000000000000000E+00
         C     0.0000000000000000E+00    0.0000000000000000E+00    3.2000000000000000E+01
         MULTIPLE_UNIT_CELL  1 1 1
       &END CELL_REF
     &END CELL
     &COORD
N    2.2128287653267165E-03    2.0406981655351055E+00    2.5216541094120100E+00
Ga   -1.8000948661082806E-02    8.1178077242671690E-02    2.8583642204071649E+00
N   -3.2610945759812254E-03    4.3339134892669273E-02    5.0308101020644438E+00
Ga   -2.7547228245362763E-03    1.8783431474150702E+00    5.8118005369756292E+00
N   -3.4385725476422037E-03    1.8894851523458420E+00    7.8117543355529939E+00
Ga   -4.3995572120039449E-03    4.6904017565996867E-02    8.4501001826898854E+00
N   -1.9386826982731867E-04    4.7359572872376854E-02    1.0424428022517809E+01
Ga   -8.2527704959044147E-04    1.8870156985938371E+00    1.1075051615584918E+01
N    1.2029192909598814E-03    1.8681839132024944E+00    1.3076610520929126E+01
Ga    6.7528709974786060E-03    3.9019451213241810E-02    1.3866286768686860E+01
N   -1.8662321328052900E-03    3.7764334213523411E-02    1.6078732345736910E+01
Ga    1.3221662036942789E-03    2.0484065049069287E+00    1.6452702294868676E+01
Ga    2.2663566479470286E-02    3.7551914355880949E+00    1.4043198028649579E+00
N   -1.4742038344260615E+00    4.6109411571171206E+00    2.5185802243048467E+00
Ga   -1.6749250791049712E+00    2.7829859108652752E+00    3.2881508798973820E+00
N   -1.6146617676022599E+00    2.8265414045806865E+00    5.2650946612908518E+00
Ga   -1.6238523966283243E+00    4.6962643610453982E+00    5.8071323002660513E+00
N   -1.6228145538533632E+00    4.6953737393607851E+00    7.8068404664978228E+00
Ga   -1.6002434655032536E+00    2.8387576694094743E+00    8.4446258084022361E+00
N   -1.5978037952310788E+00    2.8414290332175707E+00    1.0440864017864323E+01
Ga   -1.6253241111703873E+00    4.7011857809733826E+00    1.1077155317318210E+01
N   -1.6408431427220196E+00    4.7107147360512522E+00    1.3078813733148067E+01
Ga   -1.5970842897372890E+00    2.8396241859965254E+00    1.3620244216601746E+01
N   -1.6168067331808138E+00    2.8244948226631852E+00    1.5594266659124660E+01
Ga   -1.4850532173469786E+00    4.6176857111696243E+00    1.6452287858510864E+01
N   -8.8850537772045182E-03    3.7574383971934644E+00    1.7573968314252230E+01
N   -3.2280734831019795E+00    7.5871976996125747E+00    2.5234098719668943E+00
Ga   -3.1705670857100423E+00    5.5849272699415797E+00    2.8636465640390831E+00
N   -3.2191784797116081E+00    5.6112068224452649E+00    5.0187428935674196E+00
Ga   -3.2108651810039688E+00    7.4345792708213310E+00    5.8029655705507475E+00
N   -3.2197971830573322E+00    7.4639924158605568E+00    7.7944252858092042E+00
Ga   -3.2159503924296371E+00    5.6170894022014766E+00    8.4492680415267625E+00
N   -3.2167997259217072E+00    5.6215880366118931E+00    1.0422525259013621E+01
Ga   -3.2163423634874717E+00    7.4609376818163202E+00    1.1073991168379729E+01
N   -3.2156108858373580E+00    7.4427569250514010E+00    1.3064186032983427E+01
Ga   -3.2240153322207132E+00    5.6283581559944356E+00    1.3873420995582652E+01
N   -3.2249791075397898E+00    5.6201853380042666E+00    1.6078955871245384E+01
Ga   -3.2169296898461059E+00    7.6796125373873876E+00    1.6518210387729809E+01
Ga   -3.1836085315799165E+00    9.3407151096913577E+00    1.4695825718417417E+00
N   -4.7288082028536413E+00    1.0186791112683323E+01    2.5168460147454357E+00
Ga   -4.8615455549964146E+00    8.3834316209671762E+00    3.3312131406461361E+00
N   -4.8453193614628898E+00    8.3879806547796623E+00    5.2543919266180090E+00
Ga   -4.8588149031040544E+00    1.0282522265070341E+01    5.8078426387119988E+00
N   -4.8354302873997987E+00    1.0262272533235612E+01    7.7998535875887187E+00
Ga   -4.8150985775866664E+00    8.4083030580708584E+00    8.4424797479424090E+00
N   -4.8139302944353046E+00    8.4105879511100792E+00    1.0431266177473560E+01
Ga   -4.8383380560954530E+00    1.0269479949382365E+01    1.1072502168039248E+01
N   -4.8523474448184194E+00    1.0278474972841904E+01    1.3062362559127745E+01
Ga   -4.8094033097619064E+00    8.4135741920921969E+00    1.3632442986350565E+01
N   -4.8361609530675800E+00    8.3976422444297771E+00    1.5588283696825831E+01
Ga   -4.6435624302000464E+00    1.0154767692085688E+01    1.6518751417910849E+01
N   -3.2107485046680857E+00    9.3318336830500588E+00    1.7655929101383428E+01
N    3.1922193962751226E+00    1.9116423424674700E+00    2.6149513019169226E+00
Ga    3.2064255946341267E+00    1.6713647688471636E-01    3.2842601340033659E+00
N    3.2111512045784805E+00    4.5498563124305093E-02    5.2495411312018252E+00
Ga    3.2099682264794160E+00    1.9110896144525853E+00    5.8779686050611071E+00
N    3.2165452734284030E+00    1.9041614613891225E+00    7.8547158803544477E+00
Ga    3.2152742926164888E+00    3.8519503881596681E-02    8.4407153347814532E+00
N    3.2146329472187252E+00    3.5590801873428619E-02    1.0433743408120616E+01
Ga    3.2147123055792419E+00    1.9025999291672995E+00    1.1036224390654608E+01
N    3.2147494695809895E+00    1.9036932327590892E+00    1.3008256819008649E+01
Ga    3.2173618165268536E+00    3.1406364551456192E-02    1.3632298892219225E+01
N    3.2121657777917973E+00    6.1147294782412320E-02    1.5588984875977596E+01
Ga    3.2212025871250747E+00    1.8967235475468986E+00    1.5861535343263045E+01
N    1.4829350438543254E+00    4.6118673711529077E+00    2.5308999318918648E+00
Ga    1.6801187138808304E+00    2.7994322703515326E+00    3.3088859644124082E+00
N    1.6060246065374129E+00    2.8290666064947865E+00    5.2742321549968842E+00
Ga    1.6438382003628726E+00    4.7092576287077774E+00    5.8260879477993193E+00
N    1.6042669559822798E+00    4.6880865051473899E+00    7.8372105190792327E+00
Ga    1.5945890511697105E+00    2.8366255680576109E+00    8.4512182320494595E+00
N    1.5965059539635083E+00    2.8360917563070491E+00    1.0447155595232722E+01
Ga    1.6227459136948588E+00    4.7003135423916449E+00    1.1069575718420557E+01
N    1.6410848719878326E+00    4.7095158030963065E+00    1.3072902396007731E+01
Ga    1.5994126277917133E+00    2.8410787489418561E+00    1.3620422794894280E+01
N    1.6207391264935429E+00    2.8247434139276892E+00    1.5594998732454062E+01
Ga    1.4774512461767875E+00    4.6112252845625266E+00    1.6452794366339095E+01
N    6.9139805233691867E-03    7.4497040007460740E+00    2.6092227288494989E+00
Ga    2.1132951351941636E-02    5.6966606667431412E+00    3.3005561816506246E+00
N   -8.2064054279205228E-04    5.6160360950981305E+00    5.2709845915664388E+00
Ga    1.0813051637373131E-02    7.4666238109857002E+00    5.8710636004585588E+00
N    2.7855221313325844E-04    7.4777599108990618E+00    7.8524955406512973E+00
Ga   -4.4640107363914522E-03    5.6080631719517804E+00    8.4499920818428436E+00
N   -5.0567957561020128E-03    5.6096909412649190E+00    1.0446623217180596E+01
Ga   -3.2144232842385499E-03    7.4778399865172522E+00    1.1036562496767795E+01
N   -1.1883246861908020E-03    7.4757290970728363E+00    1.3009945710144763E+01
Ga    2.3813416235337888E-03    5.6067676735491769E+00    1.3621015338945735E+01
N    2.5660940103664387E-03    5.6307487935108158E+00    1.5595809008865062E+01
Ga   -4.0259365363709259E-03    7.4798057047066973E+00    1.5862983470069789E+01
N   -1.7123866550112241E+00    1.0194123439919533E+01    2.5329110309255731E+00
Ga   -1.4963767974394244E+00    8.3292803869432870E+00    3.2835845122193774E+00
N   -1.6094256994959972E+00    8.3987898404892452E+00    5.2478335111632557E+00
Ga   -1.5879599095748480E+00    1.0271486587696483E+01    5.8014117781700509E+00
N   -1.6018651491879863E+00    1.0265608692046202E+01    7.7976495413033815E+00
Ga   -1.6156354969620450E+00    8.4083924441649156E+00    8.4387276688288857E+00
N   -1.6210625760053143E+00    8.4110756978164787E+00    1.0433118911594633E+01
Ga   -1.5941465617945338E+00    1.0269780653106437E+01    1.1073414010589891E+01
N   -1.5762988654805472E+00    1.0279324440106981E+01    1.3065046589000067E+01
Ga   -1.6222636076785384E+00    8.4138835702590402E+00    1.3633311798172379E+01
N   -1.5956582766509715E+00    8.3920639588964843E+00    1.5589484466731626E+01
Ga   -1.7814389778552220E+00    1.0159315410495390E+01    1.6515384809016677E+01
N    6.4244241850868571E+00    2.0186813156024610E+00    2.5411085415386729E+00
Ga    6.4411749159326526E+00    3.0025055193912326E-02    2.8792876093259916E+00
N    6.4287831973854512E+00    4.7304268847482955E-02    5.0225130656775994E+00
Ga    6.4231896984616750E+00    1.8785656807392643E+00    5.8033190454844137E+00
N    6.4291899055192978E+00    1.8921284177802216E+00    7.7988836494433142E+00
Ga    6.4319960051867096E+00    4.6558291334416795E-02    8.4454453583967677E+00
N    6.4313534080059815E+00    4.7850872864351780E-02    1.0419359689001617E+01
Ga    6.4334467461132956E+00    1.8865073680875941E+00    1.1075511063591343E+01
N    6.4343291960660460E+00    1.8689492981137652E+00    1.3067130437223106E+01
Ga    6.4278114751713833E+00    4.8784331881526297E-02    1.3877780935554030E+01
N    6.4345530119814294E+00    4.8086526552568030E-02    1.6070513582118995E+01
Ga    6.4343141166798503E+00    2.0938314284895156E+00    1.6491872772996867E+01
Ga    6.4613015006040104E+00    3.6952271005931454E+00    1.4971678568721309E+00
N    4.9213669594947129E+00    4.6330559706492309E+00    2.3938272968667649E+00
Ga    4.6901195997777050E+00    2.7977398488743823E+00    3.2820172413980959E+00
N    4.8231198656829406E+00    2.8427467839229905E+00    5.2415813991387141E+00
Ga    4.7694143882825024E+00    4.7085409789382169E+00    5.8422154604527936E+00
N    4.8293996034982216E+00    4.6868835941388411E+00    7.8370010121990070E+00
Ga    4.8332886599678462E+00    2.8323513745988023E+00    8.4558708808610632E+00
N    4.8340557191222047E+00    2.8356130914478515E+00    1.0445595025192944E+01
Ga    4.8078848182700904E+00    4.6997918692218557E+00    1.1069950985988706E+01
N    4.7943119455121925E+00    4.7093679015938141E+00    1.3061902015905407E+01
Ga    4.8370356103753949E+00    2.8423085469689151E+00    1.3622891712319131E+01
N    4.8033782899578368E+00    2.8247507625884443E+00    1.5579656688799316E+01
Ga    5.0041385372718832E+00    4.5850549119878119E+00    1.6495948020280615E+01
N    6.4333529392573769E+00    3.7469485077968185E+00    1.7633813906601208E+01
N    3.2136610129409959E+00    7.5795327354049844E+00    2.3861045598046280E+00
N    3.2194408531922147E+00    5.6136976709739477E+00    5.1870011240034977E+00
Ga    3.2071384894132535E+00    7.4168747090962031E+00    5.8301172857470300E+00
N    3.2161261107993622E+00    7.4800082745022207E+00    7.8299307554536881E+00
Ga    3.2119613525680268E+00    5.6177761039962490E+00    8.4423302608256705E+00
N    3.2158328805272363E+00    5.6197916330018884E+00    1.0425672104954151E+01
Ga    3.2147707806826471E+00    7.4580172190068081E+00    1.1069547402213638E+01
N    3.2175362728009476E+00    7.4397388480964812E+00    1.3064222460435193E+01
Ga    3.2245674363901662E+00    5.6204832356943735E+00    1.3861734633420404E+01
N    3.2242270273336890E+00    5.6210155105660311E+00    1.6076010976942857E+01
Ga    3.2188438529255472E+00    7.6636805803529793E+00    1.6480709670663547E+01
Ga    3.1745795037762443E+00    9.4040213904980039E+00    1.3438023162961008E+00
N    1.7097393732102004E+00    1.0191586322075230E+01    2.5304735195259873E+00
Ga    1.5368168546761274E+00    8.3176059438961829E+00    3.2545838783826553E+00
N    1.6190200588325216E+00    8.3955482367126546E+00    5.2313765989090646E+00
Ga    1.5857700368439824E+00    1.0261294886977305E+01    5.7944469298188181E+00
N    1.5949560898831148E+00    1.0264616253285729E+01    7.7944585746945139E+00
Ga    1.6128392757107444E+00    8.4127142333456622E+00    8.4507305792547349E+00
N    1.6149969115127072E+00    8.4125946342213389E+00    1.0443960328546332E+01
Ga    1.5922255778706065E+00    1.0271346213393068E+01    1.1074748385543723E+01
N    1.5768362802841382E+00    1.0280999545286397E+01    1.3069952290317129E+01
Ga    1.6223541201165936E+00    8.4107163951847106E+00    1.3621498691893168E+01
N    1.5937472660031924E+00    8.3876235562352779E+00    1.5583623749803367E+01
Ga    1.7608005231351682E+00    1.0173593614203256E+01    1.6477888415609034E+01
N    3.2038836564324900E+00    9.3359325417649011E+00    1.7616678550705775E+01
N    9.6594877742647522E+00    1.8978845411311966E+00    2.6341517550246332E+00
Ga    9.6514903677600969E+00    1.4201467806015236E-01    3.2839526391303755E+00
N    9.6478530492677521E+00    4.2406034485787301E-02    5.2542153619825438E+00
Ga    9.6541090554234774E+00    1.8990361150258224E+00    5.8803538154033115E+00
N    9.6464408961415966E+00    1.9021146830377345E+00    7.8553735350718359E+00
Ga    9.6459485290076703E+00    3.3280723626289255E-02    8.4356919060626296E+00
N    9.6487065846860869E+00    3.5001700393276179E-02    1.0432377636131156E+01
Ga    9.6477809178135061E+00    1.9044989039144853E+00    1.1027790611761001E+01
N    9.6521417545101666E+00    1.9057783987694843E+00    1.3001608520901227E+01
Ga    9.6504510307328104E+00    3.5925637355600164E-02    1.3621517141470504E+01
N    9.6558053361868712E+00    6.7899596108831256E-02    1.5582233947347056E+01
Ga    9.6464373911894725E+00    1.9034368801507311E+00    1.5867135349258263E+01
N    7.9190991610131425E+00    4.6245222170614193E+00    2.5261711415644266E+00
Ga    8.1526533121264020E+00    2.7594250454579270E+00    3.3078867308127871E+00
N    8.0380680431164269E+00    2.8309090654624596E+00    5.2621351947655857E+00
Ga    8.0666148590304658E+00    4.7025947457036530E+00    5.8032963371875521E+00
N    8.0475655031552993E+00    4.6990480281362217E+00    7.7955736612340614E+00
Ga    8.0300102778874738E+00    2.8371289272077602E+00    8.4390307779265736E+00
N    8.0293929685283114E+00    2.8413493132751566E+00    1.0433488775611362E+01
Ga    8.0575586495497458E+00    4.6996976686220373E+00    1.1076068489484436E+01
N    8.0729042185097253E+00    4.7096767274277456E+00    1.3066537285086346E+01
Ga    8.0310762723703650E+00    2.8411845605596806E+00    1.3623607464622705E+01
N    8.0638540061481674E+00    2.8246745042241583E+00    1.5578530717554028E+01
Ga    7.8643707882463341E+00    4.5863014745274970E+00    1.6497677358756544E+01
N    6.4216485521315274E+00    7.4705936340330421E+00    2.6008022134608186E+00
Ga    6.3905139935200657E+00    5.6479267575603291E+00    3.3157779235530267E+00
N    6.4210942394496673E+00    5.6231225632074491E+00    5.2374763724336004E+00
Ga    6.4139265196854840E+00    7.4669863958206539E+00    5.8980800388616839E+00
N    6.4278196483611403E+00    7.4731498019244595E+00    7.8541648361455358E+00
Ga    6.4350534850954091E+00    5.6041307235110702E+00    8.4583968419330624E+00
N    6.4363250275765793E+00    5.6101727640077712E+00    1.0444203638082163E+01
Ga    6.4341015777573141E+00    7.4782956950355404E+00    1.1035024397090217E+01
N    6.4354075189619175E+00    7.4789412679693132E+00    1.3003820665052267E+01
Ga    6.4321260933208126E+00    5.6066860884185035E+00    1.3622845244143269E+01
N    6.4319234633319278E+00    5.6377360789287900E+00    1.5579800109167895E+01
Ga    6.4380257857205541E+00    7.4754440872786256E+00    1.5856449631100313E+01
N    4.7196515812242064E+00    1.0181569429587029E+01    2.5135639363914284E+00
Ga    4.8018808961892452E+00    8.3605401437360136E+00    3.2910803628657423E+00
N    4.8247653347798201E+00    8.3843641973799929E+00    5.2254087407855048E+00
Ga    4.8490989642001994E+00    1.0269270343070318E+01    5.7965613025367944E+00
N    4.8337682331305549E+00    1.0259493666690380E+01    7.7942382115191977E+00
Ga    4.8100728449827601E+00    8.4126514813490552E+00    8.4561430754845137E+00
N    4.8169646966176325E+00    8.4124649378595198E+00    1.0443090904066008E+01
Ga    4.8389187577935848E+00    1.0271714016614879E+01    1.1074125569333230E+01
N    4.8569669325837239E+00    1.0279635333222435E+01    1.3067177554001839E+01
Ga    4.8138677668266743E+00    8.4103624055616706E+00    1.3619953811267266E+01
N    4.8414535707078166E+00    8.3935256344828026E+00    1.5581124553608099E+01
Ga    4.6602181864106775E+00    1.0163270712790032E+01    1.6482788815123801E+01
O    6.2845103615247744E-01    3.8936403926046470E+00   -3.5875624464739847E-01
H    2.3506293396286675E+00    6.4161618940158096E+00   -1.2006815422201968E-01
C    8.1519678878802049E-01    2.6244471879574029E+00   -1.0185442133265290E+00
H    1.6932056186302016E+00    2.0928826555362900E+00   -6.2203999532043275E-01
H   -6.4543490509491250E-02    1.9771542831791389E+00   -8.9298321500944045E-01
H    9.6174603034679740E-01    2.8123769480938257E+00   -2.0953150871952815E+00
Ga    3.1395120269862469E+00    5.5856887992606277E+00    2.2127898428734847E+00
O    2.7589602442566523E+00    5.5441840149380308E+00    6.0470973402998104E-02
H    2.0003261100713736E+00    4.8773840894567968E+00   -1.1487652212800058E-01
C    6.4399752292898320E+00    7.4713939014176542E+00    1.1091142378500281E+00
H    5.7817873256868211E+00    8.2620281122302277E+00    6.9562418917129776E-01
H    7.4623247386798823E+00    7.6449218335357267E+00    7.1437363331830794E-01
H    6.0888945906375147E+00    6.5031339977236282E+00    7.0258105273490612E-01
     &END COORD
     &KIND C
       BASIS_SET DZVP-MOLOPT-SR-GTH-q4
       POTENTIAL GTH-PBE-q4
       &POTENTIAL
 2 2
  0.3384712400000000E+00 2 -0.8803673979999999E+01  0.1339210850000000E+01
 2
  0.3025757500000000E+00 1  0.9622486650000001E+01
  0.2915069400000000E+00 0
         # Potential name:  GTH-PBE-Q4  for symbol:  C
         # Potential read from the potential filename: GTH_POTENTIALS
       &END POTENTIAL
     &END KIND
     &KIND O
       BASIS_SET DZVP-MOLOPT-SR-GTH-q6
       POTENTIAL GTH-PBE-q6
       &POTENTIAL
 2 4
  0.2445543000000000E+00 2 -0.1666721480000000E+02  0.2487311320000000E+01
 2
  0.2209559200000000E+00 1  0.1833745811000000E+02
  0.2113324700000000E+00 0
         # Potential name:  GTH-PBE-Q6  for symbol:  O
         # Potential read from the potential filename: GTH_POTENTIALS
       &END POTENTIAL
     &END KIND
     &KIND H
       BASIS_SET DZVP-MOLOPT-SR-GTH-q1
       POTENTIAL GTH-PBE-q1
       &POTENTIAL
 1
  0.2000000000000000E+00 2 -0.4178900440000000E+01  0.7244633100000000E+00
 0
         # Potential name:  GTH-PBE-Q1  for symbol:  H
         # Potential read from the potential filename: GTH_POTENTIALS
       &END POTENTIAL
     &END KIND
     &KIND N
       BASIS_SET DZVP-MOLOPT-SR-GTH
       POTENTIAL GTH-PBE-q5
       &POTENTIAL
 2 3
  0.2837905100000000E+00 2 -0.1241522559000000E+02  0.1868095920000000E+01
 2
  0.2554050000000000E+00 1  0.1363026257000000E+02
  0.2454945300000000E+00 0
         # Potential name:  GTH-PBE-Q5  for symbol:  N
         # Potential read from the potential filename: GTH_POTENTIALS
       &END POTENTIAL
     &END KIND
     &KIND Ga
       BASIS_SET DZVP-MOLOPT-SR-GTH
       POTENTIAL GTH-PBE-q13
       &POTENTIAL
 2 1 10
  0.4900000000000000E+00 0
 3
  0.4167772300000000E+00 3  0.1047568975000000E+02 -0.4921768140000000E+01  0.8707055900000000E+00
  0.7770178090000000E+01 -0.2248152160000000E+01
  0.1784415450000000E+01
  0.5696265200000000E+00 2  0.1777985340000000E+01  0.1958597600000000E+00
 -0.2317443900000000E+00
  0.2381265000000000E+00 1 -0.1624868022000000E+02
         # Potential name:  GTH-PBE-Q13  for symbol:  GA
         # Potential read from the potential filename: GTH_POTENTIALS
       &END POTENTIAL
     &END KIND
     &TOPOLOGY
       NUMBER_OF_ATOMS  212
       MULTIPLE_UNIT_CELL  1 1 1
     &END TOPOLOGY
   &END SUBSYS
 &END FORCE_EVAL
