 # Version information for this restart file 
 # current date 2019-06-29 07:02:29.629
 # current working dir /scratch/rzk/rzk/GaN-carbene/443-adatoms-both-2x2/07-CH3O-H2O-H3C/01-UseUnoptimized-0501
 # Program compiled at                              Sun Apr  7 00:48:11 EDT 2019
 # Program compiled on                          beluga2.int.ets1.calculquebec.ca
 # Program compiled for                        Beluga-Linux-x86-64-intel-openmpi
 # Source code revision number                                         svn:18619
 &GLOBAL
   PRINT_LEVEL  MEDIUM
   PROJECT_NAME TEST
   RUN_TYPE  GEO_OPT
 &END GLOBAL
 &MOTION
   &GEO_OPT
     MAX_ITER  500
     STEP_START_VAL  32
   &END GEO_OPT
 &END MOTION
 &FORCE_EVAL
   METHOD  QS
   STRESS_TENSOR  ANALYTICAL
   &DFT
     BASIS_SET_FILE_NAME BASIS_MOLOPT
     POTENTIAL_FILE_NAME GTH_POTENTIALS
     UKS  T
     SURFACE_DIPOLE_CORRECTION  T
     SURF_DIP_DIR  Z
     &SCF
       MAX_SCF  80
       EPS_SCF     5.0000000000000004E-06
       &OT  T
         PRECONDITIONER  FULL_ALL
       &END OT
       &OUTER_SCF  T
         OPTIMIZER  NONE
         EPS_SCF     5.0000000000000004E-06
         MAX_SCF  4
       &END OUTER_SCF
       &PRINT
         &RESTART  OFF
           BACKUP_COPIES  1
           &EACH
             JUST_ENERGY  0
             QS_SCF  0
             MD  20
           &END EACH
         &END RESTART
       &END PRINT
     &END SCF
     &QS
       EPS_DEFAULT     1.0000000000000000E-14
       METHOD  GPW
     &END QS
     &MGRID
       NGRIDS  5
       CUTOFF     1.2000000000000000E+03
     &END MGRID
     &XC
       DENSITY_CUTOFF     1.0000000000000000E-10
       GRADIENT_CUTOFF     1.0000000000000000E-10
       TAU_CUTOFF     1.0000000000000000E-10
       &XC_FUNCTIONAL  NO_SHORTCUT
         &PBE  T
         &END PBE
       &END XC_FUNCTIONAL
       &VDW_POTENTIAL
         POTENTIAL_TYPE  PAIR_POTENTIAL
         &PAIR_POTENTIAL
           R_CUTOFF     1.0000000000000004E+01
           TYPE  DFTD3
           PARAMETER_FILE_NAME dftd3.dat
           REFERENCE_FUNCTIONAL PBE
           EPS_CN     9.9999999999999995E-07
           CALCULATE_C9_TERM  T
           REFERENCE_C9_TERM  T
           LONG_RANGE_CORRECTION  F
           VERBOSE_OUTPUT  F
         &END PAIR_POTENTIAL
       &END VDW_POTENTIAL
     &END XC
   &END DFT
   &SUBSYS
     &CELL
       A     1.2864472766435110E+01    0.0000000000000000E+00    0.0000000000000000E+00
       B    -6.4322363581020028E+00    1.1140960178524473E+01    0.0000000000000000E+00
       C     0.0000000000000000E+00    0.0000000000000000E+00    3.2000000000000000E+01
       MULTIPLE_UNIT_CELL  1 1 1
       &CELL_REF
         A     1.2982353780853531E+01    0.0000000000000000E+00    0.0000000000000000E+00
         B    -6.4911768904267628E+00    1.1243048175136114E+01    0.0000000000000000E+00
         C     0.0000000000000000E+00    0.0000000000000000E+00    3.2000000000000000E+01
         MULTIPLE_UNIT_CELL  1 1 1
       &END CELL_REF
     &END CELL
     &COORD
N    1.3356240123653359E-03    2.0377053422655953E+00    2.5250390088295354E+00
Ga   -1.0814373715041551E-02    8.4209219305158553E-02    2.8644853776195465E+00
N   -2.4432188249214125E-03    4.4060866700625187E-02    5.0306264403711012E+00
Ga   -2.1507929915862462E-03    1.8802608675383292E+00    5.8100576687929095E+00
N   -2.5558107984081867E-03    1.8892001755400865E+00    7.8100371555189350E+00
Ga   -2.1942929540784235E-03    4.6936847956497600E-02    8.4499834644017024E+00
N    7.6710578310030481E-05    4.6959815834532466E-02    1.0423797152512371E+01
Ga   -4.5704432333080131E-05    1.8873283991314105E+00    1.1074388497546273E+01
N    1.0976644699002109E-03    1.8683294966664257E+00    1.3073257812454949E+01
Ga    6.0151764626785766E-03    4.3511998852471832E-02    1.3868683132372034E+01
N    1.8030594418488087E-03    4.1518310009009782E-02    1.6075965886246767E+01
Ga    3.0831629892293169E-03    2.0601880017141747E+00    1.6463402181746378E+01
Ga    3.1489630189870783E-02    3.7511053180557119E+00    1.3983776001546757E+00
N   -1.4739430877651232E+00    4.6116962417583087E+00    2.5087002139074333E+00
Ga   -1.6748010429453333E+00    2.7862113610327168E+00    3.2826119249681600E+00
N   -1.6136884863540866E+00    2.8286120102023888E+00    5.2617755748579551E+00
Ga   -1.6251804143338076E+00    4.6977382765805720E+00    5.8064941978354385E+00
N   -1.6224366444330833E+00    4.6957269765902110E+00    7.8068476699463245E+00
Ga   -1.5994626781206192E+00    2.8385560594450507E+00    8.4430229648630100E+00
N   -1.5976507748697997E+00    2.8406060274571194E+00    1.0438748080034042E+01
Ga   -1.6245528204930406E+00    4.7001819522508699E+00    1.1075611176187969E+01
N   -1.6407965562833353E+00    4.7104669664345193E+00    1.3074213380211464E+01
Ga   -1.5958010141445980E+00    2.8407414777685500E+00    1.3622530170310766E+01
N   -1.6180265666807161E+00    2.8253331688903844E+00    1.5594187676102377E+01
Ga   -1.4737430340557238E+00    4.6141760451005593E+00    1.6463265022352221E+01
N   -9.2863865911981779E-03    3.7570476724056712E+00    1.7585801734856894E+01
N   -3.2255339612837703E+00    7.5907078087841660E+00    2.5226026785498932E+00
Ga   -3.1710990208745420E+00    5.5893207931192084E+00    2.8544934590265925E+00
N   -3.2173381344888354E+00    5.6135405191780032E+00    5.0168931507366201E+00
Ga   -3.2096361998130347E+00    7.4359550787822544E+00    5.8022467571427674E+00
N   -3.2190377942760415E+00    7.4647078674355125E+00    7.7944954689981607E+00
Ga   -3.2164173150498234E+00    5.6177266127640548E+00    8.4490560594489796E+00
N   -3.2175689450517031E+00    5.6207496170924234E+00    1.0422529722723469E+01
Ga   -3.2157818448891455E+00    7.4602146737447157E+00    1.1073792497502708E+01
N   -3.2149210551446346E+00    7.4418858267902461E+00    1.3064938531544096E+01
Ga   -3.2193521283432354E+00    5.6259807640618433E+00    1.3871804761594682E+01
N   -3.2216966633820099E+00    5.6214885566149073E+00    1.6075876193651631E+01
Ga   -3.2157856682014296E+00    7.6784576206735808E+00    1.6508009786787909E+01
Ga   -3.1832713503940786E+00    9.3475956442235173E+00    1.4570232737313478E+00
N   -4.7268476445087826E+00    1.0189160822089709E+01    2.5208477708386661E+00
Ga   -4.8580953888579739E+00    8.3850101036082183E+00    3.3274585607361598E+00
N   -4.8439621847843108E+00    8.3896156428617044E+00    5.2523428480042851E+00
Ga   -4.8555774299447281E+00    1.0282582211471068E+01    5.8072980164550163E+00
N   -4.8341004321925016E+00    1.0262328269239763E+01    7.7987900677582651E+00
Ga   -4.8139024171693405E+00    8.4088498260668221E+00    8.4443531611982987E+00
N   -4.8135211236871847E+00    8.4106055109950137E+00    1.0433232254726681E+01
Ga   -4.8377049824329648E+00    1.0270015630481923E+01    1.1072934965685070E+01
N   -4.8524784519755633E+00    1.0279274818214363E+01    1.3064264166913317E+01
Ga   -4.8104545764600877E+00    8.4125313910478479E+00    1.3629938416363602E+01
N   -4.8392301716290280E+00    8.3956402944334503E+00    1.5585436009262709E+01
Ga   -4.6450526501754030E+00    1.0157583123476908E+01    1.6508265268792901E+01
N   -3.2156528102230397E+00    9.3301913603977980E+00    1.7651971439632678E+01
N    3.1939315773691699E+00    1.9130913287585392E+00    2.6162621872058400E+00
Ga    3.2096387567184630E+00    1.6728435163383285E-01    3.2850294078070950E+00
N    3.2139278517177434E+00    4.5853039714884837E-02    5.2502655490705195E+00
Ga    3.2138563278734540E+00    1.9113424372582135E+00    5.8772053516673637E+00
N    3.2194711329338324E+00    1.9040188233536843E+00    7.8540425551579709E+00
Ga    3.2173589329303671E+00    3.8071658193761335E-02    8.4396341787085944E+00
N    3.2158765927531237E+00    3.5193157842903416E-02    1.0433190804588167E+01
Ga    3.2148914981429484E+00    1.9028701301864399E+00    1.1034419840631386E+01
N    3.2157069397418434E+00    1.9051344734694053E+00    1.3006108838782652E+01
Ga    3.2182079951836116E+00    3.4535060546943490E-02    1.3629279811765802E+01
N    3.2150160043315950E+00    6.6954210002015596E-02    1.5585192293240738E+01
Ga    3.2195208997517875E+00    1.9011896356604294E+00    1.5863214508784893E+01
N    1.4781412099134894E+00    4.6103804546743650E+00    2.5414894220398310E+00
Ga    1.6795596545754488E+00    2.7981451850704433E+00    3.3111648406347052E+00
N    1.6079502391812202E+00    2.8291200448445863E+00    5.2775747825193990E+00
Ga    1.6453691493718272E+00    4.7104943771540331E+00    5.8219338335957822E+00
N    1.6072581510856365E+00    4.6894009910186041E+00    7.8345272238206833E+00
Ga    1.5967083069508818E+00    2.8365704664122871E+00    8.4475957137629454E+00
N    1.5972943885419093E+00    2.8360483286633653E+00    1.0443469460135780E+01
Ga    1.6229104671195429E+00    4.6992019940612355E+00    1.1069507272022031E+01
N    1.6408710874195089E+00    4.7092580326547226E+00    1.3070073491814860E+01
Ga    1.5988699637383170E+00    2.8409571432187071E+00    1.3622110850404951E+01
N    1.6230574103657895E+00    2.8273477407820371E+00    1.5592895056365343E+01
Ga    1.4665847692359948E+00    4.6061259611443557E+00    1.6464095821490030E+01
N    7.4160537072604348E-03    7.4498075463135196E+00    2.6094952170339365E+00
Ga    1.7154474161254464E-02    5.6946640759126490E+00    3.3016845737694602E+00
N   -1.2914947464263192E-03    5.6182604776646192E+00    5.2721024744833054E+00
Ga    9.1586450472585131E-03    7.4680977774146049E+00    5.8741976528171493E+00
N    1.2466972610680508E-03    7.4776798749579294E+00    7.8531364893249922E+00
Ga   -2.8669915291205856E-03    5.6070199023323752E+00    8.4486102219286501E+00
N   -4.0277549676950367E-03    5.6086735836204191E+00    1.0444386504224642E+01
Ga   -2.9292597170398802E-03    7.4763958516004339E+00    1.1035696330868101E+01
N    1.5060767617945857E-04    7.4754401999398485E+00    1.3008009777541846E+01
Ga    1.7445268277996729E-03    5.6060943018713880E+00    1.3622466710282879E+01
N    4.5132181382996576E-03    5.6326291249975426E+00    1.5593645851068867E+01
Ga   -1.1939594466153225E-03    7.4781070494663116E+00    1.5863171313131758E+01
N   -1.7108489825098325E+00    1.0196925892061838E+01    2.5331971594085796E+00
Ga   -1.4975337563165005E+00    8.3331754320889786E+00    3.2815579925334211E+00
N   -1.6076631394127976E+00    8.4003139287443194E+00    5.2472904642156610E+00
Ga   -1.5845488448152105E+00    1.0272411839210289E+01    5.8008502249378147E+00
N   -1.5996534551422106E+00    1.0265106768724056E+01    7.7976205383164725E+00
Ga   -1.6154713867290551E+00    8.4086601185080685E+00    8.4392706837943336E+00
N   -1.6202841175419962E+00    8.4107864403252695E+00    1.0433423618387447E+01
Ga   -1.5934741998200459E+00    1.0269787635292071E+01    1.1072151997504802E+01
N   -1.5755936102533110E+00    1.0279734986605634E+01    1.3064637222266452E+01
Ga   -1.6195391646437276E+00    8.4130597973677261E+00    1.3629828286727728E+01
N   -1.5907930530428422E+00    8.3928430385978565E+00    1.5585682072379210E+01
Ga   -1.7840643403576313E+00    1.0158815665967923E+01    1.6506578472565003E+01
N    6.4261288642399181E+00    2.0225580811032140E+00    2.5359879959372189E+00
Ga    6.4373022503337074E+00    3.7263872436373371E-02    2.8766236455628600E+00
N    6.4314612894120238E+00    4.8329729778036921E-02    5.0237550488661578E+00
Ga    6.4257527212448879E+00    1.8794955458783322E+00    5.8012889344978724E+00
N    6.4307710912013318E+00    1.8926137052252348E+00    7.7979567027556369E+00
Ga    6.4328140094201158E+00    4.7153897985779028E-02    8.4455626623859903E+00
N    6.4323758216852509E+00    4.8693900771647564E-02    1.0420620695075264E+01
Ga    6.4337113008270936E+00    1.8871615654356990E+00    1.1075182828820795E+01
N    6.4348180117010942E+00    1.8688804113755639E+00    1.3068178326309242E+01
Ga    6.4291607983186623E+00    4.8548104693150629E-02    1.3873820824180116E+01
N    6.4312322748648478E+00    4.8375678141820970E-02    1.6069326224399955E+01
Ga    6.4330205197744981E+00    2.0883081013187472E+00    1.6485781810907866E+01
Ga    6.4599876712011755E+00    3.6984695107307406E+00    1.4689103912482095E+00
N    4.9224642611421228E+00    4.6340330877203426E+00    2.4026340610437549E+00
Ga    4.6966617084024671E+00    2.7988794789702789E+00    3.2782360809024134E+00
N    4.8260101843869201E+00    2.8432504582649796E+00    5.2404971615718852E+00
Ga    4.7711518181343431E+00    4.7102695786012179E+00    5.8356605845455238E+00
N    4.8296881575556236E+00    4.6883049356605797E+00    7.8325448971664873E+00
Ga    4.8352982264251274E+00    2.8337518836288433E+00    8.4542445480477486E+00
N    4.8351859049541712E+00    2.8363246046790773E+00    1.0445210579824371E+01
Ga    4.8084169979433051E+00    4.6993055648606603E+00    1.1072127496608529E+01
N    4.7948714779825359E+00    4.7092078086069344E+00    1.3065620914463981E+01
Ga    4.8367654437639738E+00    2.8407674325993741E+00    1.3623077440312388E+01
N    4.8055210120122069E+00    2.8265735647283412E+00    1.5582571107133489E+01
Ga    4.9953288045089534E+00    4.5918124287611919E+00    1.6487963469890516E+01
N    6.4308577790032482E+00    3.7503344323580960E+00    1.7625174656368454E+01
N    3.2132553287396504E+00    7.5835923902971443E+00    2.3983773877094823E+00
N    3.2202878978436824E+00    5.6167865974789057E+00    5.1741024231657757E+00
Ga    3.2080234195601744E+00    7.4172707372152127E+00    5.8317502586129262E+00
N    3.2172581512428029E+00    7.4796633379656692E+00    7.8309490885394375E+00
Ga    3.2139553647273078E+00    5.6176454202117663E+00    8.4440840332063463E+00
N    3.2170859632563862E+00    5.6198746982609622E+00    1.0426443695949628E+01
Ga    3.2152254057632010E+00    7.4581633627769550E+00    1.1072315518404473E+01
N    3.2176590960757645E+00    7.4405175054374793E+00    1.3066959434850721E+01
Ga    3.2210976790525399E+00    5.6199913555742889E+00    1.3861599747380980E+01
N    3.2218340724955912E+00    5.6190141979251278E+00    1.6075568834646720E+01
Ga    3.2190929256291994E+00    7.6585951678695103E+00    1.6478732474766229E+01
Ga    3.1757116211890417E+00    9.4030814497161952E+00    1.3811248313580653E+00
N    1.7092683904181980E+00    1.0194011211859941E+01    2.5367055455927150E+00
Ga    1.5312985378802508E+00    8.3167816752655153E+00    3.2647526402777709E+00
N    1.6189790896869893E+00    8.3976633992575849E+00    5.2364743337185784E+00
Ga    1.5848071433358804E+00    1.0264195513786998E+01    5.7976631340808620E+00
N    1.5964070148042884E+00    1.0264379200109889E+01    7.7969746262116342E+00
Ga    1.6142593586954865E+00    8.4125827988408073E+00    8.4526898279665232E+00
N    1.6155735830283331E+00    8.4126853770153662E+00    1.0445251622198599E+01
Ga    1.5927901367778969E+00    1.0271814931320362E+01    1.1075138483164697E+01
N    1.5769329708189521E+00    1.0282009632033265E+01    1.3069771882403739E+01
Ga    1.6210276779603459E+00    8.4118758620454557E+00    1.3622488127943887E+01
N    1.5956859183147525E+00    8.3901495273870932E+00    1.5585666927548804E+01
Ga    1.7587869378303600E+00    1.0174204573468028E+01    1.6477140491996160E+01
N    3.2055897307705701E+00    9.3337401154195039E+00    1.7613000563502776E+01
N    9.6590589546826884E+00    1.9010620557710707E+00    2.6282871106925665E+00
Ga    9.6516703021887267E+00    1.5156059577024050E-01    3.2912416390434953E+00
N    9.6488567725361705E+00    4.3974141881742423E-02    5.2565534684018074E+00
Ga    9.6541741069569849E+00    1.9035894554496806E+00    5.8789643180456519E+00
N    9.6462747865211380E+00    1.9030912144900398E+00    7.8537889577203179E+00
Ga    9.6467893099019673E+00    3.4387404494458811E-02    8.4360149353664475E+00
N    9.6488335841568613E+00    3.5220347432530739E-02    1.0432587161670547E+01
Ga    9.6481179166699498E+00    1.9050973191277745E+00    1.1027810364761486E+01
N    9.6509814963397211E+00    1.9060534495068775E+00    1.3002386489171659E+01
Ga    9.6502545941410709E+00    3.6850077119421072E-02    1.3623977706376618E+01
N    9.6553963934527101E+00    6.7613173507175314E-02    1.5586267501120940E+01
Ga    9.6491378513247064E+00    1.9051981516413268E+00    1.5867203979539578E+01
N    7.9205808842688192E+00    4.6284933165396414E+00    2.5199025772628194E+00
Ga    8.1503448212889698E+00    2.7664586775965048E+00    3.2995166039541792E+00
N    8.0390992949731679E+00    2.8333780358072334E+00    5.2570707946186879E+00
Ga    8.0675098942661485E+00    4.7050765592780204E+00    5.8005411229729980E+00
N    8.0473739916271949E+00    4.6994878987269946E+00    7.7939154650929252E+00
Ga    8.0297500650559890E+00    2.8383060750654909E+00    8.4379883430365012E+00
N    8.0291847812748305E+00    2.8415537187639912E+00    1.0433282468291216E+01
Ga    8.0572459574802782E+00    4.6991003754711365E+00    1.1076782015436004E+01
N    8.0742622110929645E+00    4.7095566672410918E+00    1.3068204219371758E+01
Ga    8.0314408192528024E+00    2.8411109981271165E+00    1.3624794756736875E+01
N    8.0625169334763349E+00    2.8262459300990863E+00    1.5583301255055035E+01
Ga    7.8710615299245248E+00    4.5926471500179256E+00    1.6489108907375652E+01
N    6.4225873457923583E+00    7.4716776384338575E+00    2.5939679975234800E+00
Ga    6.3941719581658969E+00    5.6478816128428901E+00    3.3103814358022232E+00
N    6.4233620439226602E+00    5.6267898870023290E+00    5.2350777102989277E+00
Ga    6.4176826774522064E+00    7.4684994625385928E+00    5.9002098929900155E+00
N    6.4287596957519115E+00    7.4735327434600265E+00    7.8571367582518183E+00
Ga    6.4349998851040793E+00    5.6040431319006530E+00    8.4585139216797298E+00
N    6.4359951626783678E+00    5.6091248617834877E+00    1.0445026838770215E+01
Ga    6.4340432584596847E+00    7.4778450643245424E+00    1.1036353027290536E+01
N    6.4342865628462551E+00    7.4777423968717338E+00    1.3004507537939411E+01
Ga    6.4338846462742216E+00    5.6072601743901558E+00    1.3624059258336279E+01
N    6.4329477261276020E+00    5.6380171552471863E+00    1.5582600615365269E+01
Ga    6.4368872784607216E+00    7.4761894909415814E+00    1.5859982679359016E+01
N    4.7182446498593489E+00    1.0182969544032957E+01    2.5199251470094648E+00
Ga    4.8090885886014973E+00    8.3592856830417599E+00    3.2984059780031352E+00
N    4.8267949980298646E+00    8.3865441587526881E+00    5.2307336465414895E+00
Ga    4.8507207830040437E+00    1.0270866135278258E+01    5.8003246781578399E+00
N    4.8349186133478543E+00    1.0260066788522360E+01    7.7959062513786597E+00
Ga    4.8113186111854427E+00    8.4128097565785662E+00    8.4581441510460227E+00
N    4.8164961391545393E+00    8.4128994190697757E+00    1.0444960306342001E+01
Ga    4.8391513679733515E+00    1.0272268048615656E+01    1.1076104770879878E+01
N    4.8576209893665334E+00    1.0281305615603870E+01    1.3068976534486863E+01
Ga    4.8150567094654839E+00    8.4116924843665490E+00    1.3622649322683003E+01
N    4.8414451314495190E+00    8.3947994627467502E+00    1.5584107507150144E+01
Ga    4.6649147976475396E+00    1.0165409961827965E+01    1.6480091300338593E+01
O    6.4601733051908994E-01    3.8481581193472150E+00   -3.6046267684353106E-01
H    2.2996554132226921E+00    6.4030376614620668E+00   -6.8044293501982989E-02
C    8.0509879873778478E-01    2.5784179019869766E+00   -1.0256851479657676E+00
H    1.7024381180009895E+00    2.0472493817883328E+00   -6.7000667429663852E-01
H   -7.3024783257748138E-02    1.9272554247236577E+00   -8.5961649275510199E-01
H    8.9674718832003597E-01    2.7632914270555990E+00   -2.1067088246134285E+00
Ga    3.1436623831612511E+00    5.5797284396618547E+00    2.2435663018171805E+00
O    2.7567572726935485E+00    5.5514775103446548E+00    7.9210272419274141E-02
H    2.0375400533154227E+00    4.8539917389784542E+00   -1.1066301230922380E-01
C    6.4316349137333457E+00    7.4830232434256265E+00    1.1015554695408136E+00
H    5.7055057641731421E+00    8.2079034025835913E+00    6.9487679256601220E-01
H    7.4226793683463743E+00    7.7558695210808573E+00    7.0115172561096784E-01
H    6.1722820944922381E+00    6.4959403017761730E+00    6.8396853732108009E-01
     &END COORD
     &KIND C
       BASIS_SET DZVP-MOLOPT-SR-GTH-q4
       POTENTIAL GTH-PBE-q4
       &POTENTIAL
 2 2
  0.3384712400000000E+00 2 -0.8803673979999999E+01  0.1339210850000000E+01
 2
  0.3025757500000000E+00 1  0.9622486650000001E+01
  0.2915069400000000E+00 0
         # Potential name:  GTH-PBE-Q4  for symbol:  C
         # Potential read from the potential filename: GTH_POTENTIALS
       &END POTENTIAL
     &END KIND
     &KIND O
       BASIS_SET DZVP-MOLOPT-SR-GTH-q6
       POTENTIAL GTH-PBE-q6
       &POTENTIAL
 2 4
  0.2445543000000000E+00 2 -0.1666721480000000E+02  0.2487311320000000E+01
 2
  0.2209559200000000E+00 1  0.1833745811000000E+02
  0.2113324700000000E+00 0
         # Potential name:  GTH-PBE-Q6  for symbol:  O
         # Potential read from the potential filename: GTH_POTENTIALS
       &END POTENTIAL
     &END KIND
     &KIND H
       BASIS_SET DZVP-MOLOPT-SR-GTH-q1
       POTENTIAL GTH-PBE-q1
       &POTENTIAL
 1
  0.2000000000000000E+00 2 -0.4178900440000000E+01  0.7244633100000000E+00
 0
         # Potential name:  GTH-PBE-Q1  for symbol:  H
         # Potential read from the potential filename: GTH_POTENTIALS
       &END POTENTIAL
     &END KIND
     &KIND N
       BASIS_SET DZVP-MOLOPT-SR-GTH
       POTENTIAL GTH-PBE-q5
       &POTENTIAL
 2 3
  0.2837905100000000E+00 2 -0.1241522559000000E+02  0.1868095920000000E+01
 2
  0.2554050000000000E+00 1  0.1363026257000000E+02
  0.2454945300000000E+00 0
         # Potential name:  GTH-PBE-Q5  for symbol:  N
         # Potential read from the potential filename: GTH_POTENTIALS
       &END POTENTIAL
     &END KIND
     &KIND Ga
       BASIS_SET DZVP-MOLOPT-SR-GTH
       POTENTIAL GTH-PBE-q13
       &POTENTIAL
 2 1 10
  0.4900000000000000E+00 0
 3
  0.4167772300000000E+00 3  0.1047568975000000E+02 -0.4921768140000000E+01  0.8707055900000000E+00
  0.7770178090000000E+01 -0.2248152160000000E+01
  0.1784415450000000E+01
  0.5696265200000000E+00 2  0.1777985340000000E+01  0.1958597600000000E+00
 -0.2317443900000000E+00
  0.2381265000000000E+00 1 -0.1624868022000000E+02
         # Potential name:  GTH-PBE-Q13  for symbol:  GA
         # Potential read from the potential filename: GTH_POTENTIALS
       &END POTENTIAL
     &END KIND
     &TOPOLOGY
       NUMBER_OF_ATOMS  212
       MULTIPLE_UNIT_CELL  1 1 1
     &END TOPOLOGY
   &END SUBSYS
 &END FORCE_EVAL
