 # Version information for this restart file 
 # current date 2019-06-29 09:33:31.668
 # current working dir /scratch/rzk/rzk/GaN-carbene/443-adatoms-both-2x2/07-CH3O-H2O-H3C/01-UseUnoptimized-0501
 # Program compiled at                              Sun Apr  7 00:48:11 EDT 2019
 # Program compiled on                          beluga2.int.ets1.calculquebec.ca
 # Program compiled for                        Beluga-Linux-x86-64-intel-openmpi
 # Source code revision number                                         svn:18619
 &GLOBAL
   PRINT_LEVEL  MEDIUM
   PROJECT_NAME TEST
   RUN_TYPE  GEO_OPT
 &END GLOBAL
 &MOTION
   &GEO_OPT
     MAX_ITER  500
     STEP_START_VAL  89
   &END GEO_OPT
 &END MOTION
 &FORCE_EVAL
   METHOD  QS
   STRESS_TENSOR  ANALYTICAL
   &DFT
     BASIS_SET_FILE_NAME BASIS_MOLOPT
     POTENTIAL_FILE_NAME GTH_POTENTIALS
     UKS  T
     SURFACE_DIPOLE_CORRECTION  T
     SURF_DIP_DIR  Z
     &SCF
       MAX_SCF  80
       EPS_SCF     5.0000000000000004E-06
       &OT  T
         PRECONDITIONER  FULL_ALL
       &END OT
       &OUTER_SCF  T
         OPTIMIZER  NONE
         EPS_SCF     5.0000000000000004E-06
         MAX_SCF  4
       &END OUTER_SCF
       &PRINT
         &RESTART  OFF
           BACKUP_COPIES  1
           &EACH
             JUST_ENERGY  0
             QS_SCF  0
             MD  20
           &END EACH
         &END RESTART
       &END PRINT
     &END SCF
     &QS
       EPS_DEFAULT     1.0000000000000000E-14
       METHOD  GPW
     &END QS
     &MGRID
       NGRIDS  5
       CUTOFF     1.2000000000000000E+03
     &END MGRID
     &XC
       DENSITY_CUTOFF     1.0000000000000000E-10
       GRADIENT_CUTOFF     1.0000000000000000E-10
       TAU_CUTOFF     1.0000000000000000E-10
       &XC_FUNCTIONAL  NO_SHORTCUT
         &PBE  T
         &END PBE
       &END XC_FUNCTIONAL
       &VDW_POTENTIAL
         POTENTIAL_TYPE  PAIR_POTENTIAL
         &PAIR_POTENTIAL
           R_CUTOFF     1.0000000000000004E+01
           TYPE  DFTD3
           PARAMETER_FILE_NAME dftd3.dat
           REFERENCE_FUNCTIONAL PBE
           EPS_CN     9.9999999999999995E-07
           CALCULATE_C9_TERM  T
           REFERENCE_C9_TERM  T
           LONG_RANGE_CORRECTION  F
           VERBOSE_OUTPUT  F
         &END PAIR_POTENTIAL
       &END VDW_POTENTIAL
     &END XC
   &END DFT
   &SUBSYS
     &CELL
       A     1.2864472766435110E+01    0.0000000000000000E+00    0.0000000000000000E+00
       B    -6.4322363581020028E+00    1.1140960178524473E+01    0.0000000000000000E+00
       C     0.0000000000000000E+00    0.0000000000000000E+00    3.2000000000000000E+01
       MULTIPLE_UNIT_CELL  1 1 1
       &CELL_REF
         A     1.2982353780853531E+01    0.0000000000000000E+00    0.0000000000000000E+00
         B    -6.4911768904267628E+00    1.1243048175136114E+01    0.0000000000000000E+00
         C     0.0000000000000000E+00    0.0000000000000000E+00    3.2000000000000000E+01
         MULTIPLE_UNIT_CELL  1 1 1
       &END CELL_REF
     &END CELL
     &COORD
N    2.0865100855027691E-03    2.0471857583608077E+00    2.5090819117302834E+00
Ga   -2.9239494511208042E-02    9.3287474523933128E-02    2.8608824751771436E+00
N   -1.6475651745738065E-03    4.9792022447185058E-02    5.0253924388517106E+00
Ga   -4.0919570162784198E-03    1.8843443257203563E+00    5.8070817079952279E+00
N   -5.8877715057910470E-03    1.8908809487497229E+00    7.8089157207094697E+00
Ga   -7.4802150086221960E-03    4.7785158401213217E-02    8.4484287607463493E+00
N   -5.3593247446682086E-03    4.5879559994234168E-02    1.0423949521012442E+01
Ga   -5.8148961960039778E-03    1.8855437848120782E+00    1.1072955369948014E+01
N   -6.0365705591760976E-03    1.8648680998061382E+00    1.3074214906670075E+01
Ga   -4.7015564284836209E-03    3.6110333514273077E-02    1.3865233385462444E+01
N   -5.1064938429638707E-03    3.2944304483719281E-02    1.6074241981555875E+01
Ga   -5.2172216743959681E-03    2.0323341895795073E+00    1.6434926326947917E+01
Ga    2.8029409098845433E-02    3.7709460338271596E+00    1.3887881109487603E+00
N   -1.4770641945980933E+00    4.6205825199479165E+00    2.5042776414213206E+00
Ga   -1.6765674017069871E+00    2.7896970969464490E+00    3.2725741945891538E+00
N   -1.6146150933134784E+00    2.8319989674880515E+00    5.2552862886946112E+00
Ga   -1.6258754643693552E+00    4.6991048431375511E+00    5.8036819285934653E+00
N   -1.6260562785138115E+00    4.6963883702838656E+00    7.8053214539383102E+00
Ga   -1.6038862909517293E+00    2.8385386738998077E+00    8.4404892132015377E+00
N   -1.6022692504681235E+00    2.8396576267014768E+00    1.0438757308940222E+01
Ga   -1.6292302237238976E+00    4.6989693482527848E+00    1.1073063003069089E+01
N   -1.6477322242455408E+00    4.7084876096679960E+00    1.3074282406097646E+01
Ga   -1.6035757122662717E+00    2.8381638683235355E+00    1.3617474654261674E+01
N   -1.6189129399874118E+00    2.8288126626471293E+00    1.5596851934761920E+01
Ga   -1.5033411366088918E+00    4.6255524666248506E+00    1.6435019357262842E+01
N   -6.3923743167091721E-03    3.7614820374521907E+00    1.7558869444721434E+01
N   -3.2298787026763849E+00    7.5967444643728435E+00    2.5275405851107862E+00
Ga   -3.1718905523995726E+00    5.5870855316223391E+00    2.8602305730107966E+00
N   -3.2201026776188910E+00    5.6170639541943830E+00    5.0145446513049619E+00
Ga   -3.2125159346686192E+00    7.4378840515556588E+00    5.8058621821854155E+00
N   -3.2223660551954501E+00    7.4645847698840724E+00    7.7967141159642788E+00
Ga   -3.2199308760818859E+00    5.6170787700027267E+00    8.4495658685762329E+00
N   -3.2226506370448731E+00    5.6188705003110577E+00    1.0423888990254069E+01
Ga   -3.2202522127038602E+00    7.4591493813515344E+00    1.1073106148730448E+01
N   -3.2218795327042478E+00    7.4400162276332402E+00    1.3065763151600553E+01
Ga   -3.2310195371853747E+00    5.6236737536160373E+00    1.3866334891185677E+01
N   -3.2341603039203362E+00    5.6249081802979433E+00    1.6074287276761918E+01
Ga   -3.2234986589067129E+00    7.6813564025073378E+00    1.6503841453834340E+01
Ga   -3.1876609670235938E+00    9.3480919119035129E+00    1.5296164417655835E+00
N   -4.7258999081168742E+00    1.0191323525872701E+01    2.5221548812462200E+00
Ga   -4.8755062445968287E+00    8.3830610281406610E+00    3.3394499780158826E+00
N   -4.8472466200848592E+00    8.3933796204314710E+00    5.2594549939774602E+00
Ga   -4.8597675247937238E+00    1.0287298185298928E+01    5.8109508840954733E+00
N   -4.8373949981038180E+00    1.0263560435955883E+01    7.8012707924568740E+00
Ga   -4.8184536358534498E+00    8.4090711336938782E+00    8.4454640467801667E+00
N   -4.8178283873868963E+00    8.4093939035840393E+00    1.0434519649912071E+01
Ga   -4.8431707716401053E+00    1.0268403495139914E+01    1.1073075899916278E+01
N   -4.8595956748283387E+00    1.0276409410407540E+01    1.3065808867217896E+01
Ga   -4.8183117312300752E+00    8.4092500759021380E+00    1.3629471941261704E+01
N   -4.8463677887212846E+00    8.3932511700806032E+00    1.5586783531631008E+01
Ga   -4.6510480927735838E+00    1.0154389684623698E+01    1.6503753430001336E+01
N   -3.2128084852287366E+00    9.3361519316677448E+00    1.7646945538739605E+01
N    3.1924937649252225E+00    1.9200104998344540E+00    2.6121278499376048E+00
Ga    3.2078620048358641E+00    1.8422350733060794E-01    3.2988379570463349E+00
N    3.2103814432531546E+00    4.9459322834517955E-02    5.2565343399677547E+00
Ga    3.2088853958672563E+00    1.9160306902499531E+00    5.8844048777555260E+00
N    3.2150469515095010E+00    1.9048388626072750E+00    7.8598160900203471E+00
Ga    3.2140261943505668E+00    3.8035020730119218E-02    8.4436688279509102E+00
N    3.2117779592963442E+00    3.4116193556320992E-02    1.0437127525967176E+01
Ga    3.2112854911548268E+00    1.9023214503951773E+00    1.1036556184615073E+01
N    3.2088370669292434E+00    1.9041300916783488E+00    1.3010148166256137E+01
Ga    3.2110822358065487E+00    3.2353842833764121E-02    1.3629506095503434E+01
N    3.2039204637230818E+00    6.9072196232917660E-02    1.5588575210320876E+01
Ga    3.2124667266029809E+00    1.9029562105148401E+00    1.5865760973510817E+01
N    1.4764524487148585E+00    4.6146581774413518E+00    2.5445745083326923E+00
Ga    1.6757249195089348E+00    2.8063628780491556E+00    3.3060056402244111E+00
N    1.6055350808426678E+00    2.8313848533823385E+00    5.2745378869144242E+00
Ga    1.6440202053922004E+00    4.7132479452977041E+00    5.8193435546333010E+00
N    1.6032086950587849E+00    4.6894602854762732E+00    7.8340364273015943E+00
Ga    1.5918082010410837E+00    2.8380426069595672E+00    8.4494633841387259E+00
N    1.5925206788989614E+00    2.8353662023057540E+00    1.0447124094968675E+01
Ga    1.6188673898623238E+00    4.6995628808533310E+00    1.1068896689816238E+01
N    1.6362044173092904E+00    4.7087440787929697E+00    1.3073027204915720E+01
Ga    1.5913484100662101E+00    2.8393368004361030E+00    1.3617332219341227E+01
N    1.6076261559598435E+00    2.8291645486459456E+00    1.5596827319934730E+01
Ga    1.4921063312100100E+00    4.6251075173434462E+00    1.6434955044017933E+01
N    1.1795246154006477E-02    7.4572928296295098E+00    2.6138345727305006E+00
Ga    1.9833769718165022E-02    5.7023788836041449E+00    3.3018845780816846E+00
N   -4.0958180214352444E-03    5.6206506222233621E+00    5.2710240786389448E+00
Ga    1.3333940451337076E-02    7.4718244802281184E+00    5.8710581275210521E+00
N   -1.6403089624883376E-03    7.4782189940143056E+00    7.8521301166576922E+00
Ga   -5.9998133810063164E-03    5.6082724336052880E+00    8.4451623485450593E+00
N   -8.4646664329948006E-03    5.6079382477669091E+00    1.0444428452524322E+01
Ga   -6.2913215702149776E-03    7.4766048843914898E+00    1.1033402139948508E+01
N   -6.1826709113790195E-03    7.4728396188669324E+00    1.3008111862307059E+01
Ga   -5.0553947492734405E-03    5.6047368392204095E+00    1.3617018152316392E+01
N   -5.3408109314633133E-03    5.6233714951485858E+00    1.5596906404340668E+01
Ga   -5.6717120839613047E-03    7.4760010489169098E+00    1.5866299173749628E+01
N   -1.7133526613308030E+00    1.0202799843608494E+01    2.5421602110811974E+00
Ga   -1.4844180480335130E+00    8.3332443545930808E+00    3.2961791020577618E+00
N   -1.6111383525576792E+00    8.4022569494149657E+00    5.2536862858250863E+00
Ga   -1.5862522460173694E+00    1.0275476742049838E+01    5.8047817228736482E+00
N   -1.6033687622383503E+00    1.0265904992540325E+01    7.7999154417984959E+00
Ga   -1.6176241390062047E+00    8.4089281312708746E+00    8.4385075768614897E+00
N   -1.6245517947352619E+00    8.4102953151323678E+00    1.0433890061388626E+01
Ga   -1.5966443635616565E+00    1.0268859510501830E+01    1.1075747192562606E+01
N   -1.5806723834614429E+00    1.0278440176725161E+01    1.3070551746600266E+01
Ga   -1.6257212372791410E+00    8.4102617325929110E+00    1.3629252023876218E+01
N   -1.5976733143714190E+00    8.3858567278558560E+00    1.5588373851093101E+01
Ga   -1.7794000110892656E+00    1.0163838119113292E+01    1.6502425748632039E+01
N    6.4229203296521851E+00    2.0294977550742215E+00    2.5427774368979761E+00
Ga    6.4538728526126432E+00    3.9317986925927625E-02    2.8799073840420353E+00
N    6.4259257288077238E+00    5.0852919913131053E-02    5.0250881720543692E+00
Ga    6.4225531899695856E+00    1.8804400757770128E+00    5.8030477315133915E+00
N    6.4266763247752126E+00    1.8930939877587512E+00    7.7997233195120534E+00
Ga    6.4308512237514321E+00    4.7124116183032229E-02    8.4461452427778152E+00
N    6.4277701071674853E+00    4.7798932034236040E-02    1.0422419369018121E+01
Ga    6.4294420729179622E+00    1.8852754511872731E+00    1.1079144451116267E+01
N    6.4284445648224402E+00    1.8666771432529399E+00    1.3072969577571712E+01
Ga    6.4271305992844496E+00    4.7653023731644144E-02    1.3886163965664080E+01
N    6.4260708004476275E+00    4.7136052286376420E-02    1.6076877682401399E+01
Ga    6.4262131042022723E+00    2.0965294186308685E+00    1.6503835645037967E+01
Ga    6.4512175170838635E+00    3.7094709797007530E+00    1.4940744517453217E+00
N    4.9199773773057434E+00    4.6378121993312913E+00    2.4144205096844571E+00
Ga    4.6919131977570832E+00    2.8041189057644025E+00    3.2874119058600568E+00
N    4.8212037202644238E+00    2.8452142187934832E+00    5.2468751020173814E+00
Ga    4.7655258399584222E+00    4.7135910905921126E+00    5.8395685909507282E+00
N    4.8260587746582742E+00    4.6882804479539741E+00    7.8358896182925015E+00
Ga    4.8326283467691313E+00    2.8343819432761377E+00    8.4567495486579762E+00
N    4.8311671427666827E+00    2.8351688552753109E+00    1.0448029560643182E+01
Ga    4.8040400932823859E+00    4.6985508934825537E+00    1.1073544341423677E+01
N    4.7898092276272335E+00    4.7072078549926282E+00    1.3067676210819926E+01
Ga    4.8316673640779539E+00    2.8397131267539426E+00    1.3629027273251946E+01
N    4.7961732990292036E+00    2.8266252356921453E+00    1.5588328450477226E+01
Ga    4.9996233784023074E+00    4.5866982116380113E+00    1.6504536735220281E+01
N    6.4263642852388063E+00    3.7509079785523269E+00    1.7649792998310978E+01
N    3.2165957485039578E+00    7.5915785597412215E+00    2.3938978881515371E+00
N    3.2174792792187397E+00    5.6174446509440008E+00    5.1711764835562715E+00
Ga    3.2052442158059429E+00    7.4214983330393247E+00    5.8211934505740457E+00
N    3.2137849980268198E+00    7.4805273766495581E+00    7.8271424859922538E+00
Ga    3.2099227232844489E+00    5.6200747871143459E+00    8.4424668397295726E+00
N    3.2124476978296204E+00    5.6191693306473969E+00    1.0426774611591641E+01
Ga    3.2105073254641461E+00    7.4582416786653116E+00    1.1072267441162726E+01
N    3.2116518907971385E+00    7.4402655586406761E+00    1.3067250847424555E+01
Ga    3.2207599141049497E+00    5.6230618824529195E+00    1.3863357012287107E+01
N    3.2230363829039601E+00    5.6243598452748591E+00    1.6074635887760600E+01
Ga    3.2125733409766992E+00    7.6791074845333549E+00    1.6500340470372318E+01
Ga    3.1764574818785918E+00    9.4168098793694845E+00    1.2933921484565740E+00
N    1.7109412415164040E+00    1.0201687245263084E+01    2.5281229404916155E+00
Ga    1.5477855365233966E+00    8.3331005696862661E+00    3.2451773634081205E+00
N    1.6161745950049002E+00    8.4000683737690895E+00    5.2291085149835697E+00
Ga    1.5860670576738320E+00    1.0265163077259501E+01    5.7894135576835914E+00
N    1.5926481625522166E+00    1.0265659807234174E+01    7.7932744312916782E+00
Ga    1.6123540872208495E+00    8.4140796903058401E+00    8.4488169390403591E+00
N    1.6112475706020977E+00    8.4126121191904328E+00    1.0443745695241715E+01
Ga    1.5880812120073959E+00    1.0270813579648923E+01    1.1077330010383104E+01
N    1.5709943666148665E+00    1.0279681586855061E+01    1.3072331150110145E+01
Ga    1.6150649650137257E+00    8.4101185748520901E+00    1.3627526391838032E+01
N    1.5866371311050924E+00    8.3858347456631250E+00    1.5587964586766953E+01
Ga    1.7655879951475346E+00    1.0164800762489820E+01    1.6499651616233209E+01
N    3.2008865443629921E+00    9.3361913399484635E+00    1.7642818225067394E+01
N    9.6559929683301071E+00    1.9061048325351753E+00    2.6253961100213350E+00
Ga    9.6512289627616337E+00    1.4441209618979070E-01    3.2721559656320180E+00
N    9.6470838567245192E+00    4.8699783020084070E-02    5.2485707294284643E+00
Ga    9.6526444268429934E+00    1.9030145858282257E+00    5.8725587516418223E+00
N    9.6430108062298991E+00    1.9044787056371824E+00    7.8512461995477265E+00
Ga    9.6426369411641559E+00    3.5038056339751919E-02    8.4325565592132445E+00
N    9.6431711387650161E+00    3.4560532490179763E-02    1.0431327242352500E+01
Ga    9.6426172648648727E+00    1.9036546861467805E+00    1.1027124700965143E+01
N    9.6448009909482160E+00    1.9050440296704436E+00    1.3002979071702555E+01
Ga    9.6433040195426933E+00    3.4728926778116488E-02    1.3629138146047849E+01
N    9.6496422104082740E+00    6.9780814188352858E-02    1.5589187108281571E+01
Ga    9.6413335638690700E+00    1.9032937657417059E+00    1.5869847402072201E+01
N    7.9160057980644689E+00    4.6386764943078171E+00    2.5233696541414803E+00
Ga    8.1513234050672700E+00    2.7688281330870921E+00    3.3026773483169674E+00
N    8.0353166328743857E+00    2.8366050824127802E+00    5.2588251370548775E+00
Ga    8.0631792171250787E+00    4.7070149520058102E+00    5.8017678676647320E+00
N    8.0438809998498400E+00    4.6999708929750659E+00    7.7951527306941264E+00
Ga    8.0261660425096579E+00    2.8377378373837829E+00    8.4366180927601278E+00
N    8.0238571080695671E+00    2.8398024346916473E+00    1.0433017827796757E+01
Ga    8.0510208723535097E+00    4.6964854749246800E+00    1.1077079241509734E+01
N    8.0659139498138135E+00    4.7065505952377071E+00    1.3068650592428407E+01
Ga    8.0243592745469350E+00    2.8389362617904577E+00    1.3630376842131136E+01
N    8.0579754601766496E+00    2.8263191926470284E+00    1.5589331418108726E+01
Ga    7.8533025641480911E+00    4.5866317134711254E+00    1.6505233407326241E+01
N    6.4162606447019899E+00    7.4776414943307650E+00    2.6032139437072619E+00
Ga    6.3826240316077199E+00    5.6573462489929076E+00    3.3179157615932349E+00
N    6.4195603391709763E+00    5.6302774647665199E+00    5.2413383757212637E+00
Ga    6.4076972456542993E+00    7.4738968116290474E+00    5.9021574599123738E+00
N    6.4244951319083325E+00    7.4742189653348756E+00    7.8595427044678488E+00
Ga    6.4310323472474105E+00    5.6044536059696535E+00    8.4595310912260935E+00
N    6.4313276784940054E+00    5.6079668765517905E+00    1.0446107499314072E+01
Ga    6.4290402444691246E+00    7.4766039485189717E+00    1.1038031497677881E+01
N    6.4281163949074767E+00    7.4752475554229560E+00    1.3006052090162736E+01
Ga    6.4273387385887899E+00    5.6053121739248724E+00    1.3629128675566719E+01
N    6.4269175876193847E+00    5.6372469839111359E+00    1.5586931109337140E+01
Ga    6.4270963887924166E+00    7.4741671226683959E+00    1.5864009666811070E+01
N    4.7215813239481150E+00    1.0196141657296893E+01    2.5097164157842662E+00
Ga    4.7948906396527935E+00    8.3804966291683982E+00    3.2818602919764697E+00
N    4.8248866202975291E+00    8.3918992502300203E+00    5.2240536432400617E+00
Ga    4.8450698396961629E+00    1.0274163875027549E+01    5.7926409750123753E+00
N    4.8315795022446357E+00    1.0261879142435575E+01    7.7927133462679468E+00
Ga    4.8059126645622960E+00    8.4144144523754374E+00    8.4565972656537021E+00
N    4.8118982191522699E+00    8.4116832132148023E+00    1.0444937781842503E+01
Ga    4.8322353008013010E+00    1.0270316710216251E+01    1.1075264696893466E+01
N    4.8491934590841081E+00    1.0277899494917673E+01    1.3067955454825654E+01
Ga    4.8083861620304145E+00    8.4093846710754452E+00    1.3627845597627696E+01
N    4.8357052708127641E+00    8.3932925345438516E+00    1.5586490116972918E+01
Ga    4.6417457458299269E+00    1.0154980424221222E+01    1.6501060127937791E+01
O    6.5109856834204727E-01    3.9870252016715249E+00   -3.6051850722052875E-01
H    2.5057372160525153E+00    6.4551180204623453E+00   -1.0174809429745958E-01
C    9.7972212219167798E-01    2.7816064047684987E+00   -1.0830777198142234E+00
H    1.7112712647498440E+00    2.1636378279612711E+00   -5.3658883150882530E-01
H    8.1645391860723449E-02    2.1763658098136998E+00   -1.2770728253477093E+00
H    1.4145876049825459E+00    3.0763067806967208E+00   -2.0484699272421754E+00
Ga    3.1383695434173919E+00    5.5981083844017618E+00    2.2604537152768285E+00
O    2.8130139516546664E+00    5.5538066222355340E+00    1.0666420916053758E-01
H    2.0096181035374223E+00    4.9503777713385890E+00   -8.5360094307524323E-02
C    6.4476965028907793E+00    7.4807757784298659E+00    1.1126076463685832E+00
H    6.4308290005139650E+00    8.5105422180312740E+00    7.2668637775588840E-01
H    7.3557357136890902E+00    6.9853577821107820E+00    7.3810643047039481E-01
H    5.5763472121310862E+00    6.9519437778903557E+00    6.9883288738836558E-01
     &END COORD
     &KIND C
       BASIS_SET DZVP-MOLOPT-SR-GTH-q4
       POTENTIAL GTH-PBE-q4
       &POTENTIAL
 2 2
  0.3384712400000000E+00 2 -0.8803673979999999E+01  0.1339210850000000E+01
 2
  0.3025757500000000E+00 1  0.9622486650000001E+01
  0.2915069400000000E+00 0
         # Potential name:  GTH-PBE-Q4  for symbol:  C
         # Potential read from the potential filename: GTH_POTENTIALS
       &END POTENTIAL
     &END KIND
     &KIND O
       BASIS_SET DZVP-MOLOPT-SR-GTH-q6
       POTENTIAL GTH-PBE-q6
       &POTENTIAL
 2 4
  0.2445543000000000E+00 2 -0.1666721480000000E+02  0.2487311320000000E+01
 2
  0.2209559200000000E+00 1  0.1833745811000000E+02
  0.2113324700000000E+00 0
         # Potential name:  GTH-PBE-Q6  for symbol:  O
         # Potential read from the potential filename: GTH_POTENTIALS
       &END POTENTIAL
     &END KIND
     &KIND H
       BASIS_SET DZVP-MOLOPT-SR-GTH-q1
       POTENTIAL GTH-PBE-q1
       &POTENTIAL
 1
  0.2000000000000000E+00 2 -0.4178900440000000E+01  0.7244633100000000E+00
 0
         # Potential name:  GTH-PBE-Q1  for symbol:  H
         # Potential read from the potential filename: GTH_POTENTIALS
       &END POTENTIAL
     &END KIND
     &KIND N
       BASIS_SET DZVP-MOLOPT-SR-GTH
       POTENTIAL GTH-PBE-q5
       &POTENTIAL
 2 3
  0.2837905100000000E+00 2 -0.1241522559000000E+02  0.1868095920000000E+01
 2
  0.2554050000000000E+00 1  0.1363026257000000E+02
  0.2454945300000000E+00 0
         # Potential name:  GTH-PBE-Q5  for symbol:  N
         # Potential read from the potential filename: GTH_POTENTIALS
       &END POTENTIAL
     &END KIND
     &KIND Ga
       BASIS_SET DZVP-MOLOPT-SR-GTH
       POTENTIAL GTH-PBE-q13
       &POTENTIAL
 2 1 10
  0.4900000000000000E+00 0
 3
  0.4167772300000000E+00 3  0.1047568975000000E+02 -0.4921768140000000E+01  0.8707055900000000E+00
  0.7770178090000000E+01 -0.2248152160000000E+01
  0.1784415450000000E+01
  0.5696265200000000E+00 2  0.1777985340000000E+01  0.1958597600000000E+00
 -0.2317443900000000E+00
  0.2381265000000000E+00 1 -0.1624868022000000E+02
         # Potential name:  GTH-PBE-Q13  for symbol:  GA
         # Potential read from the potential filename: GTH_POTENTIALS
       &END POTENTIAL
     &END KIND
     &TOPOLOGY
       NUMBER_OF_ATOMS  212
       MULTIPLE_UNIT_CELL  1 1 1
     &END TOPOLOGY
   &END SUBSYS
 &END FORCE_EVAL
