#p

title

0 1
  N         0.0206338899        2.0282730902        2.4758438209
 Ga         0.0202782402        0.0479883882        2.8039728482
  N         0.0203148502        0.0473387353        4.9693135739
 Ga         0.0203617981        1.8748069382        5.7525274795
  N         0.0201696889        1.8931931740        7.7492172845
 Ga         0.0196253739        0.0475599978        8.3973670795
  N         0.0195721949        0.0476567097       10.3713189915
 Ga         0.0196392072        1.8868705584       11.0214538995
  N         0.0192155402        1.8675072577       13.0180872227
 Ga         0.0166493990        0.0427824777       13.8165549345
  N         0.0186731625        0.0427378193       16.0223635728
 Ga         0.0187461140        2.0643526652       16.4123152745
 Ga         0.0202930070        3.7620393418        1.4401088349
  N        -1.4806448152        4.6280641819        2.4762719622
 Ga        -1.6853316222        2.7761065047        3.2410706712
  N        -1.5884590876        2.8319381142        5.2045223884
 Ga        -1.6130606528        4.7037613924        5.7523593303
  N        -1.5978913515        4.6952823221        7.7490812084
 Ga        -1.5783925517        2.8383120955        8.3888848128
  N        -1.5768040057        2.8392338284       10.3830611565
 Ga        -1.6029001703        4.6982156632       11.0200886254
  N        -1.6202343228        4.7084643605       13.0162236082
 Ga        -1.5785690657        2.8395548896       13.5696360577
  N        -1.6026148142        2.8276448697       15.5380866501
 Ga        -1.4435757939        4.6065092409       16.4125131053
  N         0.0284583888        3.7587328594       17.5319300211
  N        -3.1957663196        7.5988126102        2.4758409374
 Ga        -3.1957510750        5.6182209419        2.8041332578
  N        -3.1958400596        5.6177170088        4.9691197980
 Ga        -3.1960973307        7.4453917493        5.7521514799
  N        -3.1961932702        7.4636577813        7.7486060313
 Ga        -3.1964669989        5.6181681476        8.3969482101
  N        -3.1961354541        5.6181053970       10.3710113482
 Ga        -3.1965534444        7.4584318751       11.0198391536
  N        -3.1967387893        7.4396002835       13.0142922840
 Ga        -3.2002221258        5.6192483792       13.8119847096
  N        -3.1992793745        5.6188170301       16.0220570764
 Ga        -3.1978225493        7.6582324835       16.4297401975
 Ga        -3.1958556896        9.3328815550        1.4412468764
  N        -4.6968182204       10.1987062793        2.4763974264
 Ga        -4.9019708539        8.3465717001        3.2409799863
  N        -4.8049241835        8.4026208231        5.2042593189
 Ga        -4.8293363054       10.2745382218        5.7522127031
  N        -4.8140593156       10.2659727458        7.7487420005
 Ga        -4.7949078834        8.4089450486        8.3882560066
  N        -4.7934469380        8.4099106189       10.3818498913
 Ga        -4.8191114472       10.2685865835       11.0204655385
  N        -4.8362999962       10.2782681885       13.0148289021
 Ga        -4.7946463802        8.4096083030       13.5715213251
  N        -4.8192131129        8.3957127321       15.5342270678
 Ga        -4.6457520505       10.1676748303       16.4298414723
  N        -3.1864825881        9.3342412710       17.5605707739
  N         3.2366988294        1.9044811482        2.5652006489
 Ga         3.2368216704        0.1613082621        3.2417209903
  N         3.2363674364        0.0485998107        5.2047980382
 Ga         3.2362996377        1.9044585141        5.8283067814
  N         3.2361737130        1.9044810274        7.8016678064
 Ga         3.2361666745        0.0363550378        8.3890816984
  N         3.2362769286        0.0351012790       10.3831109049
 Ga         3.2365174554        1.9046258992       10.9772272025
  N         3.2347622379        1.9049469805       12.9507306691
 Ga         3.2352386290        0.0348654419       13.5719383006
  N         3.2311599621        0.0661810043       15.5354998796
 Ga         3.2364405009        1.9047606876       15.8162236503
  N         1.5215390535        4.6280595164        2.4762186123
 Ga         1.7266158468        2.7761872277        3.2409942972
  N         1.6292540353        2.8318905360        5.2045354420
 Ga         1.6534922354        4.7036738741        5.7524633972
  N         1.6378453670        4.6951259298        7.7491908405
 Ga         1.6184809034        2.8384097203        8.3895572575
  N         1.6168919452        2.8394124327       10.3841818788
 Ga         1.6432580310        4.6988192995       11.0217747827
  N         1.6598150857        4.7092221233       13.0183645166
 Ga         1.6162697773        2.8399293910       13.5694922669
  N         1.6402830358        2.8251742060       15.5394432817
 Ga         1.4908838209        4.6125748962       16.4112270423
  N         0.0203787539        7.4748404526        2.5651258000
 Ga         0.0205117974        5.7314546032        3.2414266204
  N         0.0202462390        5.6188840650        5.2047844614
 Ga         0.0200859352        7.4748309656        5.8278811181
  N         0.0199032430        7.4748488723        7.8012356023
 Ga         0.0200287111        5.6069607937        8.3889561275
  N         0.0201714759        5.6055577360       10.3833659139
 Ga         0.0203874428        7.4755190820       10.9776653146
  N         0.0192779544        7.4744861637       12.9505821503
 Ga         0.0190738569        5.6066651006       13.5695503589
  N         0.0163616555        5.6345467263       15.5380352594
 Ga         0.0206325907        7.4781989731       15.8155010730
  N        -1.6947093610       10.1986214751        2.4765033896
 Ga        -1.4895739288        8.3464755999        3.2411192564
  N        -1.5870848380        8.4024948272        5.2044475255
 Ga        -1.5626130872       10.2743842415        5.7523682663
  N        -1.5782290134       10.2658200333        7.7487490928
 Ga        -1.5977780950        8.4090623263        8.3890385157
  N        -1.5988996477        8.4100162476       10.3830427744
 Ga        -1.5728824696       10.2690813009       11.0223100442
  N        -1.5564036167       10.2787110655       13.0172520049
 Ga        -1.5996162610        8.4097499496       13.5724522049
  N        -1.5752755836        8.3917407228       15.5368462010
 Ga        -1.7385800717       10.1748568237       16.4287952455
  N         6.4529299964        2.0281172133        2.4760987695
 Ga         6.4529066972        0.0476590832        2.8046785956
  N         6.4525494189        0.0470530474        4.9690348673
 Ga         6.4526635855        1.8745951809        5.7523848307
  N         6.4524470678        1.8929120624        7.7486968374
 Ga         6.4523197621        0.0475745351        8.3978324031
  N         6.4524464152        0.0474044220       10.3714893498
 Ga         6.4524685925        1.8870229437       11.0220426548
  N         6.4522465884        1.8679971015       13.0160002220
 Ga         6.4554548224        0.0472247873       13.8226598839
  N         6.4551086256        0.0472845735       16.0217595690
 Ga         6.4521002312        2.0868539525       16.4358947090
 Ga         6.4526480491        3.7617380490        1.4410308840
  N         4.9517475926        4.6278479150        2.4763600757
 Ga         4.7467047156        2.7758932134        3.2413336811
  N         4.8436930262        2.8317279902        5.2046796424
 Ga         4.8191279529        4.7036359859        5.7523160105
  N         4.8343386016        4.6950341021        7.7487239741
 Ga         4.8542308004        2.8382475563        8.3892912921
  N         4.8553587504        2.8389706825       10.3829102805
 Ga         4.8297723738        4.6982718675       11.0206083247
  N         4.8126204670        4.7085251721       13.0139511948
 Ga         4.8552686895        2.8403262924       13.5723465878
  N         4.8250368065        2.8263165245       15.5336366703
 Ga         5.0108636632        4.5947831160       16.4363766460
  N         6.4547326539        3.7529921739       17.5742443242
  N         3.2365277652        7.5986273392        2.4756291578
 Ga         3.2364017810        5.6181629141        2.8043422375
  N         3.2363320346        5.6174894541        4.9691581632
 Ga         3.2362626259        7.4451701728        5.7522389328
  N         3.2360301673        7.4634907525        7.7485487608
 Ga         3.2361936549        5.6182173809        8.3974770373
  N         3.2359742188        5.6182483197       10.3713518439
 Ga         3.2360766415        7.4585305447       11.0221445286
  N         3.2357696060        7.4403436183       13.0146766748
 Ga         3.2398821718        5.6230567711       13.8184088071
  N         3.2407598094        5.6217147115       16.0213269513
 Ga         3.2367312309        7.6775126183       16.4520218642
 Ga         3.2362449290        9.3327396582        1.4403824353
  N         1.7355119696       10.1985066718        2.4765283588
 Ga         1.5305463889        8.3463173396        3.2409872141
  N         1.6273722419        8.4022961067        5.2043760640
 Ga         1.6031078539       10.2742209041        5.7521742427
  N         1.6181693531       10.2657279167        7.7485242291
 Ga         1.6377285634        8.4090170117        8.3892132232
  N         1.6389407150        8.4098379052       10.3825325335
 Ga         1.6137846082       10.2686115278       11.0228203288
  N         1.5970528503       10.2780819633       13.0154693348
 Ga         1.6390955191        8.4103572395       13.5770727298
  N         1.6099535257        8.3925963721       15.5350228792
 Ga         1.8035605619       10.1589158244       16.4530290987
  N         3.2368667797        9.3298749653       17.6016556490
  N         9.6693372553        1.9042616385        2.5650939982
 Ga         9.6693293189        0.1609577675        3.2415188960
  N         9.6687807151        0.0483556544        5.2046036118
 Ga         9.6688236731        1.9042085876        5.8279765641
  N         9.6685943315        1.9042476223        7.8010839295
 Ga         9.6682752730        0.0361421361        8.3889970887
  N         9.6682389218        0.0350059823       10.3822215738
 Ga         9.6684426971        1.9039729801       10.9775857517
  N         9.6691681066        1.9049993409       12.9502460276
 Ga         9.6678440035        0.0345757460       13.5772413698
  N         9.6698551932        0.0684420990       15.5354868003
 Ga         9.6667607242        1.9025572413       15.8165666957
  N         7.9539163128        4.6278472253        2.4762165235
 Ga         8.1592608365        2.7757693140        3.2410005487
  N         8.0616508041        2.8316887845        5.2043719181
 Ga         8.0859113893        4.7035892617        5.7520920928
  N         8.0701256285        4.6948916103        7.7485124436
 Ga         8.0507797281        2.8380290532        8.3890510363
  N         8.0495597791        2.8385881893       10.3826096543
 Ga         8.0742006640        4.6977066306       11.0196003868
  N         8.0907156859        4.7077720962       13.0130978035
 Ga         8.0491900606        2.8396213235       13.5729648347
  N         8.0789347367        2.8265926760       15.5350092826
 Ga         7.8940173604        4.5949559284       16.4366285283
  N         6.4527576043        7.4747607394        2.5649765362
 Ga         6.4528201824        5.7314562578        3.2414110702
  N         6.4525388326        5.6187134680        5.2045843200
 Ga         6.4522506545        7.4747849153        5.8273869033
  N         6.4521489112        7.4747327251        7.8003978679
 Ga         6.4522285482        5.6068210407        8.3883709510
  N         6.4521393251        5.6056687672       10.3817374238
 Ga         6.4519313215        7.4750727584       10.9770521697
  N         6.4522207852        7.4752418705       12.9490556838
 Ga         6.4517074555        5.6061625695       13.5721146502
  N         6.4527418019        5.6369351812       15.5326525515
 Ga         6.4507759988        7.4758915128       15.8134982714
  N         4.7377068906       10.1984616321        2.4760261993
 Ga         4.9425234819        8.3463528829        3.2406832276
  N         4.8451475898        8.4023724432        5.2040926862
 Ga         4.8697706022       10.2741978849        5.7522593154
  N         4.8539087330       10.2655750576        7.7485290709
 Ga         4.8345093479        8.4086914694        8.3889204210
  N         4.8331081276        8.4095969439       10.3821211509
 Ga         4.8579353130       10.2681754660       11.0218307533
  N         4.8739885035       10.2774843951       13.0144263168
 Ga         4.8326378471        8.4097810153       13.5767941120
  N         4.8622505942        8.3937671676       15.5351779755
 Ga         4.6676233974       10.1573690634       16.4533422589

