 # Version information for this restart file 
 # current date 2019-05-25 04:55:27.575
 # current working dir /lustre03/project/6004141/rzk/GaN-carbene/00-Surface/00-Preoptimization/443-capped
 # Program compiled at                              Sun Apr  7 00:48:11 EDT 2019
 # Program compiled on                          beluga2.int.ets1.calculquebec.ca
 # Program compiled for                        Beluga-Linux-x86-64-intel-openmpi
 # Source code revision number                                         svn:18619
 &GLOBAL
   PRINT_LEVEL  MEDIUM
   PROJECT_NAME TEST
   RUN_TYPE  GEO_OPT
 &END GLOBAL
 &MOTION
   &CELL_OPT
     CONSTRAINT Z
     MAX_ITER  300
     KEEP_ANGLES T
     EXTERNAL_PRESSURE 1
     PRESSURE_TOLERANCE 500
     KEEP_SYMMETRY T
   &END
 &END MOTION
 &FORCE_EVAL
   METHOD  QS
   STRESS_TENSOR  ANALYTICAL
   &DFT
     UKS  T
     SURFACE_DIPOLE_CORRECTION  TRUE
     SURF_DIP_DIR               Z
     BASIS_SET_FILE_NAME BASIS_MOLOPT
     POTENTIAL_FILE_NAME GTH_POTENTIALS
     &SCF
       MAX_SCF  80
       EPS_SCF     5.0000000000000004E-06
       &OT  T
         PRECONDITIONER  FULL_ALL
       &END OT
       &OUTER_SCF  T
         OPTIMIZER  NONE
         EPS_SCF     5.0000000000000004E-06
         MAX_SCF  4
       &END OUTER_SCF
       &PRINT
         &RESTART  OFF
           BACKUP_COPIES  1
           &EACH
             JUST_ENERGY  0
             QS_SCF  0
             MD  20
           &END EACH
         &END RESTART
       &END PRINT
     &END SCF
     &QS
       EPS_DEFAULT     1.0000000000000000E-14
       METHOD  GPW
     &END QS
     &MGRID
       NGRIDS  5
       CUTOFF     1.2000000000000000E+03
     &END MGRID
     &XC
       DENSITY_CUTOFF     1.0000000000000000E-10
       GRADIENT_CUTOFF     1.0000000000000000E-10
       TAU_CUTOFF     1.0000000000000000E-10
       &XC_FUNCTIONAL  NO_SHORTCUT
         &PBE  T
         &END PBE
       &END XC_FUNCTIONAL
       &VDW_POTENTIAL
         POTENTIAL_TYPE  PAIR_POTENTIAL
         &PAIR_POTENTIAL
           R_CUTOFF     1.0000000000000002E+01
           TYPE  DFTD3
           PARAMETER_FILE_NAME dftd3.dat
           REFERENCE_FUNCTIONAL PBE
           EPS_CN     9.9999999999999995E-07
           CALCULATE_C9_TERM  T
           REFERENCE_C9_TERM  T
           LONG_RANGE_CORRECTION  F
           VERBOSE_OUTPUT  F
         &END PAIR_POTENTIAL
       &END VDW_POTENTIAL
     &END XC
   &END DFT
   &SUBSYS
     &CELL
       A     1.2864472766435110E+01    0.0000000000000000E+00    0.0000000000000000E+00
       B    -6.4322363581020028E+00    1.1140960178524471E+01    0.0000000000000000E+00
       #A     1.2982353780853531E+01    0.0000000000000000E+00    0.0000000000000000E+00
       #B    -6.4911768904267628E+00    1.1243048175136114E+01    0.0000000000000000E+00
       C     0.0000000000000000E+00    0.0000000000000000E+00    3.2000000000000000E+01
       MULTIPLE_UNIT_CELL  1 1 1
       &CELL_REF
         A     1.2982353780853531E+01    0.0000000000000000E+00    0.0000000000000000E+00
         B    -6.4911768904267628E+00    1.1243048175136114E+01    0.0000000000000000E+00
         C     0.0000000000000000E+00    0.0000000000000000E+00    3.2000000000000000E+01
         MULTIPLE_UNIT_CELL  1 1 1
       &END CELL_REF
     &END CELL
     &COORD
 N                 -0.00004327    1.87384803    2.59300000
 Ga                 0.00000000    0.00000000    3.21241584
 N                  0.00000000    0.00000000    5.18600000
 Ga                -0.00004327    1.87384803    5.80541584
 N                 -0.00004327    1.87384803    7.77900000
 Ga                 0.00000000    0.00000000    8.39841584
 N                  0.00000000    0.00000000   10.37200000
 Ga                -0.00004327    1.87384803   10.99141584
 N                 -0.00004327    1.87384803   12.96500000
 Ga                 0.00000000    0.00000000   13.58441584
 N                  0.00000000    0.00000000   15.55800000
 Ga                -0.00004327    1.87384803   16.17741584
 Ga                -0.02313620    3.76105376    1.89811978
 N                 -1.62286491    4.68465756    2.59300000
 Ga                -1.62280000    2.81077205    3.21241584
 N                 -1.62280000    2.81077205    5.18600000
 Ga                -1.62286491    4.68465756    5.80541584
 N                 -1.62286491    4.68465756    7.77900000
 Ga                -1.62280000    2.81077205    8.39841584
 N                 -1.62280000    2.81077205   10.37200000
 Ga                -1.62286491    4.68465756   10.99141584
 N                 -1.62286491    4.68465756   12.96500000
 Ga                -1.62280000    2.81077205   13.58441584
 N                 -1.62280000    2.81077205   15.55800000
 Ga                -1.62286491    4.68465756   16.17741584
 N                 -0.02313620    3.76105376   16.87229606
 N                 -3.24564327    7.49539213    2.59300000
 Ga                -3.24560000    5.62154410    3.21241584
 N                 -3.24560000    5.62154410    5.18600000
 Ga                -3.24564327    7.49539213    5.80541584
 N                 -3.24564327    7.49539213    7.77900000
 Ga                -3.24560000    5.62154410    8.39841584
 N                 -3.24560000    5.62154410   10.37200000
 Ga                -3.24564327    7.49539213   10.99141584
 N                 -3.24564327    7.49539213   12.96500000
 Ga                -3.24560000    5.62154410   13.58441584
 N                 -3.24560000    5.62154410   15.55800000
 Ga                -3.24564327    7.49539213   16.17741584
 Ga                -3.26873620    9.38259786    1.89811978
 N                 -4.86846491   10.30620166    2.59300000
 Ga                -4.86840000    8.43231615    3.21241584
 N                 -4.86840000    8.43231615    5.18600000
 Ga                -4.86846491   10.30620166    5.80541584
 N                 -4.86846491   10.30620166    7.77900000
 Ga                -4.86840000    8.43231615    8.39841584
 N                 -4.86840000    8.43231615   10.37200000
 Ga                -4.86846491   10.30620166   10.99141584
 N                 -4.86846491   10.30620166   12.96500000
 Ga                -4.86840000    8.43231615   13.58441584
 N                 -4.86840000    8.43231615   15.55800000
 Ga                -4.86846491   10.30620166   16.17741584
 N                 -3.26873620    9.38259786   16.87229606
 N                  3.24560000    1.87384803    2.59300000
 Ga                 3.24560000    0.00000000    3.21241584
 N                  3.24560000    0.00000000    5.18600000
 Ga                 3.24560000    1.87384803    5.80541584
 N                  3.24560000    1.87384803    7.77900000
 Ga                 3.24560000    0.00000000    8.39841584
 N                  3.24560000    0.00000000   10.37200000
 Ga                 3.24560000    1.87384803   10.99141584
 N                  3.24560000    1.87384803   12.96500000
 Ga                 3.24560000    0.00000000   13.58441584
 N                  3.24560000    0.00000000   15.55800000
 Ga                 3.24560000    1.87384803   16.17741584
 N                  1.62277836    4.68465756    2.59300000
 Ga                 1.62280000    2.81077205    3.21241584
 N                  1.62280000    2.81077205    5.18600000
 Ga                 1.62277836    4.68465756    5.80541584
 N                  1.62277836    4.68465756    7.77900000
 Ga                 1.62280000    2.81077205    8.39841584
 N                  1.62280000    2.81077205   10.37200000
 Ga                 1.62277836    4.68465756   10.99141584
 N                  1.62277836    4.68465756   12.96500000
 Ga                 1.62280000    2.81077205   13.58441584
 N                  1.62280000    2.81077205   15.55800000
 Ga                 1.62277836    4.68465756   16.17741584
 N                  0.00000000    7.49539213    2.59300000
 Ga                 0.00000000    5.62154410    3.21241584
 N                  0.00000000    5.62154410    5.18600000
 Ga                 0.00000000    7.49539213    5.80541584
 N                  0.00000000    7.49539213    7.77900000
 Ga                 0.00000000    5.62154410    8.39841584
 N                  0.00000000    5.62154410   10.37200000
 Ga                 0.00000000    7.49539213   10.99141584
 N                  0.00000000    7.49539213   12.96500000
 Ga                 0.00000000    5.62154410   13.58441584
 N                  0.00000000    5.62154410   15.55800000
 Ga                 0.00000000    7.49539213   16.17741584
 N                 -1.62282164   10.30620166    2.59300000
 Ga                -1.62280000    8.43231615    3.21241584
 N                 -1.62280000    8.43231615    5.18600000
 Ga                -1.62282164   10.30620166    5.80541584
 N                 -1.62282164   10.30620166    7.77900000
 Ga                -1.62280000    8.43231615    8.39841584
 N                 -1.62280000    8.43231615   10.37200000
 Ga                -1.62282164   10.30620166   10.99141584
 N                 -1.62282164   10.30620166   12.96500000
 Ga                -1.62280000    8.43231615   13.58441584
 N                 -1.62280000    8.43231615   15.55800000
 Ga                -1.62282164   10.30620166   16.17741584
 N                  6.49115673    1.87384803    2.59300000
 Ga                 6.49120000    0.00000000    3.21241584
 N                  6.49120000    0.00000000    5.18600000
 Ga                 6.49115673    1.87384803    5.80541584
 N                  6.49115673    1.87384803    7.77900000
 Ga                 6.49120000    0.00000000    8.39841584
 N                  6.49120000    0.00000000   10.37200000
 Ga                 6.49115673    1.87384803   10.99141584
 N                  6.49115673    1.87384803   12.96500000
 Ga                 6.49120000    0.00000000   13.58441584
 N                  6.49120000    0.00000000   15.55800000
 Ga                 6.49115673    1.87384803   16.17741584
 Ga                 6.46806380    3.76105376    1.89811978
 N                  4.86833509    4.68465756    2.59300000
 Ga                 4.86840000    2.81077205    3.21241584
 N                  4.86840000    2.81077205    5.18600000
 Ga                 4.86833509    4.68465756    5.80541584
 N                  4.86833509    4.68465756    7.77900000
 Ga                 4.86840000    2.81077205    8.39841584
 N                  4.86840000    2.81077205   10.37200000
 Ga                 4.86833509    4.68465756   10.99141584
 N                  4.86833509    4.68465756   12.96500000
 Ga                 4.86840000    2.81077205   13.58441584
 N                  4.86840000    2.81077205   15.55800000
 Ga                 4.86833509    4.68465756   16.17741584
 N                  6.46806380    3.76105376   16.87229606
 N                  3.24555673    7.49539213    2.59300000
 Ga                 3.24560000    5.62154410    3.21241584
 N                  3.24560000    5.62154410    5.18600000
 Ga                 3.24555673    7.49539213    5.80541584
 N                  3.24555673    7.49539213    7.77900000
 Ga                 3.24560000    5.62154410    8.39841584
 N                  3.24560000    5.62154410   10.37200000
 Ga                 3.24555673    7.49539213   10.99141584
 N                  3.24555673    7.49539213   12.96500000
 Ga                 3.24560000    5.62154410   13.58441584
 N                  3.24560000    5.62154410   15.55800000
 Ga                 3.24555673    7.49539213   16.17741584
 Ga                 3.22246380    9.38259786    1.89811978
 N                  1.62273509   10.30620166    2.59300000
 Ga                 1.62280000    8.43231615    3.21241584
 N                  1.62280000    8.43231615    5.18600000
 Ga                 1.62273509   10.30620166    5.80541584
 N                  1.62273509   10.30620166    7.77900000
 Ga                 1.62280000    8.43231615    8.39841584
 N                  1.62280000    8.43231615   10.37200000
 Ga                 1.62273509   10.30620166   10.99141584
 N                  1.62273509   10.30620166   12.96500000
 Ga                 1.62280000    8.43231615   13.58441584
 N                  1.62280000    8.43231615   15.55800000
 Ga                 1.62273509   10.30620166   16.17741584
 N                  3.22246380    9.38259786   16.87229606
 N                  9.73680000    1.87384803    2.59300000
 Ga                 9.73680000    0.00000000    3.21241584
 N                  9.73680000    0.00000000    5.18600000
 Ga                 9.73680000    1.87384803    5.80541584
 N                  9.73680000    1.87384803    7.77900000
 Ga                 9.73680000    0.00000000    8.39841584
 N                  9.73680000    0.00000000   10.37200000
 Ga                 9.73680000    1.87384803   10.99141584
 N                  9.73680000    1.87384803   12.96500000
 Ga                 9.73680000    0.00000000   13.58441584
 N                  9.73680000    0.00000000   15.55800000
 Ga                 9.73680000    1.87384803   16.17741584
 N                  8.11397836    4.68465756    2.59300000
 Ga                 8.11400000    2.81077205    3.21241584
 N                  8.11400000    2.81077205    5.18600000
 Ga                 8.11397836    4.68465756    5.80541584
 N                  8.11397836    4.68465756    7.77900000
 Ga                 8.11400000    2.81077205    8.39841584
 N                  8.11400000    2.81077205   10.37200000
 Ga                 8.11397836    4.68465756   10.99141584
 N                  8.11397836    4.68465756   12.96500000
 Ga                 8.11400000    2.81077205   13.58441584
 N                  8.11400000    2.81077205   15.55800000
 Ga                 8.11397836    4.68465756   16.17741584
 N                  6.49120000    7.49539213    2.59300000
 Ga                 6.49120000    5.62154410    3.21241584
 N                  6.49120000    5.62154410    5.18600000
 Ga                 6.49120000    7.49539213    5.80541584
 N                  6.49120000    7.49539213    7.77900000
 Ga                 6.49120000    5.62154410    8.39841584
 N                  6.49120000    5.62154410   10.37200000
 Ga                 6.49120000    7.49539213   10.99141584
 N                  6.49120000    7.49539213   12.96500000
 Ga                 6.49120000    5.62154410   13.58441584
 N                  6.49120000    5.62154410   15.55800000
 Ga                 6.49120000    7.49539213   16.17741584
 N                  4.86837836   10.30620166    2.59300000
 Ga                 4.86840000    8.43231615    3.21241584
 N                  4.86840000    8.43231615    5.18600000
 Ga                 4.86837836   10.30620166    5.80541584
 N                  4.86837836   10.30620166    7.77900000
 Ga                 4.86840000    8.43231615    8.39841584
 N                  4.86840000    8.43231615   10.37200000
 Ga                 4.86837836   10.30620166   10.99141584
 N                  4.86837836   10.30620166   12.96500000
 Ga                 4.86840000    8.43231615   13.58441584
 N                  4.86840000    8.43231615   15.55800000
 Ga                 4.86837836   10.30620166   16.17741584
     &END COORD

     &KIND N
       BASIS_SET DZVP-MOLOPT-SR-GTH
       POTENTIAL GTH-PBE-q5
     &END KIND

     &KIND Ga
       BASIS_SET DZVP-MOLOPT-SR-GTH
       POTENTIAL GTH-PBE-q13
     &END KIND

     &TOPOLOGY
       MULTIPLE_UNIT_CELL  1 1 1
     &END TOPOLOGY
   &END SUBSYS
 &END FORCE_EVAL
