 # Version information for this restart file 
 # current date 2019-06-24 02:51:35.213
 # current working dir /scratch/rzk/rzk/GaN-carbene/443-adatoms-both-2x2/01-Surface/01-GaN-NGa
 # Program compiled at                              Sun Apr  7 00:48:11 EDT 2019
 # Program compiled on                          beluga2.int.ets1.calculquebec.ca
 # Program compiled for                        Beluga-Linux-x86-64-intel-openmpi
 # Source code revision number                                         svn:18619
 &GLOBAL
   PRINT_LEVEL  MEDIUM
   PROJECT_NAME TEST
   RUN_TYPE  GEO_OPT
 &END GLOBAL
 &MOTION
   &GEO_OPT
     STEP_START_VAL  33
   &END GEO_OPT
   &CELL_OPT
     MAX_ITER  300
     EXTERNAL_PRESSURE     1.0000000000000000E+00
     KEEP_ANGLES  T
     KEEP_SYMMETRY  T
     CONSTRAINT  Z
     PRESSURE_TOLERANCE     5.0000000000000000E+02
   &END CELL_OPT
 &END MOTION
 &FORCE_EVAL
   METHOD  QS
   STRESS_TENSOR  ANALYTICAL
   &DFT
     BASIS_SET_FILE_NAME BASIS_MOLOPT
     POTENTIAL_FILE_NAME GTH_POTENTIALS
     UKS  T
     SURFACE_DIPOLE_CORRECTION  T
     SURF_DIP_DIR  Z
     &SCF
       MAX_SCF  80
       EPS_SCF     5.0000000000000004E-06
       &OT  T
         PRECONDITIONER  FULL_ALL
       &END OT
       &OUTER_SCF  T
         OPTIMIZER  NONE
         EPS_SCF     5.0000000000000004E-06
         MAX_SCF  4
       &END OUTER_SCF
       &PRINT
         &RESTART  OFF
           BACKUP_COPIES  1
           &EACH
             JUST_ENERGY  0
             QS_SCF  0
             MD  20
           &END EACH
         &END RESTART
       &END PRINT
     &END SCF
     &QS
       EPS_DEFAULT     1.0000000000000000E-14
       METHOD  GPW
     &END QS
     &MGRID
       NGRIDS  5
       CUTOFF     1.2000000000000000E+03
     &END MGRID
     &XC
       DENSITY_CUTOFF     1.0000000000000000E-10
       GRADIENT_CUTOFF     1.0000000000000000E-10
       TAU_CUTOFF     1.0000000000000000E-10
       &XC_FUNCTIONAL  NO_SHORTCUT
         &PBE  T
         &END PBE
       &END XC_FUNCTIONAL
       &VDW_POTENTIAL
         POTENTIAL_TYPE  PAIR_POTENTIAL
         &PAIR_POTENTIAL
           R_CUTOFF     1.0000000000000004E+01
           TYPE  DFTD3
           PARAMETER_FILE_NAME dftd3.dat
           REFERENCE_FUNCTIONAL PBE
           EPS_CN     9.9999999999999995E-07
           CALCULATE_C9_TERM  T
           REFERENCE_C9_TERM  T
           LONG_RANGE_CORRECTION  F
           VERBOSE_OUTPUT  F
         &END PAIR_POTENTIAL
       &END VDW_POTENTIAL
     &END XC
   &END DFT
   &SUBSYS
     &CELL
       A     1.2864472766435110E+01    0.0000000000000000E+00    0.0000000000000000E+00
       B    -6.4322363581020028E+00    1.1140960178524473E+01    0.0000000000000000E+00
       C     0.0000000000000000E+00    0.0000000000000000E+00    3.2000000000000000E+01
       MULTIPLE_UNIT_CELL  1 1 1
       &CELL_REF
         A     1.2982353780853531E+01    0.0000000000000000E+00    0.0000000000000000E+00
         B    -6.4911768904267628E+00    1.1243048175136114E+01    0.0000000000000000E+00
         C     0.0000000000000000E+00    0.0000000000000000E+00    3.2000000000000000E+01
         MULTIPLE_UNIT_CELL  1 1 1
       &END CELL_REF
     &END CELL
     &COORD
N    2.0667871436130598E-02    2.0283398604139045E+00    2.4755360367582120E+00
Ga    2.0331557168835685E-02    4.8006064599470377E-02    2.8033536988690724E+00
N    2.0351187245943425E-02    4.7397495263270133E-02    4.9690441663724023E+00
Ga    2.0369538069835141E-02    1.8748268949915941E+00    5.7518796685793676E+00
N    2.0196917526954659E-02    1.8933506644353006E+00    7.7489331010961768E+00
Ga    1.9641076639945788E-02    4.7680973207452793E-02    8.3968698537690951E+00
N    1.9519503220484322E-02    4.7759503908678065E-02    1.0371173330156372E+01
Ga    1.9665251963549152E-02    1.8869144986750137E+00    1.1021277207286088E+01
N    1.9353660963906848E-02    1.8674861602428858E+00    1.3018356260557589E+01
Ga    1.6724288406258597E-02    4.2740538007034756E-02    1.3816563907995704E+01
N    1.8840383330240573E-02    4.3144098437772518E-02    1.6022794037229726E+01
Ga    1.8627241399719132E-02    2.0640708003098172E+00    1.6412990637124928E+01
Ga    2.0203784754683003E-02    3.7620947636370836E+00    1.4387439912013098E+00
N   -1.4806091850836709E+00    4.6280635970496826E+00    2.4759932711715709E+00
Ga   -1.6852071025777091E+00    2.7761911309366294E+00    3.2402683099511669E+00
N   -1.5884071890323079E+00    2.8319764978284598E+00    5.2039309851224314E+00
Ga   -1.6130433400329143E+00    4.7037909282132473E+00    5.7516758534320971E+00
N   -1.5978833908019299E+00    4.6953246315299761E+00    7.7488093744729660E+00
Ga   -1.5783338596982031E+00    2.8383754389407687E+00    8.3885517581661819E+00
N   -1.5767526769531774E+00    2.8393256690672226E+00    1.0383132621812090E+01
Ga   -1.6029477386670956E+00    4.6982946826808938E+00    1.1019869851089709E+01
N   -1.6203061148890614E+00    4.7084860270608564E+00    1.3016393905793118E+01
Ga   -1.5783384526698150E+00    2.8396683765583708E+00    1.3569653192276444E+01
N   -1.6021820808046785E+00    2.8281784649109496E+00    1.5538415118185361E+01
Ga   -1.4443318439075346E+00    4.6068982281094746E+00    1.6412887751015962E+01
N    2.8516387243710556E-02    3.7588817833732482E+00    1.7532072072587294E+01
N   -3.1957535805019663E+00    7.5988250788569616E+00    2.4756052927748899E+00
Ga   -3.1957548521687640E+00    5.6182194677944146E+00    2.8035040342292641E+00
N   -3.1957770758925781E+00    5.6177633039023105E+00    4.9687412775643978E+00
Ga   -3.1961585522227409E+00    7.4454417532349888E+00    5.7514870284506001E+00
N   -3.1962404830504103E+00    7.4637198447833359E+00    7.7483138969975789E+00
Ga   -3.1964861479911413E+00    5.6182395824459528E+00    8.3965767209798639E+00
N   -3.1961621454929041E+00    5.6181475375332957E+00    1.0371030271996689E+01
Ga   -3.1966048300211911E+00    7.4584493415223259E+00    1.1019760118034331E+01
N   -3.1968063542536465E+00    7.4395839500347538E+00    1.3014836108081411E+01
Ga   -3.2003897939299142E+00    5.6190372553373953E+00    1.3812122576346704E+01
N   -3.1994872079880348E+00    5.6184785226870160E+00    1.6022523956700184E+01
Ga   -3.1978421013152865E+00    7.6576656398626328E+00    1.6429454551619155E+01
Ga   -3.1958375529182779E+00    9.3329468132158251E+00    1.4396672703120597E+00
N   -4.6966888776540818E+00    1.0198701480394814E+01    2.4761458442647117E+00
Ga   -4.9017803102378057E+00    8.3465967786224358E+00    3.2401569904483365E+00
N   -4.8049446534263041E+00    8.4026730900089959E+00    5.2036857684527176E+00
Ga   -4.8293255455041546E+00    1.0274567529354123E+01    5.7515418667839047E+00
N   -4.8139927304326271E+00    1.0265980383697512E+01    7.7484499820315715E+00
Ga   -4.7949189695380587E+00    8.4090143359518539E+00    8.3879081573190035E+00
N   -4.7934434565078412E+00    8.4099563172876284E+00    1.0381862522400452E+01
Ga   -4.8191408922921202E+00    1.0268626198109557E+01    1.1020204571663871E+01
N   -4.8361432294135538E+00    1.0278238948875988E+01    1.3015146756089202E+01
Ga   -4.7948599761971975E+00    8.4095174167876632E+00    1.3571605217992449E+01
N   -4.8190945657694693E+00    8.3957081026571174E+00    1.5534803114704395E+01
Ga   -4.6457450378424081E+00    1.0167799274752699E+01    1.6429422467430360E+01
N   -3.1863702559700613E+00    9.3340256850682817E+00    1.7559621796311298E+01
N    3.2367548121074106E+00    1.9044361236744713E+00    2.5654999160360470E+00
Ga    3.2369221462961124E+00    1.6121251113415813E-01    3.2409652852802875E+00
N    3.2363457656654941E+00    4.8665032166157259E-02    5.2042299770803417E+00
Ga    3.2362931960433463E+00    1.9044965790531645E+00    5.8276566886969192E+00
N    3.2361919793999587E+00    1.9045071603271033E+00    7.8013103351184556E+00
Ga    3.2361383331154494E+00    3.6412811457516965E-02    8.3886767192736453E+00
N    3.2362778821054778E+00    3.5169782237092308E-02    1.0383132824725619E+01
Ga    3.2365340412590289E+00    1.9047417746262467E+00    1.0977079766029748E+01
N    3.2346561859699934E+00    1.9052032899642704E+00    1.2951114676363678E+01
Ga    3.2352577691729745E+00    3.5225171100605641E-02    1.3571958716681882E+01
N    3.2311921642373065E+00    6.6312876498520718E-02    1.5535937423557131E+01
Ga    3.2360376134271185E+00    1.9051455712199739E+00    1.5816062094827616E+01
N    1.5215324849657603E+00    4.6280774526372559E+00    2.4759375665633914E+00
Ga    1.7265653625993358E+00    2.7762480840650832E+00    3.2401310080171566E+00
N    1.6292472214784994E+00    2.8319014836901850E+00    5.2039482140209525E+00
Ga    1.6534712632762278E+00    4.7036918214538428E+00    5.7517477680233604E+00
N    1.6377746674811260E+00    4.6951175103021425E+00    7.7488625252742658E+00
Ga    1.6185336617492119E+00    2.8384358824742058E+00    8.3891714013981815E+00
N    1.6168648258833704E+00    2.8395175977945710E+00    1.0384174237558272E+01
Ga    1.6433716496596369E+00    4.6988860488723185E+00    1.1021557672436943E+01
N    1.6599537576862440E+00    4.7090586672471755E+00    1.3018623641407160E+01
Ga    1.6161697761942009E+00    2.8399538820659425E+00    1.3569668062383467E+01
N    1.6398963445878116E+00    2.8252580329133186E+00    1.5540081574719629E+01
Ga    1.4914060036365289E+00    4.6128013919507387E+00    1.6411867850807379E+01
N    2.0374124486177276E-02    7.4748383843902868E+00    2.5654582094645177E+00
Ga    2.0539875946132918E-02    5.7313737241970752E+00    3.2406100200313830E+00
N    2.0226649722395067E-02    5.6189343227475765E+00    5.2042073584330515E+00
Ga    2.0059809432976174E-02    7.4748742728271260E+00    5.8271779502621621E+00
N    1.9777331391505094E-02    7.4748458910603297E+00    7.8008825923117842E+00
Ga    2.0025462560051163E-02    5.6069954454481437E+00    8.3885920510590477E+00
N    2.0185449690367133E-02    5.6055385484858924E+00    1.0383454034475792E+01
Ga    2.0370369344573227E-02    7.4755289902076081E+00    1.0977503645223077E+01
N    1.9382105721054133E-02    7.4742520411162445E+00    1.2951096007200118E+01
Ga    1.9115549546359609E-02    5.6062814827475567E+00    1.3569510408097615E+01
N    1.6255357328985667E-02    5.6337907215336891E+00    1.5538409247514076E+01
Ga    2.0622590266504610E-02    7.4776827888180799E+00    1.5815437566978801E+01
N   -1.6946982546317595E+00    1.0198637761498123E+01    2.4762094160630399E+00
Ga   -1.4897224189741043E+00    8.3464840978332031E+00    3.2402346878076926E+00
N   -1.5871370273599215E+00    8.4025099931675395E+00    5.2038760231844519E+00
Ga   -1.5626042958247257E+00    1.0274378463504060E+01    5.7516655400078811E+00
N   -1.5782985110493939E+00    1.0265802393031697E+01    7.7483863311033891E+00
Ga   -1.5978653917289327E+00    8.4091098732016647E+00    8.3886547662299797E+00
N   -1.5989447580568794E+00    8.4099947096221292E+00    1.0383081654412615E+01
Ga   -1.5728287274281232E+00    1.0269096338008072E+01    1.1022096481148647E+01
N   -1.5564487288595807E+00    1.0278706017820287E+01    1.3017636256734411E+01
Ga   -1.5995534076250966E+00    8.4097214627778918E+00    1.3572579336481413E+01
N   -1.5752263131980204E+00    8.3916751891659302E+00    1.5537656530846737E+01
Ga   -1.7383138332129002E+00    1.0175187424973853E+01    1.6428630266152719E+01
N    6.4529971844861453E+00    2.0281230812417990E+00    2.4758636087795662E+00
Ga    6.4529804596003171E+00    4.7590567586330790E-02    2.8040067226909162E+00
N    6.4525884335184758E+00    4.6989703869022272E-02    4.9686587488652414E+00
Ga    6.4527183070059433E+00    1.8745414118765269E+00    5.7516332857678041E+00
N    6.4524650628101679E+00    1.8929813502624231E+00    7.7483043125036399E+00
Ga    6.4522373410100871E+00    4.7591079355803118E-02    8.3973479354499467E+00
N    6.4524108658277282E+00    4.7458023022545127E-02    1.0371357808514217E+01
Ga    6.4525110000587080E+00    1.8870306157311767E+00    1.1021914060395600E+01
N    6.4522105509054795E+00    1.8680894056796273E+00    1.3016198417486260E+01
Ga    6.4556172689155096E+00    4.7403915135197185E-02    1.3822548411760121E+01
N    6.4550930240549604E+00    4.7714254161193327E-02    1.6022322822609752E+01
Ga    6.4520114598186229E+00    2.0876981336040776E+00    1.6436389933274256E+01
Ga    6.4525926028238629E+00    3.7617927684866452E+00    1.4395422826705095E+00
N    4.9518113450222394E+00    4.6278071664667442E+00    2.4761652145537716E+00
Ga    4.7468816998926036E+00    2.7758982778071308E+00    3.2405028605667030E+00
N    4.8437301787154023E+00    2.8317111621349107E+00    5.2041186337603715E+00
Ga    4.8191467309934497E+00    4.7036459165684725E+00    5.7515704886104775E+00
N    4.8343768027700040E+00    4.6949719617353436E+00    7.7483565347819194E+00
Ga    4.8542207511849123E+00    2.8382195043333742E+00    8.3889645347598343E+00
N    4.8554131783119896E+00    2.8390073354863206E+00    1.0382935991018712E+01
Ga    4.8297766528061850E+00    4.6983142503788580E+00    1.1020418966651750E+01
N    4.8127600943474524E+00    4.7083904870946238E+00    1.3014101795619579E+01
Ga    4.8553675189600769E+00    2.8403215716187953E+00    1.3572488556942035E+01
N    4.8248067619368253E+00    2.8261183377340902E+00    1.5533888802115328E+01
Ga    5.0111922900249439E+00    4.5945222387318250E+00    1.6436390180876582E+01
N    6.4547587458172542E+00    3.7534058797409560E+00    1.7574032345183323E+01
N    3.2365551760570623E+00    7.5986043944311739E+00    2.4753982505852576E+00
Ga    3.2364005264731328E+00    5.6180887745369468E+00    2.8036785781246727E+00
N    3.2363161985517919E+00    5.6174836396847825E+00    4.9686979216636216E+00
Ga    3.2362300903501038E+00    7.4451943248267014E+00    5.7515733169842029E+00
N    3.2359832554974295E+00    7.4634823479132431E+00    7.7482827595618033E+00
Ga    3.2361709494358433E+00    5.6181574320611505E+00    8.3970308452936635E+00
N    3.2359892620962660E+00    5.6182603123978980E+00    1.0371222198146032E+01
Ga    3.2361195174070572E+00    7.4584937845696491E+00    1.1021905186060275E+01
N    3.2359576988193504E+00    7.4401855665312358E+00    1.3014825629616832E+01
Ga    3.2401333135533896E+00    5.6228852288742743E+00    1.3818327528918370E+01
N    3.2408726406679151E+00    5.6212035889051197E+00    1.6021925336110392E+01
Ga    3.2368074781075262E+00    7.6764221551644729E+00    1.6452270829868215E+01
Ga    3.2362822504180468E+00    9.3328096129578402E+00    1.4388457808032877E+00
N    1.7356567721330625E+00    1.0198474441424008E+01    2.4763350212245783E+00
Ga    1.5307367210277627E+00    8.3462534006454696E+00    3.2401199972317736E+00
N    1.6273453223855363E+00    8.4022751081645843E+00    5.2037770276655468E+00
Ga    1.6031550156203720E+00    1.0274198040802654E+01    5.7514405165110718E+00
N    1.6181687859372997E+00    1.0265678879553017E+01    7.7482188393296791E+00
Ga    1.6376352987813128E+00    8.4089791873875388E+00    8.3888087912431626E+00
N    1.6389306139933475E+00    8.4098127675400658E+00    1.0382549751341664E+01
Ga    1.6138080229552394E+00    1.0268629539601974E+01    1.1022464538142165E+01
N    1.5970984124363912E+00    1.0278127760645228E+01    1.3015458517162422E+01
Ga    1.6393566077534862E+00    8.4104208018748885E+00    1.3577293185742263E+01
N    1.6104493131098456E+00    8.3929233167893962E+00    1.5535993356477713E+01
Ga    1.8028211046611182E+00    1.0159437638155381E+01    1.6453150778257662E+01
N    3.2372643433268307E+00    9.3296251933071659E+00    1.7600463351573026E+01
N    9.6693390389281024E+00    1.9041243098962983E+00    2.5652690386341148E+00
Ga    9.6694159879118935E+00    1.6084894303273881E-01    3.2408419156040686E+00
N    9.6688005074081040E+00    4.8398400269998400E-02    5.2040810155156212E+00
Ga    9.6688764542660337E+00    1.9041927284161788E+00    5.8273751173510711E+00
N    9.6686122340146365E+00    1.9042923236452332E+00    7.8007915521650242E+00
Ga    9.6682561577661925E+00    3.6148479373480022E-02    8.3885473273620939E+00
N    9.6682492613743811E+00    3.5049982757086165E-02    1.0382165495726085E+01
Ga    9.6684263777328905E+00    1.9040022967451244E+00    1.0977532122322767E+01
N    9.6692754864198474E+00    1.9051291679764690E+00    1.2950878286189615E+01
Ga    9.6679574996711057E+00    3.4463923821624227E-02    1.3577447791415807E+01
N    9.6698563233567398E+00    6.7861370780742461E-02    1.5536353690526104E+01
Ga    9.6668302878563530E+00    1.9028230688237298E+00    1.5816552099890721E+01
N    7.9539388531118753E+00    4.6278025812413910E+00    2.4759812352628394E+00
Ga    8.1592291737920402E+00    2.7757429113560543E+00    3.2401137838089067E+00
N    8.0617182733705892E+00    2.8316711560322547E+00    5.2038013161717247E+00
Ga    8.0859650336187592E+00    4.7035939882893372E+00    5.7513392409555237E+00
N    8.0700964342506900E+00    4.6948589010941895E+00    7.7481427049248941E+00
Ga    8.0507889929796832E+00    2.8380570586586713E+00    8.3887098981585684E+00
N    8.0495895069560710E+00    2.8386324386780508E+00    1.0382652738446069E+01
Ga    8.0741513179834552E+00    4.6976733001211564E+00    1.1019630397036074E+01
N    8.0906680717877073E+00    4.7077248520209443E+00    1.3013432184588774E+01
Ga    8.0489857078438334E+00    2.8397127414641141E+00    1.3573225104772330E+01
N    8.0790927975180917E+00    2.8264628771930775E+00    1.5535541408243398E+01
Ga    7.8937382607343389E+00    4.5948046513303389E+00    1.6437030898874546E+01
N    6.4527140225644581E+00    7.4746532364926255E+00    2.5652360735541366E+00
Ga    6.4528640055941073E+00    5.7313096833199317E+00    3.2406338101062273E+00
N    6.4525713777383533E+00    5.6187425570206946E+00    5.2040741120193683E+00
Ga    6.4522135179799509E+00    7.4748228785891149E+00    5.8267801957494427E+00
N    6.4521782421348508E+00    7.4746690648983360E+00    7.8000718855501132E+00
Ga    6.4522463301418647E+00    5.6067825082089726E+00    8.3880433395807810E+00
N    6.4521791763350071E+00    5.6055969548362539E+00    1.0381753183614961E+01
Ga    6.4518723978619192E+00    7.4750277668226452E+00    1.0976893026773924E+01
N    6.4521280594862853E+00    7.4751397169335085E+00    1.2949319877098681E+01
Ga    6.4517344283207256E+00    5.6060309556784107E+00    1.3572227678190263E+01
N    6.4528713184150197E+00    5.6369710456392177E+00    1.5532959167858378E+01
Ga    6.4506864135881283E+00    7.4756617185919332E+00    1.5813966047903747E+01
N    4.7377449024376537E+00    1.0198429911174218E+01    2.4757406765331678E+00
Ga    4.9423857704000298E+00    8.3462464030127013E+00    3.2398462402243724E+00
N    4.8451208106937260E+00    8.4023786715879556E+00    5.2035584274695488E+00
Ga    4.8697818715724557E+00    1.0274139331791412E+01    5.7516476823101925E+00
N    4.8538539315095823E+00    1.0265513538316281E+01    7.7482703952023932E+00
Ga    4.8345373647416263E+00    8.4086567727955170E+00    8.3884953098875403E+00
N    4.8330516554834135E+00    8.4095767664388923E+00    1.0382003436887263E+01
Ga    4.8578895859623357E+00    1.0268058288982465E+01    1.1021598797281937E+01
N    4.8741226462402123E+00    1.0277385712297098E+01    1.3014474883926825E+01
Ga    4.8326733506950834E+00    8.4098235518125293E+00    1.3577195780328999E+01
N    4.8619717927955257E+00    8.3939596901713216E+00    1.5536440367923371E+01
Ga    4.6685822482454409E+00    1.0157973246867568E+01    1.6453524508966151E+01
     &END COORD
     &KIND N
       BASIS_SET DZVP-MOLOPT-SR-GTH
       POTENTIAL GTH-PBE-q5
       &POTENTIAL
 2 3
  0.2837905100000000E+00 2 -0.1241522559000000E+02  0.1868095920000000E+01
 2
  0.2554050000000000E+00 1  0.1363026257000000E+02
  0.2454945300000000E+00 0
         # Potential name:  GTH-PBE-Q5  for symbol:  N
         # Potential read from the potential filename: GTH_POTENTIALS
       &END POTENTIAL
     &END KIND
     &KIND Ga
       BASIS_SET DZVP-MOLOPT-SR-GTH
       POTENTIAL GTH-PBE-q13
       &POTENTIAL
 2 1 10
  0.4900000000000000E+00 0
 3
  0.4167772300000000E+00 3  0.1047568975000000E+02 -0.4921768140000000E+01  0.8707055900000000E+00
  0.7770178090000000E+01 -0.2248152160000000E+01
  0.1784415450000000E+01
  0.5696265200000000E+00 2  0.1777985340000000E+01  0.1958597600000000E+00
 -0.2317443900000000E+00
  0.2381265000000000E+00 1 -0.1624868022000000E+02
         # Potential name:  GTH-PBE-Q13  for symbol:  GA
         # Potential read from the potential filename: GTH_POTENTIALS
       &END POTENTIAL
     &END KIND
     &TOPOLOGY
       NUMBER_OF_ATOMS  200
       MULTIPLE_UNIT_CELL  1 1 1
     &END TOPOLOGY
   &END SUBSYS
 &END FORCE_EVAL
