 # Version information for this restart file 
 # current date 2019-06-24 02:53:22.499
 # current working dir /scratch/rzk/rzk/GaN-carbene/443-adatoms-both-2x2/01-Surface/01-GaN-NGa
 # Program compiled at                              Sun Apr  7 00:48:11 EDT 2019
 # Program compiled on                          beluga2.int.ets1.calculquebec.ca
 # Program compiled for                        Beluga-Linux-x86-64-intel-openmpi
 # Source code revision number                                         svn:18619
 &GLOBAL
   PRINT_LEVEL  MEDIUM
   PROJECT_NAME TEST
   RUN_TYPE  GEO_OPT
 &END GLOBAL
 &MOTION
   &GEO_OPT
     STEP_START_VAL  34
   &END GEO_OPT
   &CELL_OPT
     MAX_ITER  300
     EXTERNAL_PRESSURE     1.0000000000000000E+00
     KEEP_ANGLES  T
     KEEP_SYMMETRY  T
     CONSTRAINT  Z
     PRESSURE_TOLERANCE     5.0000000000000000E+02
   &END CELL_OPT
 &END MOTION
 &FORCE_EVAL
   METHOD  QS
   STRESS_TENSOR  ANALYTICAL
   &DFT
     BASIS_SET_FILE_NAME BASIS_MOLOPT
     POTENTIAL_FILE_NAME GTH_POTENTIALS
     UKS  T
     SURFACE_DIPOLE_CORRECTION  T
     SURF_DIP_DIR  Z
     &SCF
       MAX_SCF  80
       EPS_SCF     5.0000000000000004E-06
       &OT  T
         PRECONDITIONER  FULL_ALL
       &END OT
       &OUTER_SCF  T
         OPTIMIZER  NONE
         EPS_SCF     5.0000000000000004E-06
         MAX_SCF  4
       &END OUTER_SCF
       &PRINT
         &RESTART  OFF
           BACKUP_COPIES  1
           &EACH
             JUST_ENERGY  0
             QS_SCF  0
             MD  20
           &END EACH
         &END RESTART
       &END PRINT
     &END SCF
     &QS
       EPS_DEFAULT     1.0000000000000000E-14
       METHOD  GPW
     &END QS
     &MGRID
       NGRIDS  5
       CUTOFF     1.2000000000000000E+03
     &END MGRID
     &XC
       DENSITY_CUTOFF     1.0000000000000000E-10
       GRADIENT_CUTOFF     1.0000000000000000E-10
       TAU_CUTOFF     1.0000000000000000E-10
       &XC_FUNCTIONAL  NO_SHORTCUT
         &PBE  T
         &END PBE
       &END XC_FUNCTIONAL
       &VDW_POTENTIAL
         POTENTIAL_TYPE  PAIR_POTENTIAL
         &PAIR_POTENTIAL
           R_CUTOFF     1.0000000000000004E+01
           TYPE  DFTD3
           PARAMETER_FILE_NAME dftd3.dat
           REFERENCE_FUNCTIONAL PBE
           EPS_CN     9.9999999999999995E-07
           CALCULATE_C9_TERM  T
           REFERENCE_C9_TERM  T
           LONG_RANGE_CORRECTION  F
           VERBOSE_OUTPUT  F
         &END PAIR_POTENTIAL
       &END VDW_POTENTIAL
     &END XC
   &END DFT
   &SUBSYS
     &CELL
       A     1.2864472766435110E+01    0.0000000000000000E+00    0.0000000000000000E+00
       B    -6.4322363581020028E+00    1.1140960178524473E+01    0.0000000000000000E+00
       C     0.0000000000000000E+00    0.0000000000000000E+00    3.2000000000000000E+01
       MULTIPLE_UNIT_CELL  1 1 1
       &CELL_REF
         A     1.2982353780853531E+01    0.0000000000000000E+00    0.0000000000000000E+00
         B    -6.4911768904267628E+00    1.1243048175136114E+01    0.0000000000000000E+00
         C     0.0000000000000000E+00    0.0000000000000000E+00    3.2000000000000000E+01
         MULTIPLE_UNIT_CELL  1 1 1
       &END CELL_REF
     &END CELL
     &COORD
N    2.0633889864593444E-02    2.0282730902023549E+00    2.4758438208590889E+00
Ga    2.0278240151987922E-02    4.7988388224037400E-02    2.8039728481698201E+00
N    2.0314850236736379E-02    4.7338735294930087E-02    4.9693135738592140E+00
Ga    2.0361798065858396E-02    1.8748069382096562E+00    5.7525274795198467E+00
N    2.0169688887467892E-02    1.8931931739940928E+00    7.7492172845065017E+00
Ga    1.9625373881807549E-02    4.7559997816245120E-02    8.3973670795017199E+00
N    1.9572194867625722E-02    4.7656709688549730E-02    1.0371318991493302E+01
Ga    1.9639207200890491E-02    1.8868705584167129E+00    1.1021453899461646E+01
N    1.9215540246934865E-02    1.8675072577302916E+00    1.3018087222653625E+01
Ga    1.6649399035477960E-02    4.2782477658625778E-02    1.3816554934464728E+01
N    1.8673162511828000E-02    4.2737819303385133E-02    1.6022363572843307E+01
Ga    1.8746114003562860E-02    2.0643526652496891E+00    1.6412315274517979E+01
Ga    2.0293006996144700E-02    3.7620393418024332E+00    1.4401088349498290E+00
N   -1.4806448151538809E+00    4.6280641818893775E+00    2.4762719622047538E+00
Ga   -1.6853316221656738E+00    2.7761065047396585E+00    3.2410706712068871E+00
N   -1.5884590876147711E+00    2.8319381141517139E+00    5.2045223884241780E+00
Ga   -1.6130606527665157E+00    4.7037613923655899E+00    5.7523593302604139E+00
N   -1.5978913514849333E+00    4.6952823220785334E+00    7.7490812084253653E+00
Ga   -1.5783925517166484E+00    2.8383120954704153E+00    8.3888848128278717E+00
N   -1.5768040056608219E+00    2.8392338283578780E+00    1.0383061156473516E+01
Ga   -1.6029001703208254E+00    4.6982156631876295E+00    1.1020088625353301E+01
N   -1.6202343228358420E+00    4.7084643604963885E+00    1.3016223608191275E+01
Ga   -1.5785690657157394E+00    2.8395548896391429E+00    1.3569636057674829E+01
N   -1.6026148141664529E+00    2.8276448696651011E+00    1.5538086650100384E+01
Ga   -1.4435757939254974E+00    4.6065092408776698E+00    1.6412513105263049E+01
N    2.8458388837658496E-02    3.7587328593640690E+00    1.7531930021067428E+01
N   -3.1957663195781096E+00    7.5988126102495324E+00    2.4758409373931927E+00
Ga   -3.1957510750282827E+00    5.6182209418675386E+00    2.8041332577843665E+00
N   -3.1958400596298118E+00    5.6177170088491959E+00    4.9691197979804613E+00
Ga   -3.1960973307193297E+00    7.4453917492931083E+00    5.7521514799214719E+00
N   -3.1961932702418587E+00    7.4636577812730112E+00    7.7486060312785634E+00
Ga   -3.1964669988781034E+00    5.6181681476372987E+00    8.3969482101065811E+00
N   -3.1961354541397231E+00    5.6181053970267971E+00    1.0371011348211121E+01
Ga   -3.1965534444301023E+00    7.4584318750861032E+00    1.1019839153630128E+01
N   -3.1967387893052632E+00    7.4396002834745980E+00    1.3014292284004954E+01
Ga   -3.2002221258253698E+00    5.6192483792033148E+00    1.3811984709560507E+01
N   -3.1992793745140471E+00    5.6188170300865661E+00    1.6022057076358536E+01
Ga   -3.1978225492835413E+00    7.6582324834820792E+00    1.6429740197508622E+01
Ga   -3.1958556896159340E+00    9.3328815549504469E+00    1.4412468764176669E+00
N   -4.6968182203580495E+00    1.0198706279320611E+01    2.4763974263607849E+00
Ga   -4.9019708539329372E+00    8.3465717001177371E+00    3.2409799863277247E+00
N   -4.8049241835118179E+00    8.4026208231242450E+00    5.2042593188994708E+00
Ga   -4.8293363054181748E+00    1.0274538221785935E+01    5.7522127030965633E+00
N   -4.8140593155940472E+00    1.0265972745804346E+01    7.7487420005435883E+00
Ga   -4.7949078834419536E+00    8.4089450486122708E+00    8.3882560065856442E+00
N   -4.7934469380160190E+00    8.4099106188651795E+00    1.0381849891305290E+01
Ga   -4.8191114471985150E+00    1.0268586583481330E+01    1.1020465538547311E+01
N   -4.8362999961777327E+00    1.0278268188501006E+01    1.3014828902063659E+01
Ga   -4.7946463801845525E+00    8.4096083029818782E+00    1.3571521325066229E+01
N   -4.8192131128744133E+00    8.3957127320540597E+00    1.5534227067774225E+01
Ga   -4.6457520505293024E+00    1.0167674830347194E+01    1.6429841472262776E+01
N   -3.1864825880942820E+00    9.3342412710327256E+00    1.7560570773864487E+01
N    3.2366988294474739E+00    1.9044811482345199E+00    2.5652006488970911E+00
Ga    3.2368216703647863E+00    1.6130826213060218E-01    3.2417209902575155E+00
N    3.2363674364241253E+00    4.8599810650519472E-02    5.2047980381873984E+00
Ga    3.2362996376901640E+00    1.9044585140764358E+00    5.8283067813667984E+00
N    3.2361737129531143E+00    1.9044810273694968E+00    7.8016678064433878E+00
Ga    3.2361666745088318E+00    3.6355037765281539E-02    8.3890816984220518E+00
N    3.2362769285836435E+00    3.5101279000766997E-02    1.0383110904863241E+01
Ga    3.2365174554197811E+00    1.9046258992188279E+00    1.0977227202549104E+01
N    3.2347622379379373E+00    1.9049469805147892E+00    1.2950730669146656E+01
Ga    3.2352386290280428E+00    3.4865441894137525E-02    1.3571938300574317E+01
N    3.2311599621361315E+00    6.6181004255128420E-02    1.5535499879625741E+01
Ga    3.2364405009362334E+00    1.9047606875964496E+00    1.5816223650337667E+01
N    1.5215390535477595E+00    4.6280595163728631E+00    2.4762186123264289E+00
Ga    1.7266158467602351E+00    2.7761872276678861E+00    3.2409942972196282E+00
N    1.6292540352676785E+00    2.8318905360141651E+00    5.2045354420098562E+00
Ga    1.6534922353643975E+00    4.7036738741423818E+00    5.7524633972078014E+00
N    1.6378453670328734E+00    4.6951259297613115E+00    7.7491908405076027E+00
Ga    1.6184809034231797E+00    2.8384097202920557E+00    8.3895572575256292E+00
N    1.6168919452171930E+00    2.8394124327056454E+00    1.0384181878795067E+01
Ga    1.6432580310191134E+00    4.6988192994681812E+00    1.1021774782729191E+01
N    1.6598150857019334E+00    4.7092221233307576E+00    1.3018364516553046E+01
Ga    1.6162697772691377E+00    2.8399293909980434E+00    1.3569492266927380E+01
N    1.6402830357511773E+00    2.8251742059994513E+00    1.5539443281723312E+01
Ga    1.4908838208833854E+00    4.6125748961937934E+00    1.6411227042320292E+01
N    2.0378753865423562E-02    7.4748404525688388E+00    2.5651257999987416E+00
Ga    2.0511797395028702E-02    5.7314546032474381E+00    3.2414266204008189E+00
N    2.0246238961923024E-02    5.6188840650086513E+00    5.2047844613697682E+00
Ga    2.0085935232129499E-02    7.4748309656365119E+00    5.8278811181056795E+00
N    1.9903243001893653E-02    7.4748488722866604E+00    7.8012356022884717E+00
Ga    2.0028711084768190E-02    5.6069607936798054E+00    8.3889561275246969E+00
N    2.0171475923226590E-02    5.6055577360478690E+00    1.0383365913934455E+01
Ga    2.0387442847036724E-02    7.4755190820128519E+00    1.0977665314636637E+01
N    1.9277954412309905E-02    7.4744861636762083E+00    1.2950582150272600E+01
Ga    1.9073856856846060E-02    5.6066651006328279E+00    1.3569550358899157E+01
N    1.6361655458738151E-02    5.6345467263031743E+00    1.5538035259449245E+01
Ga    2.0632590680358307E-02    7.4781989731226668E+00    1.5815501072986178E+01
N   -1.6947093609640536E+00    1.0198621475133068E+01    2.4765033896280615E+00
Ga   -1.4895739288427552E+00    8.3464755999040499E+00    3.2411192564451987E+00
N   -1.5870848379707398E+00    8.4024948271702335E+00    5.2044475254654090E+00
Ga   -1.5626130871528507E+00    1.0274384241453033E+01    5.7523682662844182E+00
N   -1.5782290134244554E+00    1.0265820033263413E+01    7.7487490927528944E+00
Ga   -1.5977780950255520E+00    8.4090623263338831E+00    8.3890385156614489E+00
N   -1.5988996476868196E+00    8.4100162476074445E+00    1.0383042774375522E+01
Ga   -1.5728824696317183E+00    1.0269081300936893E+01    1.1022310044198999E+01
N   -1.5564036166937052E+00    1.0278711065453278E+01    1.3017252004873280E+01
Ga   -1.5996162610364180E+00    8.4097499496163497E+00    1.3572452204934503E+01
N   -1.5752755836080661E+00    8.3917407227975538E+00    1.5536846201049638E+01
Ga   -1.7385800716955113E+00    1.0174856823706223E+01    1.6428795245495696E+01
N    6.4529299964177786E+00    2.0281172132523739E+00    2.4760987694556249E+00
Ga    6.4529066972157407E+00    4.7659083247986192E-02    2.8046785955848201E+00
N    6.4525494189466119E+00    4.7053047437621787E-02    4.9690348672928177E+00
Ga    6.4526635854739833E+00    1.8745951809213368E+00    5.7523848307387011E+00
N    6.4524470677634111E+00    1.8929120623562170E+00    7.7486968374014644E+00
Ga    6.4523197621274724E+00    4.7574535126819417E-02    8.3978324030502556E+00
N    6.4524464152335703E+00    4.7404422023582249E-02    1.0371489349751927E+01
Ga    6.4524685925120471E+00    1.8870229437312198E+00    1.1022042654801638E+01
N    6.4522465883816871E+00    1.8679971015319450E+00    1.3016000221961837E+01
Ga    6.4554548224009300E+00    4.7224787296904311E-02    1.3822659883891808E+01
N    6.4551086255537298E+00    4.7284573528610138E-02    1.6021759568995147E+01
Ga    6.4521002312218361E+00    2.0868539525337542E+00    1.6435894708969517E+01
Ga    6.4526480491272427E+00    3.7617380489853618E+00    1.4410308839679489E+00
N    4.9517475926410146E+00    4.6278479149909764E+00    2.4763600757278943E+00
Ga    4.7467047155579660E+00    2.7758932133629379E+00    3.2413336811363247E+00
N    4.8436930262413487E+00    2.8317279901778303E+00    5.2046796423533506E+00
Ga    4.8191279529005682E+00    4.7036359858712782E+00    5.7523160104582276E+00
N    4.8343386015628660E+00    4.6950341020571749E+00    7.7487239741184188E+00
Ga    4.8542308004209609E+00    2.8382475562597573E+00    8.3892912920639198E+00
N    4.8553587503954780E+00    2.8389706824657615E+00    1.0382910280495521E+01
Ga    4.8297723737599059E+00    4.6982718675208783E+00    1.1020608324669054E+01
N    4.8126204669667070E+00    4.7085251720849266E+00    1.3013951194822054E+01
Ga    4.8552686894764463E+00    2.8403262923558330E+00    1.3572346587764853E+01
N    4.8250368065191953E+00    2.8263165244664221E+00    1.5533636670323796E+01
Ga    5.0108636631876546E+00    4.5947831159740895E+00    1.6436376646033349E+01
N    6.4547326538995184E+00    3.7529921739093046E+00    1.7574244324157032E+01
N    3.2365277652077693E+00    7.5986273392064607E+00    2.4756291577598093E+00
Ga    3.2364017810054153E+00    5.6181629140919327E+00    2.8043422375244385E+00
N    3.2363320345685276E+00    5.6174894541276714E+00    4.9691581632274193E+00
Ga    3.2362626259315008E+00    7.4451701728384441E+00    5.7522389328421140E+00
N    3.2360301672685061E+00    7.4634907524534473E+00    7.7485487608009054E+00
Ga    3.2361936549028347E+00    5.6182173808791092E+00    8.3974770372709706E+00
N    3.2359742188257492E+00    5.6182483197165034E+00    1.0371351843875303E+01
Ga    3.2360766414845270E+00    7.4585305447268180E+00    1.1022144528632328E+01
N    3.2357696059796939E+00    7.4403436182844924E+00    1.3014676674786772E+01
Ga    3.2398821718011264E+00    5.6230567710888355E+00    1.3818408807059273E+01
N    3.2407598094250232E+00    5.6217147115153274E+00    1.6021326951290451E+01
Ga    3.2367312309409697E+00    7.6775126182628863E+00    1.6452021864168007E+01
Ga    3.2362449289960171E+00    9.3327396582231970E+00    1.4403824352956993E+00
N    1.7355119696131436E+00    1.0198506671829771E+01    2.4765283587857980E+00
Ga    1.5305463888562949E+00    8.3463173396053598E+00    3.2409872141300178E+00
N    1.6273722418649830E+00    8.4022961066583974E+00    5.2043760639554764E+00
Ga    1.6031078538654551E+00    1.0274220904137337E+01    5.7521742426547311E+00
N    1.6181693530997949E+00    1.0265727916719113E+01    7.7485242291150263E+00
Ga    1.6377285633752034E+00    8.4090170116758660E+00    8.3892132231951990E+00
N    1.6389407149792414E+00    8.4098379051713437E+00    1.0382532533458813E+01
Ga    1.6137846082321554E+00    1.0268611527772517E+01    1.1022820328804999E+01
N    1.5970528502698540E+00    1.0278081963307793E+01    1.3015469334780123E+01
Ga    1.6390955191139085E+00    8.4103572394897554E+00    1.3577072729804186E+01
N    1.6099535257337836E+00    8.3925963721438546E+00    1.5535022879207864E+01
Ga    1.8035605618591912E+00    1.0158915824407385E+01    1.6453029098667752E+01
N    3.2368667797071646E+00    9.3298749653481359E+00    1.7601655649016561E+01
N    9.6693372553380801E+00    1.9042616385216371E+00    2.5650939981980900E+00
Ga    9.6693293188873426E+00    1.6095776750820998E-01    3.2415188959669083E+00
N    9.6687807151357710E+00    4.8355654440151725E-02    5.2046036117877117E+00
Ga    9.6688236731302233E+00    1.9042085876442960E+00    5.8279765641115331E+00
N    9.6685943314569531E+00    1.9042476223410494E+00    7.8010839295408143E+00
Ga    9.6682752730285468E+00    3.6142136147981258E-02    8.3889970887301057E+00
N    9.6682389217807074E+00    3.5005982267874866E-02    1.0382221573770956E+01
Ga    9.6684426971469435E+00    1.9039729801270391E+00    1.0977585751732562E+01
N    9.6691681066106607E+00    1.9049993408999215E+00    1.2950246027581844E+01
Ga    9.6678440035407789E+00    3.4575746040933671E-02    1.3577241369787268E+01
N    9.6698551932494148E+00    6.8442098958256009E-02    1.5535486800252166E+01
Ga    9.6667607241792535E+00    1.9025572412741127E+00    1.5816566695652140E+01
N    7.9539163127766974E+00    4.6278472253024479E+00    2.4762165234633562E+00
Ga    8.1592608364681087E+00    2.7757693140198501E+00    3.2410005486628606E+00
N    8.0616508040913288E+00    2.8316887845417296E+00    5.2043719181400849E+00
Ga    8.0859113893116472E+00    4.7035892616877621E+00    5.7520920928281312E+00
N    8.0701256285326703E+00    4.6948916102573763E+00    7.7485124435828485E+00
Ga    8.0507797281468907E+00    2.8380290532259949E+00    8.3890510363177935E+00
N    8.0495597790983648E+00    2.8385881893379481E+00    1.0382609654269389E+01
Ga    8.0742006639563204E+00    4.6977066305592654E+00    1.1019600386816224E+01
N    8.0907156858515066E+00    4.7077720961830547E+00    1.3013097803546902E+01
Ga    8.0491900606086766E+00    2.8396213234928958E+00    1.3572964834668170E+01
N    8.0789347367330464E+00    2.8265926759588091E+00    1.5535009282636729E+01
Ga    7.8940173603936428E+00    4.5949559284123866E+00    1.6436628528346041E+01
N    6.4527576042812136E+00    7.4747607393508853E+00    2.5649765362050720E+00
Ga    6.4528201823838387E+00    5.7314562577713746E+00    3.2414110702098147E+00
N    6.4525388326312214E+00    5.6187134680230875E+00    5.2045843200196362E+00
Ga    6.4522506545385481E+00    7.4747849152880459E+00    5.8273869032578602E+00
N    6.4521489112205135E+00    7.4747327250994378E+00    7.8003978678949357E+00
Ga    6.4522285482159569E+00    5.6068210406953263E+00    8.3883709509876194E+00
N    6.4521393250533956E+00    5.6056687672019248E+00    1.0381737423841933E+01
Ga    6.4519313214544676E+00    7.4750727584105769E+00    1.0977052169656131E+01
N    6.4522207851910176E+00    7.4752418705485137E+00    1.2949055683765174E+01
Ga    6.4517074554724996E+00    5.6061625694630939E+00    1.3572114650227945E+01
N    6.4527418018724978E+00    5.6369351811532482E+00    1.5532652551490223E+01
Ga    6.4507759987785587E+00    7.4758915128153189E+00    1.5813498271447715E+01
N    4.7377068906049944E+00    1.0198461632083710E+01    2.4760261992503585E+00
Ga    4.9425234818970649E+00    8.3463528829208347E+00    3.2406832275694928E+00
N    4.8451475898385334E+00    8.4023724432299982E+00    5.2040926862075167E+00
Ga    4.8697706022106191E+00    1.0274197884860712E+01    5.7522593154150616E+00
N    4.8539087329511563E+00    1.0265575057568164E+01    7.7485290708905694E+00
Ga    4.8345093479094130E+00    8.4086914694357020E+00    8.3889204209838351E+00
N    4.8331081276253505E+00    8.4095969439489213E+00    1.0382121150941943E+01
Ga    4.8579353129854503E+00    1.0268175466010435E+01    1.1021830753264059E+01
N    4.8739885034543260E+00    1.0277484395139648E+01    1.3014426316773454E+01
Ga    4.8326378471327081E+00    8.4097810152617445E+00    1.3576794111975859E+01
N    4.8622505941750056E+00    8.3937671676154171E+00    1.5535177975518589E+01
Ga    4.6676233974478079E+00    1.0157369063419065E+01    1.6453342258880646E+01
     &END COORD
     &KIND N
       BASIS_SET DZVP-MOLOPT-SR-GTH
       POTENTIAL GTH-PBE-q5
       &POTENTIAL
 2 3
  0.2837905100000000E+00 2 -0.1241522559000000E+02  0.1868095920000000E+01
 2
  0.2554050000000000E+00 1  0.1363026257000000E+02
  0.2454945300000000E+00 0
         # Potential name:  GTH-PBE-Q5  for symbol:  N
         # Potential read from the potential filename: GTH_POTENTIALS
       &END POTENTIAL
     &END KIND
     &KIND Ga
       BASIS_SET DZVP-MOLOPT-SR-GTH
       POTENTIAL GTH-PBE-q13
       &POTENTIAL
 2 1 10
  0.4900000000000000E+00 0
 3
  0.4167772300000000E+00 3  0.1047568975000000E+02 -0.4921768140000000E+01  0.8707055900000000E+00
  0.7770178090000000E+01 -0.2248152160000000E+01
  0.1784415450000000E+01
  0.5696265200000000E+00 2  0.1777985340000000E+01  0.1958597600000000E+00
 -0.2317443900000000E+00
  0.2381265000000000E+00 1 -0.1624868022000000E+02
         # Potential name:  GTH-PBE-Q13  for symbol:  GA
         # Potential read from the potential filename: GTH_POTENTIALS
       &END POTENTIAL
     &END KIND
     &TOPOLOGY
       NUMBER_OF_ATOMS  200
       MULTIPLE_UNIT_CELL  1 1 1
     &END TOPOLOGY
   &END SUBSYS
 &END FORCE_EVAL
