 # Version information for this restart file 
 # current date 2019-07-18 23:22:04.513
 # current working dir /lustre04/scratch/rzk/rzk/GaN-carbene/443-adatoms-both-2x2/21-FullCoveragePlus1/01-Mimic-0401
 # Program compiled at                              Sun Apr  7 00:48:11 EDT 2019
 # Program compiled on                          beluga2.int.ets1.calculquebec.ca
 # Program compiled for                        Beluga-Linux-x86-64-intel-openmpi
 # Source code revision number                                         svn:18619
 &GLOBAL
   PRINT_LEVEL  MEDIUM
   PROJECT_NAME TEST
   RUN_TYPE  GEO_OPT
 &END GLOBAL
 &MOTION
   &GEO_OPT
     MAX_ITER  500
     STEP_START_VAL  26
   &END GEO_OPT
 &END MOTION
 &FORCE_EVAL
   METHOD  QS
   STRESS_TENSOR  ANALYTICAL
   &DFT
     BASIS_SET_FILE_NAME BASIS_MOLOPT
     POTENTIAL_FILE_NAME GTH_POTENTIALS
     UKS  T
     SURFACE_DIPOLE_CORRECTION  T
     SURF_DIP_DIR  Z
     &SCF
       MAX_SCF  80
       EPS_SCF     5.0000000000000004E-06
       &OT  T
         PRECONDITIONER  FULL_ALL
       &END OT
       &OUTER_SCF  T
         OPTIMIZER  NONE
         EPS_SCF     5.0000000000000004E-06
         MAX_SCF  4
       &END OUTER_SCF
       &PRINT
         &RESTART  OFF
           BACKUP_COPIES  1
           &EACH
             JUST_ENERGY  0
             QS_SCF  0
             MD  20
           &END EACH
         &END RESTART
       &END PRINT
     &END SCF
     &QS
       EPS_DEFAULT     1.0000000000000000E-14
       METHOD  GPW
     &END QS
     &MGRID
       NGRIDS  5
       CUTOFF     1.2000000000000000E+03
     &END MGRID
     &XC
       DENSITY_CUTOFF     1.0000000000000000E-10
       GRADIENT_CUTOFF     1.0000000000000000E-10
       TAU_CUTOFF     1.0000000000000000E-10
       &XC_FUNCTIONAL  NO_SHORTCUT
         &PBE  T
         &END PBE
       &END XC_FUNCTIONAL
       &VDW_POTENTIAL
         POTENTIAL_TYPE  PAIR_POTENTIAL
         &PAIR_POTENTIAL
           R_CUTOFF     1.0000000000000009E+01
           TYPE  DFTD3
           PARAMETER_FILE_NAME dftd3.dat
           REFERENCE_FUNCTIONAL PBE
           EPS_CN     9.9999999999999995E-07
           CALCULATE_C9_TERM  T
           REFERENCE_C9_TERM  T
           LONG_RANGE_CORRECTION  F
           VERBOSE_OUTPUT  F
         &END PAIR_POTENTIAL
       &END VDW_POTENTIAL
     &END XC
   &END DFT
   &SUBSYS
     &CELL
       A     1.2864472766435110E+01    0.0000000000000000E+00    0.0000000000000000E+00
       B    -6.4322363581020028E+00    1.1140960178524477E+01    0.0000000000000000E+00
       C     0.0000000000000000E+00    0.0000000000000000E+00    3.2000000000000000E+01
       MULTIPLE_UNIT_CELL  1 1 1
       &CELL_REF
         A     1.2982353780853531E+01    0.0000000000000000E+00    0.0000000000000000E+00
         B    -6.4911768904267628E+00    1.1243048175136114E+01    0.0000000000000000E+00
         C     0.0000000000000000E+00    0.0000000000000000E+00    3.2000000000000000E+01
         MULTIPLE_UNIT_CELL  1 1 1
       &END CELL_REF
     &END CELL
     &COORD
N    7.5506563436754687E-02    1.9628662038202653E+00    2.4753066499824583E+00
Ga    7.8625067846432875E-02   -3.5783826001591697E-02    2.8649923333594054E+00
N    7.8078440371212254E-02   -2.7521949915815722E-02    5.0205601443888703E+00
Ga    8.0330239475681020E-02    1.7894956803618631E+00    5.8228341289496450E+00
N    7.9020228357533903E-02    1.8198944879721983E+00    7.7966296754580044E+00
Ga    7.8600726600485019E-02   -2.7194556629835765E-02    8.4647600607614422E+00
N    7.6030623355882537E-02   -2.3248084727710353E-02    1.0419611914198898E+01
Ga    7.6212584783328111E-02    1.8138001749201667E+00    1.1094939941292587E+01
N    7.4580792225562131E-02    1.7984403906374617E+00    1.3068715445868406E+01
Ga    7.4389194065837050E-02   -2.1189375729737153E-02    1.3909872790413669E+01
N    7.4786515988772381E-02   -2.0147908371042963E-02    1.6068416275143409E+01
Ga    7.4845811400797685E-02    2.0442495862831667E+00    1.6506960809087413E+01
Ga    5.2559274262253174E-02    3.7140095201085188E+00    1.3409087188054056E+00
N   -1.4188192796164507E+00    4.5382385227724473E+00    2.5044340590729042E+00
Ga   -1.5405666854348861E+00    2.7416832800096529E+00    3.3183632647202193E+00
N   -1.5405547181369439E+00    2.7453237835922044E+00    5.2490772938451293E+00
Ga   -1.5658096087722282E+00    4.6294337249410731E+00    5.8179329189786548E+00
N   -1.5411797803737746E+00    4.6198536060136064E+00    7.7936506867944511E+00
Ga   -1.5185021842420892E+00    2.7651843386872952E+00    8.4626816441359036E+00
N   -1.5187885523268323E+00    2.7693031079969739E+00    1.0433354667280600E+01
Ga   -1.5486627582667380E+00    4.6290740626143592E+00    1.1093755379349304E+01
N   -1.5641979068239817E+00    4.6383136652266295E+00    1.3067576786218309E+01
Ga   -1.5240213796007325E+00    2.7687602640136038E+00    1.3635728714636166E+01
N   -1.5533071731812911E+00    2.7502622937692993E+00    1.5579626903010837E+01
Ga   -1.3498144653128987E+00    4.5126775457715027E+00    1.6506567710376807E+01
N    7.4864345331002433E-02    3.6901799968793876E+00    1.7653620965473767E+01
N   -3.1436535516915809E+00    7.5349188622690217E+00    2.4731397995000561E+00
Ga   -3.1426142386610274E+00    5.5407327547929226E+00    2.8344464026174498E+00
N   -3.1393330648341777E+00    5.5419855530873585E+00    5.0063404775334126E+00
Ga   -3.1377385964072282E+00    7.3615244718103172E+00    5.8148327197287184E+00
N   -3.1381312171988665E+00    7.3895804884857288E+00    7.7921846506288484E+00
Ga   -3.1385944069667859E+00    5.5447876948875434E+00    8.4646547193013220E+00
N   -3.1393823863246459E+00    5.5471732448471771E+00    1.0419381634433750E+01
Ga   -3.1401191590958262E+00    7.3842940974137807E+00    1.1094524604972587E+01
N   -3.1406615235742055E+00    7.3680335691603949E+00    1.3067742162176330E+01
Ga   -3.1401668179617017E+00    5.5477924904613376E+00    1.3907530574448286E+01
N   -3.1407027129975909E+00    5.5449334973977225E+00    1.6068730203379559E+01
Ga   -3.1404476766377627E+00    7.6042134779730128E+00    1.6503484236518087E+01
Ga   -3.1396275055054268E+00    9.2207659808448934E+00    1.2835387889147090E+00
N   -4.6408839131596382E+00    1.0117501693214487E+01    2.4934081814534523E+00
Ga   -4.7544347404159657E+00    8.3277759415826349E+00    3.3074816380174075E+00
N   -4.7567590205835932E+00    8.3192024619591578E+00    5.2428002268776810E+00
Ga   -4.7757064864070138E+00    1.0200945532778910E+01    5.8172809515915986E+00
N   -4.7546873389711397E+00    1.0191328290995537E+01    7.7937284677126843E+00
Ga   -4.7341706583491803E+00    8.3362725177665169E+00    8.4608207027266253E+00
N   -4.7353689559006993E+00    8.3396776927457399E+00    1.0432434802831027E+01
Ga   -4.7654869672511353E+00    1.0199353090139191E+01    1.1095076515468072E+01
N   -4.7814990928578363E+00    1.0209243443299519E+01    1.3068786051232420E+01
Ga   -4.7392760507491039E+00    8.3390663842619368E+00    1.3635329568382719E+01
N   -4.7657328175589315E+00    8.3232826657003294E+00    1.5582448355408353E+01
Ga   -4.5758698169072227E+00    1.0089926631378500E+01    1.6503849707173167E+01
N   -3.1404872055308282E+00    9.2611812592519112E+00    1.7651131877812681E+01
N    3.2976736680558019E+00    1.8186454303489017E+00    2.6815613998893442E+00
Ga    3.2936533559031189E+00   -3.9708628749724216E-02    3.3033669093961509E+00
N    3.2958419346717474E+00   -1.9895264379270985E-02    5.2419971872681526E+00
Ga    3.2959288357498080E+00    1.8229522597759487E+00    5.9085590799515364E+00
N    3.2949687017232079E+00    1.8296412331932905E+00    7.8565812299445588E+00
Ga    3.2949417970921000E+00   -4.0640895706246224E-02    8.4627329988152162E+00
N    3.2922341230777041E+00   -3.7294268510596404E-02    1.0433759819024663E+01
Ga    3.2924307592966704E+00    1.8344393961569154E+00    1.1043425010446276E+01
N    3.2898607664620978E+00    1.8350364335539082E+00    1.2992653308136312E+01
Ga    3.2907842539722112E+00   -3.2374030075467991E-02    1.3635370918128700E+01
N    3.2910208535081744E+00   -3.9425253306666084E-03    1.5581991651321237E+01
Ga    3.2907924653516218E+00    1.8335226289517903E+00    1.5860618055318739E+01
N    1.5726760561601869E+00    4.5427235018071217E+00    2.5016447904815604E+00
Ga    1.6933433139513181E+00    2.7460428742662568E+00    3.3072169486612424E+00
N    1.6986023885214565E+00    2.7454302841974831E+00    5.2426810231534908E+00
Ga    1.7212897687079227E+00    4.6274854972879291E+00    5.8172733256755658E+00
N    1.6976195585309377E+00    4.6198698070321988E+00    7.7932107830505668E+00
Ga    1.6755384672632094E+00    2.7657158320949473E+00    8.4631698479340347E+00
N    1.6717771036856413E+00    2.7697548657762794E+00    1.0433723250676588E+01
Ga    1.7008431959650023E+00    4.6294185470477034E+00    1.1094087123579502E+01
N    1.7136768509592344E+00    4.6387409182444896E+00    1.3067725655889383E+01
Ga    1.6727586573332127E+00    2.7692309765383643E+00    1.3635813267304298E+01
N    1.7027681970664981E+00    2.7503717913003487E+00    1.5579583108004609E+01
Ga    1.4999505836441140E+00    4.5127956481288960E+00    1.6506825890003622E+01
N    6.7948141061427506E-02    7.3828996347945539E+00    2.6797768464720773E+00
Ga    7.7066922806658611E-02    5.5540978412320339E+00    3.3291752630775995E+00
N    7.8081301368867220E-02    5.5478202269170573E+00    5.2590565274186627E+00
Ga    7.6494222893332242E-02    7.3997635895882636E+00    5.9064209698462786E+00
N    7.7571103432379357E-02    7.4013492957639153E+00    7.8557376834876287E+00
Ga    7.7962534859786631E-02    5.5302320671607621E+00    8.4589260784342262E+00
N    7.6202919403196900E-02    5.5324170575844729E+00    1.0430924422644019E+01
Ga    7.5958867503455541E-02    7.4036960533716254E+00    1.1042363293907130E+01
N    7.4580283432240740E-02    7.4043127911836759E+00    1.2991386391787135E+01
Ga    7.4578984442512639E-02    5.5379806872007729E+00    1.3636764101034064E+01
N    7.4938348246285397E-02    5.5711677559697703E+00    1.5580839050833269E+01
Ga    7.4919981140098083E-02    7.4049412250817053E+00    1.5860972122517438E+01
N   -1.6466271228757960E+00    1.0107526893894120E+01    2.4801893767730370E+00
Ga   -1.5201503276736104E+00    8.3161913345863265E+00    3.2995263736325673E+00
N   -1.5219501233617980E+00    8.3191701337152981E+00    5.2401097833972665E+00
Ga   -1.4991605210573140E+00    1.0198395257250825E+01    5.8171480045712780E+00
N   -1.5202190656594561E+00    1.0191041627325969E+01    7.7941128242184838E+00
Ga   -1.5424678548141588E+00    8.3365105009216620E+00    8.4616797654705547E+00
N   -1.5444267319220490E+00    8.3393941733886621E+00    1.0432937445438364E+01
Ga   -1.5149512461273180E+00    1.0199124825524402E+01    1.1094699492265065E+01
N   -1.5016771659536872E+00    1.0208150271873617E+01    1.3068126395580125E+01
Ga   -1.5417526414932294E+00    8.3379970863782518E+00    1.3635859012816436E+01
N   -1.5163284792944516E+00    8.3232788246559206E+00    1.5582094718572511E+01
Ga   -1.7073250516493212E+00    1.0088710830143993E+01    1.6503221435656883E+01
N    6.5087681817954408E+00    1.9474494019162110E+00    2.4957397737033795E+00
Ga    6.5069043820919363E+00   -4.0425334761094729E-02    2.8575626793901616E+00
N    6.5092233405948798E+00   -3.1562046605747018E-02    5.0179556517797570E+00
Ga    6.5126625617030580E+00    1.7890507800783997E+00    5.8196082188463549E+00
N    6.5114577733265904E+00    1.8196839317167492E+00    7.7950612745901413E+00
Ga    6.5110857884094955E+00   -2.6984998154705571E-02    8.4640520889155653E+00
N    6.5089244298301763E+00   -2.3560563725256396E-02    1.0419540087369493E+01
Ga    6.5088482202266649E+00    1.8141788464351070E+00    1.1094526738350686E+01
N    6.5070582753059156E+00    1.7978273718827982E+00    1.3067854066251568E+01
Ga    6.5071080686444311E+00   -2.2511944771760713E-02    1.3905364721257767E+01
N    6.5069833416165235E+00   -2.1028037132705228E-02    1.6067798481460500E+01
Ga    6.5070720479743338E+00    2.0365185325287882E+00    1.6502301834472998E+01
Ga    6.4837109501788381E+00    3.6670685789129385E+00    1.2967581309514673E+00
N    5.0191342167977879E+00    4.5384533662490769E+00    2.4803245001430545E+00
Ga    4.8994711708495631E+00    2.7455097558144863E+00    3.3170898046900410E+00
N    4.8930761654992061E+00    2.7502851965734019E+00    5.2493076333333963E+00
Ga    4.8723058500267609E+00    4.6324447640194260E+00    5.8185160028471890E+00
N    4.8932936089528347E+00    4.6218197908220384E+00    7.7936997560439938E+00
Ga    4.9147055766438887E+00    2.7658674034064963E+00    8.4622564342629492E+00
N    4.9131232914730436E+00    2.7696441007744275E+00    1.0433117132083771E+01
Ga    4.8830556585575486E+00    4.6293408422896896E+00    1.1094320001341726E+01
N    4.8660615717117812E+00    4.6383540696487433E+00    1.3067670907572987E+01
Ga    4.9076326314303644E+00    2.7682652727401682E+00    1.3633578822002129E+01
N    4.8817419512994196E+00    2.7515961465250043E+00    1.5579512315667026E+01
Ga    5.0741236950691837E+00    4.5163918734947757E+00    1.6502645247467076E+01
N    6.5071986912703093E+00    3.6893848854356452E+00    1.7659864606407492E+01
N    3.2915438234367533E+00    7.5312968360783819E+00    2.4751144502598255E+00
N    3.2963975680548923E+00    5.5410391848176674E+00    5.0091716080966426E+00
Ga    3.2913714362586339E+00    7.3624955869957747E+00    5.8131276235662579E+00
N    3.2932225958897927E+00    7.3900990582262001E+00    7.7904530924342277E+00
Ga    3.2945443989720453E+00    5.5454271267842774E+00    8.4644791368860179E+00
N    3.2917820528383555E+00    5.5475802067496893E+00    1.0419166499647529E+01
Ga    3.2920389761024764E+00    7.3843559376842238E+00    1.1094761768797726E+01
N    3.2897657946615171E+00    7.3680950207180071E+00    1.3068009523887522E+01
Ga    3.2896168872938634E+00    5.5479546857340134E+00    1.3907614088657184E+01
N    3.2903393133655943E+00    5.5446899213914715E+00    1.6069235310154919E+01
Ga    3.2905254659571774E+00    7.6039245522663137E+00    1.6504249718620894E+01
Ga    3.2989915360436051E+00    9.2317611804877302E+00    1.3073028790694023E+00
N    1.7991774625074051E+00    1.0110919789812467E+01    2.4853694867106317E+00
Ga    1.6607857164358197E+00    8.3137199819846206E+00    3.2925129991846758E+00
N    1.6738027591264317E+00    8.3172155994329113E+00    5.2339325563787789E+00
Ga    1.6536791833286499E+00    1.0196597798186795E+01    5.8146646339963919E+00
N    1.6768910068351213E+00    1.0189848809912533E+01    7.7920233683762641E+00
Ga    1.6973974349446392E+00    8.3361577301192273E+00    8.4613508507587589E+00
N    1.6966728826776794E+00    8.3391614515746006E+00    1.0432606905976572E+01
Ga    1.6674475388026584E+00    1.0198754658400114E+01    1.1094748984200807E+01
N    1.6513843871933747E+00    1.0207725406369113E+01    1.3068331222324407E+01
Ga    1.6907588307599033E+00    8.3377256609458339E+00    1.3636444991334072E+01
N    1.6663473306247745E+00    8.3230833410370497E+00    1.5582950343229573E+01
Ga    1.8576495403383997E+00    1.0088403303469923E+01    1.6503739271248129E+01
N    3.2906672981139589E+00    9.2610785795754005E+00    1.7652066674541363E+01
N    9.7218558749152191E+00    1.8198430850472203E+00    2.6804152702978450E+00
Ga    9.7226929454269566E+00   -3.4650070436893651E-02    3.3103257271607198E+00
N    9.7253310311397669E+00   -1.9718972917432017E-02    5.2454872124046359E+00
Ga    9.7244601987025518E+00    1.8237597785218298E+00    5.9099418889360047E+00
N    9.7263260863553267E+00    1.8292121174674199E+00    7.8573006903347826E+00
Ga    9.7261074342774361E+00   -4.1738453100073625E-02    8.4613504895823013E+00
N    9.7247360764669004E+00   -3.8081362579066906E-02    1.0432689152684754E+01
Ga    9.7249079934838871E+00    1.8336552767436387E+00    1.1042881402323397E+01
N    9.7238603015961775E+00    1.8343535946002916E+00    1.2992255641390043E+01
Ga    9.7230916065294046E+00   -3.2665759302160625E-02    1.3635981293944809E+01
N    9.7232966571560642E+00   -4.1160791690351512E-03    1.5582656462497885E+01
Ga    9.7232737224784724E+00    1.8333624184118116E+00    1.5861089770185970E+01
N    7.9988527741117368E+00    4.5384739077569982E+00    2.4752685389997486E+00
Ga    8.1181995299433289E+00    2.7503583297644383E+00    3.3072399517678015E+00
N    8.1298448606423577E+00    2.7497854988212578E+00    5.2434847678129302E+00
Ga    8.1513359348086869E+00    4.6313785738000961E+00    5.8150418015106249E+00
N    8.1282279130177102E+00    4.6212033263827834E+00    7.7918055960667729E+00
Ga    8.1070326524155565E+00    2.7663389871299606E+00    8.4626027692503971E+00
N    8.1048186505875801E+00    2.7695821936825498E+00    1.0433231514684717E+01
Ga    8.1341399821665217E+00    4.6290456356052463E+00    1.1095097711717829E+01
N    8.1479647857626230E+00    4.6381610493755581E+00    1.3068049738067844E+01
Ga    8.1063857581560583E+00    2.7680890891896657E+00    1.3633660207916666E+01
N    8.1324146896531637E+00    2.7514707235793106E+00    1.5579480521035132E+01
Ga    7.9402893378706700E+00    4.5165162727583992E+00    1.6502402164970075E+01
N    6.5081687309491301E+00    7.3931508525151797E+00    2.6790572627325919E+00
Ga    6.5125626240763461E+00    5.5404916605924912E+00    3.3046229881807760E+00
N    6.5110345484919803E+00    5.5518283646845052E+00    5.2402476144088315E+00
Ga    6.5109121329403381E+00    7.3969732974326234E+00    5.9062112431166343E+00
N    6.5102443600198745E+00    7.4004816734144665E+00    7.8544079990922899E+00
Ga    6.5112211192695257E+00    5.5308936696221211E+00    8.4619156869424188E+00
N    6.5089368657125091E+00    5.5325977049756885E+00    1.0432829302775248E+01
Ga    6.5081918416896221E+00    7.4042646520960487E+00    1.1042343799563149E+01
N    6.5065628155331874E+00    7.4053005383618187E+00    1.2993100411045825E+01
Ga    6.5069943309934297E+00    5.5362296019498940E+00    1.3633739690511133E+01
N    6.5070663556828263E+00    5.5672977484633375E+00    1.5580706022299447E+01
Ga    6.5071658997834243E+00    7.4046564434791309E+00    1.5860485638297543E+01
N    4.7910767996084775E+00    1.0117560857968352E+01    2.4968266005156705E+00
Ga    4.9077726890772997E+00    8.3237593986538130E+00    3.3088764237368902E+00
N    4.9126129877206299E+00    8.3184873858624879E+00    5.2429200711237467E+00
Ga    4.9339390924025821E+00    1.0200773002356392E+01    5.8168486863419098E+00
N    4.9121145353831013E+00    1.0191055258312444E+01    7.7930519455512677E+00
Ga    4.8896491918667175E+00    8.3360920061759245E+00    8.4598783777823918E+00
N    4.8873547969181610E+00    8.3392349624877742E+00    1.0431670182977570E+01
Ga    4.9173740141376534E+00    1.0198870751315937E+01    1.1094847583842729E+01
N    4.9306168482332282E+00    1.0208988992559600E+01    1.3068654048076707E+01
Ga    4.8880840578702340E+00    8.3391991202305285E+00    1.3636010698934644E+01
N    4.9154196225764704E+00    8.3232544961502519E+00    1.5583063015368271E+01
Ga    4.7262066843284707E+00    1.0090038376086705E+01    1.6504417849303977E+01
O   -7.5463542456034980E-04    3.9891230302144716E+00   -4.7191750069958044E-01
H   -2.6210590230336756E-01    5.8193222756308964E+00   -3.7537335292982915E-01
C    1.1619205621460640E+00    3.5792809314949317E+00   -1.2211480211542933E+00
H    2.0995111443333365E+00    3.9949888471901325E+00   -8.0740891333799558E-01
H    1.2472392124870455E+00    2.4781110516406533E+00   -1.2628399569142710E+00
H    1.0407969565694621E+00    3.9565106570860182E+00   -2.2502305830532761E+00
Ga    3.2930820718413303E+00    5.5370392947599507E+00    2.8498260808112885E+00
O   -2.5134119722442122E-01    6.7858479342396034E+00   -1.5550470148440218E-01
H    1.7485753259446183E-02    7.2933927082226262E+00    1.6404755782636626E+00
C    8.2795741978628856E-01    7.3837819381503635E+00   -8.9840980236804757E-01
H    8.2933957533380942E-01    8.4603909411634959E+00   -6.7585907106735021E-01
H    1.8070636684817434E+00    6.9654578399885532E+00   -6.0612544621108766E-01
H    6.9468932013542628E-01    7.2530475932924485E+00   -1.9853766168971556E+00
O   -3.3116813618003200E+00    9.3721147746445013E+00   -5.1902175708006837E-01
C   -3.9640567300695073E+00    1.0561701026133273E+01   -9.8796271842494909E-01
H   -4.9737434104911058E+00    1.0699237187900021E+01   -5.4674379431156994E-01
H   -3.3711913694192241E+00    1.1479765009493454E+01   -7.9036319235078145E-01
H   -4.0771601987317148E+00    1.0459288200643138E+01   -2.0833224783384874E+00
O    3.3976529788792957E+00    9.3336284670401550E+00   -5.0516267356687283E-01
C    3.8787328313786591E+00    1.0591444800886521E+01   -1.0077547553014821E+00
H    3.1782477881548767E+00    1.1426074251430958E+01   -7.8917861030764413E-01
H    4.8829017869778673E+00    1.0856814350060155E+01   -6.0624276613337202E-01
H    3.9622984691439620E+00    1.0491235965300794E+01   -2.1100081448619461E+00
O    6.3954280706624198E+00    3.5622667840470159E+00   -5.1391569315104968E-01
C    7.1216936269732809E+00    2.4988451373943477E+00   -1.1526171417425901E+00
H    8.2225247946508659E+00    2.5977703389424311E+00   -1.0311286797570109E+00
H    6.8163210275418180E+00    1.4947479810042017E+00   -7.8534401402833853E-01
H    6.8903966195918871E+00    2.5579068023970386E+00   -2.2348359413236061E+00
H    6.5185912635103378E+00    7.3930749177392334E+00    1.6503488295524837E+00
H    9.7268198457617263E+00    1.8200641628867742E+00    1.6526831924304046E+00
H    3.3128310701415935E+00    1.8157561758227043E+00    1.6528692120917652E+00
     &END COORD
     &KIND C
       BASIS_SET DZVP-MOLOPT-SR-GTH-q4
       POTENTIAL GTH-PBE-q4
       &POTENTIAL
2 2
0.3384712400000000E+00 2 -0.8803673979999999E+01  0.1339210850000000E+01
2
0.3025757500000000E+00 1  0.9622486650000001E+01
0.2915069400000000E+00 0
       &END POTENTIAL
     &END KIND
     &KIND O
       BASIS_SET DZVP-MOLOPT-SR-GTH-q6
       POTENTIAL GTH-PBE-q6
       &POTENTIAL
2 4
0.2445543000000000E+00 2 -0.1666721480000000E+02  0.2487311320000000E+01
2
0.2209559200000000E+00 1  0.1833745811000000E+02
0.2113324700000000E+00 0
       &END POTENTIAL
     &END KIND
     &KIND H
       BASIS_SET DZVP-MOLOPT-SR-GTH-q1
       POTENTIAL GTH-PBE-q1
       &POTENTIAL
1
0.2000000000000000E+00 2 -0.4178900440000000E+01  0.7244633100000000E+00
0
       &END POTENTIAL
     &END KIND
     &KIND N
       BASIS_SET DZVP-MOLOPT-SR-GTH
       POTENTIAL GTH-PBE-q5
       &POTENTIAL
2 3
0.2837905100000000E+00 2 -0.1241522559000000E+02  0.1868095920000000E+01
2
0.2554050000000000E+00 1  0.1363026257000000E+02
0.2454945300000000E+00 0
       &END POTENTIAL
     &END KIND
     &KIND Ga
       BASIS_SET DZVP-MOLOPT-SR-GTH
       POTENTIAL GTH-PBE-q13
       &POTENTIAL
2 1 10
0.4900000000000000E+00 0
3
0.4167772300000000E+00 3  0.1047568975000000E+02 -0.4921768140000000E+01  0.8707055900000000E+00
0.7770178090000000E+01 -0.2248152160000000E+01
0.1784415450000000E+01
0.5696265200000000E+00 2  0.1777985340000000E+01  0.1958597600000000E+00
-0.2317443900000000E+00
0.2381265000000000E+00 1 -0.1624868022000000E+02
       &END POTENTIAL
     &END KIND
     &TOPOLOGY
       NUMBER_OF_ATOMS  230
       MULTIPLE_UNIT_CELL  1 1 1
     &END TOPOLOGY
     &COLVAR
       &DISTANCE
         ATOMS  127 211
       &END DISTANCE
       &PRINT
       &END PRINT
     &END COLVAR
   &END SUBSYS
 &END FORCE_EVAL
