 # Version information for this restart file 
 # current date 2019-07-19 00:42:44.091
 # current working dir /lustre04/scratch/rzk/rzk/GaN-carbene/443-adatoms-both-2x2/21-FullCoveragePlus1/01-Mimic-0401
 # Program compiled at                              Sun Apr  7 00:48:11 EDT 2019
 # Program compiled on                          beluga2.int.ets1.calculquebec.ca
 # Program compiled for                        Beluga-Linux-x86-64-intel-openmpi
 # Source code revision number                                         svn:18619
 &GLOBAL
   PRINT_LEVEL  MEDIUM
   PROJECT_NAME TEST
   RUN_TYPE  GEO_OPT
 &END GLOBAL
 &MOTION
   &GEO_OPT
     MAX_ITER  500
     STEP_START_VAL  59
   &END GEO_OPT
 &END MOTION
 &FORCE_EVAL
   METHOD  QS
   STRESS_TENSOR  ANALYTICAL
   &DFT
     BASIS_SET_FILE_NAME BASIS_MOLOPT
     POTENTIAL_FILE_NAME GTH_POTENTIALS
     UKS  T
     SURFACE_DIPOLE_CORRECTION  T
     SURF_DIP_DIR  Z
     &SCF
       MAX_SCF  80
       EPS_SCF     5.0000000000000004E-06
       &OT  T
         PRECONDITIONER  FULL_ALL
       &END OT
       &OUTER_SCF  T
         OPTIMIZER  NONE
         EPS_SCF     5.0000000000000004E-06
         MAX_SCF  4
       &END OUTER_SCF
       &PRINT
         &RESTART  OFF
           BACKUP_COPIES  1
           &EACH
             JUST_ENERGY  0
             QS_SCF  0
             MD  20
           &END EACH
         &END RESTART
       &END PRINT
     &END SCF
     &QS
       EPS_DEFAULT     1.0000000000000000E-14
       METHOD  GPW
     &END QS
     &MGRID
       NGRIDS  5
       CUTOFF     1.2000000000000000E+03
     &END MGRID
     &XC
       DENSITY_CUTOFF     1.0000000000000000E-10
       GRADIENT_CUTOFF     1.0000000000000000E-10
       TAU_CUTOFF     1.0000000000000000E-10
       &XC_FUNCTIONAL  NO_SHORTCUT
         &PBE  T
         &END PBE
       &END XC_FUNCTIONAL
       &VDW_POTENTIAL
         POTENTIAL_TYPE  PAIR_POTENTIAL
         &PAIR_POTENTIAL
           R_CUTOFF     1.0000000000000009E+01
           TYPE  DFTD3
           PARAMETER_FILE_NAME dftd3.dat
           REFERENCE_FUNCTIONAL PBE
           EPS_CN     9.9999999999999995E-07
           CALCULATE_C9_TERM  T
           REFERENCE_C9_TERM  T
           LONG_RANGE_CORRECTION  F
           VERBOSE_OUTPUT  F
         &END PAIR_POTENTIAL
       &END VDW_POTENTIAL
     &END XC
   &END DFT
   &SUBSYS
     &CELL
       A     1.2864472766435110E+01    0.0000000000000000E+00    0.0000000000000000E+00
       B    -6.4322363581020028E+00    1.1140960178524477E+01    0.0000000000000000E+00
       C     0.0000000000000000E+00    0.0000000000000000E+00    3.2000000000000000E+01
       MULTIPLE_UNIT_CELL  1 1 1
       &CELL_REF
         A     1.2982353780853531E+01    0.0000000000000000E+00    0.0000000000000000E+00
         B    -6.4911768904267628E+00    1.1243048175136114E+01    0.0000000000000000E+00
         C     0.0000000000000000E+00    0.0000000000000000E+00    3.2000000000000000E+01
         MULTIPLE_UNIT_CELL  1 1 1
       &END CELL_REF
     &END CELL
     &COORD
N    7.5014528855611509E-02    1.9657405165648143E+00    2.4703479112757192E+00
Ga    7.9911423833776224E-02   -3.5914050748963151E-02    2.8640233496178795E+00
N    7.5865756479977009E-02   -2.8802058548136337E-02    5.0157334344304534E+00
Ga    7.6979864445968327E-02    1.7880048891897782E+00    5.8171445220126108E+00
N    7.7716693110701868E-02    1.8128098865937681E+00    7.7908821266324662E+00
Ga    7.8077976479365430E-02   -3.5292741844931703E-02    8.4580298822606199E+00
N    7.8885741135477541E-02   -3.5650258891213947E-02    1.0414017524038288E+01
Ga    7.9154612122805057E-02    1.8019189301326459E+00    1.1091686602210533E+01
N    7.9943550652949877E-02    1.7815877793769554E+00    1.3065658166046246E+01
Ga    8.0029257558966754E-02   -3.5609499809160491E-02    1.3912923199847040E+01
N    7.9736421247343509E-02   -3.6479171406434641E-02    1.6072111608777011E+01
Ga    7.9856451298757736E-02    2.0241496639476821E+00    1.6506776362578243E+01
Ga    5.2983855443050121E-02    3.7176810167599856E+00    1.3377529880982177E+00
N   -1.4174172811865062E+00    4.5414451896905739E+00    2.4989272008361016E+00
Ga   -1.5404020543473957E+00    2.7448898128549595E+00    3.3113411898822300E+00
N   -1.5426266802347175E+00    2.7437269246313685E+00    5.2411809355018484E+00
Ga   -1.5661481879119732E+00    4.6265472229184246E+00    5.8120776430099230E+00
N   -1.5412981425164745E+00    4.6116950104768888E+00    7.7882195836790222E+00
Ga   -1.5201881732136970E+00    2.7568126812756053E+00    8.4580018073420096E+00
N   -1.5167983722776053E+00    2.7566581486044170E+00    1.0428610311465603E+01
Ga   -1.5456176638208641E+00    4.6158421094368700E+00    1.1091562760676219E+01
N   -1.5614824904673017E+00    4.6252599674575965E+00    1.3065385630265240E+01
Ga   -1.5173353495133346E+00    2.7552294886218283E+00    1.3636460582545274E+01
N   -1.5459397749017987E+00    2.7385698964627938E+00    1.5582566264022125E+01
Ga   -1.3515722656447218E+00    4.5038144884787510E+00    1.6507179442797046E+01
N    7.9772300517418654E-02    3.6771523750654764E+00    1.7656029107172660E+01
N   -3.1409017339965426E+00    7.5348410227464147E+00    2.4744500022925080E+00
Ga   -3.1412334958077306E+00    5.5418255310770750E+00    2.8328881366832066E+00
N   -3.1391004699243350E+00    5.5387825198372980E+00    5.0006605138490237E+00
Ga   -3.1397719525410586E+00    7.3578109072335192E+00    5.8081389789282056E+00
N   -3.1390589078734048E+00    7.3816384802596753E+00    7.7856413842231049E+00
Ga   -3.1393442954857909E+00    5.5360806113043965E+00    8.4579307976118230E+00
N   -3.1375700398883799E+00    5.5344716856976719E+00    1.0414115073612079E+01
Ga   -3.1370301812764247E+00    7.3723942697781002E+00    1.1090521554675963E+01
N   -3.1360125708218125E+00    7.3518397821980184E+00    1.3065030566458848E+01
Ga   -3.1355172751708613E+00    5.5336989690257932E+00    1.3911167013226194E+01
N   -3.1362073375487376E+00    5.5343169911206598E+00    1.6071287996190367E+01
Ga   -3.1360562898185957E+00    7.5948271573489770E+00    1.6509305339546376E+01
Ga   -3.1271090648972306E+00    9.2174561749112751E+00    1.2892864490310709E+00
N   -4.6402025650154446E+00    1.0120250915440128E+01    2.4915756958891899E+00
Ga   -4.7542077484455350E+00    8.3307692824594728E+00    3.3000781980038942E+00
N   -4.7585738849068608E+00    8.3164343004425039E+00    5.2350402130748730E+00
Ga   -4.7770544752535002E+00    1.0198139109755909E+01    5.8089991447646225E+00
N   -4.7553860185930015E+00    1.0183484218087782E+01    7.7858608148578963E+00
Ga   -4.7346054300658560E+00    8.3279623663303042E+00    8.4546158365580819E+00
N   -4.7323499493866708E+00    8.3275134281530097E+00    1.0426258099208848E+01
Ga   -4.7613804170497982E+00    1.0186650274524535E+01    1.1090346506810665E+01
N   -4.7783178111907700E+00    1.0195934742967918E+01    1.3065014112315986E+01
Ga   -4.7340709208037959E+00    8.3251587149025568E+00    1.3636031786108648E+01
N   -4.7618682116600235E+00    8.3092802841043802E+00    1.5582481910470342E+01
Ga   -4.5684425854315789E+00    1.0074862104609256E+01    1.6509068473294050E+01
N   -3.1370102858371358E+00    9.2477505000980820E+00    1.7655856640542268E+01
N    3.2917063384186340E+00    1.8222971356413571E+00    2.6696136839116953E+00
Ga    3.2917546889340734E+00   -3.6207739377887391E-02    3.2961839310995611E+00
N    3.2941475043542150E+00   -2.1028910688717928E-02    5.2336498573800903E+00
Ga    3.2933839912215874E+00    1.8206498374283968E+00    5.9005260125761536E+00
N    3.2942799622733170E+00    1.8217522206189751E+00    7.8486666901664366E+00
Ga    3.2943258498538284E+00   -4.8781388805833478E-02    8.4556894457975194E+00
N    3.2952456740068437E+00   -5.0264985000107863E-02    1.0426764163021211E+01
Ga    3.2964557999429251E+00    1.8209242909496224E+00    1.1038758042958385E+01
N    3.2954587911714781E+00    1.8208395619922964E+00    1.2990141487898034E+01
Ga    3.2965489965280512E+00   -4.8338086307851219E-02    1.3635244328471686E+01
N    3.2961716884070862E+00   -1.5725689472588535E-02    1.5581934883907469E+01
Ga    3.2963440035712668E+00    1.8206929617126808E+00    1.5867872287065975E+01
N    1.5728531261581533E+00    4.5449905240351205E+00    2.4991335407231272E+00
Ga    1.6906958405515589E+00    2.7498835567376818E+00    3.3042217695053338E+00
N    1.6951434200849884E+00    2.7435297516973343E+00    5.2374402167050835E+00
Ga    1.7194283640565975E+00    4.6249928154735178E+00    5.8111096583361270E+00
N    1.6974950692335649E+00    4.6116640453520708E+00    7.7873628296847244E+00
Ga    1.6756983179297114E+00    2.7569791163726198E+00    8.4580239961922086E+00
N    1.6749874575881576E+00    2.7565387375304353E+00    1.0428630715530463E+01
Ga    1.7038578987438384E+00    4.6156870384852358E+00    1.1091598426659806E+01
N    1.7214113385744911E+00    4.6252811705560424E+00    1.3065433625399585E+01
Ga    1.6771703127785775E+00    2.7553435813708615E+00    1.3636621564873243E+01
N    1.7059149305857222E+00    2.7385158188800585E+00    1.5582777488164183E+01
Ga    1.5111376348192354E+00    4.5037713876258882E+00    1.6507167181919613E+01
N    7.2538579560054370E-02    7.3861362778374620E+00    2.6806243714181521E+00
Ga    7.9120750771676782E-02    5.5557390095035579E+00    3.3242137985549629E+00
N    7.6979016959194999E-02    5.5449911675052945E+00    5.2536886959155078E+00
Ga    7.6923384012097487E-02    7.3960240058029987E+00    5.9011815113799218E+00
N    7.7953757120655845E-02    7.3933159689727681E+00    7.8503765313134259E+00
Ga    7.8199717933090912E-02    5.5220141562039995E+00    8.4541009602657464E+00
N    7.9114646498452373E-02    5.5196487516389370E+00    1.0426478545789667E+01
Ga    7.9297308621851414E-02    7.3916999079657923E+00    1.1037792463794265E+01
N    7.9752334682844400E-02    7.3898309450468682E+00    1.2988958948205111E+01
Ga    8.0015315888404354E-02    5.5216875445850890E+00    1.3636782811163107E+01
N    7.9909265763948356E-02    5.5547392645318530E+00    1.5582623198749907E+01
Ga    7.9976311672153480E-02    7.3910279328430608E+00    1.5868167813221140E+01
N   -1.6460201840966138E+00    1.0108771379069571E+01    2.4805629064328314E+00
Ga   -1.5167889783492068E+00    8.3160639058724115E+00    3.2993922049405433E+00
N   -1.5227260386695987E+00    8.3158158146388477E+00    5.2373378726237156E+00
Ga   -1.5008180518455796E+00    1.0195842289769981E+01    5.8091426214427599E+00
N   -1.5215352351192637E+00    1.0183439124171427E+01    7.7864419729605565E+00
Ga   -1.5423884870248692E+00    8.3280650899321795E+00    8.4548802089643083E+00
N   -1.5420532845900736E+00    8.3273709324182850E+00    1.0426664145817789E+01
Ga   -1.5120480147134385E+00    1.0186692607637095E+01    1.1089851421237213E+01
N   -1.4943445955934616E+00    1.0195419364747856E+01    1.3064179710457738E+01
Ga   -1.5378702380429261E+00    8.3253471130357326E+00    1.3635205802939188E+01
N   -1.5104212251761131E+00    8.3093050313778924E+00    1.5581712356050055E+01
Ga   -1.7049899187879116E+00    1.0074090304109626E+01    1.6509487563423804E+01
N    6.5074632494712406E+00    1.9492800723105725E+00    2.4863766553859667E+00
Ga    6.5072966149749671E+00   -3.7616442779622269E-02    2.8496556874014805E+00
N    6.5085886976038241E+00   -3.5670842045925612E-02    5.0100583869053938E+00
Ga    6.5098475508806759E+00    1.7854740665217848E+00    5.8067305971602128E+00
N    6.5101952674932395E+00    1.8116410283961346E+00    7.7839578436780466E+00
Ga    6.5101357505545083E+00   -3.5105375448747436E-02    8.4563234631876956E+00
N    6.5112091756993893E+00   -3.5477058064546853E-02    1.0412356639078208E+01
Ga    6.5114103767890841E+00    1.8015088718713843E+00    1.1090152171552715E+01
N    6.5120834000132977E+00    1.7815547125195172E+00    1.3064302621553121E+01
Ga    6.5122271709258177E+00   -3.6289009799521675E-02    1.3909553710542310E+01
N    6.5120623307397905E+00   -3.6554529485372259E-02    1.6070457651387382E+01
Ga    6.5120295042067351E+00    2.0237968000188169E+00    1.6508516801988780E+01
Ga    6.4739284118812508E+00    3.6852131304989717E+00    1.2982789149589005E+00
N    5.0171128795757962E+00    4.5434765283742555E+00    2.4759784607393636E+00
Ga    4.8976783130705286E+00    2.7427437494763471E+00    3.3026760369648342E+00
N    4.8895488762777175E+00    2.7466803944525204E+00    5.2354805841547725E+00
Ga    4.8702845315434971E+00    4.6281808403472011E+00    5.8073447018991784E+00
N    4.8933793154765146E+00    4.6125219123304779E+00    7.7839492953464227E+00
Ga    4.9142363323843323E+00    2.7567325828802334E+00    8.4547992548781252E+00
N    4.9164483240695853E+00    2.7569442667247728E+00    1.0426042195727861E+01
Ga    4.8872151307646758E+00    4.6155137108219488E+00    1.1090657269638713E+01
N    4.8702525350205423E+00    4.6251950974953040E+00    1.3064896901420520E+01
Ga    4.9146085128021371E+00    2.7546141894997263E+00    1.3634837924542929E+01
N    4.8872699726991993E+00    2.7390997885415822E+00    1.5581650240552213E+01
Ga    5.0793395583950991E+00    4.5044714503470891E+00    1.6508134565571012E+01
N    6.5119302468985065E+00    3.6780266131127592E+00    1.7657045122882888E+01
N    3.2935936799443710E+00    7.5352555616152728E+00    2.4665733164397832E+00
N    3.2946423864131402E+00    5.5395928993899117E+00    5.0023829753758422E+00
Ga    3.2908341133684318E+00    7.3593764341197447E+00    5.8081071224391829E+00
N    3.2935063022159983E+00    7.3819973826887573E+00    7.7849981609058316E+00
Ga    3.2954435265834925E+00    5.5361904803652653E+00    8.4578546045291141E+00
N    3.2955679467852494E+00    5.5345671816783497E+00    1.0413967053596776E+01
Ga    3.2955560110092890E+00    7.3723517276332009E+00    1.1090843917614789E+01
N    3.2958119754764090E+00    7.3517818778471993E+00    1.3065122530621709E+01
Ga    3.2957153410174773E+00    5.5336522010445899E+00    1.3911146633842442E+01
N    3.2958558207957425E+00    5.5343566174354901E+00    1.6071103677883542E+01
Ga    3.2956861026958526E+00    7.5948414670702338E+00    1.6509031722524085E+01
Ga    3.3043032269791404E+00    9.2388772807776167E+00    1.3036123830464059E+00
N    1.7993105717126072E+00    1.0113551154943718E+01    2.4792758282399179E+00
Ga    1.6653952941158596E+00    8.3171064363101248E+00    3.2885028169490207E+00
N    1.6746356235850046E+00    8.3146486344032944E+00    5.2291378266674187E+00
Ga    1.6521924678446824E+00    1.0193314274469264E+01    5.8085365605812198E+00
N    1.6764892561914191E+00    1.0182267374443221E+01    7.7858294936544796E+00
Ga    1.6975122654307366E+00    8.3278139079154681E+00    8.4560599951816222E+00
N    1.7003476931326855E+00    8.3276236228489875E+00    1.0427268911136533E+01
Ga    1.6700553658985640E+00    1.0187061415900505E+01    1.1090295892737448E+01
N    1.6540976970132690E+00    1.0195438113112063E+01    1.3064326927346393E+01
Ga    1.6975624591279306E+00    8.3251920151952827E+00    1.3635040837242723E+01
N    1.6702117212899075E+00    8.3092838083681020E+00    1.5581432714585128E+01
Ga    1.8645742964243992E+00    1.0074039636352936E+01    1.6509222549667609E+01
N    3.2964611897572555E+00    9.2476523575433429E+00    1.7655773666193493E+01
N    9.7234290913538484E+00    1.8223917762408863E+00    2.6712126818946520E+00
Ga    9.7214230970420843E+00   -3.1736612955946139E-02    3.3041130589509775E+00
N    9.7224720973487671E+00   -2.1113534725709995E-02    5.2382054563111504E+00
Ga    9.7219989515113969E+00    1.8221338782964382E+00    5.9020707445509908E+00
N    9.7247490564228496E+00    1.8219587126272327E+00    7.8497452284794385E+00
Ga    9.7252990177998502E+00   -4.8883637115375890E-02    8.4556126434392187E+00
N    9.7268664071433300E+00   -5.0285504249107604E-02    1.0426648537615963E+01
Ga    9.7267128253712656E+00    1.8209085071504785E+00    1.1038684738684642E+01
N    9.7286532017786644E+00    1.8208295572753834E+00    1.2990062853263650E+01
Ga    9.7279091631928107E+00   -4.8365679639402803E-02    1.3635175664918190E+01
N    9.7281263686063717E+00   -1.5755369712265318E-02    1.5581789181678467E+01
Ga    9.7282524932096379E+00    1.8206436090699196E+00    1.5867790776491431E+01
N    7.9995658570301211E+00    4.5430075611157168E+00    2.4702937519338097E+00
Ga    8.1155940112412122E+00    2.7505166975951707E+00    3.2943676828932023E+00
N    8.1278974641240929E+00    2.7467548019288666E+00    5.2312813348282852E+00
Ga    8.1504277390789497E+00    4.6275478017082738E+00    5.8058234288621913E+00
N    8.1272457981650987E+00    4.6123872182866323E+00    7.7833602629296319E+00
Ga    8.1055966530061880E+00    2.7574838993870459E+00    8.4557116588148133E+00
N    8.1061603638014503E+00    2.7569163760460098E+00    1.0426639358664492E+01
Ga    8.1355534072798825E+00    4.6153352594345360E+00    1.1090925378584144E+01
N    8.1540811552276740E+00    4.6252446439976156E+00    1.3065119349978550E+01
Ga    8.1095844427851169E+00    2.7546911921176953E+00    1.3634953728266108E+01
N    8.1371003255059193E+00    2.7389934786364267E+00    1.5581846273472966E+01
Ga    7.9446735994632522E+00    4.5044256714756292E+00    1.6508265056074805E+01
N    6.5076559298263055E+00    7.3971626492069893E+00    2.6708478454563185E+00
Ga    6.5141344134470769E+00    5.5453219845842971E+00    3.2988816127793550E+00
N    6.5097939780815155E+00    5.5497664581214785E+00    5.2325108997423531E+00
Ga    6.5096472043481315E+00    7.3944216324072647E+00    5.9000355234989001E+00
N    6.5097205277733332E+00    7.3926691461074157E+00    7.8481740712962038E+00
Ga    6.5107349754315162E+00    5.5221469432889991E+00    8.4543181672764192E+00
N    6.5114123262236312E+00    5.5198853209654741E+00    1.0425893789845166E+01
Ga    6.5116051920788678E+00    7.3914864288536348E+00    1.1037472086648961E+01
N    6.5120625956881542E+00    7.3907845621566501E+00    1.2988910535919588E+01
Ga    6.5121921681415262E+00    5.5221015466783889E+00    1.3635814404180651E+01
N    6.5121146738147262E+00    5.5536173519177474E+00    1.5582367052484388E+01
Ga    6.5122705053443894E+00    7.3907947329329549E+00    1.5868210931105475E+01
N    4.7917448511476834E+00    1.0121012855153957E+01    2.4977528643308498E+00
Ga    4.9069283012332594E+00    8.3262325361566969E+00    3.3048521468012670E+00
N    4.9109855640971105E+00    8.3161853923392925E+00    5.2372875476283802E+00
Ga    4.9305443497794670E+00    1.0198612139050404E+01    5.8106288169077542E+00
N    4.9107402462635106E+00    1.0183494641906295E+01    7.7867281779424058E+00
Ga    4.8899316246976365E+00    8.3279170754842404E+00    8.4548330681667050E+00
N    4.8904787260209597E+00    8.3272160846132515E+00    1.0426298802331274E+01
Ga    4.9192468915061198E+00    1.0186458820380858E+01    1.1090056222442268E+01
N    4.9381289207055961E+00    1.0195960693875906E+01    1.3064770947728753E+01
Ga    4.8938519619256668E+00    8.3253178776353884E+00    1.3636042663595685E+01
N    4.9218362263723581E+00    8.3092090094643059E+00    1.5582466104452527E+01
Ga    4.7279828855132573E+00    1.0074744245396584E+01    1.6508962294114905E+01
O    2.8992219284166416E-02    3.9809884379554310E+00   -4.7612467766064853E-01
H   -1.8343738761591158E-01    5.8559503525741681E+00   -3.8947731196811058E-01
C    1.1969475677914636E+00    3.5503468394605373E+00   -1.2048819108683617E+00
H    2.1207160047928948E+00    4.0148252014683194E+00   -8.2334954061505372E-01
H    1.3112874937392462E+00    2.4552945630334473E+00   -1.1746584390383932E+00
H    1.0637563821206792E+00    3.8529496618805261E+00   -2.2525376676633497E+00
Ga    3.2893223625358341E+00    5.5409247695601351E+00    2.8458757465204414E+00
O   -2.0010487120185930E-01    6.8138775814279136E+00   -1.4767699985453336E-01
H    3.3740282843129570E-02    7.3006864551418698E+00    1.6419421454457197E+00
C    7.7767818196263461E-01    7.4922385986198261E+00   -9.5924921312779310E-01
H    7.5499113831310205E-01    8.5531531798800913E+00   -6.8029843009959512E-01
H    1.7952082907196303E+00    7.1125913460535761E+00   -7.8441174032672301E-01
H    5.3938953429817682E-01    7.4105417388431976E+00   -2.0293449067898295E+00
O   -3.3113836823417855E+00    9.3698752111356498E+00   -5.0836960622507477E-01
C   -3.8245864272553978E+00    1.0625850768098116E+01   -9.7340332978201183E-01
H   -4.7242067741254683E+00    1.0948850761432821E+01   -4.2206682102963866E-01
H   -3.0675985250707760E+00    1.1427439865368196E+01   -9.1322866212559983E-01
H   -4.0995331012548082E+00    1.0497959893595045E+01   -2.0300843974050031E+00
O    3.4439602156762916E+00    9.3823970031792943E+00   -5.0278597635565370E-01
C    3.8878125538023425E+00    1.0662947308183874E+01   -9.7772826260846124E-01
H    3.0925050196680974E+00    1.1422769392863700E+01   -9.2117065073437221E-01
H    4.7665626963380356E+00    1.1041645186963414E+01   -4.2655495812091487E-01
H    4.1725332249843117E+00    1.0546275432432743E+01   -2.0326249031285641E+00
O    6.3901192276716889E+00    3.5415984451740785E+00   -5.0747575158032765E-01
C    7.2708064962766521E+00    2.5709216559984625E+00   -1.0976876245932934E+00
H    8.3201608262902429E+00    2.9033140768724897E+00   -1.0863956889292818E+00
H    7.2061034948670617E+00    1.5886778598347053E+00   -6.0237085864271867E-01
H    6.9632852121031874E+00    2.4390353666351943E+00   -2.1464370029724060E+00
H    6.5085975465676773E+00    7.4020200875231419E+00    1.6431413815956035E+00
H    9.7329556977480340E+00    1.8200323586503782E+00    1.6446303586663742E+00
H    3.2933990116920548E+00    1.8240100896256575E+00    1.6424984556141486E+00
     &END COORD
     &KIND C
       BASIS_SET DZVP-MOLOPT-SR-GTH-q4
       POTENTIAL GTH-PBE-q4
       &POTENTIAL
2 2
0.3384712400000000E+00 2 -0.8803673979999999E+01  0.1339210850000000E+01
2
0.3025757500000000E+00 1  0.9622486650000001E+01
0.2915069400000000E+00 0
       &END POTENTIAL
     &END KIND
     &KIND O
       BASIS_SET DZVP-MOLOPT-SR-GTH-q6
       POTENTIAL GTH-PBE-q6
       &POTENTIAL
2 4
0.2445543000000000E+00 2 -0.1666721480000000E+02  0.2487311320000000E+01
2
0.2209559200000000E+00 1  0.1833745811000000E+02
0.2113324700000000E+00 0
       &END POTENTIAL
     &END KIND
     &KIND H
       BASIS_SET DZVP-MOLOPT-SR-GTH-q1
       POTENTIAL GTH-PBE-q1
       &POTENTIAL
1
0.2000000000000000E+00 2 -0.4178900440000000E+01  0.7244633100000000E+00
0
       &END POTENTIAL
     &END KIND
     &KIND N
       BASIS_SET DZVP-MOLOPT-SR-GTH
       POTENTIAL GTH-PBE-q5
       &POTENTIAL
2 3
0.2837905100000000E+00 2 -0.1241522559000000E+02  0.1868095920000000E+01
2
0.2554050000000000E+00 1  0.1363026257000000E+02
0.2454945300000000E+00 0
       &END POTENTIAL
     &END KIND
     &KIND Ga
       BASIS_SET DZVP-MOLOPT-SR-GTH
       POTENTIAL GTH-PBE-q13
       &POTENTIAL
2 1 10
0.4900000000000000E+00 0
3
0.4167772300000000E+00 3  0.1047568975000000E+02 -0.4921768140000000E+01  0.8707055900000000E+00
0.7770178090000000E+01 -0.2248152160000000E+01
0.1784415450000000E+01
0.5696265200000000E+00 2  0.1777985340000000E+01  0.1958597600000000E+00
-0.2317443900000000E+00
0.2381265000000000E+00 1 -0.1624868022000000E+02
       &END POTENTIAL
     &END KIND
     &TOPOLOGY
       NUMBER_OF_ATOMS  230
       MULTIPLE_UNIT_CELL  1 1 1
     &END TOPOLOGY
     &COLVAR
       &DISTANCE
         ATOMS  127 211
       &END DISTANCE
       &PRINT
       &END PRINT
     &END COLVAR
   &END SUBSYS
 &END FORCE_EVAL
