 # Version information for this restart file 
 # current date 2019-07-18 23:28:14.139
 # current working dir /lustre04/scratch/rzk/rzk/GaN-carbene/443-adatoms-both-2x2/21-FullCoveragePlus1/01-Mimic-0401
 # Program compiled at                              Sun Apr  7 00:48:11 EDT 2019
 # Program compiled on                          beluga2.int.ets1.calculquebec.ca
 # Program compiled for                        Beluga-Linux-x86-64-intel-openmpi
 # Source code revision number                                         svn:18619
 &GLOBAL
   PRINT_LEVEL  MEDIUM
   PROJECT_NAME TEST
   RUN_TYPE  GEO_OPT
 &END GLOBAL
 &MOTION
   &GEO_OPT
     MAX_ITER  500
     STEP_START_VAL  28
   &END GEO_OPT
 &END MOTION
 &FORCE_EVAL
   METHOD  QS
   STRESS_TENSOR  ANALYTICAL
   &DFT
     BASIS_SET_FILE_NAME BASIS_MOLOPT
     POTENTIAL_FILE_NAME GTH_POTENTIALS
     UKS  T
     SURFACE_DIPOLE_CORRECTION  T
     SURF_DIP_DIR  Z
     &SCF
       MAX_SCF  80
       EPS_SCF     5.0000000000000004E-06
       &OT  T
         PRECONDITIONER  FULL_ALL
       &END OT
       &OUTER_SCF  T
         OPTIMIZER  NONE
         EPS_SCF     5.0000000000000004E-06
         MAX_SCF  4
       &END OUTER_SCF
       &PRINT
         &RESTART  OFF
           BACKUP_COPIES  1
           &EACH
             JUST_ENERGY  0
             QS_SCF  0
             MD  20
           &END EACH
         &END RESTART
       &END PRINT
     &END SCF
     &QS
       EPS_DEFAULT     1.0000000000000000E-14
       METHOD  GPW
     &END QS
     &MGRID
       NGRIDS  5
       CUTOFF     1.2000000000000000E+03
     &END MGRID
     &XC
       DENSITY_CUTOFF     1.0000000000000000E-10
       GRADIENT_CUTOFF     1.0000000000000000E-10
       TAU_CUTOFF     1.0000000000000000E-10
       &XC_FUNCTIONAL  NO_SHORTCUT
         &PBE  T
         &END PBE
       &END XC_FUNCTIONAL
       &VDW_POTENTIAL
         POTENTIAL_TYPE  PAIR_POTENTIAL
         &PAIR_POTENTIAL
           R_CUTOFF     1.0000000000000009E+01
           TYPE  DFTD3
           PARAMETER_FILE_NAME dftd3.dat
           REFERENCE_FUNCTIONAL PBE
           EPS_CN     9.9999999999999995E-07
           CALCULATE_C9_TERM  T
           REFERENCE_C9_TERM  T
           LONG_RANGE_CORRECTION  F
           VERBOSE_OUTPUT  F
         &END PAIR_POTENTIAL
       &END VDW_POTENTIAL
     &END XC
   &END DFT
   &SUBSYS
     &CELL
       A     1.2864472766435110E+01    0.0000000000000000E+00    0.0000000000000000E+00
       B    -6.4322363581020028E+00    1.1140960178524477E+01    0.0000000000000000E+00
       C     0.0000000000000000E+00    0.0000000000000000E+00    3.2000000000000000E+01
       MULTIPLE_UNIT_CELL  1 1 1
       &CELL_REF
         A     1.2982353780853531E+01    0.0000000000000000E+00    0.0000000000000000E+00
         B    -6.4911768904267628E+00    1.1243048175136114E+01    0.0000000000000000E+00
         C     0.0000000000000000E+00    0.0000000000000000E+00    3.2000000000000000E+01
         MULTIPLE_UNIT_CELL  1 1 1
       &END CELL_REF
     &END CELL
     &COORD
N    7.3752601946158139E-02    1.9675074417860094E+00    2.4763150313334350E+00
Ga    7.8118193793413074E-02   -3.2470176010653322E-02    2.8655209162468318E+00
N    7.5662621733546695E-02   -2.4472514179122995E-02    5.0200915109697624E+00
Ga    7.7633227155667409E-02    1.7924151349483097E+00    5.8227634911422337E+00
N    7.7392758064406389E-02    1.8202412565357871E+00    7.7962997864885395E+00
Ga    7.7299238356447503E-02   -2.7165796406821648E-02    8.4639609771500126E+00
N    7.6527518440733328E-02   -2.5592969175173782E-02    1.0419732351271222E+01
Ga    7.6754972238700828E-02    1.8122056243899194E+00    1.1096439164468254E+01
N    7.6371017501459929E-02    1.7931080288952992E+00    1.3070142962649616E+01
Ga    7.6356667146111959E-02   -2.5407322591400171E-02    1.3915159657914742E+01
N    7.6778792427301165E-02   -2.5977053790372625E-02    1.6073572767355380E+01
Ga    7.6894328486860578E-02    2.0348184494911212E+00    1.6509205653567044E+01
Ga    4.9945307372803061E-02    3.7172091513163812E+00    1.3432327571384572E+00
N   -1.4201646955920839E+00    4.5429375745152285E+00    2.5056897921360997E+00
Ga   -1.5415013388247196E+00    2.7472031822829472E+00    3.3186442822931919E+00
N   -1.5426509224859990E+00    2.7480784216576204E+00    5.2482079461956861E+00
Ga   -1.5668225590245823E+00    4.6316928143387210E+00    5.8180718413647146E+00
N   -1.5420494151622111E+00    4.6198797820212629E+00    7.7935720690165020E+00
Ga   -1.5202095333832570E+00    2.7651661524960640E+00    8.4623556808372467E+00
N   -1.5188181980225048E+00    2.7671166807420229E+00    1.0432916314912088E+01
Ga   -1.5478018629876851E+00    4.6267190319185163E+00    1.1095545397562727E+01
N   -1.5651519354090886E+00    4.6366364640650382E+00    1.3069665980650027E+01
Ga   -1.5219371711564935E+00    2.7659184345475918E+00    1.3639613740944590E+01
N   -1.5497393150240668E+00    2.7489573759428643E+00    1.5585072651782665E+01
Ga   -1.3546626595245406E+00    4.5142614715129890E+00    1.6509189580448364E+01
N    7.6858699481469603E-02    3.6879748540225470E+00    1.7653215319236264E+01
N   -3.1435323747401398E+00    7.5373421220880710E+00    2.4779380987967774E+00
Ga   -3.1437524609629213E+00    5.5441668441771297E+00    2.8373236569270786E+00
N   -3.1404098699038641E+00    5.5436565733064880E+00    5.0075294208744934E+00
Ga   -3.1397690349925322E+00    7.3630889444030974E+00    5.8144995457607447E+00
N   -3.1397811654482859E+00    7.3898779636236931E+00    7.7915401405762923E+00
Ga   -3.1398703368965037E+00    5.5445944496650554E+00    8.4635618124998881E+00
N   -3.1395834539663072E+00    5.5453780820882326E+00    1.0419276093324642E+01
Ga   -3.1396148140439237E+00    7.3832479929220485E+00    1.1095730515647476E+01
N   -3.1397499480764068E+00    7.3639389971101190E+00    1.3069074452374043E+01
Ga   -3.1400020902134567E+00    5.5458082379340263E+00    1.3914500613152729E+01
N   -3.1405387219002807E+00    5.5446105868922002E+00    1.6073197129679425E+01
Ga   -3.1394135482339016E+00    7.6041808110495523E+00    1.6509158715215200E+01
Ga   -3.1362351298566824E+00    9.2237156114389993E+00    1.2894836064028559E+00
N   -4.6419654674427795E+00    1.0121446749031222E+01    2.4950747703501044E+00
Ga   -4.7551172434630100E+00    8.3319685902599314E+00    3.3067412051870257E+00
N   -4.7588857066338548E+00    8.3213840618221155E+00    5.2415101186374198E+00
Ga   -4.7778131857235779E+00    1.0203230167343602E+01    5.8155403442144964E+00
N   -4.7562274188691340E+00    1.0191269961726615E+01    7.7921817175348522E+00
Ga   -4.7356205208550257E+00    8.3360261344287654E+00    8.4602165262282316E+00
N   -4.7350594347416912E+00    8.3378835446765809E+00    1.0431491712661627E+01
Ga   -4.7640660851072312E+00    1.0196796670722044E+01    1.1096338591385287E+01
N   -4.7810848772659362E+00    1.0206912533165125E+01    1.3069606258364237E+01
Ga   -4.7377150388219391E+00    8.3365843212635280E+00    1.3639650937265356E+01
N   -4.7649605035073197E+00    8.3200374917895807E+00    1.5585030729744894E+01
Ga   -4.5717020538851081E+00    1.0085504321916350E+01    1.6509300226235531E+01
N   -3.1387472250715658E+00    9.2585232026511566E+00    1.7656760991179851E+01
N    3.2937071805180653E+00    1.8238793958872523E+00    2.6780503948423036E+00
Ga    3.2912261456108811E+00   -3.4781725052116547E-02    3.3022295621128941E+00
N    3.2936465056230633E+00   -1.6797477075191435E-02    5.2398917196535715E+00
Ga    3.2932172083253000E+00    1.8256157499388825E+00    5.9069798111987746E+00
N    3.2931121330176265E+00    1.8295587007298777E+00    7.8550361251460501E+00
Ga    3.2934286878987158E+00   -4.0720429824981592E-02    8.4614877669395732E+00
N    3.2926493274316804E+00   -3.9644358839716856E-02    1.0432419934441159E+01
Ga    3.2932371954886044E+00    1.8317950889615731E+00    1.1044323716324378E+01
N    3.2925196831494725E+00    1.8318080020758112E+00    1.2994134291918071E+01
Ga    3.2926509401726505E+00   -3.6723960658736766E-02    1.3639746357221927E+01
N    3.2928236749118378E+00   -5.0829958095738644E-03    1.5585071887569599E+01
Ga    3.2937649816965178E+00    1.8313856480959818E+00    1.5868446020262772E+01
N    1.5713984469033593E+00    4.5466917978861021E+00    2.5013475260689240E+00
Ga    1.6906187635241141E+00    2.7519228267995621E+00    3.3080456967352867E+00
N    1.6954923529611650E+00    2.7482958557727843E+00    5.2419892919149254E+00
Ga    1.7189014134697902E+00    4.6298730078539174E+00    5.8172725152966267E+00
N    1.6961315587006049E+00    4.6197361619878325E+00    7.7928538379374865E+00
Ga    1.6743892641520912E+00    2.7655399170100798E+00    8.4627373816785365E+00
N    1.6724046303742492E+00    2.7673040246345701E+00    1.0433160685797390E+01
Ga    1.7010734900841940E+00    4.6268162725560575E+00    1.1095670366532483E+01
N    1.7179967618338177E+00    4.6368215720547843E+00    1.3069663206308846E+01
Ga    1.6744644475192572E+00    2.7662047856625902E+00    1.3639744718385035E+01
N    1.7034174117229939E+00    2.7490288554724440E+00    1.5585081893800497E+01
Ga    1.5086459720644640E+00    4.5143519444210130E+00    1.6509335521273897E+01
N    6.8326752588218798E-02    7.3872384382962206E+00    2.6814650402392304E+00
Ga    7.6951392566103602E-02    5.5578241398513226E+00    3.3281670965718910E+00
N    7.6504269577230471E-02    5.5497223355289478E+00    5.2577920544857673E+00
Ga    7.5733971950658743E-02    7.4012297519309440E+00    5.9054608457687703E+00
N    7.6777785058218098E-02    7.4012518869555430E+00    7.8545936754400474E+00
Ga    7.7060544072366260E-02    5.5303620160244780E+00    8.4586662388521408E+00
N    7.6645247924998050E-02    5.5306051931981459E+00    1.0430580849025366E+01
Ga    7.6529484980261561E-02    7.4021095147973437E+00    1.1043110638389193E+01
N    7.6230335130858071E-02    7.4024162356634022E+00    1.2993455300270082E+01
Ga    7.6405209282704681E-02    5.5343846696431482E+00    1.3639993666026418E+01
N    7.6900932106191006E-02    5.5666580758323976E+00    1.5585612831933382E+01
Ga    7.6905234820095925E-02    7.4026977561584921E+00    1.5869372530858445E+01
N   -1.6479423194993523E+00    1.0111189185138876E+01    2.4833450019762586E+00
Ga   -1.5199496209735839E+00    8.3190118950364997E+00    3.3019292776223583E+00
N   -1.5235594308169980E+00    8.3209822189071883E+00    5.2410690140605221E+00
Ga   -1.5009610997282719E+00    1.0200634338373911E+01    5.8154208168448838E+00
N   -1.5222411014477253E+00    1.0190939001813646E+01    7.7925202804610088E+00
Ga   -1.5432869381037873E+00    8.3359204570142360E+00    8.4603350706048897E+00
N   -1.5441925890216572E+00    8.3376011212064860E+00    1.0431650055629692E+01
Ga   -1.5149238825127462E+00    1.0196677912096691E+01    1.1095541606029892E+01
N   -1.4981198765312660E+00    1.0206975328749937E+01    1.3068945475316653E+01
Ga   -1.5417671149821772E+00    8.3366818230131177E+00    1.3639592155396853E+01
N   -1.5137149831331467E+00    8.3200499086555748E+00    1.5584886422857396E+01
Ga   -1.7068058206967684E+00    1.0085762586126769E+01    1.6508958194305997E+01
N    6.5065067389823419E+00    1.9520191486609324E+00    2.4933262077655609E+00
Ga    6.5059482856001267E+00   -3.6300657106186247E-02    2.8541596353460279E+00
N    6.5078745635116366E+00   -3.0093858586976992E-02    5.0161574635238866E+00
Ga    6.5098795329620858E+00    1.7904067369256094E+00    5.8164813196661829E+00
N    6.5095668609352382E+00    1.8194791174215748E+00    7.7925146570024770E+00
Ga    6.5095023432760470E+00   -2.7435443158014546E-02    8.4623229829085904E+00
N    6.5090623136357602E+00   -2.5581486008510450E-02    1.0418526703776054E+01
Ga    6.5090808133953528E+00    1.8124081805194132E+00    1.1095155604795035E+01
N    6.5086800639865929E+00    1.7930920335731388E+00    1.3068405823388481E+01
Ga    6.5087185927247555E+00   -2.4893159857342046E-02    1.3913473261217311E+01
N    6.5090208590912368E+00   -2.4544457734199242E-02    1.6072479818982899E+01
Ga    6.5091022788141588E+00    2.0342360621339428E+00    1.6509025435625073E+01
Ga    6.4784616156451618E+00    3.6774103217818688E+00    1.3010777427099434E+00
N    5.0163526844499104E+00    4.5442157866883406E+00    2.4840273253568093E+00
Ga    4.8974583107716949E+00    2.7479715629894308E+00    3.3136693468732821E+00
N    4.8902032286006856E+00    2.7516701149119829E+00    5.2453772788171280E+00
Ga    4.8699390220930772E+00    4.6337332258981583E+00    5.8161082305568907E+00
N    4.8921034810096815E+00    4.6213584203364535E+00    7.7916927004644698E+00
Ga    4.9129464392510371E+00    2.7654391310883160E+00    8.4604536712499048E+00
N    4.9134760589502626E+00    2.7675071021962845E+00    1.0431438507403660E+01
Ga    4.8844323986364504E+00    4.6267449690358715E+00    1.1095420348208934E+01
N    4.8670720208513583E+00    4.6365231532015914E+00    1.3068704175765543E+01
Ga    4.9108326907141118E+00    2.7660992157485573E+00    1.3639179025953361E+01
N    4.8834384800836492E+00    2.7496475845461856E+00    1.5583977441067235E+01
Ga    5.0771649971572792E+00    4.5146701575572452E+00    1.6509363736428480E+01
N    6.5091864280522307E+00    3.6875001907050411E+00    1.7657761961578803E+01
N    3.2918473942999786E+00    7.5357058659932514E+00    2.4737661523567289E+00
N    3.2941190958851911E+00    5.5435116946534455E+00    5.0093080831896000E+00
Ga    3.2894882099877063E+00    7.3645105525218497E+00    5.8129444458535238E+00
N    3.2922485923752918E+00    7.3903044040094104E+00    7.7898368556761728E+00
Ga    3.2935708932690466E+00    5.5449426255554544E+00    8.4630833013570719E+00
N    3.2927175195217475E+00    5.5456387146399644E+00    1.0418830019083746E+01
Ga    3.2928829861399374E+00    7.3831773599284940E+00    1.1095982688427735E+01
N    3.2924304114779526E+00    7.3639072882644605E+00    1.3069255262282196E+01
Ga    3.2929688809934623E+00    5.5458240773761132E+00    1.3914584999340045E+01
N    3.2941321606398875E+00    5.5445286698715170E+00    1.6073458065120018E+01
Ga    3.2933152756179997E+00    7.6040723785002484E+00    1.6509496324836171E+01
Ga    3.3023511984545206E+00    9.2379975445541316E+00    1.3068854842432951E+00
N    1.7988191145935044E+00    1.0115147318198003E+01    2.4830355265229458E+00
Ga    1.6620306771644009E+00    8.3178568444974896E+00    3.2904730406975640E+00
N    1.6728934882377819E+00    8.3193536798861025E+00    5.2320957610252625E+00
Ga    1.6517687011990465E+00    1.0198175581662170E+01    5.8134242570729393E+00
N    1.6758812684106534E+00    1.0189661566740778E+01    7.7908561373249130E+00
Ga    1.6962645171880879E+00    8.3355773673943396E+00    8.4608737859780323E+00
N    1.6974249852346506E+00    8.3376010130357159E+00    1.0431883126527048E+01
Ga    1.6681692869131015E+00    1.0196690539428619E+01    1.1095858262398714E+01
N    1.6509990492330375E+00    1.0206836382151408E+01    1.3069248986313827E+01
Ga    1.6943198930498271E+00    8.3364533333097040E+00    1.3639727374380801E+01
N    1.6675856832327907E+00    8.3199500320546633E+00    1.5585215147944387E+01
Ga    1.8609239392394570E+00    1.0085553701540944E+01    1.6509161488861569E+01
N    3.2927125865681264E+00    9.2584853432280685E+00    1.7657233811510984E+01
N    9.7216384356038024E+00    1.8245119008693051E+00    2.6793093647372097E+00
Ga    9.7208728868944529E+00   -3.0766219949979967E-02    3.3085834442581858E+00
N    9.7230314378472080E+00   -1.7078069465837419E-02    5.2431522194716518E+00
Ga    9.7221617281546084E+00    1.8263197711457224E+00    5.9084754728065896E+00
N    9.7247024615434832E+00    1.8293521905211922E+00    7.8559758926121672E+00
Ga    9.7246654228939260E+00   -4.1420828311057270E-02    8.4608415482319668E+00
N    9.7248556910193429E+00   -4.0035124552037352E-02    1.0431855526849438E+01
Ga    9.7248985812013249E+00    1.8314813943078532E+00    1.1043923621649062E+01
N    9.7246180523470276E+00    1.8315434796527923E+00    1.2993875026134335E+01
Ga    9.7248044573141268E+00   -3.6823041025948543E-02    1.3639918514981986E+01
N    9.7254976168409311E+00   -5.1861523605710351E-03    1.5585323803017678E+01
Ga    9.7244986663080244E+00    1.8312924251662404E+00    1.5868767749450193E+01
N    7.9973897928752624E+00    4.5431090518765016E+00    2.4770393085700251E+00
Ga    8.1153346786404548E+00    2.7532581388946733E+00    3.3048791606283627E+00
N    8.1274056280979430E+00    2.7515060708854118E+00    5.2405835638738196E+00
Ga    8.1496234474044140E+00    4.6329866088322760E+00    5.8139506961303598E+00
N    8.1265320931076950E+00    4.6210174960782489E+00    7.7907285621098392E+00
Ga    8.1053402121185556E+00    2.7659527583867654E+00    8.4610418263621288E+00
N    8.1046185364874326E+00    2.7674693920934352E+00    1.0431758248236076E+01
Ga    8.1334024222430799E+00    4.6265457200055335E+00    1.1095897388017647E+01
N    8.1502335235841752E+00    4.6364215641457429E+00    1.3068948723946948E+01
Ga    8.1065180800513232E+00    2.7660508276424562E+00    1.3639301203516633E+01
N    8.1348200513597924E+00    2.7495407436908934E+00    1.5584023073377182E+01
Ga    7.9412575656600266E+00    4.5147916916166899E+00    1.6509268087366603E+01
N    6.5073914903875663E+00    7.3976925748004820E+00    2.6770723629970905E+00
Ga    6.5115359731717408E+00    5.5454262943131951E+00    3.3051547311025371E+00
N    6.5091688337916604E+00    5.5542118942517833E+00    5.2394517413234771E+00
Ga    6.5088640113713048E+00    7.3993322380432245E+00    5.9056032720487259E+00
N    6.5087463600061941E+00    7.4008322091551895E+00    7.8536484927666734E+00
Ga    6.5096378976347653E+00    5.5308798844550147E+00    8.4603710986472507E+00
N    6.5090230402617975E+00    5.5310261991389078E+00    1.0431293650176523E+01
Ga    6.5088556281409247E+00    7.4024509895122090E+00    1.1043443120978575E+01
N    6.5084568605217283E+00    7.4025585221751404E+00    1.2993579433456063E+01
Ga    6.5087020085994247E+00    5.5338694866788396E+00    1.3639345962201526E+01
N    6.5090779316861518E+00    5.5655397325174869E+00    1.5584368469783964E+01
Ga    6.5091624692685164E+00    7.4016266550406247E+00    1.5868322763513039E+01
N    4.7900120772084502E+00    1.0121620184390091E+01    2.4973100040913190E+00
Ga    4.9058144017880148E+00    8.3272064123917797E+00    3.3086721299706996E+00
N    4.9104114392463156E+00    8.3211601772965977E+00    5.2417394691880057E+00
Ga    4.9313141660709467E+00    1.0203382164224942E+01    5.8163650369221456E+00
N    4.9104351423011323E+00    1.0191166976161407E+01    7.7923813366260406E+00
Ga    4.8886446509407122E+00    8.3358349701080066E+00    8.4597447319717460E+00
N    4.8880296106096095E+00    8.3375167043070562E+00    1.0431024153155921E+01
Ga    4.9170855328953467E+00    1.0196460437925367E+01    1.1095966481337094E+01
N    4.9338028599470318E+00    1.0206802511132087E+01    1.3069335342540784E+01
Ga    4.8902923251846380E+00    8.3367336006222654E+00    1.3639948181752011E+01
N    4.9186941053693483E+00    8.3200278467194586E+00    1.5585268872739084E+01
Ga    4.7258330228499830E+00    1.0085575113869252E+01    1.6509600228761411E+01
O   -3.1834039563438817E-03    3.9933754444877518E+00   -4.6872774412285634E-01
H   -2.5514969944491650E-01    5.8338798781562664E+00   -3.6845034895614232E-01
C    1.1539689959229225E+00    3.5884153184088610E+00   -1.2281405341124472E+00
H    2.0934507365086379E+00    3.9808462854314537E+00   -8.0337929237386974E-01
H    1.2246592537255778E+00    2.4904558596355022E+00   -1.2932540701931237E+00
H    1.0423141406539491E+00    3.9892467078219305E+00   -2.2459895451473790E+00
Ga    3.2904680030335727E+00    5.5420781798539860E+00    2.8512363769742461E+00
O   -2.3841342261599893E-01    6.7998309212708730E+00   -1.5383728746055192E-01
H    1.9120295393724011E-02    7.2999733210737823E+00    1.6427047563699464E+00
C    8.5127629232726387E-01    7.3803895790615517E+00   -8.9442783829179917E-01
H    8.5492866331770712E-01    8.4583636121285863E+00   -6.9119823663860025E-01
H    1.8257647306790845E+00    6.9680377050590954E+00   -5.8703017618149733E-01
H    7.2907021997047483E-01    7.2347686065921426E+00   -1.9781711658393228E+00
O   -3.3066949509467762E+00    9.3727341597794744E+00   -5.1157651873868049E-01
C   -3.9750029087044045E+00    1.0549166370592474E+01   -9.8662099093498556E-01
H   -4.9955258714455884E+00    1.0651119411495895E+01   -5.7670842880379625E-01
H   -3.4168078976830540E+00    1.1474954215524480E+01   -7.5647760051028068E-01
H   -4.0485442653444865E+00    1.0463653976987745E+01   -2.0814863651272137E+00
O    3.3998369938041106E+00    9.3345614451538079E+00   -5.0577866721843967E-01
C    3.8749184112747597E+00    1.0579309433596384E+01   -1.0379622888730944E+00
H    3.2108288458199783E+00    1.1425619655589085E+01   -7.8423372477831232E-01
H    4.8956199331607229E+00    1.0822380778687448E+01   -6.9385653715930518E-01
H    3.8928274355761254E+00    1.0482990430874493E+01   -2.1342502270765662E+00
O    6.3853492833903811E+00    3.5800812641206337E+00   -5.0838873521598216E-01
C    7.0935155153549694E+00    2.5043073500717656E+00   -1.1443774973293130E+00
H    8.1841653132890446E+00    2.5607981523274854E+00   -9.8056444984289481E-01
H    6.7414812534364161E+00    1.5131659266207804E+00   -8.1004263417129507E-01
H    6.9122014596259493E+00    2.5884042643411291E+00   -2.2268383025365628E+00
H    6.5096525496887967E+00    7.3989606952897660E+00    1.6496318788206281E+00
H    9.7269704757084803E+00    1.8251449352732161E+00    1.6522156370098284E+00
H    3.3016834984114953E+00    1.8253015704622539E+00    1.6508650399021607E+00
     &END COORD
     &KIND C
       BASIS_SET DZVP-MOLOPT-SR-GTH-q4
       POTENTIAL GTH-PBE-q4
       &POTENTIAL
2 2
0.3384712400000000E+00 2 -0.8803673979999999E+01  0.1339210850000000E+01
2
0.3025757500000000E+00 1  0.9622486650000001E+01
0.2915069400000000E+00 0
       &END POTENTIAL
     &END KIND
     &KIND O
       BASIS_SET DZVP-MOLOPT-SR-GTH-q6
       POTENTIAL GTH-PBE-q6
       &POTENTIAL
2 4
0.2445543000000000E+00 2 -0.1666721480000000E+02  0.2487311320000000E+01
2
0.2209559200000000E+00 1  0.1833745811000000E+02
0.2113324700000000E+00 0
       &END POTENTIAL
     &END KIND
     &KIND H
       BASIS_SET DZVP-MOLOPT-SR-GTH-q1
       POTENTIAL GTH-PBE-q1
       &POTENTIAL
1
0.2000000000000000E+00 2 -0.4178900440000000E+01  0.7244633100000000E+00
0
       &END POTENTIAL
     &END KIND
     &KIND N
       BASIS_SET DZVP-MOLOPT-SR-GTH
       POTENTIAL GTH-PBE-q5
       &POTENTIAL
2 3
0.2837905100000000E+00 2 -0.1241522559000000E+02  0.1868095920000000E+01
2
0.2554050000000000E+00 1  0.1363026257000000E+02
0.2454945300000000E+00 0
       &END POTENTIAL
     &END KIND
     &KIND Ga
       BASIS_SET DZVP-MOLOPT-SR-GTH
       POTENTIAL GTH-PBE-q13
       &POTENTIAL
2 1 10
0.4900000000000000E+00 0
3
0.4167772300000000E+00 3  0.1047568975000000E+02 -0.4921768140000000E+01  0.8707055900000000E+00
0.7770178090000000E+01 -0.2248152160000000E+01
0.1784415450000000E+01
0.5696265200000000E+00 2  0.1777985340000000E+01  0.1958597600000000E+00
-0.2317443900000000E+00
0.2381265000000000E+00 1 -0.1624868022000000E+02
       &END POTENTIAL
     &END KIND
     &TOPOLOGY
       NUMBER_OF_ATOMS  230
       MULTIPLE_UNIT_CELL  1 1 1
     &END TOPOLOGY
     &COLVAR
       &DISTANCE
         ATOMS  127 211
       &END DISTANCE
       &PRINT
       &END PRINT
     &END COLVAR
   &END SUBSYS
 &END FORCE_EVAL
