 # Version information for this restart file 
 # current date 2019-07-18 23:19:52.648
 # current working dir /lustre04/scratch/rzk/rzk/GaN-carbene/443-adatoms-both-2x2/21-FullCoveragePlus1/01-Mimic-0401
 # Program compiled at                              Sun Apr  7 00:48:11 EDT 2019
 # Program compiled on                          beluga2.int.ets1.calculquebec.ca
 # Program compiled for                        Beluga-Linux-x86-64-intel-openmpi
 # Source code revision number                                         svn:18619
 &GLOBAL
   PRINT_LEVEL  MEDIUM
   PROJECT_NAME TEST
   RUN_TYPE  GEO_OPT
 &END GLOBAL
 &MOTION
   &GEO_OPT
     MAX_ITER  500
     STEP_START_VAL  25
   &END GEO_OPT
 &END MOTION
 &FORCE_EVAL
   METHOD  QS
   STRESS_TENSOR  ANALYTICAL
   &DFT
     BASIS_SET_FILE_NAME BASIS_MOLOPT
     POTENTIAL_FILE_NAME GTH_POTENTIALS
     UKS  T
     SURFACE_DIPOLE_CORRECTION  T
     SURF_DIP_DIR  Z
     &SCF
       MAX_SCF  80
       EPS_SCF     5.0000000000000004E-06
       &OT  T
         PRECONDITIONER  FULL_ALL
       &END OT
       &OUTER_SCF  T
         OPTIMIZER  NONE
         EPS_SCF     5.0000000000000004E-06
         MAX_SCF  4
       &END OUTER_SCF
       &PRINT
         &RESTART  OFF
           BACKUP_COPIES  1
           &EACH
             JUST_ENERGY  0
             QS_SCF  0
             MD  20
           &END EACH
         &END RESTART
       &END PRINT
     &END SCF
     &QS
       EPS_DEFAULT     1.0000000000000000E-14
       METHOD  GPW
     &END QS
     &MGRID
       NGRIDS  5
       CUTOFF     1.2000000000000000E+03
     &END MGRID
     &XC
       DENSITY_CUTOFF     1.0000000000000000E-10
       GRADIENT_CUTOFF     1.0000000000000000E-10
       TAU_CUTOFF     1.0000000000000000E-10
       &XC_FUNCTIONAL  NO_SHORTCUT
         &PBE  T
         &END PBE
       &END XC_FUNCTIONAL
       &VDW_POTENTIAL
         POTENTIAL_TYPE  PAIR_POTENTIAL
         &PAIR_POTENTIAL
           R_CUTOFF     1.0000000000000009E+01
           TYPE  DFTD3
           PARAMETER_FILE_NAME dftd3.dat
           REFERENCE_FUNCTIONAL PBE
           EPS_CN     9.9999999999999995E-07
           CALCULATE_C9_TERM  T
           REFERENCE_C9_TERM  T
           LONG_RANGE_CORRECTION  F
           VERBOSE_OUTPUT  F
         &END PAIR_POTENTIAL
       &END VDW_POTENTIAL
     &END XC
   &END DFT
   &SUBSYS
     &CELL
       A     1.2864472766435110E+01    0.0000000000000000E+00    0.0000000000000000E+00
       B    -6.4322363581020028E+00    1.1140960178524477E+01    0.0000000000000000E+00
       C     0.0000000000000000E+00    0.0000000000000000E+00    3.2000000000000000E+01
       MULTIPLE_UNIT_CELL  1 1 1
       &CELL_REF
         A     1.2982353780853531E+01    0.0000000000000000E+00    0.0000000000000000E+00
         B    -6.4911768904267628E+00    1.1243048175136114E+01    0.0000000000000000E+00
         C     0.0000000000000000E+00    0.0000000000000000E+00    3.2000000000000000E+01
         MULTIPLE_UNIT_CELL  1 1 1
       &END CELL_REF
     &END CELL
     &COORD
N    7.2429089959589896E-02    1.9704246486589305E+00    2.4764000119276801E+00
Ga    7.7296924080235252E-02   -2.9252761091454100E-02    2.8641342895894670E+00
N    7.4702032019158343E-02   -2.2685859363347424E-02    5.0196454043872363E+00
Ga    7.6395412209889837E-02    1.7936433321762630E+00    5.8231908553004450E+00
N    7.6538187504431351E-02    1.8205070007750128E+00    7.7966289046100439E+00
Ga    7.6536830913063736E-02   -2.7116176076435575E-02    8.4643793251091388E+00
N    7.6464155442939136E-02   -2.6562494561251392E-02    1.0420354573833947E+01
Ga    7.6743320779312701E-02    1.8113317749601570E+00    1.1097649990321527E+01
N    7.7258524018823688E-02    1.7911607180728109E+00    1.3071072351138753E+01
Ga    7.7309460395447033E-02   -2.6516143601251336E-02    1.3917514031283782E+01
N    7.8120234674275257E-02   -2.7398657681021552E-02    1.6074764280131728E+01
Ga    7.8320371719212370E-02    2.0336863733761361E+00    1.6513635139558872E+01
Ga    4.8536732857628592E-02    3.7198700694786968E+00    1.3432450282759973E+00
N   -1.4214119444705506E+00    4.5459659735565161E+00    2.5059570356797276E+00
Ga   -1.5425057558635655E+00    2.7505202488816214E+00    3.3197401220519822E+00
N   -1.5437814539001380E+00    2.7498614296105934E+00    5.2489259482316850E+00
Ga   -1.5679779141916967E+00    4.6335862721710868E+00    5.8184657906919712E+00
N   -1.5429745372483776E+00    4.6204739842584184E+00    7.7939952039834788E+00
Ga   -1.5211395349512358E+00    2.7655394323401667E+00    8.4629205142306443E+00
N   -1.5187849285607047E+00    2.7663499504816453E+00    1.0433560689164670E+01
Ga   -1.5477492187107735E+00    4.6258479450380108E+00    1.1096924876321717E+01
N   -1.5644760434468516E+00    4.6351716074287648E+00    1.3070807166710647E+01
Ga   -1.5205679601404347E+00    2.7644694312399194E+00    1.3641963899210799E+01
N   -1.5480688427930016E+00    2.7475761753111123E+00    1.5587057666533026E+01
Ga   -1.3526314645150022E+00    4.5124591373587233E+00    1.6513746243445034E+01
N    7.8345595599138090E-02    3.6860493293360421E+00    1.7658434212425142E+01
N   -3.1443357479019478E+00    7.5399838623560091E+00    2.4787188998064713E+00
Ga   -3.1449533701209127E+00    5.5467332019202589E+00    2.8369983597783768E+00
N   -3.1414456145492022E+00    5.5451934155674509E+00    5.0073481593376608E+00
Ga   -3.1409330067764474E+00    7.3644732347134170E+00    5.8145031183270639E+00
N   -3.1405095654594319E+00    7.3900707779450006E+00    7.7918346120564079E+00
Ga   -3.1409130477689047E+00    5.5448050875379806E+00    8.4641149873484895E+00
N   -3.1398719564544848E+00    5.5445189647812771E+00    1.0420091622348645E+01
Ga   -3.1395368671295674E+00    7.3822812060110126E+00    1.1097362679228462E+01
N   -3.1389122144945585E+00    7.3620148282901106E+00    1.3070749416656664E+01
Ga   -3.1383889515447931E+00    5.5440776233674498E+00    1.3916880131979431E+01
N   -3.1379535912619043E+00    5.5433029736163242E+00    1.6074393531327914E+01
Ga   -3.1376138938997653E+00    7.6029500074532015E+00    1.6512262565998473E+01
Ga   -3.1362340631031320E+00    9.2262403879092076E+00    1.2906868736735773E+00
N   -4.6429533349489125E+00    1.0124179851410664E+01    2.4947836931195999E+00
Ga   -4.7561083053795334E+00    8.3346743600019515E+00    3.3068344829391960E+00
N   -4.7599298751282682E+00    8.3231272914697136E+00    5.2416855998289549E+00
Ga   -4.7789153072233894E+00    1.0204866520386192E+01    5.8155616878292449E+00
N   -4.7569871978849907E+00    1.0191530920732754E+01    7.7923447311022578E+00
Ga   -4.7361944358151176E+00    8.3361261806682840E+00    8.4609136225695227E+00
N   -4.7349660870512311E+00    8.3371532633475223E+00    1.0432418923305415E+01
Ga   -4.7640645463382540E+00    1.0195880310927157E+01    1.1097833671475010E+01
N   -4.7807831865629185E+00    1.0205634916891745E+01    1.3071087239056016E+01
Ga   -4.7369391018140883E+00    8.3350445988995059E+00    1.3641749101626294E+01
N   -4.7635706960281814E+00    8.3181892296527185E+00    1.5586840954681387E+01
Ga   -4.5697152171885449E+00    1.0083581406431730E+01    1.6512357452425313E+01
N   -3.1372040960635381E+00    9.2568247339025582E+00    1.7659968433761595E+01
N    3.2916067192230041E+00    1.8267217337416373E+00    2.6783305952425658E+00
Ga    3.2898230631447758E+00   -3.1701115553573141E-02    3.3023862780715687E+00
N    3.2926045761387086E+00   -1.5041893065966422E-02    5.2400627349494204E+00
Ga    3.2920497190608984E+00    1.8273224710830676E+00    5.9075068866376386E+00
N    3.2924158269792709E+00    1.8300086733543572E+00    7.8554524474709444E+00
Ga    3.2927476309927313E+00   -4.0561031365961467E-02    8.4621810961281483E+00
N    3.2925448832106667E+00   -4.0658804496649305E-02    1.0433369043062980E+01
Ga    3.2932054229713272E+00    1.8308569904414300E+00    1.1045622437563100E+01
N    3.2933830754910107E+00    1.8302519077227757E+00    1.2995540429710818E+01
Ga    3.2933719497502669E+00   -3.8243776673718297E-02    1.3641903361332950E+01
N    3.2943661538762110E+00   -6.6592831999512389E-03    1.5587042335655077E+01
Ga    3.2944367601262674E+00    1.8298952226314213E+00    1.5872297363163691E+01
N    1.5700353101155187E+00    4.5495225376245712E+00    2.5011983078464932E+00
Ga    1.6890630103857831E+00    2.7550075279996253E+00    3.3090286203114241E+00
N    1.6940084570817437E+00    2.7501996729878160E+00    5.2426392203458869E+00
Ga    1.7178652760385709E+00    4.6318530947078678E+00    5.8176001821264061E+00
N    1.6953814663085023E+00    4.6203494359403026E+00    7.7932616515083533E+00
Ga    1.6736256136979804E+00    2.7660013014233060E+00    8.4634612344154476E+00
N    1.6722608368912326E+00    2.7665030650760745E+00    1.0433868997955612E+01
Ga    1.7010302792826304E+00    4.6259065402441175E+00    1.1097001835330904E+01
N    1.7190740372020794E+00    4.6352780424006870E+00    1.3070760530465551E+01
Ga    1.6750569052509861E+00    2.7646814758812224E+00    1.3642098665224855E+01
N    1.7045800514397427E+00    2.7475775662024322E+00    1.5587025784215848E+01
Ga    1.5094801424363278E+00    4.5125292763266867E+00    1.6513801273010692E+01
N    6.7729390662539801E-02    7.3907611111121909E+00    2.6819033865577517E+00
Ga    7.5882475520553064E-02    5.5609776099694734E+00    3.3282413694021029E+00
N    7.5380868178771723E-02    5.5515390826703728E+00    5.2577318899543437E+00
Ga    7.4986821323608024E-02    7.4030745763158956E+00    5.9051875355853403E+00
N    7.6085584370311585E-02    7.4017831713847952E+00    7.8544114946186170E+00
Ga    7.6298296224761600E-02    5.5309375193839729E+00    8.4592760716272632E+00
N    7.6597776906570464E-02    5.5298613574844282E+00    1.0431277906146903E+01
Ga    7.6607293121155440E-02    7.4011692589954734E+00    1.1044684165101064E+01
N    7.7154034029950483E-02    7.4007470749444115E+00    1.2994854200663328E+01
Ga    7.7383406184977091E-02    5.5322695754884750E+00    1.3642232086495948E+01
N    7.8303768687731576E-02    5.5643687594542284E+00    1.5587375569855968E+01
Ga    7.8345337146041402E-02    7.4000990566398412E+00    1.5873214539980179E+01
N   -1.6493118396790785E+00    1.0114037026209447E+01    2.4835309367793976E+00
Ga   -1.5205658719971986E+00    8.3217596384750170E+00    3.3028158704211088E+00
N   -1.5247101967728467E+00    8.3227730546370360E+00    5.2415082438923726E+00
Ga   -1.5018535206865296E+00    1.0202448239607035E+01    5.8154309979202550E+00
N   -1.5229726289481396E+00    1.0191353913230243E+01    7.7928087660476475E+00
Ga   -1.5439359573381775E+00    8.3361154202916037E+00    8.4609582099698013E+00
N   -1.5442983172711637E+00    8.3367731629371917E+00    1.0432631286501682E+01
Ga   -1.5149011032771833E+00    1.0195668451645860E+01    1.1097192695491090E+01
N   -1.4970903305495111E+00    1.0205463559303091E+01    1.3070643895732841E+01
Ga   -1.5407626684972149E+00    8.3349139938007006E+00    1.3641717171343947E+01
N   -1.5120993329278409E+00    8.3181863855966789E+00    1.5586724397383394E+01
Ga   -1.7054098393139281E+00    1.0083648667257322E+01    1.6512319396601157E+01
N    6.5047133135108535E+00    1.9552571640235676E+00    2.4923590404414449E+00
Ga    6.5050285748972456E+00   -3.3379676609210554E-02    2.8524188726209663E+00
N    6.5070176762807339E+00   -2.8536109540646528E-02    5.0151886572746003E+00
Ga    6.5085755885016656E+00    1.7919311100298205E+00    5.8154623124135938E+00
N    6.5086631268240929E+00    1.8197628672110180E+00    7.7920816437450640E+00
Ga    6.5086774237617240E+00   -2.7048850625126346E-02    8.4628552059655444E+00
N    6.5089651249248961E+00   -2.6377153692477430E-02    1.0419570731924026E+01
Ga    6.5091313556222357E+00    1.8113927296396553E+00    1.1097141513755201E+01
N    6.5095605956695328E+00    1.7911980675490664E+00    1.3070400230493570E+01
Ga    6.5096326536671558E+00   -2.6840338741641559E-02    1.3916164465221490E+01
N    6.5103753842733214E+00   -2.7438474745323172E-02    1.6073718400351702E+01
Ga    6.5105433909577508E+00    2.0310886386038778E+00    1.6510922304778450E+01
Ga    6.4757273291050161E+00    3.6811477716553305E+00    1.3013052588048430E+00
N    5.0143421148635685E+00    4.5475145753060566E+00    2.4841616517592033E+00
Ga    4.8952696921943000E+00    2.7507799121498091E+00    3.3129194500137218E+00
N    4.8887608352362042E+00    2.7533725638877211E+00    5.2447381539199860E+00
Ga    4.8685783538153871E+00    4.6353092224722756E+00    5.8155958640605911E+00
N    4.8913963528956241E+00    4.6216264919773069E+00    7.7916006715750337E+00
Ga    4.9124942666921418E+00    2.7657288279845651E+00    8.4609730353004835E+00
N    4.9136761942514280E+00    2.7666746644193254E+00    1.0432315153276916E+01
Ga    4.8845662608850624E+00    4.6257216357850313E+00    1.1097250434777278E+01
N    4.8676400502390695E+00    4.6351135150094196E+00    1.3070606133158277E+01
Ga    4.9114825249279841E+00    2.7644106421294121E+00    1.3641569299395552E+01
N    4.8850416228083438E+00    2.7479955703477885E+00    1.5586636601846550E+01
Ga    5.0775085610010295E+00    4.5134450014667484E+00    1.6511004595358848E+01
N    6.5106522555307693E+00    3.6855379860522945E+00    1.7657524111542244E+01
N    3.2917051642452733E+00    7.5392447757849776E+00    2.4721777656304313E+00
N    3.2926190589150810E+00    5.5456093534280830E+00    5.0090856365152368E+00
Ga    3.2882529139747620E+00    7.3660846072245070E+00    5.8128374497158486E+00
N    3.2913049718623224E+00    7.3905310533224791E+00    7.7900047623719288E+00
Ga    3.2930429487215056E+00    5.5451610561064104E+00    8.4636436674333346E+00
N    3.2929131262614706E+00    5.5447369779356377E+00    1.0419606468661328E+01
Ga    3.2929651873089889E+00    7.3822178013068749E+00    1.1097629506223939E+01
N    3.2934348199664760E+00    7.3619868073682335E+00    1.3070987170448648E+01
Ga    3.2933007976970323E+00    5.5440589351355349E+00    1.3916918405869694E+01
N    3.2942865502545811E+00    5.5432125378533605E+00    1.6074619314001449E+01
Ga    3.2943687761219982E+00    7.6029110851651591E+00    1.6512611710382206E+01
Ga    3.3048179881404693E+00    9.2431775565969190E+00    1.3049418578641641E+00
N    1.7985551093858858E+00    1.0119029818720144E+01    2.4809312556223286E+00
Ga    1.6622719805166106E+00    8.3216354162483555E+00    3.2890551386077940E+00
N    1.6721264201343655E+00    8.3213189434530843E+00    5.2310245689713977E+00
Ga    1.6506010756249940E+00    1.0199698763792941E+01    5.8132594236144977E+00
N    1.6748818824901472E+00    1.0189964361397196E+01    7.7910033290227885E+00
Ga    1.6954235736619554E+00    8.3357636756384288E+00    8.4616589943160072E+00
N    1.6974877465712983E+00    8.3367882118503900E+00    1.0432994436804501E+01
Ga    1.6681436230904696E+00    1.0195762584479839E+01    1.1097622714941366E+01
N    1.6516555071153687E+00    1.0205392241408131E+01    1.3071078950541004E+01
Ga    1.6952715968627143E+00    8.3346980661266610E+00    1.3641844008814777E+01
N    1.6688098566882783E+00    8.3181356348395266E+00    1.5587077064361084E+01
Ga    1.8623460875920754E+00    1.0083468534872305E+01    1.6512597008569077E+01
N    3.2940553760100486E+00    9.2568108819459916E+00    1.7660426793432350E+01
N    9.7209506376633179E+00    1.8279382223799807E+00    2.6798939895908651E+00
Ga    9.7196896778448991E+00   -2.7442646533239818E-02    3.3084715293596787E+00
N    9.7218149735236690E+00   -1.5285960997718128E-02    5.2429688433875246E+00
Ga    9.7206342966572681E+00    1.8280566088367312E+00    5.9087386629182088E+00
N    9.7235829086037224E+00    1.8297445665474750E+00    7.8561273684034827E+00
Ga    9.7237268376319896E+00   -4.1265167604447213E-02    8.4614269326880471E+00
N    9.7247754465262410E+00   -4.1079981920706291E-02    1.0432794455618012E+01
Ga    9.7250314348608367E+00    1.8305220295086215E+00    1.1045305499998872E+01
N    9.7255323942317133E+00    1.8299838080966508E+00    1.2995337173606346E+01
Ga    9.7259279196380213E+00   -3.8369782018590759E-02    1.3642143653449951E+01
N    9.7267131821346720E+00   -6.7195833432557826E-03    1.5587310723986592E+01
Ga    9.7266816592369221E+00    1.8298423218461854E+00    1.5872537010834311E+01
N    7.9953902354154884E+00    4.5459615486875018E+00    2.4763912633502545E+00
Ga    8.1139638900825908E+00    2.7560152408884182E+00    3.3040184962638111E+00
N    8.1260735761497855E+00    2.7531993936512067E+00    5.2397765336006561E+00
Ga    8.1483551020540776E+00    4.6344551935841780E+00    5.8134122975367841E+00
N    8.1256653072070453E+00    4.6212747475456393E+00    7.7906130960100572E+00
Ga    8.1041787087577912E+00    2.7662210916605425E+00    8.4615106795460502E+00
N    8.1043448852029627E+00    2.7666000941064399E+00    1.0432623322243352E+01
Ga    8.1333794927643215E+00    4.6254812877316391E+00    1.1097714525747122E+01
N    8.1513997373769804E+00    4.6349782192074027E+00    1.3070809238718276E+01
Ga    8.1077013210429669E+00    2.7643603171525530E+00    1.3641709127434165E+01
N    8.1360231914374932E+00    2.7478809305254437E+00    1.5586625311705475E+01
Ga    7.9437633276869652E+00    4.5135484610271712E+00    1.6510875155379974E+01
N    6.5064054967406628E+00    7.4009085299691248E+00    2.6775703107141409E+00
Ga    6.5098808860223265E+00    5.5486120395257075E+00    3.3050266182275703E+00
N    6.5078569569311657E+00    5.5559627802532203E+00    5.2392955625831750E+00
Ga    6.5078444868536955E+00    7.4008672126859372E+00    5.9060470497884818E+00
N    6.5079687122730707E+00    7.4009852686719917E+00    7.8540534026117177E+00
Ga    6.5089281122070854E+00    5.5307666936999924E+00    8.4608786074604101E+00
N    6.5090086208965330E+00    5.5299792462770307E+00    1.0432122066851781E+01
Ga    6.5089420801831377E+00    7.4015655598582129E+00    1.1044733833296108E+01
N    6.5093348407730813E+00    7.4009115045823268E+00    1.2994998223722328E+01
Ga    6.5096249596900790E+00    5.5324631991397846E+00    1.3641629525112709E+01
N    6.5104640732736758E+00    5.5634235166722608E+00    1.5586768947951427E+01
Ga    6.5106188345058511E+00    7.3999990440549279E+00    1.5872028041993357E+01
N    4.7896638198505253E+00    1.0125163573132934E+01    2.4971196810710423E+00
Ga    4.9047613812118200E+00    8.3300504629359438E+00    3.3090939671837800E+00
N    4.9092271433563477E+00    8.3230811999874295E+00    5.2418892655647626E+00
Ga    4.9302998199401484E+00    1.0205264159879244E+01    5.8163012340723528E+00
N    4.9095771542631068E+00    1.0191466836202096E+01    7.7924427408468215E+00
Ga    4.8877258292226253E+00    8.3359225407486370E+00    8.4604498603846174E+00
N    4.8879277500095988E+00    8.3366934029291500E+00    1.0431956271130879E+01
Ga    4.9170662483464103E+00    1.0195508220441095E+01    1.1097421146608966E+01
N    4.9351579196114708E+00    1.0205456316858678E+01    1.3070797428769568E+01
Ga    4.8914493268728325E+00    8.3351560197359991E+00    1.3642118439038683E+01
N    4.9201792530928996E+00    8.3181616837651813E+00    1.5587087608371265E+01
Ga    4.7266375597674397E+00    1.0083664423572165E+01    1.6512666813660175E+01
O   -6.3153375970828839E-03    3.9992629154303456E+00   -4.6767579271851267E-01
H   -2.5209446775603134E-01    5.8407385690894698E+00   -3.6481781514596107E-01
C    1.1481021783930514E+00    3.5952757904111339E+00   -1.2315622927739216E+00
H    2.0907960466061670E+00    3.9720400976642423E+00   -8.0026133943806177E-01
H    1.2082567982323837E+00    2.4981010270927073E+00   -1.3143444670036664E+00
H    1.0422473564445807E+00    4.0131773406538347E+00   -2.2430740173570549E+00
Ga    3.2887415879490969E+00    5.5455004473211771E+00    2.8500097337323989E+00
O   -2.3000278617419909E-01    6.8071137397704593E+00   -1.5378784813778676E-01
H    1.8651408394348801E-02    7.3045363435871602E+00    1.6431010485416748E+00
C    8.6692241532504855E-01    7.3775170010537758E+00   -8.9160911403178200E-01
H    8.7141001918538075E-01    8.4573984244567075E+00   -7.0041057624063907E-01
H    1.8378388191725989E+00    6.9665598749553652E+00   -5.7161128466828137E-01
H    7.5337228967002567E-01    7.2199069830883875E+00   -1.9744017125132827E+00
O   -3.3036402933389466E+00    9.3720628925167251E+00   -5.1079024805637296E-01
C   -3.9836366594746195E+00    1.0540970763394743E+01   -9.8680223699867575E-01
H   -5.0148398681949873E+00    1.0618679466319197E+01   -6.0014946221068621E-01
H   -3.4502760176424729E+00    1.1475186480391192E+01   -7.3463822457161931E-01
H   -4.0307073450488371E+00    1.0467719504283137E+01   -2.0838930277553604E+00
O    3.4034669981183496E+00    9.3303760574161512E+00   -5.0781775648815808E-01
C    3.8720099987819014E+00    1.0570145549175043E+01   -1.0568801313182963E+00
H    3.2304900256530984E+00    1.1425249104324323E+01   -7.7790850422285285E-01
H    4.9081072117472129E+00    1.0799017686960129E+01   -7.5399891644597183E-01
H    3.8447434563909604E+00    1.0475229036236792E+01   -2.1528473702969548E+00
O    6.3797647272014464E+00    3.5875075805898331E+00   -5.0774468817809659E-01
C    7.0759350629683819E+00    2.5043112424520229E+00   -1.1438089999216432E+00
H    8.1629452638041275E+00    2.5286828051877075E+00   -9.5296287256506940E-01
H    6.6901495291534614E+00    1.5181230220523849E+00   -8.3471483732249085E-01
H    6.9244352807692682E+00    2.6103082469378411E+00   -2.2283901608428178E+00
H    6.5067546427957259E+00    7.4028177837286728E+00    1.6503020395270283E+00
H    9.7262896642457015E+00    1.8287038380622473E+00    1.6527124461563354E+00
H    3.2972179694374608E+00    1.8287909834582172E+00    1.6514013400584884E+00
     &END COORD
     &KIND C
       BASIS_SET DZVP-MOLOPT-SR-GTH-q4
       POTENTIAL GTH-PBE-q4
       &POTENTIAL
2 2
0.3384712400000000E+00 2 -0.8803673979999999E+01  0.1339210850000000E+01
2
0.3025757500000000E+00 1  0.9622486650000001E+01
0.2915069400000000E+00 0
       &END POTENTIAL
     &END KIND
     &KIND O
       BASIS_SET DZVP-MOLOPT-SR-GTH-q6
       POTENTIAL GTH-PBE-q6
       &POTENTIAL
2 4
0.2445543000000000E+00 2 -0.1666721480000000E+02  0.2487311320000000E+01
2
0.2209559200000000E+00 1  0.1833745811000000E+02
0.2113324700000000E+00 0
       &END POTENTIAL
     &END KIND
     &KIND H
       BASIS_SET DZVP-MOLOPT-SR-GTH-q1
       POTENTIAL GTH-PBE-q1
       &POTENTIAL
1
0.2000000000000000E+00 2 -0.4178900440000000E+01  0.7244633100000000E+00
0
       &END POTENTIAL
     &END KIND
     &KIND N
       BASIS_SET DZVP-MOLOPT-SR-GTH
       POTENTIAL GTH-PBE-q5
       &POTENTIAL
2 3
0.2837905100000000E+00 2 -0.1241522559000000E+02  0.1868095920000000E+01
2
0.2554050000000000E+00 1  0.1363026257000000E+02
0.2454945300000000E+00 0
       &END POTENTIAL
     &END KIND
     &KIND Ga
       BASIS_SET DZVP-MOLOPT-SR-GTH
       POTENTIAL GTH-PBE-q13
       &POTENTIAL
2 1 10
0.4900000000000000E+00 0
3
0.4167772300000000E+00 3  0.1047568975000000E+02 -0.4921768140000000E+01  0.8707055900000000E+00
0.7770178090000000E+01 -0.2248152160000000E+01
0.1784415450000000E+01
0.5696265200000000E+00 2  0.1777985340000000E+01  0.1958597600000000E+00
-0.2317443900000000E+00
0.2381265000000000E+00 1 -0.1624868022000000E+02
       &END POTENTIAL
     &END KIND
     &TOPOLOGY
       NUMBER_OF_ATOMS  230
       MULTIPLE_UNIT_CELL  1 1 1
     &END TOPOLOGY
     &COLVAR
       &DISTANCE
         ATOMS  127 211
       &END DISTANCE
       &PRINT
       &END PRINT
     &END COLVAR
   &END SUBSYS
 &END FORCE_EVAL
