 # Version information for this restart file 
 # current date 2019-07-19 00:45:04.615
 # current working dir /lustre04/scratch/rzk/rzk/GaN-carbene/443-adatoms-both-2x2/21-FullCoveragePlus1/01-Mimic-0401
 # Program compiled at                              Sun Apr  7 00:48:11 EDT 2019
 # Program compiled on                          beluga2.int.ets1.calculquebec.ca
 # Program compiled for                        Beluga-Linux-x86-64-intel-openmpi
 # Source code revision number                                         svn:18619
 &GLOBAL
   PRINT_LEVEL  MEDIUM
   PROJECT_NAME TEST
   RUN_TYPE  GEO_OPT
 &END GLOBAL
 &MOTION
   &GEO_OPT
     MAX_ITER  500
     STEP_START_VAL  60
   &END GEO_OPT
 &END MOTION
 &FORCE_EVAL
   METHOD  QS
   STRESS_TENSOR  ANALYTICAL
   &DFT
     BASIS_SET_FILE_NAME BASIS_MOLOPT
     POTENTIAL_FILE_NAME GTH_POTENTIALS
     UKS  T
     SURFACE_DIPOLE_CORRECTION  T
     SURF_DIP_DIR  Z
     &SCF
       MAX_SCF  80
       EPS_SCF     5.0000000000000004E-06
       &OT  T
         PRECONDITIONER  FULL_ALL
       &END OT
       &OUTER_SCF  T
         OPTIMIZER  NONE
         EPS_SCF     5.0000000000000004E-06
         MAX_SCF  4
       &END OUTER_SCF
       &PRINT
         &RESTART  OFF
           BACKUP_COPIES  1
           &EACH
             JUST_ENERGY  0
             QS_SCF  0
             MD  20
           &END EACH
         &END RESTART
       &END PRINT
     &END SCF
     &QS
       EPS_DEFAULT     1.0000000000000000E-14
       METHOD  GPW
     &END QS
     &MGRID
       NGRIDS  5
       CUTOFF     1.2000000000000000E+03
     &END MGRID
     &XC
       DENSITY_CUTOFF     1.0000000000000000E-10
       GRADIENT_CUTOFF     1.0000000000000000E-10
       TAU_CUTOFF     1.0000000000000000E-10
       &XC_FUNCTIONAL  NO_SHORTCUT
         &PBE  T
         &END PBE
       &END XC_FUNCTIONAL
       &VDW_POTENTIAL
         POTENTIAL_TYPE  PAIR_POTENTIAL
         &PAIR_POTENTIAL
           R_CUTOFF     1.0000000000000009E+01
           TYPE  DFTD3
           PARAMETER_FILE_NAME dftd3.dat
           REFERENCE_FUNCTIONAL PBE
           EPS_CN     9.9999999999999995E-07
           CALCULATE_C9_TERM  T
           REFERENCE_C9_TERM  T
           LONG_RANGE_CORRECTION  F
           VERBOSE_OUTPUT  F
         &END PAIR_POTENTIAL
       &END VDW_POTENTIAL
     &END XC
   &END DFT
   &SUBSYS
     &CELL
       A     1.2864472766435110E+01    0.0000000000000000E+00    0.0000000000000000E+00
       B    -6.4322363581020028E+00    1.1140960178524477E+01    0.0000000000000000E+00
       C     0.0000000000000000E+00    0.0000000000000000E+00    3.2000000000000000E+01
       MULTIPLE_UNIT_CELL  1 1 1
       &CELL_REF
         A     1.2982353780853531E+01    0.0000000000000000E+00    0.0000000000000000E+00
         B    -6.4911768904267628E+00    1.1243048175136114E+01    0.0000000000000000E+00
         C     0.0000000000000000E+00    0.0000000000000000E+00    3.2000000000000000E+01
         MULTIPLE_UNIT_CELL  1 1 1
       &END CELL_REF
     &END CELL
     &COORD
N    7.4897239144576494E-02    1.9653354422079987E+00    2.4702952382107846E+00
Ga    7.9420492803361636E-02   -3.5747574470657136E-02    2.8640825815519131E+00
N    7.5894336532550954E-02   -2.8824165269341114E-02    5.0159993718773510E+00
Ga    7.7040409495766446E-02    1.7880012439388770E+00    5.8174382678966499E+00
N    7.7664398055067863E-02    1.8131369782079885E+00    7.7910622245720429E+00
Ga    7.7997336903020215E-02   -3.4856881778086601E-02    8.4579300590096480E+00
N    7.8721842104298695E-02   -3.5339312693230512E-02    1.0413816827014021E+01
Ga    7.9061760424756433E-02    1.8022839453901061E+00    1.1091315438101706E+01
N    7.9882663723653699E-02    1.7818789739971317E+00    1.3065252123661502E+01
Ga    7.9963530315561929E-02   -3.5855361393591620E-02    1.3911627376694677E+01
N    7.9885919663218494E-02   -3.6323925558130701E-02    1.6070090727461945E+01
Ga    7.9982885648151120E-02    2.0238480431180044E+00    1.6506708446459299E+01
Ga    5.3275953552114515E-02    3.7173402505046238E+00    1.3380941530797197E+00
N   -1.4176542553982170E+00    4.5410284444975773E+00    2.4990658473907317E+00
Ga   -1.5402406301129687E+00    2.7444519854461333E+00    3.3114614611617741E+00
N   -1.5427189496934368E+00    2.7436303402139015E+00    5.2414903907186057E+00
Ga   -1.5664484594024197E+00    4.6264673181453659E+00    5.8125870479082451E+00
N   -1.5413796113321567E+00    4.6122063623936338E+00    7.7883840384115857E+00
Ga   -1.5199694302292264E+00    2.7574791542064205E+00    8.4576515782931665E+00
N   -1.5167967023497515E+00    2.7572362111155475E+00    1.0428152576302583E+01
Ga   -1.5456631653091140E+00    4.6165981688116942E+00    1.1090902826965593E+01
N   -1.5618416088422835E+00    4.6256328347640494E+00    1.3064910355547291E+01
Ga   -1.5179990181372633E+00    2.7551741634079603E+00    1.3635908983979624E+01
N   -1.5457620011613020E+00    2.7387457942643216E+00    1.5581699150509753E+01
Ga   -1.3519517266997416E+00    4.5040934468658707E+00    1.6506979645741282E+01
N    7.9944595079414177E-02    3.6772656754548447E+00    1.7654591892854501E+01
N   -3.1414818300235390E+00    7.5346646928912033E+00    2.4746200475157125E+00
Ga   -3.1418200242589069E+00    5.5413546295283727E+00    2.8327470692608223E+00
N   -3.1394119875633906E+00    5.5387315862245812E+00    5.0012023156541972E+00
Ga   -3.1397570243878383E+00    7.3577193075614247E+00    5.8087319942922404E+00
N   -3.1391476749110292E+00    7.3819425778773029E+00    7.7859503752764621E+00
Ga   -3.1393229830815823E+00    5.5364468006455958E+00    8.4578159669492976E+00
N   -3.1377456433427100E+00    5.5351308370281025E+00    1.0413819102007105E+01
Ga   -3.1372352988886982E+00    7.3729435649869979E+00    1.1090513760962740E+01
N   -3.1362604045354918E+00    7.3522870163026806E+00    1.3064659623325614E+01
Ga   -3.1359277083474741E+00    5.5343695800898587E+00    1.3910998286436444E+01
N   -3.1360366404356546E+00    5.5343097304261057E+00    1.6069840373413232E+01
Ga   -3.1360827863735454E+00    7.5939780919683049E+00    1.6507426575141196E+01
Ga   -3.1289473761616375E+00    9.2175448225242729E+00    1.2894874709715862E+00
N   -4.6406748308036878E+00    1.0119739144023413E+01    2.4921306177453122E+00
Ga   -4.7544832991339048E+00    8.3303029890939850E+00    3.3010099725690019E+00
N   -4.7586471512201083E+00    8.3164073757774410E+00    5.2358550500507697E+00
Ga   -4.7772985093635754E+00    1.0198232298174540E+01    5.8096889671256582E+00
N   -4.7554891703844735E+00    1.0183633121593697E+01    7.7863968858526293E+00
Ga   -4.7346899534904656E+00    8.3281347899564526E+00    8.4547304333708961E+00
N   -4.7326185463351225E+00    8.3279386500892247E+00    1.0426161128917760E+01
Ga   -4.7617109485306708E+00    1.0186940723999111E+01    1.1090628340287005E+01
N   -4.7782115087984076E+00    1.0196114817972370E+01    1.3064782856279585E+01
Ga   -4.7342543188449833E+00    8.3254644170098118E+00    1.3635734624373613E+01
N   -4.7616722425651758E+00    8.3093673216062101E+00    1.5581662166060266E+01
Ga   -4.5687217862422163E+00    1.0074960305666872E+01    1.6507394139884834E+01
N   -3.1362747601863297E+00    9.2477858270407793E+00    1.7654818229672895E+01
N    3.2921085990729617E+00    1.8216073171866538E+00    2.6706414351491605E+00
Ga    3.2915934692703774E+00   -3.6745955236629130E-02    3.2968363693288039E+00
N    3.2940086373747568E+00   -2.1200390917766432E-02    5.2343587317195412E+00
Ga    3.2933843956580895E+00    1.8207523505370229E+00    5.9011969819795205E+00
N    3.2940115314409488E+00    1.8220912121111910E+00    7.8492952464181274E+00
Ga    3.2942243409763190E+00   -4.8520426844566020E-02    8.4557706062923792E+00
N    3.2949184219831400E+00   -4.9700219123323362E-02    1.0426831662053873E+01
Ga    3.2959571648885255E+00    1.8215410916897741E+00    1.1039055265542133E+01
N    3.2959456119697350E+00    1.8208945849977953E+00    1.2989767840553867E+01
Ga    3.2962758549126190E+00   -4.7970092744486291E-02    1.3635463970861801E+01
N    3.2961996318452735E+00   -1.6022638809309080E-02    1.5581524374486710E+01
Ga    3.2965372542855387E+00    1.8205636392858897E+00    1.5866786509908577E+01
N    1.5728687998526183E+00    4.5445232334559815E+00    2.4995924085879042E+00
Ga    1.6906270778057231E+00    2.7491346082733470E+00    3.3040815315071836E+00
N    1.6952163220450385E+00    2.7435398756045180E+00    5.2375245773343968E+00
Ga    1.7194804284206195E+00    4.6249484307133235E+00    5.8116406763851813E+00
N    1.6972575630188622E+00    4.6121872375638855E+00    7.7875682114496261E+00
Ga    1.6753730177387356E+00    2.7576651252690900E+00    8.4576933227243085E+00
N    1.6747633009322460E+00    2.7571531724871496E+00    1.0428156606099821E+01
Ga    1.7036116610399661E+00    4.6164312434623387E+00    1.1090904513509193E+01
N    1.7216625198915041E+00    4.6256548331558616E+00    1.3064899469165272E+01
Ga    1.6777139986590592E+00    2.7553081307318670E+00    1.3636072049020337E+01
N    1.7059860579309740E+00    2.7386620618088289E+00    1.5581877084564995E+01
Ga    1.5118609542680914E+00    4.5040626892116391E+00    1.6506961132018141E+01
N    7.1920269151313096E-02    7.3854523122526308E+00    2.6801923180334044E+00
Ga    7.8885030891812868E-02    5.5551748459217629E+00    3.3244586931480882E+00
N    7.6832237430940961E-02    5.5448158029401382E+00    5.2538014621748985E+00
Ga    7.6684002016277050E-02    7.3960386139852057E+00    5.9011707546607752E+00
N    7.7739655263868487E-02    7.3935797973987372E+00    7.8501956181500452E+00
Ga    7.8047037811738121E-02    5.5222932096417141E+00    8.4537690255193603E+00
N    7.8971606452131943E-02    5.5202612336292614E+00    1.0425794191238094E+01
Ga    7.9107878757708527E-02    7.3918465371267281E+00    1.1038054461691065E+01
N    7.9707170773120034E-02    7.3907879980457505E+00    1.2988871423379091E+01
Ga    7.9977708341519169E-02    5.5225115067862864E+00    1.3636158914424806E+01
N    8.0042346102822362E-02    5.5546931428054673E+00    1.5581867606784767E+01
Ga    8.0163388257609880E-02    7.3911942180591081E+00    1.5867003308680188E+01
N   -1.6463174721823943E+00    1.0108413862648131E+01    2.4810006943866028E+00
Ga   -1.5171700639541479E+00    8.3158141483299843E+00    3.2993370871618524E+00
N   -1.5229926737063317E+00    8.3158317473773913E+00    5.2373452316799352E+00
Ga   -1.5008908928104008E+00    1.0195808480657330E+01    5.8097757576898603E+00
N   -1.5217159636287547E+00    1.0183409736841893E+01    7.7869281266851385E+00
Ga   -1.5425563129224069E+00    8.3281396844356816E+00    8.4549820376126696E+00
N   -1.5420521091410837E+00    8.3275551516578901E+00    1.0426525336932700E+01
Ga   -1.5124859222160831E+00    1.0186758527665956E+01    1.1089933619231980E+01
N   -1.4943344295643484E+00    1.0195933697458212E+01    1.3064112860291800E+01
Ga   -1.5381234809732589E+00    8.3255741607860028E+00    1.3635346992495103E+01
N   -1.5104683882302683E+00    8.3093710106528285E+00    1.5581370228619742E+01
Ga   -1.7039231108061454E+00    1.0074689165905573E+01    1.6507486800689836E+01
N    6.5073230885614874E+00    1.9490524851723889E+00    2.4879133862134344E+00
Ga    6.5069250912782959E+00   -3.8220613004557043E-02    2.8505098659695021E+00
N    6.5082790779766784E+00   -3.5483183360092860E-02    5.0108691798693137E+00
Ga    6.5097438184113319E+00    1.7856312522800135E+00    5.8079452884972316E+00
N    6.5100392422138196E+00    1.8120228872275370E+00    7.7848199483634666E+00
Ga    6.5100185942862563E+00   -3.4825399286773459E-02    8.4561053486638666E+00
N    6.5110494515724806E+00   -3.5131488946739731E-02    1.0412508287436788E+01
Ga    6.5112684491738406E+00    1.8022533480470058E+00    1.1090053105605969E+01
N    6.5120760410756970E+00    1.7818377490112154E+00    1.3064145633450790E+01
Ga    6.5121838615599712E+00   -3.6044801574023524E-02    1.3910193550801576E+01
N    6.5121662356650498E+00   -3.6470363580892999E-02    1.6069549054960440E+01
Ga    6.5121947874392649E+00    2.0231907566674643E+00    1.6507074534422905E+01
Ga    6.4743828380999364E+00    3.6826399119448192E+00    1.2981859716739592E+00
N    5.0171984316582980E+00    4.5423455285655931E+00    2.4762811181187958E+00
Ga    4.8973174619439890E+00    2.7428294742165833E+00    3.3041888803589190E+00
N    4.8895741173653970E+00    2.7467443019032629E+00    5.2365069610616546E+00
Ga    4.8702783496022581E+00    4.6281442191395907E+00    5.8082667898375844E+00
N    4.8931579916257437E+00    4.6132079191588424E+00    7.7844628304040642E+00
Ga    4.9140869434682388E+00    2.7574302691254098E+00    8.4544533912486255E+00
N    4.9160435109423872E+00    2.7575475284612634E+00    1.0425820473428219E+01
Ga    4.8870063769613887E+00    4.6163304793796796E+00    1.1090502992713628E+01
N    4.8703222723929525E+00    4.6255340415918917E+00    1.3064544117093167E+01
Ga    4.9143983018554298E+00    2.7550083876297413E+00    1.3635357849187226E+01
N    4.8872308079299716E+00    2.7391512170959507E+00    1.5581454055878226E+01
Ga    5.0792997378187934E+00    4.5046985621812858E+00    1.6506990765024344E+01
N    6.5121278530086046E+00    3.6775386044181331E+00    1.7655325264532628E+01
N    3.2934395413393966E+00    7.5352258349190864E+00    2.4662882468964948E+00
N    3.2947160618380713E+00    5.5393707006673152E+00    5.0026832361782736E+00
Ga    3.2905079799343895E+00    7.3592295338157347E+00    5.8084079013506322E+00
N    3.2932374357689760E+00    7.3823207891955391E+00    7.7851344893381205E+00
Ga    3.2951240197464378E+00    5.5365726005917182E+00    8.4575710271820697E+00
N    3.2954047739147554E+00    5.5352424876444051E+00    1.0413529135030863E+01
Ga    3.2954295621819183E+00    7.3728664449379213E+00    1.1090791378541127E+01
N    3.2959889882319429E+00    7.3522363627983616E+00    1.3064753376848453E+01
Ga    3.2960586943429067E+00    5.5343124914657222E+00    1.3910978899833950E+01
N    3.2959560287487393E+00    5.5343031654396473E+00    1.6069733435554241E+01
Ga    3.2960257079136022E+00    7.5939697445431653E+00    1.6507267908307355E+01
Ga    3.3047278672202145E+00    9.2398740083126345E+00    1.3033019889971602E+00
N    1.7992450233890671E+00    1.0113313562880805E+01    2.4793646076577751E+00
Ga    1.6650750614227916E+00    8.3166914378119650E+00    3.2877988602750849E+00
N    1.6743731253233514E+00    8.3146672088999356E+00    5.2287188168465271E+00
Ga    1.6518826314188462E+00    1.0193409712771091E+01    5.8088933973963162E+00
N    1.6763850421140607E+00    1.0182188602372115E+01    7.7860996056224385E+00
Ga    1.6973201060525505E+00    8.3278453074156875E+00    8.4560497517561117E+00
N    1.7000090675907453E+00    8.3277489860230318E+00    1.0427070749115202E+01
Ga    1.6701566224505768E+00    1.0187079488288333E+01    1.1090314404416933E+01
N    1.6539884533395013E+00    1.0195946569999361E+01    1.3064284210572655E+01
Ga    1.6977504364175700E+00    8.3254084168101592E+00    1.3635186519140330E+01
N    1.6706254326115311E+00    8.3094106933746392E+00    1.5581146764951075E+01
Ga    1.8638102361935864E+00    1.0074665195792807E+01    1.6507348219827190E+01
N    3.2960822511774794E+00    9.2477190705576007E+00    1.7654749881484459E+01
N    9.7231913855410355E+00    1.8221336131929682E+00    2.6720806228235094E+00
Ga    9.7212330948943944E+00   -3.2001772820350313E-02    3.3047196968547721E+00
N    9.7224532317609764E+00   -2.1253144536438812E-02    5.2388381396343782E+00
Ga    9.7217852701982732E+00    1.8222292946947063E+00    5.9025620897693845E+00
N    9.7249043298033406E+00    1.8222734620734156E+00    7.8502346389805577E+00
Ga    9.7251639226541009E+00   -4.8747960924575069E-02    8.4554362982976361E+00
N    9.7268986201259349E+00   -4.9811020428062264E-02    1.0426560236529099E+01
Ga    9.7269492377870197E+00    1.8214622073296796E+00    1.1038961475530920E+01
N    9.7280582631985215E+00    1.8208334165327664E+00    1.2989697817153765E+01
Ga    9.7280928053920075E+00   -4.7999960906220565E-02    1.3635450071287417E+01
N    9.7283330128451073E+00   -1.6051952553515322E-02    1.5581459037803411E+01
Ga    9.7283511849818041E+00    1.8205255763373638E+00    1.5866771040102858E+01
N    7.9989758447651775E+00    4.5420442065370823E+00    2.4710253149618668E+00
Ga    8.1158521036463362E+00    2.7502168402411216E+00    3.2958808465162033E+00
N    8.1275806070465890E+00    2.7467964585880553E+00    5.2322488753360750E+00
Ga    8.1500129086778816E+00    4.6275356250139668E+00    5.8065239234693040E+00
N    8.1271737825184225E+00    4.6130985779466283E+00    7.7837971994203796E+00
Ga    8.1054819587156075E+00    2.7581232686454209E+00    8.4552237216028150E+00
N    8.1063070359625229E+00    2.7575037763498478E+00    1.0426361141351222E+01
Ga    8.1354668905917418E+00    4.6161525503041441E+00    1.1090855753425132E+01
N    8.1539348269363714E+00    4.6255320170615777E+00    1.3064802158174643E+01
Ga    8.1097801994532581E+00    2.7550622472782154E+00    1.3635513605871461E+01
N    8.1374506675060942E+00    2.7390215024499827E+00    1.5581647520253266E+01
Ga    7.9450639532679359E+00    4.5046654037404119E+00    1.6507042382064430E+01
N    6.5078035132502743E+00    7.3965536218833003E+00    2.6714396809878425E+00
Ga    6.5134926238490074E+00    5.5445855287619166E+00    3.2989905889843785E+00
N    6.5094843793941468E+00    5.5495557681912997E+00    5.2326513575252003E+00
Ga    6.5093330489235299E+00    7.3941454088945804E+00    5.9002910383456371E+00
N    6.5095872731549829E+00    7.3928884230885412E+00    7.8483374310684990E+00
Ga    6.5105530576899664E+00    5.5224158316572307E+00    8.4542776626143237E+00
N    6.5112636737535219E+00    5.5205900807845190E+00    1.0425678033747278E+01
Ga    6.5114632769536964E+00    7.3920562048532048E+00    1.1038094589413857E+01
N    6.5119882846205659E+00    7.3911310929226062E+00    1.2989028145889277E+01
Ga    6.5121828610685970E+00    5.5226177190099142E+00    1.3635801318823134E+01
N    6.5122519776454659E+00    5.5540432192990101E+00    1.5581813055357644E+01
Ga    6.5124248294195439E+00    7.3909704508300376E+00    1.5867069547803656E+01
N    4.7916066226221732E+00    1.0120868150401064E+01    2.4983615276837106E+00
Ga    4.9068074630541441E+00    8.3257216288634019E+00    3.3046331415324790E+00
N    4.9106789560686801E+00    8.3161653003476896E+00    5.2372879276457001E+00
Ga    4.9307519067881618E+00    1.0198629816075835E+01    5.8109965000239763E+00
N    4.9107132729544265E+00    1.0183652738096809E+01    7.7870421449198233E+00
Ga    4.8896954116380487E+00    8.3280589745437830E+00    8.4547353567882872E+00
N    4.8904054642159593E+00    8.3275692776473420E+00    1.0426067634444626E+01
Ga    4.9192819593759793E+00    1.0186675294244282E+01    1.1090289307724946E+01
N    4.9378545565146803E+00    1.0196090575656957E+01    1.3064526577561651E+01
Ga    4.8939627273466613E+00    8.3256173969991156E+00    1.3635825996471040E+01
N    4.9219012554912069E+00    8.3092998083982401E+00    1.5581729577914682E+01
Ga    4.7286138013985033E+00    1.0074919912278011E+01    1.6507360829498893E+01
O    2.9369921878109356E-02    3.9813151909754043E+00   -4.7588365163807406E-01
H   -1.8571055210954174E-01    5.8504510126839770E+00   -3.9155933357772538E-01
C    1.1969876121236311E+00    3.5501966245313197E+00   -1.2050661813794128E+00
H    2.1210278187482765E+00    4.0156770835706714E+00   -8.2540487409303498E-01
H    1.3126840978809022E+00    2.4551426946943486E+00   -1.1722207537544573E+00
H    1.0630283737923412E+00    3.8499718663718414E+00   -2.2535410503342290E+00
Ga    3.2897225799623149E+00    5.5404615089003473E+00    2.8454592098891660E+00
O   -2.0424795099583667E-01    6.8086039795329949E+00   -1.4988639732961309E-01
H    3.2256079215419786E-02    7.2993974411824745E+00    1.6416624857998874E+00
C    7.7620090568435574E-01    7.4876063496388214E+00   -9.5723199904646561E-01
H    7.5426848385982936E-01    8.5483024630442817E+00   -6.7888802566326234E-01
H    1.7938737810714285E+00    7.1070818888899030E+00   -7.8193606068350174E-01
H    5.4159715446782120E-01    7.4075368307271141E+00   -2.0283003096666330E+00
O   -3.3128005680821788E+00    9.3689647692769888E+00   -5.0843125319719695E-01
C   -3.8284745552374391E+00    1.0624225849722352E+01   -9.7404656509179188E-01
H   -4.7294199767901537E+00    1.0945192917694685E+01   -4.2207652118056366E-01
H   -3.0761066595175013E+00    1.1428870488402143E+01   -9.1305634973553995E-01
H   -4.1041050912780159E+00    1.0495542990943207E+01   -2.0309802721824339E+00
O    3.4459496722817535E+00    9.3849735945083115E+00   -5.0295653431893206E-01
C    3.8910455020389469E+00    1.0666147457124719E+01   -9.7590335695037156E-01
H    3.0927800592566554E+00    1.1425614918387884E+01   -9.1898884507620571E-01
H    4.7701782442906469E+00    1.1042180691208536E+01   -4.2467165397473911E-01
H    4.1755763639054670E+00    1.0549599059647811E+01   -2.0312232989015229E+00
O    6.3912476783447163E+00    3.5388710026735435E+00   -5.0783028855373114E-01
C    7.2668037877351521E+00    2.5656600934162022E+00   -1.1004878587065632E+00
H    8.3180169237241159E+00    2.8969395819902726E+00   -1.0906341818245464E+00
H    7.2019986608825750E+00    1.5818313726377591E+00   -6.0484524492029001E-01
H    6.9592789172399359E+00    2.4383049646105479E+00   -2.1485845473528822E+00
H    6.5084348466956143E+00    7.4012497087866445E+00    1.6441423054690123E+00
H    9.7311891278281895E+00    1.8198975154248564E+00    1.6454621242009071E+00
H    3.2947674966865743E+00    1.8232231437702096E+00    1.6437280533524565E+00
     &END COORD
     &KIND C
       BASIS_SET DZVP-MOLOPT-SR-GTH-q4
       POTENTIAL GTH-PBE-q4
       &POTENTIAL
2 2
0.3384712400000000E+00 2 -0.8803673979999999E+01  0.1339210850000000E+01
2
0.3025757500000000E+00 1  0.9622486650000001E+01
0.2915069400000000E+00 0
       &END POTENTIAL
     &END KIND
     &KIND O
       BASIS_SET DZVP-MOLOPT-SR-GTH-q6
       POTENTIAL GTH-PBE-q6
       &POTENTIAL
2 4
0.2445543000000000E+00 2 -0.1666721480000000E+02  0.2487311320000000E+01
2
0.2209559200000000E+00 1  0.1833745811000000E+02
0.2113324700000000E+00 0
       &END POTENTIAL
     &END KIND
     &KIND H
       BASIS_SET DZVP-MOLOPT-SR-GTH-q1
       POTENTIAL GTH-PBE-q1
       &POTENTIAL
1
0.2000000000000000E+00 2 -0.4178900440000000E+01  0.7244633100000000E+00
0
       &END POTENTIAL
     &END KIND
     &KIND N
       BASIS_SET DZVP-MOLOPT-SR-GTH
       POTENTIAL GTH-PBE-q5
       &POTENTIAL
2 3
0.2837905100000000E+00 2 -0.1241522559000000E+02  0.1868095920000000E+01
2
0.2554050000000000E+00 1  0.1363026257000000E+02
0.2454945300000000E+00 0
       &END POTENTIAL
     &END KIND
     &KIND Ga
       BASIS_SET DZVP-MOLOPT-SR-GTH
       POTENTIAL GTH-PBE-q13
       &POTENTIAL
2 1 10
0.4900000000000000E+00 0
3
0.4167772300000000E+00 3  0.1047568975000000E+02 -0.4921768140000000E+01  0.8707055900000000E+00
0.7770178090000000E+01 -0.2248152160000000E+01
0.1784415450000000E+01
0.5696265200000000E+00 2  0.1777985340000000E+01  0.1958597600000000E+00
-0.2317443900000000E+00
0.2381265000000000E+00 1 -0.1624868022000000E+02
       &END POTENTIAL
     &END KIND
     &TOPOLOGY
       NUMBER_OF_ATOMS  230
       MULTIPLE_UNIT_CELL  1 1 1
     &END TOPOLOGY
     &COLVAR
       &DISTANCE
         ATOMS  127 211
       &END DISTANCE
       &PRINT
       &END PRINT
     &END COLVAR
   &END SUBSYS
 &END FORCE_EVAL
