 # Version information for this restart file 
 # current date 2019-07-18 23:25:06.804
 # current working dir /lustre04/scratch/rzk/rzk/GaN-carbene/443-adatoms-both-2x2/21-FullCoveragePlus1/01-Mimic-0401
 # Program compiled at                              Sun Apr  7 00:48:11 EDT 2019
 # Program compiled on                          beluga2.int.ets1.calculquebec.ca
 # Program compiled for                        Beluga-Linux-x86-64-intel-openmpi
 # Source code revision number                                         svn:18619
 &GLOBAL
   PRINT_LEVEL  MEDIUM
   PROJECT_NAME TEST
   RUN_TYPE  GEO_OPT
 &END GLOBAL
 &MOTION
   &GEO_OPT
     MAX_ITER  500
     STEP_START_VAL  27
   &END GEO_OPT
 &END MOTION
 &FORCE_EVAL
   METHOD  QS
   STRESS_TENSOR  ANALYTICAL
   &DFT
     BASIS_SET_FILE_NAME BASIS_MOLOPT
     POTENTIAL_FILE_NAME GTH_POTENTIALS
     UKS  T
     SURFACE_DIPOLE_CORRECTION  T
     SURF_DIP_DIR  Z
     &SCF
       MAX_SCF  80
       EPS_SCF     5.0000000000000004E-06
       &OT  T
         PRECONDITIONER  FULL_ALL
       &END OT
       &OUTER_SCF  T
         OPTIMIZER  NONE
         EPS_SCF     5.0000000000000004E-06
         MAX_SCF  4
       &END OUTER_SCF
       &PRINT
         &RESTART  OFF
           BACKUP_COPIES  1
           &EACH
             JUST_ENERGY  0
             QS_SCF  0
             MD  20
           &END EACH
         &END RESTART
       &END PRINT
     &END SCF
     &QS
       EPS_DEFAULT     1.0000000000000000E-14
       METHOD  GPW
     &END QS
     &MGRID
       NGRIDS  5
       CUTOFF     1.2000000000000000E+03
     &END MGRID
     &XC
       DENSITY_CUTOFF     1.0000000000000000E-10
       GRADIENT_CUTOFF     1.0000000000000000E-10
       TAU_CUTOFF     1.0000000000000000E-10
       &XC_FUNCTIONAL  NO_SHORTCUT
         &PBE  T
         &END PBE
       &END XC_FUNCTIONAL
       &VDW_POTENTIAL
         POTENTIAL_TYPE  PAIR_POTENTIAL
         &PAIR_POTENTIAL
           R_CUTOFF     1.0000000000000009E+01
           TYPE  DFTD3
           PARAMETER_FILE_NAME dftd3.dat
           REFERENCE_FUNCTIONAL PBE
           EPS_CN     9.9999999999999995E-07
           CALCULATE_C9_TERM  T
           REFERENCE_C9_TERM  T
           LONG_RANGE_CORRECTION  F
           VERBOSE_OUTPUT  F
         &END PAIR_POTENTIAL
       &END VDW_POTENTIAL
     &END XC
   &END DFT
   &SUBSYS
     &CELL
       A     1.2864472766435110E+01    0.0000000000000000E+00    0.0000000000000000E+00
       B    -6.4322363581020028E+00    1.1140960178524477E+01    0.0000000000000000E+00
       C     0.0000000000000000E+00    0.0000000000000000E+00    3.2000000000000000E+01
       MULTIPLE_UNIT_CELL  1 1 1
       &CELL_REF
         A     1.2982353780853531E+01    0.0000000000000000E+00    0.0000000000000000E+00
         B    -6.4911768904267628E+00    1.1243048175136114E+01    0.0000000000000000E+00
         C     0.0000000000000000E+00    0.0000000000000000E+00    3.2000000000000000E+01
         MULTIPLE_UNIT_CELL  1 1 1
       &END CELL_REF
     &END CELL
     &COORD
N    7.3253688010372048E-02    1.9683835005940369E+00    2.4763029584944518E+00
Ga    7.7756849204338854E-02   -3.1423198957014717E-02    2.8649061887830007E+00
N    7.5457274760120874E-02   -2.4055530194508207E-02    5.0198880035566100E+00
Ga    7.7363784278160153E-02    1.7925342164501998E+00    5.8229401269279695E+00
N    7.7187412708631511E-02    1.8203450143700850E+00    7.7965701730000303E+00
Ga    7.7091499478548250E-02   -2.7162503789018192E-02    8.4642437410730906E+00
N    7.6482346081524433E-02   -2.5745227035137992E-02    1.0420058420223524E+01
Ga    7.6729886989676699E-02    1.8119794236089519E+00    1.1096835609117047E+01
N    7.6588557878895985E-02    1.7930038277194642E+00    1.3070511518490486E+01
Ga    7.6582062076253801E-02   -2.5350337141520934E-02    1.3915627998379797E+01
N    7.7141579622648490E-02   -2.5813991052454948E-02    1.6073781743157131E+01
Ga    7.7294982909129450E-02    2.0356385967686341E+00    1.6510511390019776E+01
Ga    4.9600382063717814E-02    3.7179557325015762E+00    1.3426367126584231E+00
N   -1.4205651594927107E+00    4.5436993743637624E+00    2.5056524993161955E+00
Ga   -1.5420799564815197E+00    2.7479697145398565E+00    3.3190654935006103E+00
N   -1.5429736253603945E+00    2.7485586987725905E+00    5.2487197222264026E+00
Ga   -1.5674122934933243E+00    4.6322816240391473E+00    5.8182980402805438E+00
N   -1.5423441515377840E+00    4.6200545015840859E+00    7.7939132551201205E+00
Ga   -1.5204550586365941E+00    2.7652433092611632E+00    8.4627364023849587E+00
N   -1.5188032745145930E+00    2.7669846352141092E+00    1.0433408312082493E+01
Ga   -1.5478396828702861E+00    4.6265475147722048E+00    1.1096014017676499E+01
N   -1.5645817077797910E+00    4.6361006206802093E+00    1.3070001990642723E+01
Ga   -1.5215980224895551E+00    2.7655975344874530E+00    1.3640212587701733E+01
N   -1.5495063559162010E+00    2.7483988261688528E+00    1.5585288426443038E+01
Ga   -1.3529493326094735E+00    4.5131290997124429E+00    1.6510507497251673E+01
N    7.7288415336964914E-02    3.6873824629038134E+00    1.7655322941788736E+01
N   -3.1438746488931049E+00    7.5383670987218681E+00    2.4776859195593222E+00
Ga   -3.1442645964002507E+00    5.5449384591720214E+00    2.8368207109684604E+00
N   -3.1409066556216998E+00    5.5441377645218965E+00    5.0072403555571636E+00
Ga   -3.1401025886973604E+00    7.3634236616528854E+00    5.8146324337409458E+00
N   -3.1399098287070020E+00    7.3898781188689995E+00    7.7918777599386964E+00
Ga   -3.1401850453918110E+00    5.5446254241212669E+00    8.4640373572528809E+00
N   -3.1396313608423947E+00    5.5450973584273608E+00    1.0419797142601755E+01
Ga   -3.1395523370908451E+00    7.3828427824793170E+00    1.1096318154004695E+01
N   -3.1394058235250579E+00    7.3635260276717247E+00    1.3069711355357539E+01
Ga   -3.1392192536187036E+00    5.5451788779358768E+00    1.3914695166735223E+01
N   -3.1393795827594686E+00    5.5439521151244113E+00    1.6073549393397514E+01
Ga   -3.1386812403468487E+00    7.6035613117163470E+00    1.6509671788281519E+01
Ga   -3.1362584778677043E+00    9.2240722662040557E+00    1.2887799633652448E+00
N   -4.6423039167512208E+00    1.0122177367630526E+01    2.4945923765128408E+00
Ga   -4.7555693197705393E+00    8.3327699991308730E+00    3.3068303687582721E+00
N   -4.7590899073104511E+00    8.3219244120655347E+00    5.2418030123069377E+00
Ga   -4.7781606914302968E+00    1.0203741089463040E+01    5.8158101565367977E+00
N   -4.7563290888288527E+00    1.0191368985746292E+01    7.7925598162053697E+00
Ga   -4.7357052782531541E+00    8.3360758507303245E+00    8.4606922502486501E+00
N   -4.7350115639698247E+00    8.3376677500242202E+00    1.0432158016033725E+01
Ga   -4.7641830071861886E+00    1.0196663957253875E+01    1.1096836048421062E+01
N   -4.7809134185607256E+00    1.0206568648695917E+01    1.3070261408634686E+01
Ga   -4.7374500195894189E+00    8.3361388567634478E+00    1.3640097723441533E+01
N   -4.7644153594288028E+00    8.3196094037024793E+00    1.5585674537851942E+01
Ga   -4.5714181392338409E+00    1.0085280470323099E+01    1.6509808898621163E+01
N   -3.1383361783134935E+00    9.2580610347095700E+00    1.7657108502812193E+01
N    3.2932755279175119E+00    1.8245730461690342E+00    2.6784998306727612E+00
Ga    3.2908181442554225E+00   -3.4003626710188799E-02    3.3021532615634936E+00
N    3.2933795621126705E+00   -1.6450996644954211E-02    5.2400946033231994E+00
Ga    3.2930026247774333E+00    1.8259939854046860E+00    5.9073285430560336E+00
N    3.2930455367733416E+00    1.8297148772435665E+00    7.8554563659537990E+00
Ga    3.2933384102771930E+00   -4.0651298029438294E-02    8.4620046171791401E+00
N    3.2926294782443510E+00   -3.9791230913482030E-02    1.0433097031874402E+01
Ga    3.2932080097845011E+00    1.8316833310469984E+00    1.1044874783713862E+01
N    3.2926176032100893E+00    1.8315072922756952E+00    1.2994696037839530E+01
Ga    3.2928261857866832E+00   -3.6883498915979668E-02    1.3640206640385735E+01
N    3.2933146642720299E+00   -5.6557928324728803E-03    1.5585667315985242E+01
Ga    3.2937237582895218E+00    1.8309048056895274E+00    1.5868934208497913E+01
N    1.5708340728259083E+00    4.5474588864014569E+00    2.5013878162806953E+00
Ga    1.6902721002835013E+00    2.7525035058790479E+00    3.3082660988118611E+00
N    1.6951882383349335E+00    2.7487742991779061E+00    5.2423940185572615E+00
Ga    1.7187625070171395E+00    4.6304358448975975E+00    5.8174697373859274E+00
N    1.6959471668460844E+00    4.6199183043534680E+00    7.7932021859574725E+00
Ga    1.6742136202828848E+00    2.7656471256385595E+00    8.4631987402693181E+00
N    1.6723525719295258E+00    2.7671797929030211E+00    1.0433702735591838E+01
Ga    1.7010695064160508E+00    4.6266587589850960E+00    1.1096137513832797E+01
N    1.7178753082772111E+00    4.6362857244711320E+00    1.3069994277429803E+01
Ga    1.6746088259582885E+00    2.7658765998149155E+00    1.3640336272224253E+01
N    1.7039686425145355E+00    2.7484412987284257E+00    1.5585271867482200E+01
Ga    1.5077602901494629E+00    4.5132111797622994E+00    1.6510622483970000E+01
N    6.8086096877737382E-02    7.3882902774450665E+00    2.6814228335421508E+00
Ga    7.6406275796095532E-02    5.5588208851148675E+00    3.3283746217192669E+00
N    7.6119267793576223E-02    5.5502340824366660E+00    5.2581121364329348E+00
Ga    7.5471698169029711E-02    7.4018968546085615E+00    5.9055448027568413E+00
N    7.6588734525038907E-02    7.4014261679243996E+00    7.8548544454193081E+00
Ga    7.6831221097025962E-02    5.5304901461749196E+00    8.4590960082089399E+00
N    7.6607840510081182E-02    5.5303958224724523E+00    1.0431087428345737E+01
Ga    7.6553526193239685E-02    7.4017856330118459E+00    1.1043752717164327E+01
N    7.6486208034181130E-02    7.4018060894321964E+00    1.2993846876422207E+01
Ga    7.6650625578847484E-02    5.5339027982840436E+00    1.3640610011578543E+01
N    7.7297915129894340E-02    5.5663104942668475E+00    1.5585806094192423E+01
Ga    7.7320892394328183E-02    7.4018630227406526E+00    1.5869630986453126E+01
N   -1.6484879918230615E+00    1.0111892335532339E+01    2.4828314190172946E+00
Ga   -1.5201421830923538E+00    8.3198800972043685E+00    3.3020340496559606E+00
N   -1.5239671249936644E+00    8.3215797179215674E+00    5.2412286937288304E+00
Ga   -1.5011285901162328E+00    1.0201249261323813E+01    5.8156240644971371E+00
N   -1.5223374151714417E+00    1.0191106731539696E+01    7.7928933577991799E+00
Ga   -1.5434800215638311E+00    8.3360643278269482E+00    8.4608237473486714E+00
N   -1.5441774570049580E+00    8.3373538990013234E+00    1.0432301649152945E+01
Ga   -1.5148529905941777E+00    1.0196461360355780E+01    1.1096143023349539E+01
N   -1.4980734881856317E+00    1.0206361319446414E+01    1.3069642603039597E+01
Ga   -1.5412198574622602E+00    8.3359725516465364E+00    1.3640092876152751E+01
N   -1.5132717504079325E+00    8.3196083175153586E+00    1.5585447086936142E+01
Ga   -1.7062626523528677E+00    1.0085151887296758E+01    1.6509533464628724E+01
N    6.5057658558960112E+00    1.9530388739854339E+00    2.4929121433241157E+00
Ga    6.5055228890816323E+00   -3.5371319497408273E-02    2.8534646617522998E+00
N    6.5075415532648071E+00   -2.9509779765390588E-02    5.0158004286905964E+00
Ga    6.5096129144291197E+00    1.7908454234752580E+00    5.8164713305829210E+00
N    6.5094061426741074E+00    1.8196417995371290E+00    7.7927147521584992E+00
Ga    6.5093333782592397E+00   -2.7220564680074801E-02    8.4627728142836567E+00
N    6.5090488578616545E+00   -2.5703971839974121E-02    1.0419154235454096E+01
Ga    6.5091084099573813E+00    1.8121422058444003E+00    1.1095987705095462E+01
N    6.5089115128366650E+00    1.7928896291658505E+00    1.3069378473744981E+01
Ga    6.5089730651405544E+00   -2.5482538986519282E-02    1.3913675954297318E+01
N    6.5093943257943252E+00   -2.5337180101654817E-02    1.6072893665616984E+01
Ga    6.5095074010243685E+00    2.0332873887314835E+00    1.6508907920560347E+01
Ga    6.4772591369233652E+00    3.6788319468703077E+00    1.3003200552408507E+00
N    5.0158248782246657E+00    4.5451255189209290E+00    2.4838500879439360E+00
Ga    4.8967038168728401E+00    2.7488663852707522E+00    3.3138443704883285E+00
N    4.8899141117488822E+00    2.7523267475693927E+00    5.2457091316240216E+00
Ga    4.8694755867530155E+00    4.6343224329022723E+00    5.8163988337973525E+00
N    4.8919208184393126E+00    4.6214543869790639E+00    7.7920961741646906E+00
Ga    4.9129512567811418E+00    2.7655264742029333E+00    8.4610226189178110E+00
N    4.9135519469187230E+00    2.7673395631869862E+00    1.0432185438537255E+01
Ga    4.8843512782895493E+00    4.6265364298112548E+00    1.1096134463644823E+01
N    4.8672787350007942E+00    4.6360462267524012E+00    1.3069553602967309E+01
Ga    4.9107619769732640E+00    2.7655877555657824E+00    1.3639608940479643E+01
N    4.8839123261801749E+00    2.7490790224240520E+00    1.5584722067352354E+01
Ga    5.0770076693382826E+00    4.5142436208938328E+00    1.6509168862500740E+01
N    6.5095981405491221E+00    3.6869296902034803E+00    1.7658200554488978E+01
N    3.2916848453741978E+00    7.5369973977908087E+00    2.4732953679483640E+00
N    3.2937128919608116E+00    5.5441416814593376E+00    5.0091757410872528E+00
Ga    3.2891834775266577E+00    7.3649421180279129E+00    5.8129791138097398E+00
N    3.2919717177435306E+00    7.3903751678507295E+00    7.7901005352499304E+00
Ga    3.2934293356588999E+00    5.5450551385476006E+00    8.4635877464836149E+00
N    3.2927073462400855E+00    5.5453782718791658E+00    1.0419365993680017E+01
Ga    3.2928247651373419E+00    7.3828066957957743E+00    1.1096562029320099E+01
N    3.2925476848315434E+00    7.3635086694958627E+00    1.3069904038187982E+01
Ga    3.2926998053486511E+00    5.5452004308066929E+00    1.3914756961315472E+01
N    3.2937368364841881E+00    5.5438559951431445E+00    1.6073809352986437E+01
Ga    3.2934116174860315E+00    7.6034601571634415E+00    1.6510060092055632E+01
Ga    3.3028938821853813E+00    9.2398872456502286E+00    1.3057670436005611E+00
N    1.7987254382418718E+00    1.0116441596957760E+01    2.4823655392701567E+00
Ga    1.6619004085655094E+00    8.3191476649155476E+00    3.2901925779425811E+00
N    1.6726794415678679E+00    8.3200733801832900E+00    5.2320323132547095E+00
Ga    1.6513050478592444E+00    1.0198816456141978E+01    5.8135419657256904E+00
N    1.6755720572359696E+00    1.0189824831402932E+01    7.7911470911881775E+00
Ga    1.6960752170781945E+00    8.3357551373641190E+00    8.4613005921869497E+00
N    1.6973774659948326E+00    8.3373575555917103E+00    1.0432498227980890E+01
Ga    1.6681125756522028E+00    1.0196479030348465E+01    1.1096451336573645E+01
N    1.6514026539255309E+00    1.0206221893019805E+01    1.3069959998449285E+01
Ga    1.6942890769846264E+00    8.3357567448019960E+00    1.3640267490013681E+01
N    1.6679648071120587E+00    8.3195214890072720E+00    1.5585829373678880E+01
Ga    1.8611928276913514E+00    1.0084941907373079E+01    1.6509808300625167E+01
N    3.2931311027210923E+00    9.2580162804708230E+00    1.7657626151996517E+01
N    9.7211153017941037E+00    1.8256049637998393E+00    2.6794901491153857E+00
Ga    9.7204453616349884E+00   -2.9518174307404457E-02    3.3087428139480290E+00
N    9.7226827805134803E+00   -1.6572537506346647E-02    5.2434109905619630E+00
Ga    9.7215694678937243E+00    1.8268523627942537E+00    5.9086807590126913E+00
N    9.7243560936447633E+00    1.8295158188955301E+00    7.8562514194338906E+00
Ga    9.7244026854865826E+00   -4.1359116895681780E-02    8.4611781223614173E+00
N    9.7248254383320720E+00   -4.0221230135402519E-02    1.0432425856263151E+01
Ga    9.7249677852840009E+00    1.8313115466133605E+00    1.1044482147956325E+01
N    9.7249794160438707E+00    1.8311963340203534E+00    1.2994435204575774E+01
Ga    9.7250928552056202E+00   -3.7009500533986224E-02    1.3640443265008530E+01
N    9.7257725482888802E+00   -5.7539505397768880E-03    1.5585961196615347E+01
Ga    9.7253411574457136E+00    1.8308139189425241E+00    1.5869245760095776E+01
N    7.9964530218443937E+00    4.5440580107704793E+00    2.4765128080014498E+00
Ga    8.1148053544733045E+00    2.7542473927345679E+00    3.3044091785787577E+00
N    8.1269192542746769E+00    2.7521226358773192E+00    5.2403980875433813E+00
Ga    8.1492665590796722E+00    4.6334166242367427E+00    5.8140004874337610E+00
N    8.1263197994192371E+00    4.6210450556732541E+00    7.7909637113489323E+00
Ga    8.1050310113384949E+00    2.7660402823403065E+00    8.4616122808753236E+00
N    8.1045615826388087E+00    2.7672928471863627E+00    1.0432512430353063E+01
Ga    8.1335314975632560E+00    4.6263122537829275E+00    1.1096670598795821E+01
N    8.1504749585755540E+00    4.6359226118477226E+00    1.3069820334873997E+01
Ga    8.1070805786491604E+00    2.7655185303585346E+00    1.3639736587042712E+01
N    8.1351352581380141E+00    2.7489567581600469E+00    1.5584745474279156E+01
Ga    7.9422093879873437E+00    4.5143504729847121E+00    1.6509045399083462E+01
N    6.5069730556184702E+00    7.3986095645666365E+00    2.6776411098414030E+00
Ga    6.5109453929825012E+00    5.5464351318789120E+00    3.3054156688464884E+00
N    6.5087414486380100E+00    5.5546844993072817E+00    5.2398097678322229E+00
Ga    6.5086075376546120E+00    7.3998003638796668E+00    5.9059382401860665E+00
N    6.5085903224194954E+00    7.4008262438771872E+00    7.8540776095184608E+00
Ga    6.5095150952903191E+00    5.5307944185513547E+00    8.4609174864071210E+00
N    6.5090486365305233E+00    5.5306540290288195E+00    1.0432031605047481E+01
Ga    6.5088593866355815E+00    7.4021520795349325E+00    1.1043939553647313E+01
N    6.5086615616754973E+00    7.4020786923139275E+00    1.2994297030152275E+01
Ga    6.5089397067888326E+00    5.5334153102692420E+00    1.3639737620580293E+01
N    6.5094632151332554E+00    5.5648435462736874E+00    1.5585160910526977E+01
Ga    6.5095765488118653E+00    7.4013130244318663E+00    1.5868865678322779E+01
N    4.7897538179929553E+00    1.0122816804570554E+01    2.4972177871666408E+00
Ga    4.9055948900339157E+00    8.3281778942355924E+00    3.3088063843408464E+00
N    4.9101253436799599E+00    8.3217045746458336E+00    5.2420145870879713E+00
Ga    4.9311651662236011E+00    1.0203942913770790E+01    5.8163938382806526E+00
N    4.9101709016242401E+00    1.0191272700650661E+01    7.7925697195520653E+00
Ga    4.8883882227195992E+00    8.3359133067826896E+00    8.4601422647976250E+00
N    4.8879547565476811E+00    8.3372716577349610E+00    1.0431642704466586E+01
Ga    4.9171461863408057E+00    1.0196306931411369E+01    1.1096445967102794E+01
N    4.9340206124438071E+00    1.0206422632940575E+01    1.3069980087796635E+01
Ga    4.8905065027871766E+00    8.3362774198972076E+00    1.3640451760434104E+01
N    4.9189613844755193E+00    8.3195883049108357E+00    1.5585940885318907E+01
Ga    4.7263351664665825E+00    1.0085344693989798E+01    1.6510145682804222E+01
O   -4.3698539701291705E-03    3.9953499712825562E+00   -4.6906052126435283E-01
H   -2.5464775376615140E-01    5.8355722363145137E+00   -3.6756137784279252E-01
C    1.1523964155621322E+00    3.5902996307110864E+00   -1.2289984935124887E+00
H    2.0929934648777393E+00    3.9784408189306473E+00   -8.0234204424199684E-01
H    1.2198065352900804E+00    2.4923763035372044E+00   -1.2995931261025895E+00
H    1.0419693500528744E+00    3.9965345527688627E+00   -2.2450555229279940E+00
Ga    3.2898973167429633E+00    5.5431602803026596E+00    2.8507115610989455E+00
O   -2.3584220094251512E-01    6.8017769915795219E+00   -1.5384770009710513E-01
H    1.8934176107948758E-02    7.3012352405065419E+00    1.6425018396738991E+00
C    8.5590155301524351E-01    7.3796157392972956E+00   -8.9354700789248998E-01
H    8.5961814527543345E-01    8.4583817942946666E+00   -6.9374340403628176E-01
H    1.8293641533850016E+00    6.9671773823560770E+00   -5.8221590737262463E-01
H    7.3614938552747933E-01    7.2300952442864173E+00   -1.9772430147936553E+00
O   -3.3057531755199445E+00    9.3721708231184664E+00   -5.1270159000960080E-01
C   -3.9775375957301002E+00    1.0546950041789293E+01   -9.8693172806026419E-01
H   -5.0014517238759622E+00    1.0641355643917503E+01   -5.8391567913459463E-01
H   -3.4269909518926012E+00    1.1475485225839678E+01   -7.5018487301565695E-01
H   -4.0436134636433350E+00    1.0465277676640991E+01   -2.0826683852776613E+00
O    3.4013421964390740E+00    9.3324110581157385E+00   -5.0707145657131270E-01
C    3.8738524027649115E+00    1.0576766948553120E+01   -1.0429512572859927E+00
H    3.2165054978712719E+00    1.1425987477189681E+01   -7.8221356150271559E-01
H    4.8995311181583467E+00    1.0815197122130870E+01   -7.1179821343809713E-01
H    3.8784108307898566E+00    1.0480362683130881E+01   -2.1392959844666914E+00
O    6.3835749555395225E+00    3.5820521894350787E+00   -5.0919803313748879E-01
C    7.0886878302344876E+00    2.5041120290379846E+00   -1.1447884412906653E+00
H    8.1783616985142995E+00    2.5502424380062827E+00   -9.7314399053592471E-01
H    6.7263355185947731E+00    1.5142510617076179E+00   -8.1812529991308047E-01
H    6.9158173404738044E+00    2.5947780465309611E+00   -2.2280354849594679E+00
H    6.5103074644169432E+00    7.3996304629671545E+00    1.6500148955092733E+00
H    9.7271279816278735E+00    1.8262197292193667E+00    1.6522431440113821E+00
H    3.3015246388673130E+00    1.8256212905148315E+00    1.6511207115014350E+00
     &END COORD
     &KIND C
       BASIS_SET DZVP-MOLOPT-SR-GTH-q4
       POTENTIAL GTH-PBE-q4
       &POTENTIAL
2 2
0.3384712400000000E+00 2 -0.8803673979999999E+01  0.1339210850000000E+01
2
0.3025757500000000E+00 1  0.9622486650000001E+01
0.2915069400000000E+00 0
       &END POTENTIAL
     &END KIND
     &KIND O
       BASIS_SET DZVP-MOLOPT-SR-GTH-q6
       POTENTIAL GTH-PBE-q6
       &POTENTIAL
2 4
0.2445543000000000E+00 2 -0.1666721480000000E+02  0.2487311320000000E+01
2
0.2209559200000000E+00 1  0.1833745811000000E+02
0.2113324700000000E+00 0
       &END POTENTIAL
     &END KIND
     &KIND H
       BASIS_SET DZVP-MOLOPT-SR-GTH-q1
       POTENTIAL GTH-PBE-q1
       &POTENTIAL
1
0.2000000000000000E+00 2 -0.4178900440000000E+01  0.7244633100000000E+00
0
       &END POTENTIAL
     &END KIND
     &KIND N
       BASIS_SET DZVP-MOLOPT-SR-GTH
       POTENTIAL GTH-PBE-q5
       &POTENTIAL
2 3
0.2837905100000000E+00 2 -0.1241522559000000E+02  0.1868095920000000E+01
2
0.2554050000000000E+00 1  0.1363026257000000E+02
0.2454945300000000E+00 0
       &END POTENTIAL
     &END KIND
     &KIND Ga
       BASIS_SET DZVP-MOLOPT-SR-GTH
       POTENTIAL GTH-PBE-q13
       &POTENTIAL
2 1 10
0.4900000000000000E+00 0
3
0.4167772300000000E+00 3  0.1047568975000000E+02 -0.4921768140000000E+01  0.8707055900000000E+00
0.7770178090000000E+01 -0.2248152160000000E+01
0.1784415450000000E+01
0.5696265200000000E+00 2  0.1777985340000000E+01  0.1958597600000000E+00
-0.2317443900000000E+00
0.2381265000000000E+00 1 -0.1624868022000000E+02
       &END POTENTIAL
     &END KIND
     &TOPOLOGY
       NUMBER_OF_ATOMS  230
       MULTIPLE_UNIT_CELL  1 1 1
     &END TOPOLOGY
     &COLVAR
       &DISTANCE
         ATOMS  127 211
       &END DISTANCE
       &PRINT
       &END PRINT
     &END COLVAR
   &END SUBSYS
 &END FORCE_EVAL
