 # Version information for this restart file 
 # current date 2019-07-19 00:47:17.648
 # current working dir /lustre04/scratch/rzk/rzk/GaN-carbene/443-adatoms-both-2x2/21-FullCoveragePlus1/01-Mimic-0401
 # Program compiled at                              Sun Apr  7 00:48:11 EDT 2019
 # Program compiled on                          beluga2.int.ets1.calculquebec.ca
 # Program compiled for                        Beluga-Linux-x86-64-intel-openmpi
 # Source code revision number                                         svn:18619
 &GLOBAL
   PRINT_LEVEL  MEDIUM
   PROJECT_NAME TEST
   RUN_TYPE  GEO_OPT
 &END GLOBAL
 &MOTION
   &GEO_OPT
     MAX_ITER  500
     STEP_START_VAL  61
   &END GEO_OPT
 &END MOTION
 &FORCE_EVAL
   METHOD  QS
   STRESS_TENSOR  ANALYTICAL
   &DFT
     BASIS_SET_FILE_NAME BASIS_MOLOPT
     POTENTIAL_FILE_NAME GTH_POTENTIALS
     UKS  T
     SURFACE_DIPOLE_CORRECTION  T
     SURF_DIP_DIR  Z
     &SCF
       MAX_SCF  80
       EPS_SCF     5.0000000000000004E-06
       &OT  T
         PRECONDITIONER  FULL_ALL
       &END OT
       &OUTER_SCF  T
         OPTIMIZER  NONE
         EPS_SCF     5.0000000000000004E-06
         MAX_SCF  4
       &END OUTER_SCF
       &PRINT
         &RESTART  OFF
           BACKUP_COPIES  1
           &EACH
             JUST_ENERGY  0
             QS_SCF  0
             MD  20
           &END EACH
         &END RESTART
       &END PRINT
     &END SCF
     &QS
       EPS_DEFAULT     1.0000000000000000E-14
       METHOD  GPW
     &END QS
     &MGRID
       NGRIDS  5
       CUTOFF     1.2000000000000000E+03
     &END MGRID
     &XC
       DENSITY_CUTOFF     1.0000000000000000E-10
       GRADIENT_CUTOFF     1.0000000000000000E-10
       TAU_CUTOFF     1.0000000000000000E-10
       &XC_FUNCTIONAL  NO_SHORTCUT
         &PBE  T
         &END PBE
       &END XC_FUNCTIONAL
       &VDW_POTENTIAL
         POTENTIAL_TYPE  PAIR_POTENTIAL
         &PAIR_POTENTIAL
           R_CUTOFF     1.0000000000000009E+01
           TYPE  DFTD3
           PARAMETER_FILE_NAME dftd3.dat
           REFERENCE_FUNCTIONAL PBE
           EPS_CN     9.9999999999999995E-07
           CALCULATE_C9_TERM  T
           REFERENCE_C9_TERM  T
           LONG_RANGE_CORRECTION  F
           VERBOSE_OUTPUT  F
         &END PAIR_POTENTIAL
       &END VDW_POTENTIAL
     &END XC
   &END DFT
   &SUBSYS
     &CELL
       A     1.2864472766435110E+01    0.0000000000000000E+00    0.0000000000000000E+00
       B    -6.4322363581020028E+00    1.1140960178524477E+01    0.0000000000000000E+00
       C     0.0000000000000000E+00    0.0000000000000000E+00    3.2000000000000000E+01
       MULTIPLE_UNIT_CELL  1 1 1
       &CELL_REF
         A     1.2982353780853531E+01    0.0000000000000000E+00    0.0000000000000000E+00
         B    -6.4911768904267628E+00    1.1243048175136114E+01    0.0000000000000000E+00
         C     0.0000000000000000E+00    0.0000000000000000E+00    3.2000000000000000E+01
         MULTIPLE_UNIT_CELL  1 1 1
       &END CELL_REF
     &END CELL
     &COORD
N    7.4997951526972889E-02    1.9651904206795574E+00    2.4702952111979934E+00
Ga    7.9404540676733262E-02   -3.5746881254788643E-02    2.8639852989253307E+00
N    7.6034344407533191E-02   -2.8869462105961950E-02    5.0160363684097362E+00
Ga    7.7181495375197126E-02    1.7879527712152719E+00    5.8175763521463777E+00
N    7.7724068738139085E-02    1.8132185015484206E+00    7.7911260455766786E+00
Ga    7.8034394758149078E-02   -3.4774212789041484E-02    8.4579680665974450E+00
N    7.8718133814168742E-02   -3.5276063233131684E-02    1.0413863356108621E+01
Ga    7.9070754994624778E-02    1.8023350840960011E+00    1.1091153610644424E+01
N    7.9815000734694302E-02    1.7820469567022430E+00    1.3065176280673983E+01
Ga    7.9880636684482753E-02   -3.5813632955664775E-02    1.3911238786997561E+01
N    7.9737820723344538E-02   -3.6314766467707565E-02    1.6069825799980745E+01
Ga    7.9809495676587391E-02    2.0231670804152482E+00    1.6506652914210630E+01
Ga    5.3434113973879989E-02    3.7171349713637887E+00    1.3381746334819860E+00
N   -1.4174910556104030E+00    4.5408528496821186E+00    2.4991010365143063E+00
Ga   -1.5400399730034799E+00    2.7442694712284821E+00    3.3115496303313323E+00
N   -1.5426154471468487E+00    2.7435543895119610E+00    5.2416405944054345E+00
Ga   -1.5664029164993900E+00    4.6263875255877593E+00    5.8128031914597624E+00
N   -1.5412980823400806E+00    4.6122770003542275E+00    7.7884736927446161E+00
Ga   -1.5198657203839283E+00    2.7575800265633021E+00    8.4576072504799544E+00
N   -1.5168064426441614E+00    2.7573110236165945E+00    1.0428117065465823E+01
Ga   -1.5456361639129919E+00    4.6167442413754403E+00    1.1090594596786374E+01
N   -1.5619568372235033E+00    4.6256814801466515E+00    1.3064777312249454E+01
Ga   -1.5183125348093760E+00    2.7550863552875406E+00    1.3635766454093522E+01
N   -1.5455409388040029E+00    2.7391207389223124E+00    1.5581798225729070E+01
Ga   -1.3528623453062618E+00    4.5045398665696244E+00    1.6507016684020645E+01
N    7.9788376628706720E-02    3.6773381280731372E+00    1.7655340078522073E+01
N   -3.1413659761037409E+00    7.5346634321051686E+00    2.4745051931863182E+00
Ga   -3.1417043257251467E+00    5.5411978870409051E+00    2.8327616599810503E+00
N   -3.1393280039230946E+00    5.5386946967375490E+00    5.0014415735394575E+00
Ga   -3.1396195349474247E+00    7.3576906811652192E+00    5.8089261074005387E+00
N   -3.1390879451897611E+00    7.3819814885042856E+00    7.7860205042207067E+00
Ga   -3.1392431529074569E+00    5.5364866089739166E+00    8.4577599950240518E+00
N   -3.1377579278097891E+00    5.5352638324089991E+00    1.0413733540323848E+01
Ga   -3.1372490333296463E+00    7.3730847160486475E+00    1.1090398712141727E+01
N   -3.1364052467704338E+00    7.3524630070343564E+00    1.3064630213130974E+01
Ga   -3.1361554085634644E+00    5.5345047102560558E+00    1.3910766330546272E+01
N   -3.1364444797728979E+00    5.5344484715091884E+00    1.6069738215855477E+01
Ga   -3.1362772246580741E+00    7.5941916030454353E+00    1.6507392487478331E+01
Ga   -3.1289337649955118E+00    9.2177269219417113E+00    1.2892949470631647E+00
N   -4.6405897168829160E+00    1.0119653398211248E+01    2.4920897148556795E+00
Ga   -4.7543563132720763E+00    8.3301758774907277E+00    3.3010637350256169E+00
N   -4.7585080951221430E+00    8.3163722270187748E+00    5.2359360117295006E+00
Ga   -4.7772363263336972E+00    1.0198224582821194E+01    5.8098761836637616E+00
N   -4.7554138866040825E+00    1.0183640115434626E+01    7.7864958966591171E+00
Ga   -4.7346231029505503E+00    8.3281617291548429E+00    8.4548063924448869E+00
N   -4.7326621710787213E+00    8.3280539258218855E+00    1.0426220082056364E+01
Ga   -4.7617685352080255E+00    1.0187040918422746E+01    1.1090670159812792E+01
N   -4.7781803321027647E+00    1.0196221488940420E+01    1.3064828873171301E+01
Ga   -4.7344044996700028E+00    8.3256126388795675E+00    1.3635712261888731E+01
N   -4.7618276458393529E+00    8.3095433822558871E+00    1.5581591388610143E+01
Ga   -4.5687923340594381E+00    1.0075177853613887E+01    1.6507244747078509E+01
N   -3.1364114850690243E+00    9.2480249426971604E+00    1.7654614637198620E+01
N    3.2922844925689327E+00    1.8215286218207258E+00    2.6706528553266868E+00
Ga    3.2917019804657892E+00   -3.6746094116465816E-02    3.2968545291739089E+00
N    3.2940758750863930E+00   -2.1200835860181646E-02    5.2344181840261168E+00
Ga    3.2935740266110938E+00    1.8207987295279304E+00    5.9013046710954100E+00
N    3.2940535496597216E+00    1.8221735507470582E+00    7.8493387654055136E+00
Ga    3.2942800462278767E+00   -4.8458809218680246E-02    8.4558179319724314E+00
N    3.2948586107504108E+00   -4.9526347708651088E-02    1.0426919724746119E+01
Ga    3.2958760154985178E+00    1.8216694361461732E+00    1.1039271237739577E+01
N    3.2960012960091598E+00    1.8209243477160946E+00    1.2989832545259251E+01
Ga    3.2961452521023848E+00   -4.7694778757817233E-02    1.3635676632106506E+01
N    3.2959914001377966E+00   -1.5782087970739579E-02    1.5581552679802826E+01
Ga    3.2963160919668817E+00    1.8207716877466902E+00    1.5866424242772172E+01
N    1.5730458425426304E+00    4.5443956101514509E+00    2.4996733183904514E+00
Ga    1.6907269751687455E+00    2.7489415589291935E+00    3.3040233365205149E+00
N    1.6953673253436419E+00    2.7435170401916995E+00    5.2375615747737720E+00
Ga    1.7196588838728222E+00    4.6248696394140607E+00    5.8119331210644667E+00
N    1.6972850195959162E+00    4.6122662222658786E+00    7.7877122888485157E+00
Ga    1.6753763649358118E+00    2.7577613205374525E+00    8.4576600468991892E+00
N    1.6747917380927735E+00    2.7572327805855661E+00    1.0428120458543077E+01
Ga    1.7036026007620235E+00    4.6165649102204007E+00    1.1090609153786055E+01
N    1.7216790004803919E+00    4.6257010978308539E+00    1.3064759168800904E+01
Ga    1.6778717967966545E+00    2.7552333909869540E+00    1.3635920816394380E+01
N    1.7054505734000363E+00    2.7390244865374034E+00    1.5581976756018205E+01
Ga    1.5124678956815960E+00    4.5045222985784514E+00    1.6506989563137235E+01
N    7.1966385078808787E-02    7.3853081914285363E+00    2.6802680715414211E+00
Ga    7.9015818677845573E-02    5.5549858059116781E+00    3.3245218394093627E+00
N    7.6956800138011788E-02    5.5447072146070644E+00    5.2539123728308992E+00
Ga    7.6707876873186615E-02    7.3959949276166945E+00    5.9013581747451580E+00
N    7.7760795412280384E-02    7.3935864635547928E+00    7.8502771967922227E+00
Ga    7.8082275337062787E-02    5.5222912302035772E+00    8.4537902457120389E+00
N    7.8990197283751118E-02    5.5203892122765588E+00    1.0425719151600491E+01
Ga    7.9090176267776383E-02    7.3918562416362157E+00    1.1038114956107362E+01
N    7.9637079617272635E-02    7.3910828665584081E+00    1.2988997336517944E+01
Ga    7.9930317482913849E-02    5.5227693894696781E+00    1.3635871398799557E+01
N    7.9887442427374902E-02    5.5543288054922479E+00    1.5581930211009837E+01
Ga    8.0022231415646475E-02    7.3912360901126659E+00    1.5866850976666949E+01
N   -1.6462156587319754E+00    1.0108298462679693E+01    2.4810583750556683E+00
Ga   -1.5171115165137721E+00    8.3157588303103065E+00    3.2994463929522468E+00
N   -1.5229191053115725E+00    8.3158458067005192E+00    5.2374815281665521E+00
Ga   -1.5008147169432986E+00    1.0195820855857475E+01    5.8099440809794221E+00
N   -1.5216950965522771E+00    1.0183380293561392E+01    7.7869906903041457E+00
Ga   -1.5425494251210603E+00    8.3281593056021492E+00    8.4550587276908313E+00
N   -1.5420010578185757E+00    8.3275795420862337E+00    1.0426553188717007E+01
Ga   -1.5125916639437758E+00    1.0186762980398157E+01    1.1089956270748205E+01
N   -1.4944393360494215E+00    1.0196150689123055E+01    1.3064289909906204E+01
Ga   -1.5382350521684383E+00    8.3257079712591473E+00    1.3635399691320691E+01
N   -1.5106207893192825E+00    8.3094661770117106E+00    1.5581375395002304E+01
Ga   -1.7040296353686168E+00    1.0075008982296900E+01    1.6507266821933317E+01
N    6.5075561832161206E+00    1.9489926812709915E+00    2.4878934728677620E+00
Ga    6.5070949497983817E+00   -3.8478021635209185E-02    2.8506801783307307E+00
N    6.5083472974465026E+00   -3.5463954191918834E-02    5.0111004866619835E+00
Ga    6.5098644410812030E+00    1.7856592987753785E+00    5.8081778702184490E+00
N    6.5100878965656994E+00    1.8121003352659837E+00    7.7848685171930248E+00
Ga    6.5100683571363485E+00   -3.4768140349563742E-02    8.4559824403400743E+00
N    6.5110399587322734E+00   -3.5062130668046615E-02    1.0412510311827500E+01
Ga    6.5112467009725625E+00    1.8024219044768031E+00    1.1090067468859237E+01
N    6.5120091543992906E+00    1.7820147114714853E+00    1.3064302765929213E+01
Ga    6.5121100137961312E+00   -3.5836862783887716E-02    1.3910498997617665E+01
N    6.5120034855253994E+00   -3.6167732833368355E-02    1.6069604753390184E+01
Ga    6.5120376509219273E+00    2.0234014913768172E+00    1.6506977659357595E+01
Ga    6.4746455096716513E+00    3.6824480598056071E+00    1.2979029889548122E+00
N    5.0174462499524735E+00    4.5421148552084203E+00    2.4763323380802245E+00
Ga    4.8973960408502526E+00    2.7428123465324261E+00    3.3042315429529010E+00
N    4.8897515961627471E+00    2.7466694062229933E+00    5.2364834330532934E+00
Ga    4.8705231745056610E+00    4.6279880528532420E+00    5.8084025408678279E+00
N    4.8932478667221817E+00    4.6132698440869024E+00    7.7844553808655101E+00
Ga    4.9141732037313002E+00    2.7575166731677951E+00    8.4543334835152049E+00
N    4.9159523426271043E+00    2.7576370424908747E+00    1.0425741868329505E+01
Ga    4.8870190615327935E+00    4.6164496106939454E+00    1.1090380984506410E+01
N    4.8703608939937872E+00    4.6255549767544002E+00    1.3064493373614209E+01
Ga    4.9142156433868278E+00    2.7550457543375564E+00    1.3635621457218306E+01
N    4.8869080153380073E+00    2.7392524032382277E+00    1.5581484486733959E+01
Ga    5.0793036340287001E+00    4.5046463049118053E+00    1.6507106219440686E+01
N    6.5119606308285434E+00    3.6776054695422835E+00    1.7655496927246951E+01
N    3.2935130766636154E+00    7.5350337433054930E+00    2.4665364138206005E+00
N    3.2949351534836637E+00    5.5391796882706279E+00    5.0028374043430155E+00
Ga    3.2906127079244700E+00    7.3590883539177456E+00    5.8086425425572283E+00
N    3.2932797187003637E+00    7.3823193568955041E+00    7.7852625788951544E+00
Ga    3.2951928817986489E+00    5.5365678211002685E+00    8.4575013738344822E+00
N    3.2954444314727711E+00    5.5353481462050844E+00    1.0413427654403467E+01
Ga    3.2954376032686348E+00    7.3729777417406748E+00    1.1090667068214099E+01
N    3.2960162232957368E+00    7.3524042514664751E+00    1.3064718879908352E+01
Ga    3.2961467476733093E+00    5.5344403879777113E+00    1.3910763601865936E+01
N    3.2960685563594696E+00    5.5344357458473219E+00    1.6069625571330423E+01
Ga    3.2958954557392897E+00    7.5941929681821883E+00    1.6507229323119034E+01
Ga    3.3046323460858904E+00    9.2393922404025499E+00    1.3035496699586995E+00
N    1.7993773992939759E+00    1.0113016861480865E+01    2.4794971315529986E+00
Ga    1.6651538749906665E+00    8.3164877139574767E+00    3.2880070168232982E+00
N    1.6744501577168105E+00    8.3146105907685808E+00    5.2289359423602058E+00
Ga    1.6519903323254097E+00    1.0193452957618979E+01    5.8090264774997165E+00
N    1.6764527177864794E+00    1.0182143390936307E+01    7.7861425843994976E+00
Ga    1.6973831021552614E+00    8.3278508061921634E+00    8.4561217758399714E+00
N    1.6999580214806538E+00    8.3277454263923154E+00    1.0427104210970748E+01
Ga    1.6702337762086394E+00    1.0187068383282522E+01    1.1090313739718328E+01
N    1.6539746141753711E+00    1.0196150564551337E+01    1.3064461710154653E+01
Ga    1.6977228288981334E+00    8.3255165042202499E+00    1.3635236926066703E+01
N    1.6704751335370229E+00    8.3095173518865284E+00    1.5581127659246395E+01
Ga    1.8635922405754122E+00    1.0075001432592879E+01    1.6507129189524509E+01
N    3.2958750678323114E+00    9.2479684289285800E+00    1.7654493196211373E+01
N    9.7234382608290897E+00    1.8219325630562799E+00    2.6720938687377771E+00
Ga    9.7214346976874868E+00   -3.2176630492524554E-02    3.3047165812892212E+00
N    9.7226444652234427E+00   -2.1334574381369282E-02    5.2388947064680220E+00
Ga    9.7218258153282608E+00    1.8221869726466240E+00    5.9026512763998911E+00
N    9.7250035883803960E+00    1.8223068002062892E+00    7.8502684795916062E+00
Ga    9.7251828675822178E+00   -4.8742179427402270E-02    8.4554946722520352E+00
N    9.7269608871607520E+00   -4.9660340447412896E-02    1.0426658208614354E+01
Ga    9.7270110941274908E+00    1.8215879501265690E+00    1.1039181973900741E+01
N    9.7278560606354478E+00    1.8208652954048825E+00    1.2989779165938041E+01
Ga    9.7281020308131296E+00   -4.7712943223560907E-02    1.3635666092922408E+01
N    9.7282337472251701E+00   -1.5786699357086358E-02    1.5581488921892518E+01
Ga    9.7282623033126452E+00    1.8207499382564782E+00    1.5866427082969423E+01
N    7.9990585948078801E+00    4.5417737543295393E+00    2.4711016266616350E+00
Ga    8.1162288735965031E+00    2.7500518341511584E+00    3.2960478799302679E+00
N    8.1276575958286905E+00    2.7467246940347732E+00    5.2323022645846695E+00
Ga    8.1500707555977527E+00    4.6274255026597633E+00    5.8066271294625107E+00
N    8.1272494325575497E+00    4.6131692313849424E+00    7.7837953075595046E+00
Ga    8.1055068339275387E+00    2.7581833268486609E+00    8.4550681414928377E+00
N    8.1063833613376399E+00    2.7575999347217457E+00    1.0426280169371168E+01
Ga    8.1354672088192981E+00    4.6163032419043439E+00    1.1090747150498858E+01
N    8.1537852366851471E+00    4.6255685983795587E+00    1.3064767719174410E+01
Ga    8.1098138382284066E+00    2.7551189319365950E+00    1.3635771995938686E+01
N    8.1374715391574721E+00    2.7391350062513840E+00    1.5581688407691351E+01
Ga    7.9447364246254990E+00    4.5046143453052547E+00    1.6507167472544733E+01
N    6.5080748760798928E+00    7.3963871398763565E+00    2.6714113446615584E+00
Ga    6.5135695642844995E+00    5.5444752835835196E+00    3.2989691975948041E+00
N    6.5096078423232946E+00    5.5494630064201020E+00    5.2326357909630152E+00
Ga    6.5094806613690528E+00    7.3940169802965707E+00    5.9003790564116985E+00
N    6.5096701314990328E+00    7.3928684397262083E+00    7.8483453308751647E+00
Ga    6.5106169976741688E+00    5.5224015279891034E+00    8.4542090769394473E+00
N    6.5112652085691707E+00    5.5207165904269662E+00    1.0425587641821135E+01
Ga    6.5114692977634121E+00    7.3921577640090614E+00    1.1038181976412121E+01
N    6.5119117892765805E+00    7.3912907519909208E+00    1.2989094254611816E+01
Ga    6.5121232137323712E+00    5.5227913212628694E+00    1.3635813827007134E+01
N    6.5121033649355704E+00    5.5542903319527595E+00    1.5581737988874467E+01
Ga    6.5122676551078484E+00    7.3911307120805247E+00    1.5867164010299119E+01
N    4.7917312094910276E+00    1.0120643217646441E+01    2.4982845768088149E+00
Ga    4.9070307041925831E+00    8.3254697072013197E+00    3.3045806453634414E+00
N    4.9107901320770226E+00    8.3160621298527282E+00    5.2373255974435180E+00
Ga    4.9309464340545839E+00    1.0198578240682000E+01    5.8112076203828220E+00
N    4.9107437595562615E+00    1.0183655560270767E+01    7.7871681831208939E+00
Ga    4.8897422885742081E+00    8.3280707043829327E+00    8.4547726981621540E+00
N    4.8904563837749713E+00    8.3276623091454809E+00    1.0426113532340382E+01
Ga    4.9193366880058482E+00    1.0186758447491284E+01    1.1090335581715586E+01
N    4.9376927932959287E+00    1.0196196000829314E+01    1.3064578348436054E+01
Ga    4.8939651238949375E+00    8.3257825875550449E+00    1.3635811072899022E+01
N    4.9217546147080684E+00    8.3094853767729688E+00    1.5581671132034439E+01
Ga    4.7283367560230714E+00    1.0075145164556677E+01    1.6507229538444822E+01
O    2.9364681131553074E-02    3.9815087930506166E+00   -4.7576599268131825E-01
H   -1.8606550066462740E-01    5.8505749077836988E+00   -3.9147048527941236E-01
C    1.1969659341950176E+00    3.5503184986614857E+00   -1.2049333145092285E+00
H    2.1210183958857107E+00    4.0157126445042808E+00   -8.2513690865218292E-01
H    1.3127884883443193E+00    2.4552015868763557E+00   -1.1722076373251202E+00
H    1.0632168994565596E+00    3.8501510189514456E+00   -2.2534983103831272E+00
Ga    3.2900466696818365E+00    5.5402918715969562E+00    2.8453900450268708E+00
O   -2.0463927951576452E-01    6.8087042058588514E+00   -1.4987141417970792E-01
H    3.2303345929051971E-02    7.2993147073869862E+00    1.6417540408222948E+00
C    7.7563759413178057E-01    7.4879380291660960E+00   -9.5720103506942888E-01
H    7.5409913481323698E-01    8.5485081267716065E+00   -6.7893505364473294E-01
H    1.7934090185565581E+00    7.1074751645699834E+00   -7.8238024737937328E-01
H    5.4098900738475464E-01    7.4081452114695745E+00   -2.0282882786294021E+00
O   -3.3127596395962251E+00    9.3692775859607380E+00   -5.0871726542043216E-01
C   -3.8280142468824159E+00    1.0624853082237772E+01   -9.7409243636896636E-01
H   -4.7287040216938037E+00    1.0946147310950245E+01   -4.2198752616938878E-01
H   -3.0745558620974780E+00    1.1429086765751075E+01   -9.1374048864653734E-01
H   -4.1036918359171954E+00    1.0495885816968938E+01   -2.0309234410553483E+00
O    3.4453303907069848E+00    9.3847426643062768E+00   -5.0270621464196974E-01
C    3.8905539658583397E+00    1.0665694442073370E+01   -9.7578226490914599E-01
H    3.0917620179251961E+00    1.1424914949694880E+01   -9.1888110224972519E-01
H    4.7693273858532699E+00    1.1041310606573587E+01   -4.2313826466237120E-01
H    4.1762566193179156E+00    1.0548712593959406E+01   -2.0311316993760249E+00
O    6.3917776779166315E+00    3.5388432351006021E+00   -5.0829398424865480E-01
C    7.2677123045149852E+00    2.5658918978334566E+00   -1.1007906881642051E+00
H    8.3190073131779325E+00    2.8978589732720565E+00   -1.0915736320384979E+00
H    7.2034714109789082E+00    1.5820398642316935E+00   -6.0464995323179194E-01
H    6.9595542906093888E+00    2.4385152615665868E+00   -2.1486650439246628E+00
H    6.5082443058027879E+00    7.4012244503703268E+00    1.6443035289770056E+00
H    9.7313524225504064E+00    1.8197829685798170E+00    1.6454850980575446E+00
H    3.2947173428913006E+00    1.8232427601072745E+00    1.6438470619000345E+00
     &END COORD
     &KIND C
       BASIS_SET DZVP-MOLOPT-SR-GTH-q4
       POTENTIAL GTH-PBE-q4
       &POTENTIAL
2 2
0.3384712400000000E+00 2 -0.8803673979999999E+01  0.1339210850000000E+01
2
0.3025757500000000E+00 1  0.9622486650000001E+01
0.2915069400000000E+00 0
       &END POTENTIAL
     &END KIND
     &KIND O
       BASIS_SET DZVP-MOLOPT-SR-GTH-q6
       POTENTIAL GTH-PBE-q6
       &POTENTIAL
2 4
0.2445543000000000E+00 2 -0.1666721480000000E+02  0.2487311320000000E+01
2
0.2209559200000000E+00 1  0.1833745811000000E+02
0.2113324700000000E+00 0
       &END POTENTIAL
     &END KIND
     &KIND H
       BASIS_SET DZVP-MOLOPT-SR-GTH-q1
       POTENTIAL GTH-PBE-q1
       &POTENTIAL
1
0.2000000000000000E+00 2 -0.4178900440000000E+01  0.7244633100000000E+00
0
       &END POTENTIAL
     &END KIND
     &KIND N
       BASIS_SET DZVP-MOLOPT-SR-GTH
       POTENTIAL GTH-PBE-q5
       &POTENTIAL
2 3
0.2837905100000000E+00 2 -0.1241522559000000E+02  0.1868095920000000E+01
2
0.2554050000000000E+00 1  0.1363026257000000E+02
0.2454945300000000E+00 0
       &END POTENTIAL
     &END KIND
     &KIND Ga
       BASIS_SET DZVP-MOLOPT-SR-GTH
       POTENTIAL GTH-PBE-q13
       &POTENTIAL
2 1 10
0.4900000000000000E+00 0
3
0.4167772300000000E+00 3  0.1047568975000000E+02 -0.4921768140000000E+01  0.8707055900000000E+00
0.7770178090000000E+01 -0.2248152160000000E+01
0.1784415450000000E+01
0.5696265200000000E+00 2  0.1777985340000000E+01  0.1958597600000000E+00
-0.2317443900000000E+00
0.2381265000000000E+00 1 -0.1624868022000000E+02
       &END POTENTIAL
     &END KIND
     &TOPOLOGY
       NUMBER_OF_ATOMS  230
       MULTIPLE_UNIT_CELL  1 1 1
     &END TOPOLOGY
     &COLVAR
       &DISTANCE
         ATOMS  127 211
       &END DISTANCE
       &PRINT
       &END PRINT
     &END COLVAR
   &END SUBSYS
 &END FORCE_EVAL
