 # Version information for this restart file 
 # current date 2019-05-28 07:14:49.653
 # current working dir /lustre03/project/6004141/rzk/GaN-carbene/334-native/08-2Methanol-Htransfer/01-Constraint/1.66
 # Program compiled at                              Sun Apr  7 00:48:11 EDT 2019
 # Program compiled on                          beluga2.int.ets1.calculquebec.ca
 # Program compiled for                        Beluga-Linux-x86-64-intel-openmpi
 # Source code revision number                                         svn:18619
 &GLOBAL
   PRINT_LEVEL  MEDIUM
   PROJECT_NAME TEST
   RUN_TYPE  GEO_OPT
 &END GLOBAL
 &MOTION
   &GEO_OPT
     MAX_ITER  500
     STEP_START_VAL  84
   &END GEO_OPT
   &CONSTRAINT
     &COLLECTIVE
       COLVAR  1
       INTERMOLECULAR  T
       TARGET     3.1369453805901673E+00
       &RESTRAINT
         K     1.0000000000000001E-01
       &END RESTRAINT
     &END COLLECTIVE
     &COLVAR_RESTART
           3.1369453805901673E+00
     &END COLVAR_RESTART
   &END CONSTRAINT
 &END MOTION
 &FORCE_EVAL
   METHOD  QS
   STRESS_TENSOR  ANALYTICAL
   &DFT
     BASIS_SET_FILE_NAME BASIS_MOLOPT
     POTENTIAL_FILE_NAME GTH_POTENTIALS
     &SCF
       MAX_SCF  100
       EPS_SCF     5.0000000000000004E-06
       &OT  T
         PRECONDITIONER  FULL_ALL
       &END OT
       &OUTER_SCF  T
         OPTIMIZER  NONE
         EPS_SCF     5.0000000000000004E-06
         MAX_SCF  4
       &END OUTER_SCF
       &PRINT
         &RESTART  OFF
           BACKUP_COPIES  1
           &EACH
             JUST_ENERGY  0
             QS_SCF  0
             MD  20
           &END EACH
         &END RESTART
       &END PRINT
     &END SCF
     &QS
       EPS_DEFAULT     1.0000000000000000E-14
       ALMO_SCF  F
       METHOD  GPW
     &END QS
     &MGRID
       NGRIDS  5
       CUTOFF     1.2000000000000000E+03
     &END MGRID
     &XC
       DENSITY_CUTOFF     1.0000000000000000E-10
       GRADIENT_CUTOFF     1.0000000000000000E-10
       TAU_CUTOFF     1.0000000000000000E-10
       &XC_FUNCTIONAL  NO_SHORTCUT
         &PBE  T
         &END PBE
       &END XC_FUNCTIONAL
       &VDW_POTENTIAL
         POTENTIAL_TYPE  PAIR_POTENTIAL
         &PAIR_POTENTIAL
           R_CUTOFF     1.0000000000000005E+01
           TYPE  DFTD3
           PARAMETER_FILE_NAME dftd3.dat
           REFERENCE_FUNCTIONAL PBE
           EPS_CN     9.9999999999999995E-07
           CALCULATE_C9_TERM  T
           REFERENCE_C9_TERM  T
           LONG_RANGE_CORRECTION  F
           VERBOSE_OUTPUT  F
         &END PAIR_POTENTIAL
       &END VDW_POTENTIAL
     &END XC
   &END DFT
   &SUBSYS
     &CELL
       A     9.7367653356401487E+00    0.0000000000000000E+00    0.0000000000000000E+00
       B    -4.8591341382960209E+00    8.4162672083210595E+00    0.0000000000000000E+00
       C     0.0000000000000000E+00    0.0000000000000000E+00    3.0744000000000000E+01
       MULTIPLE_UNIT_CELL  1 1 1
       &CELL_REF
         A     9.5580000000000052E+00    0.0000000000000000E+00    0.0000000000000000E+00
         B    -4.7790000000000026E+00    8.2774708093716640E+00    0.0000000000000000E+00
         C     0.0000000000000000E+00    0.0000000000000000E+00    3.0744000000000000E+01
         MULTIPLE_UNIT_CELL  1 1 1
       &END CELL_REF
     &END CELL
     &COORD
Ga   -2.1789822901348475E-03   -3.7083737142096909E-02   -5.4667041732211263E-01
N    4.2745295721460406E-04    1.8370005544992658E+00    6.0530711887734234E-01
Ga    1.1336617923726978E-03    1.8052616316573984E+00    2.6358875299957072E+00
N   -1.8889199943626731E-03   -3.7887470578409251E-02    3.2679732852358714E+00
Ga    3.3593501985696274E-04   -3.6399895503496232E-02    5.2584308824147188E+00
N    3.5752395705237181E-03    1.8381105612092239E+00    5.8469545279030104E+00
Ga    6.5849317222426854E-03    1.8357768770198015E+00    7.8467593301390028E+00
N    5.9168645560022937E-03   -3.7013258164250142E-02    8.4479896518525077E+00
Ga    9.7290459651004427E-03   -3.6832072525664519E-02    1.0446420653267790E+01
N    8.6414061262508630E-03    1.8357133652193345E+00    1.1047984784275295E+01
Ga    1.6848034769696266E-02    1.8324908530347057E+00    1.3042118674384639E+01
N    2.4487498832970588E-02   -4.1094316203978257E-02    1.3633823285744347E+01
Ga    4.3569051274640981E-02   -6.1278763733442897E-02    1.5626140182461628E+01
N    4.4568910678684105E-02    1.8194491324456517E+00    1.6196427365793749E+01
Ga    6.7170357775776679E-02    1.7966495457007312E+00    1.8246646364541714E+01
N    5.6433302764593588E-02   -7.2967807503448945E-02    1.8657863997118483E+01
Ga   -1.6222628295548975E+00    2.7668989220298679E+00    3.2253445490153293E-01
N   -1.6228946699370463E+00    4.6377941971698791E+00    6.0500166863639537E-01
Ga   -1.5942937169645011E+00    4.6532809912253583E+00    2.6367148166812284E+00
N   -1.6214057059674039E+00    2.7674756295271181E+00    3.2266606019436703E+00
Ga   -1.6189786806817901E+00    2.7686330062710796E+00    5.2382554659101928E+00
N   -1.6187350458103755E+00    4.6387511209255710E+00    5.8452702106258716E+00
Ga   -1.6160373183039503E+00    4.6392958337061092E+00    7.8440828154007187E+00
N   -1.6159893927379918E+00    2.7692020404644668E+00    8.4510761171115121E+00
Ga   -1.6145590977431910E+00    2.7708685501078625E+00    1.0447460639992871E+01
N   -1.6154202293781972E+00    4.6414870607990411E+00    1.1054928874227471E+01
Ga   -1.6182156312071554E+00    4.6399353231827281E+00    1.3052906518080604E+01
N   -1.6007394916556539E+00    2.7709058157137663E+00    1.3667117853512584E+01
Ga   -1.5920968327927156E+00    2.7831524812791089E+00    1.5675702147460763E+01
N   -1.5817606194891622E+00    4.6475788874913713E+00    1.6311085495863242E+01
Ga   -1.4778794797650114E+00    4.6374160549294503E+00    1.8392133421684406E+01
N   -1.5275489461463223E+00    2.7365231364981284E+00    1.8695079584819066E+01
Ga   -3.2430993454718013E+00    5.5738562213440330E+00    3.2311162284512424E-01
N   -3.2355876089611626E+00    7.4437281826190018E+00    6.0577180570547817E-01
Ga   -3.2625830671602056E+00    7.4590659440650908E+00    2.6361949639180149E+00
N   -3.2412371318615207E+00    5.5730171151069978E+00    3.2266983130325064E+00
Ga   -3.2391191000119739E+00    5.5741901068769479E+00    5.2383195106972149E+00
N   -3.2329550613894229E+00    7.4446499461959066E+00    5.8446488013710285E+00
Ga   -3.2320103324251939E+00    7.4444808425399174E+00    7.8433732318961562E+00
N   -3.2363329258033873E+00    5.5741713456294910E+00    8.4473689935011560E+00
Ga   -3.2346638872551536E+00    5.5730690247153714E+00    1.0442375420988110E+01
N   -3.2257287521635680E+00    7.4415251339857518E+00    1.1053535679226851E+01
Ga   -3.2162884747145797E+00    7.4341737095318638E+00    1.3052022211348312E+01
N   -3.2364117829301851E+00    5.5669839838873392E+00    1.3693758714327762E+01
Ga   -3.2150622435567366E+00    5.5613440605688202E+00    1.5732038399092891E+01
N   -3.1941540492219476E+00    7.4275231811797395E+00    1.6286513293868278E+01
Ga   -3.1707417077116431E+00    7.3892926089661088E+00    1.8349717329568993E+01
N   -3.1157664983192435E+00    5.5313223455908620E+00    1.8876924892919959E+01
Ga    3.2431473946721328E+00   -3.7754454527504748E-02    3.2255470682002912E-01
N    3.2422974240785138E+00    1.8322372603751473E+00    6.0523057878956821E-01
Ga    3.2712218701367246E+00    1.8479558332188919E+00    2.6360899121905974E+00
N    3.2442714559204826E+00   -3.7502455226637268E-02    3.2271709880149535E+00
Ga    3.2469644479604023E+00   -3.6160551163292337E-02    5.2387089061758783E+00
N    3.2473734502152340E+00    1.8337720457907756E+00    5.8457967739729479E+00
Ga    3.2508474863478019E+00    1.8341952657427263E+00    7.8448287562770211E+00
N    3.2481213859853977E+00   -3.6712546775222746E-02    8.4470392754479011E+00
Ga    3.2520161520222688E+00   -3.7200905633707107E-02    1.0441452946181201E+01
N    3.2589830230967225E+00    1.8325864616641019E+00    1.1049195915451062E+01
Ga    3.2679284963191551E+00    1.8255802084289339E+00    1.3045475835522387E+01
N    3.2572099889927149E+00   -4.1513906939514567E-02    1.3670023952275399E+01
Ga    3.2701608312316690E+00   -4.6468235160746024E-02    1.5682305432876854E+01
N    3.2955948205006065E+00    1.8209145030807801E+00    1.6264452173406255E+01
Ga    3.3510819567965102E+00    1.8117115221887945E+00    1.8306194330917386E+01
N    3.3181944045914373E+00   -7.6353152639947242E-02    1.8748679572352930E+01
Ga    1.6227588015646108E+00    2.7674236436899449E+00    3.2239381480061396E-01
N    1.6285561332512259E+00    4.6383473598508953E+00    6.0504905835737988E-01
Ga    1.6026484092941817E+00    4.6532820980331007E+00    2.6371468436080705E+00
N    1.6243270390125564E+00    2.7676317154584309E+00    3.2276504958769192E+00
Ga    1.6268140653973893E+00    2.7690745509255597E+00    5.2396563464805244E+00
N    1.6321700353409774E+00    4.6391015665283648E+00    5.8479292042639175E+00
Ga    1.6335294253879116E+00    4.6396376436252957E+00    7.8485649230020504E+00
N    1.6303231476097451E+00    2.7673087632827440E+00    8.4491592866825300E+00
Ga    1.6335405693076643E+00    2.7667453517192842E+00    1.0445119481431458E+01
N    1.6293622108909946E+00    4.6385010579315509E+00    1.1039131828784615E+01
Ga    1.6273194725015974E+00    4.6387907129929600E+00    1.3032179837524703E+01
N    1.6441936113882958E+00    2.7603524004551199E+00    1.3635097873226959E+01
Ga    1.6737108402866883E+00    2.7519559372466000E+00    1.5625504045120037E+01
N    1.6288751271798347E+00    4.6311950903239900E+00    1.6132622327338741E+01
Ga    1.7076321930708935E+00    4.5942916297508258E+00    1.8112066692851656E+01
N    1.6992221178676541E+00    2.7426909989405490E+00    1.8605876346364997E+01
Ga    3.1826291193407059E-03    5.5739230458575788E+00   -5.3462472389002391E-01
N    6.6652873976078318E-03    7.4469214316042347E+00    6.0540287023693462E-01
Ga    7.4880795577480647E-03    7.4166193058406300E+00    2.6372907171787094E+00
N    4.5529326791239741E-03    5.5729697359023733E+00    3.2687472026578535E+00
Ga    7.2406506091102166E-03    5.5744049215253639E+00    5.2594442529213570E+00
N    1.0269531002553850E-02    7.4490743411605678E+00    5.8464747835800210E+00
Ga    1.2322867619523495E-02    7.4477201077960906E+00    7.8460440325908412E+00
N    7.4797367769985522E-03    5.5740828785222192E+00    8.4457081543039667E+00
Ga    7.6208597756175335E-03    5.5745409046884546E+00    1.0443174938096433E+01
N    1.4994947246534454E-02    7.4477084651126839E+00    1.1042345765546765E+01
Ga    1.5111022381385755E-02    7.4505355405771034E+00    1.3034529021425445E+01
N    3.8309618011592925E-03    5.5795504140721635E+00    1.3630564276450592E+01
Ga    6.2006268354091185E-03    5.5686722570735094E+00    1.5624875660519654E+01
N    4.7345605668037666E-02    7.4338673914634539E+00    1.6261188118827985E+01
Ga    7.4722232890581997E-02    7.3904902983752940E+00    1.8351700078878196E+01
N    1.9221302771241555E-01    5.5324080005928513E+00    1.8887122550462884E+01
Ga    6.4879809306302612E+00   -3.7154837958227459E-02    3.2160860886071030E-01
N    6.4939175418113457E+00    1.8328535433558886E+00    6.0470352757041901E-01
Ga    6.4673081013817004E+00    1.8477436281243826E+00    2.6358620307513871E+00
N    6.4896939766960786E+00   -3.7459713676955955E-02    3.2278727293023937E+00
Ga    6.4923660510026293E+00   -3.6103996636175723E-02    5.2399121452482138E+00
N    6.4975488586877432E+00    1.8343754207682530E+00    5.8460774589218829E+00
Ga    6.4986121306244318E+00    1.8354094201391249E+00    7.8451538081711405E+00
N    6.4941214432804291E+00   -3.4399891990108601E-02    8.4492833575412423E+00
Ga    6.4969446780963755E+00   -2.9970321130229443E-02    1.0445727365050521E+01
N    6.5000126714865614E+00    1.8411160192127705E+00    1.1056124522143310E+01
Ga    6.5048847490650159E+00    1.8458118155977306E+00    1.3055432977801113E+01
N    6.4931981604734386E+00   -2.7379713569960492E-02    1.3631333751007990E+01
Ga    6.5099277634716142E+00   -2.1928145506078061E-02    1.5631980750175671E+01
N    6.5201571585939115E+00    1.8460140857888290E+00    1.6243028060164406E+01
Ga    6.5858839351628564E+00    1.8085225548063177E+00    1.8292838608878053E+01
N    6.5841540266561296E+00   -9.2016843810787188E-02    1.8661400180150935E+01
Ga    4.8678856245330548E+00    2.7676887858979775E+00   -5.4587162765230302E-01
N    4.8716138200093164E+00    4.6419239147122600E+00    6.0513135884451408E-01
Ga    4.8720423475163503E+00    4.6107583395789673E+00    2.6359739380620915E+00
N    4.8698005441321355E+00    2.7677006889859355E+00    3.2679230827067465E+00
Ga    4.8722765662308225E+00    2.7691634093988857E+00    5.2580987120168547E+00
N    4.8748916518485990E+00    4.6435218133404206E+00    5.8460764647435761E+00
Ga    4.8760784435802202E+00    4.6428831329405256E+00    7.8456973741103520E+00
N    4.8750098113085816E+00    2.7695441814928166E+00    8.4469004413034519E+00
Ga    4.8791692170892373E+00    2.7718427148659472E+00    1.0444769191648286E+01
N    4.8827772517298902E+00    4.6415042588582462E+00    1.1052369595252440E+01
Ga    4.8834112191208741E+00    4.6429936004301355E+00    1.3052945480258787E+01
N    4.8778523550362651E+00    2.7745092745533784E+00    1.3666910789006268E+01
Ga    4.8842911694735882E+00    2.7698823852302441E+00    1.5687300595973033E+01
N    4.8443900474589547E+00    4.6597658510139404E+00    1.6153565537983717E+01
Ga    4.9859419121925956E+00    4.5896207559716924E+00    1.9100567981413615E+01
N    4.9698616673416574E+00    2.7037794090321565E+00    1.8836854087432947E+01
Ga    3.2494545834813913E+00    5.5732260247560239E+00    3.2227827110934643E-01
N    3.2476897626660373E+00    7.4430964298497457E+00    6.0493626233774633E-01
Ga    3.2768299180893052E+00    7.4589699722715235E+00    2.6355410890135151E+00
N    3.2500302635840046E+00    5.5734261510585261E+00    3.2276388110457699E+00
Ga    3.2521275667381482E+00    5.5748810648162443E+00    5.2398318225399194E+00
N    3.2532008116950228E+00    7.4449358856798371E+00    5.8482989918873374E+00
Ga    3.2570129777877965E+00    7.4451205493864565E+00    7.8491260330450965E+00
N    3.2551279852916353E+00    5.5744081755989434E+00    8.4524081935511663E+00
Ga    3.2574632669006229E+00    5.5757583267486659E+00    1.0451631504351534E+01
N    3.2606870985348291E+00    7.4525181698788421E+00    1.1040661004110090E+01
Ga    3.2616881145324457E+00    7.4565599119330033E+00    1.3035077342988219E+01
N    3.2481960012105362E+00    5.5798929986488144E+00    1.3596591142559246E+01
Ga    3.2488516532166996E+00    5.5888561718604262E+00    1.5590312501776873E+01
N    3.2797353171180865E+00    7.4602566177816154E+00    1.6137134862958707E+01
Ga    3.3408993264706144E+00    7.4298045387679696E+00    1.8143250303807388E+01
N    3.4521681143002856E+00    5.4760747142871669E+00    1.8333116035284181E+01
O    1.6027973566007128E+00    5.1057969914121415E+00    2.1223169283053448E+01
H    1.0118197124497375E+00    5.3877623814193090E+00    2.0434224906994036E+01
C    1.0743270419968181E+00    3.8509178661267218E+00    2.1688045596028875E+01
H    1.2189960714148242E+00    3.0552021003574992E+00    2.0931616424550047E+01
H    1.6100762883263549E+00    3.5778221554765852E+00    2.2606003627816143E+01
H    9.6032530157122106E-04    3.9397484762715607E+00    2.1908768430467600E+01
O    4.2612438003755218E+00    4.8773713002087096E+00    2.1041273725024457E+01
H    3.2468547296555865E+00    4.9925332706785834E+00    2.1047693223410707E+01
C    4.6561355719693474E+00    3.9536839669832244E+00    2.2086754627670505E+01
H    4.3470819462219961E+00    2.9273967134058734E+00    2.1845411171296071E+01
H    5.7486237377206750E+00    3.9953307152344721E+00    2.2163404427909963E+01
H    4.2114005438784687E+00    4.2761044395998153E+00    2.3036665406868600E+01
     &END COORD
     &KIND C
       BASIS_SET DZVP-MOLOPT-SR-GTH-q4
       POTENTIAL GTH-PBE-q4
       &POTENTIAL
 2 2
  0.3384712400000000E+00 2 -0.8803673979999999E+01  0.1339210850000000E+01
 2
  0.3025757500000000E+00 1  0.9622486650000001E+01
  0.2915069400000000E+00 0
         # Potential name:  GTH-PBE-Q4  for symbol:  C
         # Potential read from the potential filename: GTH_POTENTIALS
       &END POTENTIAL
     &END KIND
     &KIND O
       BASIS_SET DZVP-MOLOPT-SR-GTH-q6
       POTENTIAL GTH-PBE-q6
       &POTENTIAL
 2 4
  0.2445543000000000E+00 2 -0.1666721480000000E+02  0.2487311320000000E+01
 2
  0.2209559200000000E+00 1  0.1833745811000000E+02
  0.2113324700000000E+00 0
         # Potential name:  GTH-PBE-Q6  for symbol:  O
         # Potential read from the potential filename: GTH_POTENTIALS
       &END POTENTIAL
     &END KIND
     &KIND H
       BASIS_SET DZVP-MOLOPT-SR-GTH-q1
       POTENTIAL GTH-PBE-q1
       &POTENTIAL
 1
  0.2000000000000000E+00 2 -0.4178900440000000E+01  0.7244633100000000E+00
 0
         # Potential name:  GTH-PBE-Q1  for symbol:  H
         # Potential read from the potential filename: GTH_POTENTIALS
       &END POTENTIAL
     &END KIND
     &KIND N
       BASIS_SET DZVP-MOLOPT-SR-GTH-q5
       POTENTIAL GTH-PBE-q5
       &POTENTIAL
 2 3
  0.2837905100000000E+00 2 -0.1241522559000000E+02  0.1868095920000000E+01
 2
  0.2554050000000000E+00 1  0.1363026257000000E+02
  0.2454945300000000E+00 0
         # Potential name:  GTH-PBE-Q5  for symbol:  N
         # Potential read from the potential filename: GTH_POTENTIALS
       &END POTENTIAL
     &END KIND
     &KIND Ga
       BASIS_SET DZVP-MOLOPT-SR-GTH-q13
       POTENTIAL GTH-PBE-q13
       &POTENTIAL
 2 1 10
  0.4900000000000000E+00 0
 3
  0.4167772300000000E+00 3  0.1047568975000000E+02 -0.4921768140000000E+01  0.8707055900000000E+00
  0.7770178090000000E+01 -0.2248152160000000E+01
  0.1784415450000000E+01
  0.5696265200000000E+00 2  0.1777985340000000E+01  0.1958597600000000E+00
 -0.2317443900000000E+00
  0.2381265000000000E+00 1 -0.1624868022000000E+02
         # Potential name:  GTH-PBE-Q13  for symbol:  GA
         # Potential read from the potential filename: GTH_POTENTIALS
       &END POTENTIAL
     &END KIND
     &TOPOLOGY
       COORD_FILE_NAME ../start-first.xyz
       COORD_FILE_FORMAT  XYZ
       NUMBER_OF_ATOMS  156
       MULTIPLE_UNIT_CELL  1 1 1
     &END TOPOLOGY
     &COLVAR
       &DISTANCE
         ATOMS  145 152
       &END DISTANCE
       &PRINT
       &END PRINT
     &END COLVAR
   &END SUBSYS
 &END FORCE_EVAL
