 # Version information for this restart file 
 # current date 2019-05-28 07:13:44.071
 # current working dir /lustre03/project/6004141/rzk/GaN-carbene/334-native/08-2Methanol-Htransfer/01-Constraint/1.66
 # Program compiled at                              Sun Apr  7 00:48:11 EDT 2019
 # Program compiled on                          beluga2.int.ets1.calculquebec.ca
 # Program compiled for                        Beluga-Linux-x86-64-intel-openmpi
 # Source code revision number                                         svn:18619
 &GLOBAL
   PRINT_LEVEL  MEDIUM
   PROJECT_NAME TEST
   RUN_TYPE  GEO_OPT
 &END GLOBAL
 &MOTION
   &GEO_OPT
     MAX_ITER  500
     STEP_START_VAL  83
   &END GEO_OPT
   &CONSTRAINT
     &COLLECTIVE
       COLVAR  1
       INTERMOLECULAR  T
       TARGET     3.1369453805901673E+00
       &RESTRAINT
         K     1.0000000000000001E-01
       &END RESTRAINT
     &END COLLECTIVE
     &COLVAR_RESTART
           3.1369453805901673E+00
     &END COLVAR_RESTART
   &END CONSTRAINT
 &END MOTION
 &FORCE_EVAL
   METHOD  QS
   STRESS_TENSOR  ANALYTICAL
   &DFT
     BASIS_SET_FILE_NAME BASIS_MOLOPT
     POTENTIAL_FILE_NAME GTH_POTENTIALS
     &SCF
       MAX_SCF  100
       EPS_SCF     5.0000000000000004E-06
       &OT  T
         PRECONDITIONER  FULL_ALL
       &END OT
       &OUTER_SCF  T
         OPTIMIZER  NONE
         EPS_SCF     5.0000000000000004E-06
         MAX_SCF  4
       &END OUTER_SCF
       &PRINT
         &RESTART  OFF
           BACKUP_COPIES  1
           &EACH
             JUST_ENERGY  0
             QS_SCF  0
             MD  20
           &END EACH
         &END RESTART
       &END PRINT
     &END SCF
     &QS
       EPS_DEFAULT     1.0000000000000000E-14
       ALMO_SCF  F
       METHOD  GPW
     &END QS
     &MGRID
       NGRIDS  5
       CUTOFF     1.2000000000000000E+03
     &END MGRID
     &XC
       DENSITY_CUTOFF     1.0000000000000000E-10
       GRADIENT_CUTOFF     1.0000000000000000E-10
       TAU_CUTOFF     1.0000000000000000E-10
       &XC_FUNCTIONAL  NO_SHORTCUT
         &PBE  T
         &END PBE
       &END XC_FUNCTIONAL
       &VDW_POTENTIAL
         POTENTIAL_TYPE  PAIR_POTENTIAL
         &PAIR_POTENTIAL
           R_CUTOFF     1.0000000000000005E+01
           TYPE  DFTD3
           PARAMETER_FILE_NAME dftd3.dat
           REFERENCE_FUNCTIONAL PBE
           EPS_CN     9.9999999999999995E-07
           CALCULATE_C9_TERM  T
           REFERENCE_C9_TERM  T
           LONG_RANGE_CORRECTION  F
           VERBOSE_OUTPUT  F
         &END PAIR_POTENTIAL
       &END VDW_POTENTIAL
     &END XC
   &END DFT
   &SUBSYS
     &CELL
       A     9.7367653356401487E+00    0.0000000000000000E+00    0.0000000000000000E+00
       B    -4.8591341382960209E+00    8.4162672083210595E+00    0.0000000000000000E+00
       C     0.0000000000000000E+00    0.0000000000000000E+00    3.0744000000000000E+01
       MULTIPLE_UNIT_CELL  1 1 1
       &CELL_REF
         A     9.5580000000000052E+00    0.0000000000000000E+00    0.0000000000000000E+00
         B    -4.7790000000000026E+00    8.2774708093716640E+00    0.0000000000000000E+00
         C     0.0000000000000000E+00    0.0000000000000000E+00    3.0744000000000000E+01
         MULTIPLE_UNIT_CELL  1 1 1
       &END CELL_REF
     &END CELL
     &COORD
Ga   -2.4635779189063041E-03   -3.7095090553239750E-02   -5.4650076252858315E-01
N    6.8282130280872402E-05    1.8370860234505733E+00    6.0544847244309530E-01
Ga    8.8236157107790178E-04    1.8053218732424328E+00    2.6358631027148078E+00
N   -2.1342259868840545E-03   -3.7816688045767433E-02    3.2680183304255142E+00
Ga    2.1909643093056825E-04   -3.6291206665321311E-02    5.2583078980165636E+00
N    3.4578374239656556E-03    1.8382447976119018E+00    5.8468701330945949E+00
Ga    6.6518584141496443E-03    1.8358143556615008E+00    7.8466297485179579E+00
N    6.0300073384286406E-03   -3.6989505591394696E-02    8.4479206802705509E+00
Ga    9.9981385684652056E-03   -3.7005339220304516E-02    1.0446338576579933E+01
N    8.9321287456320501E-03    1.8355006397513174E+00    1.1047908368174340E+01
Ga    1.7125210408186282E-02    1.8320756234901567E+00    1.3042132863350187E+01
N    2.4666651046579256E-02   -4.1526087054392306E-02    1.3633901816770525E+01
Ga    4.3829565349350411E-02   -6.1762019369347727E-02    1.5626369980245631E+01
N    4.4865744533813146E-02    1.8190466193100407E+00    1.6196373613949618E+01
Ga    6.7287788106415378E-02    1.7965181821696237E+00    1.8246810810531770E+01
N    5.6362613216070868E-02   -7.2872640552703968E-02    1.8657831413134094E+01
Ga   -1.6226507337416307E+00    2.7668574907799073E+00    3.2269731499957488E-01
N   -1.6232914070655702E+00    4.6378079165058814E+00    6.0507169075025879E-01
Ga   -1.5945433928110073E+00    4.6533457023464706E+00    2.6368081727663775E+00
N   -1.6216746614865649E+00    2.7675395179853481E+00    3.2266447254297517E+00
Ga   -1.6191422530274906E+00    2.7687531937624077E+00    5.2381221305330046E+00
N   -1.6188343830088141E+00    4.6388751568779476E+00    5.8452071380073383E+00
Ga   -1.6159784216961319E+00    4.6393302434906527E+00    7.8439746140146358E+00
N   -1.6159042014167608E+00    2.7692333035179395E+00    8.4510041128928233E+00
Ga   -1.6142889122148216E+00    2.7706869685357245E+00    1.0447429344313022E+01
N   -1.6151840017845736E+00    4.6413288654035441E+00    1.1054835716267418E+01
Ga   -1.6179824165499579E+00    4.6395896825856582E+00    1.3052834045666014E+01
N   -1.6004159208404294E+00    2.7705956316510036E+00    1.3667255002636425E+01
Ga   -1.5919216898159614E+00    2.7828174132417702E+00    1.5675921508900066E+01
N   -1.5814992766856064E+00    4.6470816861566613E+00    1.6311462110874530E+01
Ga   -1.4780742848401622E+00    4.6372174112850759E+00    1.8392934018088045E+01
N   -1.5275944778810293E+00    2.7363183764864232E+00    1.8694729566359534E+01
Ga   -3.2435204723429041E+00    5.5739254645419205E+00    3.2339315428068166E-01
N   -3.2358480364776465E+00    7.4437546726832799E+00    6.0602216466562286E-01
Ga   -3.2628017221689047E+00    7.4591576289916937E+00    2.6362606971184661E+00
N   -3.2414817958082498E+00    5.5730844453472583E+00    3.2267637675955649E+00
Ga   -3.2392501513745020E+00    5.5742662084191537E+00    5.2382595297548677E+00
N   -3.2330177682003725E+00    7.4447584080766660E+00    5.8445638642209543E+00
Ga   -3.2319325015142217E+00    7.4445284534613032E+00    7.8432168279559269E+00
N   -3.2362272952378048E+00    5.5742092203076945E+00    8.4472601382250581E+00
Ga   -3.2344129800960908E+00    5.5729469177924500E+00    1.0442242731424834E+01
N   -3.2254703583270961E+00    7.4413391889716811E+00    1.1053512483374972E+01
Ga   -3.2160729345537740E+00    7.4338664778589143E+00    1.3052100741018243E+01
N   -3.2361766539263446E+00    5.5665955758367476E+00    1.3694035522049008E+01
Ga   -3.2148808680828775E+00    5.5608781864650663E+00    1.5732501890672655E+01
N   -3.1939637720099063E+00    7.4270343587300038E+00    1.6286939808474518E+01
Ga   -3.1710745952554245E+00    7.3890007077416247E+00    1.8350275694639993E+01
N   -3.1155704017246002E+00    5.5312955796505703E+00    1.8877821853178624E+01
Ga    3.2427574295568573E+00   -3.7628699596718489E-02    3.2274918342783365E-01
N    3.2418367327982724E+00    1.8322658810302479E+00    6.0524219792428890E-01
Ga    3.2709819002619698E+00    1.8480692664308311E+00    2.6359683884347680E+00
N    3.2440621529044131E+00   -3.7372030936023592E-02    3.2272225092197786E+00
Ga    3.2468946317622249E+00   -3.5986960783823713E-02    5.2386524192082708E+00
N    3.2473026410264669E+00    1.8339112525320418E+00    5.8457434611567081E+00
Ga    3.2509548186354214E+00    1.8342413735366498E+00    7.8447066704208250E+00
N    3.2482396640148088E+00   -3.6694268383073589E-02    8.4469589603008082E+00
Ga    3.2522829101546682E+00   -3.7421733400866165E-02    1.0441300230191871E+01
N    3.2592524912452068E+00    1.8323548917963826E+00    1.1049046390255763E+01
Ga    3.2680917903104030E+00    1.8250859682140947E+00    1.3045266870475572E+01
N    3.2574650999439752E+00   -4.1977699977222609E-02    1.3670031625472173E+01
Ga    3.2702075927222967E+00   -4.6990405153405093E-02    1.5682299341516643E+01
N    3.2958740679096312E+00    1.8202801651114375E+00    1.6264248040112836E+01
Ga    3.3509364574202785E+00    1.8121130535955672E+00    1.8306032151081070E+01
N    3.3179675076586661E+00   -7.6346549993227486E-02    1.8748247500335388E+01
Ga    1.6223854160441273E+00    2.7674133516680834E+00    3.2253942804950003E-01
N    1.6281609478378514E+00    4.6383754204527090E+00    6.0503679465612958E-01
Ga    1.6023763508900177E+00    4.6533325237576593E+00    2.6372356212138599E+00
N    1.6240869597543239E+00    2.7677031223178377E+00    3.2276765395851830E+00
Ga    1.6267314006074440E+00    2.7691784880668049E+00    5.2395691094183965E+00
N    1.6320647520137705E+00    4.6392097124861804E+00    5.8478664586781575E+00
Ga    1.6336253507149974E+00    4.6396573301123540E+00    7.8484319873056663E+00
N    1.6304396067389217E+00    2.7673354925511040E+00    8.4490925735039344E+00
Ga    1.6337743823451425E+00    2.7665720330547559E+00    1.0445043364062666E+01
N    1.6296066377041201E+00    4.6383095492960038E+00    1.1039089038221329E+01
Ga    1.6275133719553005E+00    4.6384395650155366E+00    1.3032203770692449E+01
N    1.6444905545417681E+00    2.7599772087025545E+00    1.3635121987921995E+01
Ga    1.6741399943855380E+00    2.7516390212028150E+00    1.5625593141271036E+01
N    1.6289393653384556E+00    4.6308535928581813E+00    1.6132754300854494E+01
Ga    1.7074337874686567E+00    4.5942228344568372E+00    1.8112208827185604E+01
N    1.6990524397008953E+00    2.7426863829099486E+00    1.8606370397276798E+01
Ga    2.7219881565024840E-03    5.5739329435171383E+00   -5.3362575290385783E-01
N    6.2930820999545865E-03    7.4469803413952027E+00    6.0540500774379846E-01
Ga    7.2296833984848360E-03    7.4167101582678878E+00    2.6373898133627778E+00
N    4.3069368588723794E-03    5.5730511999920074E+00    3.2687946433091941E+00
Ga    7.1241668057110286E-03    5.5745048541962063E+00    5.2594210872530285E+00
N    1.0196817605109744E-02    7.4491720456306059E+00    5.8464017607104166E+00
Ga    1.2442876719127702E-02    7.4477489330140987E+00    7.8459175453299821E+00
N    7.5890329406990203E-03    5.5740723694398087E+00    8.4455998384264390E+00
Ga    7.9094434977479162E-03    5.5743641440783751E+00    1.0443009018363210E+01
N    1.5271775091406982E-02    7.4474782410943812E+00    1.1042249988272820E+01
Ga    1.5299744863301865E-02    7.4501276841439337E+00    1.3034426999510549E+01
N    4.0260635948028674E-03    5.5791981447862256E+00    1.3630719982323658E+01
Ga    6.2507457064391782E-03    5.5681639126529348E+00    1.5625062421652649E+01
N    4.7548799716963033E-02    7.4334333057667648E+00    1.6261214263636454E+01
Ga    7.5015672760913643E-02    7.3904388999340336E+00    1.8351896911663065E+01
N    1.9199813638681060E-01    5.5323763479875945E+00    1.8887477196102537E+01
Ga    6.4876430965975773E+00   -3.7067317067578515E-02    3.2171838527876745E-01
N    6.4936288751149887E+00    1.8328445866836633E+00    6.0462522856004441E-01
Ga    6.4670155595357182E+00    1.8478302912832680E+00    2.6356727910699114E+00
N    6.4894585933925697E+00   -3.7362242161752601E-02    3.2278549472707279E+00
Ga    6.4922480735439070E+00   -3.5961045243167941E-02    5.2397985310499049E+00
N    6.4974249260755279E+00    1.8345073606711102E+00    5.8459883780353197E+00
Ga    6.4986955668972088E+00    1.8354359294289135E+00    7.8450056093913210E+00
N    6.4942543322457187E+00   -3.4389737833021725E-02    8.4491579439047033E+00
Ga    6.4972410903855931E+00   -3.0168085898729741E-02    1.0445566301030560E+01
N    6.5003042029056193E+00    1.8408619897317793E+00    1.1056095003891485E+01
Ga    6.5052302077420165E+00    1.8453385690630908E+00    1.3055488336456651E+01
N    6.4934402506150182E+00   -2.7902804404321024E-02    1.3631324745950822E+01
Ga    6.5102066786356545E+00   -2.2310430679978174E-02    1.5631973566687439E+01
N    6.5203441500737656E+00    1.8456193175986750E+00    1.6242980868869875E+01
Ga    6.5858365558688190E+00    1.8085980651911306E+00    1.8292565496114662E+01
N    6.5840465226594338E+00   -9.1829036252768781E-02    1.8661638486411334E+01
Ga    4.8674008610703146E+00    2.7678392465769690E+00   -5.4657071633109333E-01
N    4.8712312711377317E+00    4.6421080223610289E+00    6.0520253401014878E-01
Ga    4.8717653504251714E+00    4.6108353345516120E+00    2.6358979951003536E+00
N    4.8695563509471942E+00    2.7677964712088117E+00    3.2678291465710343E+00
Ga    4.8721658924479865E+00    2.7692846387373065E+00    5.2579196825779704E+00
N    4.8747958540295047E+00    4.6436021697998520E+00    5.8460640029092028E+00
Ga    4.8761713362155792E+00    4.6429112926341887E+00    7.8456189202727247E+00
N    4.8751303884128623E+00    2.7695584414275873E+00    8.4468332835200552E+00
Ga    4.8794463988574881E+00    2.7716292137698324E+00    1.0444659946926830E+01
N    4.8830533174376525E+00    4.6413297885373872E+00    1.1052242716368770E+01
Ga    4.8837085056118701E+00    4.6426620764755189E+00    1.3052854379877550E+01
N    4.8780670881798276E+00    2.7740712881482104E+00    1.3666690521621197E+01
Ga    4.8844284431664402E+00    2.7692189534724063E+00    1.5687107515466394E+01
N    4.8446808321518722E+00    4.6590374099200256E+00    1.6153711067584293E+01
Ga    4.9861700371016209E+00    4.5896734080646517E+00    1.9101001834518463E+01
N    4.9698384298931453E+00    2.7038702976848104E+00    1.8836791583506646E+01
Ga    3.2490886561284698E+00    5.5732552735916059E+00    3.2244580857107547E-01
N    3.2472616864939763E+00    7.4430883038147302E+00    6.0504405054696953E-01
Ga    3.2765806728286164E+00    7.4590376871261030E+00    2.6354846312218001E+00
N    3.2497725318208306E+00    5.5734877845904300E+00    3.2276804477886860E+00
Ga    3.2520349113853735E+00    5.5749475592284785E+00    5.2397635003641749E+00
N    3.2531021564744051E+00    7.4450262508079739E+00    5.8482206826710579E+00
Ga    3.2571181183817624E+00    7.4451428326490410E+00    7.8489925760953323E+00
N    3.2552200026671572E+00    5.5744086668926229E+00    8.4523331554778913E+00
Ga    3.2576914400962087E+00    5.5755977123903016E+00    1.0451515136617587E+01
N    3.2609534919366401E+00    7.4523237998605802E+00    1.1040541715620078E+01
Ga    3.2619741584158839E+00    7.4562070206756816E+00    1.3034986259340402E+01
N    3.2484661933043868E+00    5.5795392693049788E+00    1.3596581034133632E+01
Ga    3.2490607795584450E+00    5.5882465047199590E+00    1.5590362541903183E+01
N    3.2799536356969510E+00    7.4597429862872957E+00    1.6137159624918926E+01
Ga    3.3409921947010983E+00    7.4298501971595767E+00    1.8143499367579444E+01
N    3.4521044873794611E+00    5.4760405310366203E+00    1.8333661071265286E+01
O    1.6029334182192627E+00    5.1072395600455813E+00    2.1224382583872440E+01
H    1.0121895539199093E+00    5.3888992377502625E+00    2.0435352446716696E+01
C    1.0751232473949122E+00    3.8519612864625112E+00    2.1688913506876602E+01
H    1.2199990952501008E+00    3.0566983200579205E+00    2.0931873632728692E+01
H    1.6113895450985329E+00    3.5787076583431356E+00    2.2606555035495401E+01
H    1.7425601760804855E-03    3.9406117854696445E+00    2.1910231980395626E+01
O    4.2610980495608164E+00    4.8769416874004161E+00    2.1041404861944052E+01
H    3.2467432326825540E+00    4.9928238630575343E+00    2.1048331299722150E+01
C    4.6562794553063025E+00    3.9539733595713522E+00    2.2087279241675439E+01
H    4.3475663384877867E+00    2.9274679087368582E+00    2.1846532800733179E+01
H    5.7487628438563743E+00    3.9959193354777480E+00    2.2164078277112754E+01
H    4.2115270639229374E+00    4.2764496733487096E+00    2.3037046206527336E+01
     &END COORD
     &KIND C
       BASIS_SET DZVP-MOLOPT-SR-GTH-q4
       POTENTIAL GTH-PBE-q4
       &POTENTIAL
 2 2
  0.3384712400000000E+00 2 -0.8803673979999999E+01  0.1339210850000000E+01
 2
  0.3025757500000000E+00 1  0.9622486650000001E+01
  0.2915069400000000E+00 0
         # Potential name:  GTH-PBE-Q4  for symbol:  C
         # Potential read from the potential filename: GTH_POTENTIALS
       &END POTENTIAL
     &END KIND
     &KIND O
       BASIS_SET DZVP-MOLOPT-SR-GTH-q6
       POTENTIAL GTH-PBE-q6
       &POTENTIAL
 2 4
  0.2445543000000000E+00 2 -0.1666721480000000E+02  0.2487311320000000E+01
 2
  0.2209559200000000E+00 1  0.1833745811000000E+02
  0.2113324700000000E+00 0
         # Potential name:  GTH-PBE-Q6  for symbol:  O
         # Potential read from the potential filename: GTH_POTENTIALS
       &END POTENTIAL
     &END KIND
     &KIND H
       BASIS_SET DZVP-MOLOPT-SR-GTH-q1
       POTENTIAL GTH-PBE-q1
       &POTENTIAL
 1
  0.2000000000000000E+00 2 -0.4178900440000000E+01  0.7244633100000000E+00
 0
         # Potential name:  GTH-PBE-Q1  for symbol:  H
         # Potential read from the potential filename: GTH_POTENTIALS
       &END POTENTIAL
     &END KIND
     &KIND N
       BASIS_SET DZVP-MOLOPT-SR-GTH-q5
       POTENTIAL GTH-PBE-q5
       &POTENTIAL
 2 3
  0.2837905100000000E+00 2 -0.1241522559000000E+02  0.1868095920000000E+01
 2
  0.2554050000000000E+00 1  0.1363026257000000E+02
  0.2454945300000000E+00 0
         # Potential name:  GTH-PBE-Q5  for symbol:  N
         # Potential read from the potential filename: GTH_POTENTIALS
       &END POTENTIAL
     &END KIND
     &KIND Ga
       BASIS_SET DZVP-MOLOPT-SR-GTH-q13
       POTENTIAL GTH-PBE-q13
       &POTENTIAL
 2 1 10
  0.4900000000000000E+00 0
 3
  0.4167772300000000E+00 3  0.1047568975000000E+02 -0.4921768140000000E+01  0.8707055900000000E+00
  0.7770178090000000E+01 -0.2248152160000000E+01
  0.1784415450000000E+01
  0.5696265200000000E+00 2  0.1777985340000000E+01  0.1958597600000000E+00
 -0.2317443900000000E+00
  0.2381265000000000E+00 1 -0.1624868022000000E+02
         # Potential name:  GTH-PBE-Q13  for symbol:  GA
         # Potential read from the potential filename: GTH_POTENTIALS
       &END POTENTIAL
     &END KIND
     &TOPOLOGY
       COORD_FILE_NAME ../start-first.xyz
       COORD_FILE_FORMAT  XYZ
       NUMBER_OF_ATOMS  156
       MULTIPLE_UNIT_CELL  1 1 1
     &END TOPOLOGY
     &COLVAR
       &DISTANCE
         ATOMS  145 152
       &END DISTANCE
       &PRINT
       &END PRINT
     &END COLVAR
   &END SUBSYS
 &END FORCE_EVAL
