 # Version information for this restart file 
 # current date 2019-05-28 07:12:37.249
 # current working dir /lustre03/project/6004141/rzk/GaN-carbene/334-native/08-2Methanol-Htransfer/01-Constraint/1.66
 # Program compiled at                              Sun Apr  7 00:48:11 EDT 2019
 # Program compiled on                          beluga2.int.ets1.calculquebec.ca
 # Program compiled for                        Beluga-Linux-x86-64-intel-openmpi
 # Source code revision number                                         svn:18619
 &GLOBAL
   PRINT_LEVEL  MEDIUM
   PROJECT_NAME TEST
   RUN_TYPE  GEO_OPT
 &END GLOBAL
 &MOTION
   &GEO_OPT
     MAX_ITER  500
     STEP_START_VAL  82
   &END GEO_OPT
   &CONSTRAINT
     &COLLECTIVE
       COLVAR  1
       INTERMOLECULAR  T
       TARGET     3.1369453805901673E+00
       &RESTRAINT
         K     1.0000000000000001E-01
       &END RESTRAINT
     &END COLLECTIVE
     &COLVAR_RESTART
           3.1369453805901673E+00
     &END COLVAR_RESTART
   &END CONSTRAINT
 &END MOTION
 &FORCE_EVAL
   METHOD  QS
   STRESS_TENSOR  ANALYTICAL
   &DFT
     BASIS_SET_FILE_NAME BASIS_MOLOPT
     POTENTIAL_FILE_NAME GTH_POTENTIALS
     &SCF
       MAX_SCF  100
       EPS_SCF     5.0000000000000004E-06
       &OT  T
         PRECONDITIONER  FULL_ALL
       &END OT
       &OUTER_SCF  T
         OPTIMIZER  NONE
         EPS_SCF     5.0000000000000004E-06
         MAX_SCF  4
       &END OUTER_SCF
       &PRINT
         &RESTART  OFF
           BACKUP_COPIES  1
           &EACH
             JUST_ENERGY  0
             QS_SCF  0
             MD  20
           &END EACH
         &END RESTART
       &END PRINT
     &END SCF
     &QS
       EPS_DEFAULT     1.0000000000000000E-14
       ALMO_SCF  F
       METHOD  GPW
     &END QS
     &MGRID
       NGRIDS  5
       CUTOFF     1.2000000000000000E+03
     &END MGRID
     &XC
       DENSITY_CUTOFF     1.0000000000000000E-10
       GRADIENT_CUTOFF     1.0000000000000000E-10
       TAU_CUTOFF     1.0000000000000000E-10
       &XC_FUNCTIONAL  NO_SHORTCUT
         &PBE  T
         &END PBE
       &END XC_FUNCTIONAL
       &VDW_POTENTIAL
         POTENTIAL_TYPE  PAIR_POTENTIAL
         &PAIR_POTENTIAL
           R_CUTOFF     1.0000000000000005E+01
           TYPE  DFTD3
           PARAMETER_FILE_NAME dftd3.dat
           REFERENCE_FUNCTIONAL PBE
           EPS_CN     9.9999999999999995E-07
           CALCULATE_C9_TERM  T
           REFERENCE_C9_TERM  T
           LONG_RANGE_CORRECTION  F
           VERBOSE_OUTPUT  F
         &END PAIR_POTENTIAL
       &END VDW_POTENTIAL
     &END XC
   &END DFT
   &SUBSYS
     &CELL
       A     9.7367653356401487E+00    0.0000000000000000E+00    0.0000000000000000E+00
       B    -4.8591341382960209E+00    8.4162672083210595E+00    0.0000000000000000E+00
       C     0.0000000000000000E+00    0.0000000000000000E+00    3.0744000000000000E+01
       MULTIPLE_UNIT_CELL  1 1 1
       &CELL_REF
         A     9.5580000000000052E+00    0.0000000000000000E+00    0.0000000000000000E+00
         B    -4.7790000000000026E+00    8.2774708093716640E+00    0.0000000000000000E+00
         C     0.0000000000000000E+00    0.0000000000000000E+00    3.0744000000000000E+01
         MULTIPLE_UNIT_CELL  1 1 1
       &END CELL_REF
     &END CELL
     &COORD
Ga   -2.9590141431838531E-03   -3.7230327332377119E-02   -5.4819807559096223E-01
N   -5.5169851855520441E-04    1.8369521399200974E+00    6.0436951040309461E-01
Ga    2.6660608367164022E-04    1.8054332925728933E+00    2.6350463635975028E+00
N   -2.7212245244146744E-03   -3.7694938032852364E-02    3.2671461573135647E+00
Ga   -1.1607153559891809E-04   -3.5968526612320577E-02    5.2575263882952070E+00
N    3.1794024907322283E-03    1.8385406533704949E+00    5.8464500521751992E+00
Ga    6.8898961445338436E-03    1.8361119276319120E+00    7.8463538903823968E+00
N    6.2310630154691869E-03   -3.6613749333869454E-02    8.4478464690897166E+00
Ga    1.0569309673740833E-02   -3.6525621983684128E-02    1.0446295015650154E+01
N    9.7143821170111687E-03    1.8359196051201536E+00    1.1047530585895455E+01
Ga    1.8268055812478912E-02    1.8324661239758813E+00    1.3041787486342178E+01
N    2.5305320151556267E-02   -4.1393373360101605E-02    1.3632508426432681E+01
Ga    4.4334311831030683E-02   -6.0937775999104930E-02    1.5624625386645256E+01
N    4.6737278494635028E-02    1.8203877969267477E+00    1.6191925326411848E+01
Ga    6.8506782228111851E-02    1.7966723814286825E+00    1.8241172360298822E+01
N    5.7176354550348633E-02   -7.1653727917893206E-02    1.8656048260663066E+01
Ga   -1.6233066910791776E+00    2.7667378788199857E+00    3.2203716365520269E-01
N   -1.6239325982951802E+00    4.6376761340866661E+00    6.0457040718088140E-01
Ga   -1.5950520253033389E+00    4.6533919576324347E+00    2.6363548443338090E+00
N   -1.6223152691655935E+00    2.7675731626564808E+00    3.2260566428426141E+00
Ga   -1.6194807186224240E+00    2.7689522655406704E+00    5.2375936242738224E+00
N   -1.6192163927236241E+00    4.6391204869171885E+00    5.8446932890967034E+00
Ga   -1.6158942662141746E+00    4.6396794238200840E+00    7.8435310188528264E+00
N   -1.6156825718922163E+00    2.7695876813786335E+00    8.4506524180605602E+00
Ga   -1.6136393586527511E+00    2.7710722478746530E+00    1.0447206672315110E+01
N   -1.6146915900679446E+00    4.6418529706900804E+00    1.1054175525354324E+01
Ga   -1.6171409091669868E+00    4.6403400515689830E+00    1.3052224571563544E+01
N   -1.5995526040049803E+00    2.7712264062122198E+00    1.3666111679996302E+01
Ga   -1.5912829257068266E+00    2.7841720211628216E+00    1.5674500139153446E+01
N   -1.5800185002735945E+00    4.6477755079443357E+00    1.6310802605493684E+01
Ga   -1.4767321811732090E+00    4.6370050549116746E+00    1.8392249109870654E+01
N   -1.5259132187951934E+00    2.7363357679013620E+00    1.8692552324899836E+01
Ga   -3.2440922359655513E+00    5.5738579043410148E+00    3.2295496082371694E-01
N   -3.2363770012163822E+00    7.4436926986683956E+00    6.0515310158060809E-01
Ga   -3.2632986768941081E+00    7.4592712551763825E+00    2.6355080747523969E+00
N   -3.2421144009346996E+00    5.5731541748816253E+00    3.2261703313859309E+00
Ga   -3.2397039187712391E+00    5.5745718215691591E+00    5.2377325495623674E+00
N   -3.2333436223812315E+00    7.4451044266256590E+00    5.8440358757182391E+00
Ga   -3.2318112063328734E+00    7.4449657968644711E+00    7.8427813686689047E+00
N   -3.2360932108287810E+00    5.5745896495762279E+00    8.4466723201572549E+00
Ga   -3.2339055505585561E+00    5.5733457078172925E+00    1.0441654330777714E+01
N   -3.2248772990803158E+00    7.4416225609022391E+00    1.1053010342054732E+01
Ga   -3.2150656566642573E+00    7.4341702210887952E+00    1.3051570213403950E+01
N   -3.2355939381079692E+00    5.5669996213491890E+00    1.3693780173689305E+01
Ga   -3.2135221667671865E+00    5.5616131521045293E+00    1.5732707142760852E+01
N   -3.1936545512449133E+00    7.4278155975050257E+00    1.6286763254815614E+01
Ga   -3.1700276561494243E+00    7.3893336056190320E+00    1.8350121380985286E+01
N   -3.1140961891673875E+00    5.5316621731326858E+00    1.8876740267950410E+01
Ga    3.2422256293152509E+00   -3.7733516861062445E-02    3.2203569012194888E-01
N    3.2412951273014414E+00    1.8322391911312834E+00    6.0413747034119480E-01
Ga    3.2703706570419020E+00    1.8481374082227409E+00    2.6353589586773438E+00
N    3.2435189211348283E+00   -3.7185754498793522E-02    3.2266688165899260E+00
Ga    3.2465205491132401E+00   -3.5625273901187388E-02    5.2381373657725741E+00
N    3.2470711910730690E+00    1.8342487252235926E+00    5.8451767727339821E+00
Ga    3.2511752047652309E+00    1.8345887194611399E+00    7.8441348129379760E+00
N    3.2484604388022165E+00   -3.6284634472088496E-02    8.4466587636417909E+00
Ga    3.2528897684629170E+00   -3.7009836166712044E-02    1.0441031763084867E+01
N    3.2600004940329952E+00    1.8327203142150532E+00    1.1048562626544465E+01
Ga    3.2688845039142755E+00    1.8251277112218554E+00    1.3044822337871008E+01
N    3.2577496884204513E+00   -4.1444608390656147E-02    1.3670169510448813E+01
Ga    3.2712541284129899E+00   -4.6489856607459343E-02    1.5683010469336827E+01
N    3.2970104456375133E+00    1.8212183813803737E+00    1.6264195045027531E+01
Ga    3.3531893009089719E+00    1.8121297249447204E+00    1.8306568339065951E+01
N    3.3183452139857708E+00   -7.5738942557620509E-02    1.8748372652216815E+01
Ga    1.6217326923624931E+00    2.7673259985024203E+00    3.2177157422638819E-01
N    1.6274986314177804E+00    4.6382705946425853E+00    6.0436972503274111E-01
Ga    1.6016807672842672E+00    4.6534479553515364E+00    2.6366910642271075E+00
N    1.6235328779687468E+00    2.7677750984624461E+00    3.2270599947225165E+00
Ga    1.6264163798325579E+00    2.7693976891726839E+00    5.2390371009377006E+00
N    1.6318131695727416E+00    4.6394834329573591E+00    5.8473708057530063E+00
Ga    1.6338303908168150E+00    4.6400304052953487E+00    7.8480075348083336E+00
N    1.6307630496194723E+00    2.7677156106247249E+00    8.4488263089060940E+00
Ga    1.6345130789506261E+00    2.7669830357332343E+00    1.0444868555548947E+01
N    1.6302452911449232E+00    4.6388127726580652E+00    1.1038606886390511E+01
Ga    1.6281257325404652E+00    4.6393368989798063E+00    1.3031764666937827E+01
N    1.6457770241205762E+00    2.7609204659531859E+00    1.3633782299382750E+01
Ga    1.6758161207269564E+00    2.7537501274525642E+00    1.5624043959316969E+01
N    1.6292786169366404E+00    4.6321523976115584E+00    1.6133035046786606E+01
Ga    1.7086963232782049E+00    4.5959389146866920E+00    1.8112397944924652E+01
N    1.7000837200759173E+00    2.7431090374271538E+00    1.8603298859912670E+01
Ga    2.0589710437464996E-03    5.5737308856779011E+00   -5.3264403835845253E-01
N    5.6733890588908627E-03    7.4468744822985942E+00    6.0479911038310363E-01
Ga    6.6799487369946873E-03    7.4167384606736908E+00    2.6369367340111958E+00
N    3.7028871677048355E-03    5.5731240535171978E+00    3.2686417406140893E+00
Ga    6.7818502773601009E-03    5.5747487540160146E+00    5.2590641308418311E+00
N    9.9108324809556812E-03    7.4494901557873963E+00    5.8458381638903596E+00
Ga    1.2553014977836055E-02    7.4481482988201639E+00    7.8454081079176499E+00
N    7.7969111895441071E-03    5.5744368471016603E+00    8.4451570868675816E+00
Ga    8.4498889529099393E-03    5.5749070827306708E+00    1.0442707890754868E+01
N    1.5762569091617287E-02    7.4479707608189374E+00    1.1042282857975442E+01
Ga    1.5744973234874976E-02    7.4507224815015833E+00    1.3034823168517924E+01
N    4.7395624723263387E-03    5.5795214043560692E+00    1.3629992992751191E+01
Ga    6.9624456604029453E-03    5.5694383081995014E+00    1.5624167860755792E+01
N    4.8963711034782892E-02    7.4339577181861163E+00    1.6260573315938544E+01
Ga    7.5436419742016966E-02    7.3909166522775962E+00    1.8351659264545059E+01
N    1.9224219677403445E-01    5.5332970144972000E+00    1.8887396311624393E+01
Ga    6.4869432790607409E+00   -3.7180079928544378E-02    3.2090039337286208E-01
N    6.4928604298652361E+00    1.8327820621399684E+00    6.0351107939666482E-01
Ga    6.4664053343782726E+00    1.8478351742493118E+00    2.6350365594169927E+00
N    6.4888712609825268E+00   -3.7203321411666941E-02    3.2273191652976916E+00
Ga    6.4920128918080859E+00   -3.5610284974676970E-02    5.2393274808392780E+00
N    6.4970847974661377E+00    1.8348609253610664E+00    5.8454345989561638E+00
Ga    6.4988578118637861E+00    1.8358097977743015E+00    7.8444879662425677E+00
N    6.4943986992360294E+00   -3.3992688003382343E-02    8.4486839405930034E+00
Ga    6.4975918583022070E+00   -2.9756547826363160E-02    1.0445121048552293E+01
N    6.5007969744119487E+00    1.8413150391121742E+00    1.1055674729583103E+01
Ga    6.5060007433936393E+00    1.8456051199751478E+00    1.3055359429229892E+01
N    6.4941081549118227E+00   -2.7409175123341026E-02    1.3630843654690008E+01
Ga    6.5100712249265333E+00   -2.1116931706349533E-02    1.5631603791969903E+01
N    6.5218091398995819E+00    1.8469313060883201E+00    1.6242407318547937E+01
Ga    6.5874838118347121E+00    1.8088260536340626E+00    1.8291546747159430E+01
N    6.5840043036279949E+00   -9.0904967695045233E-02    1.8661348814037492E+01
Ga    4.8667126745843330E+00    2.7676181931999859E+00   -5.4507757374755816E-01
N    4.8705478431483584E+00    4.6419350473237424E+00    6.0413377973569538E-01
Ga    4.8710912300453879E+00    4.6109975006133030E+00    2.6352686837674759E+00
N    4.8689698741672043E+00    2.7679333941832391E+00    3.2671162304998767E+00
Ga    4.8718180134991798E+00    2.7696199816017826E+00    5.2572084031047366E+00
N    4.8744542124267571E+00    4.6438813629779601E+00    5.8454726100389180E+00
Ga    4.8763005901300751E+00    4.6433148344926929E+00    7.8450450124645812E+00
N    4.8753562077336463E+00    2.7699745813473027E+00    8.4462106444115808E+00
Ga    4.8799624276602325E+00    2.7720593485048148E+00    1.0444127813390846E+01
N    4.8836228431118291E+00    4.6417872596370966E+00    1.1051775030415302E+01
Ga    4.8843211129704605E+00    4.6433533272246876E+00    1.3052533374961506E+01
N    4.8787106550385619E+00    2.7746419029212386E+00    1.3666369007437574E+01
Ga    4.8858548969759843E+00    2.7701757721973443E+00    1.5687009664844943E+01
N    4.8454311145127011E+00    4.6601588736893502E+00    1.6152824467258593E+01
Ga    4.9887067240662564E+00    4.5889423814003809E+00    1.9102553556749360E+01
N    4.9718157164371259E+00    2.7034849335928111E+00    1.8837772376299924E+01
Ga    3.2483445418678554E+00    5.5731870326022834E+00    3.2173138486538255E-01
N    3.2466057395415278E+00    7.4430148526715021E+00    6.0394369052644403E-01
Ga    3.2759003540860263E+00    7.4591646263253217E+00    2.6346105488111999E+00
N    3.2491666897572431E+00    5.5736210388160607E+00    3.2270717130427369E+00
Ga    3.2517386759528826E+00    5.5753030414390601E+00    5.2392523198459937E+00
N    3.2528630799453842E+00    7.4453821613060738E+00    5.8477557747695998E+00
Ga    3.2573247902422757E+00    7.4455659748877681E+00    7.8486625141002335E+00
N    3.2554473407516484E+00    5.5747930757267392E+00    8.4518563391143928E+00
Ga    3.2582130915831802E+00    5.5760039744471976E+00    1.0451052466598890E+01
N    3.2613565144402408E+00    7.4527433069872107E+00    1.1039824058326635E+01
Ga    3.2623243014101511E+00    7.4570568716433776E+00    1.3034141700641825E+01
N    3.2491028880858788E+00    5.5804923776776016E+00    1.3596252958175409E+01
Ga    3.2494786384627901E+00    5.5894151339980986E+00    1.5590135701561387E+01
N    3.2805939563608661E+00    7.4613865978830383E+00    1.6137132632067445E+01
Ga    3.3413323568489282E+00    7.4304730143020379E+00    1.8144236044035651E+01
N    3.4544218077779743E+00    5.4761814983354524E+00    1.8333618140768646E+01
O    1.6026063034088518E+00    5.1054212467432603E+00    2.1222187544906237E+01
H    1.0116872558847496E+00    5.3877486572230469E+00    2.0432828515224905E+01
C    1.0783201912007470E+00    3.8453869465452586E+00    2.1678423390382129E+01
H    1.2338168741120845E+00    3.0512530035819996E+00    2.0920643403308240E+01
H    1.6084573880283397E+00    3.5738357531529013E+00    2.2601007872467310E+01
H    1.4903871455809483E-03    3.9274678533987175E+00    2.1890440581056982E+01
O    4.2608875271526934E+00    4.8758251324640431E+00    2.1043010231737806E+01
H    3.2469172407005806E+00    4.9944617801096811E+00    2.1046420357946644E+01
C    4.6472422428002229E+00    3.9529089073405026E+00    2.2091684157687730E+01
H    4.3292869258532898E+00    2.9281419622779574E+00    2.1854862823516921E+01
H    5.7400757862277016E+00    3.9855801922388121E+00    2.2170938939035214E+01
H    4.2033954117621697E+00    4.2826035999845349E+00    2.3039770036622169E+01
     &END COORD
     &KIND C
       BASIS_SET DZVP-MOLOPT-SR-GTH-q4
       POTENTIAL GTH-PBE-q4
       &POTENTIAL
 2 2
  0.3384712400000000E+00 2 -0.8803673979999999E+01  0.1339210850000000E+01
 2
  0.3025757500000000E+00 1  0.9622486650000001E+01
  0.2915069400000000E+00 0
         # Potential name:  GTH-PBE-Q4  for symbol:  C
         # Potential read from the potential filename: GTH_POTENTIALS
       &END POTENTIAL
     &END KIND
     &KIND O
       BASIS_SET DZVP-MOLOPT-SR-GTH-q6
       POTENTIAL GTH-PBE-q6
       &POTENTIAL
 2 4
  0.2445543000000000E+00 2 -0.1666721480000000E+02  0.2487311320000000E+01
 2
  0.2209559200000000E+00 1  0.1833745811000000E+02
  0.2113324700000000E+00 0
         # Potential name:  GTH-PBE-Q6  for symbol:  O
         # Potential read from the potential filename: GTH_POTENTIALS
       &END POTENTIAL
     &END KIND
     &KIND H
       BASIS_SET DZVP-MOLOPT-SR-GTH-q1
       POTENTIAL GTH-PBE-q1
       &POTENTIAL
 1
  0.2000000000000000E+00 2 -0.4178900440000000E+01  0.7244633100000000E+00
 0
         # Potential name:  GTH-PBE-Q1  for symbol:  H
         # Potential read from the potential filename: GTH_POTENTIALS
       &END POTENTIAL
     &END KIND
     &KIND N
       BASIS_SET DZVP-MOLOPT-SR-GTH-q5
       POTENTIAL GTH-PBE-q5
       &POTENTIAL
 2 3
  0.2837905100000000E+00 2 -0.1241522559000000E+02  0.1868095920000000E+01
 2
  0.2554050000000000E+00 1  0.1363026257000000E+02
  0.2454945300000000E+00 0
         # Potential name:  GTH-PBE-Q5  for symbol:  N
         # Potential read from the potential filename: GTH_POTENTIALS
       &END POTENTIAL
     &END KIND
     &KIND Ga
       BASIS_SET DZVP-MOLOPT-SR-GTH-q13
       POTENTIAL GTH-PBE-q13
       &POTENTIAL
 2 1 10
  0.4900000000000000E+00 0
 3
  0.4167772300000000E+00 3  0.1047568975000000E+02 -0.4921768140000000E+01  0.8707055900000000E+00
  0.7770178090000000E+01 -0.2248152160000000E+01
  0.1784415450000000E+01
  0.5696265200000000E+00 2  0.1777985340000000E+01  0.1958597600000000E+00
 -0.2317443900000000E+00
  0.2381265000000000E+00 1 -0.1624868022000000E+02
         # Potential name:  GTH-PBE-Q13  for symbol:  GA
         # Potential read from the potential filename: GTH_POTENTIALS
       &END POTENTIAL
     &END KIND
     &TOPOLOGY
       COORD_FILE_NAME ../start-first.xyz
       COORD_FILE_FORMAT  XYZ
       NUMBER_OF_ATOMS  156
       MULTIPLE_UNIT_CELL  1 1 1
     &END TOPOLOGY
     &COLVAR
       &DISTANCE
         ATOMS  145 152
       &END DISTANCE
       &PRINT
       &END PRINT
     &END COLVAR
   &END SUBSYS
 &END FORCE_EVAL
