 # Version information for this restart file 
 # current date 2019-05-28 07:02:52.505
 # current working dir /lustre03/project/6004141/rzk/GaN-carbene/334-native/08-2Methanol-Htransfer/02-NH-constraint/1.64
 # Program compiled at                              Sun Apr  7 00:48:11 EDT 2019
 # Program compiled on                          beluga2.int.ets1.calculquebec.ca
 # Program compiled for                        Beluga-Linux-x86-64-intel-openmpi
 # Source code revision number                                         svn:18619
 &GLOBAL
   PRINT_LEVEL  MEDIUM
   PROJECT_NAME TEST
   RUN_TYPE  GEO_OPT
 &END GLOBAL
 &MOTION
   &GEO_OPT
     MAX_ITER  500
     STEP_START_VAL  322
   &END GEO_OPT
   &CONSTRAINT
     &COLLECTIVE
       COLVAR  1
       INTERMOLECULAR  T
       TARGET     3.0991508579324543E+00
       &RESTRAINT
         K     1.0000000000000001E-01
       &END RESTRAINT
     &END COLLECTIVE
     &COLVAR_RESTART
           3.0991508579324543E+00
     &END COLVAR_RESTART
   &END CONSTRAINT
 &END MOTION
 &FORCE_EVAL
   METHOD  QS
   STRESS_TENSOR  ANALYTICAL
   &DFT
     BASIS_SET_FILE_NAME BASIS_MOLOPT
     POTENTIAL_FILE_NAME GTH_POTENTIALS
     &SCF
       MAX_SCF  100
       EPS_SCF     5.0000000000000004E-06
       &OT  T
         PRECONDITIONER  FULL_ALL
       &END OT
       &OUTER_SCF  T
         OPTIMIZER  NONE
         EPS_SCF     5.0000000000000004E-06
         MAX_SCF  4
       &END OUTER_SCF
       &PRINT
         &RESTART  OFF
           BACKUP_COPIES  1
           &EACH
             JUST_ENERGY  0
             QS_SCF  0
             MD  20
           &END EACH
         &END RESTART
       &END PRINT
     &END SCF
     &QS
       EPS_DEFAULT     1.0000000000000000E-14
       ALMO_SCF  F
       METHOD  GPW
     &END QS
     &MGRID
       NGRIDS  5
       CUTOFF     1.2000000000000000E+03
     &END MGRID
     &XC
       DENSITY_CUTOFF     1.0000000000000000E-10
       GRADIENT_CUTOFF     1.0000000000000000E-10
       TAU_CUTOFF     1.0000000000000000E-10
       &XC_FUNCTIONAL  NO_SHORTCUT
         &PBE  T
         &END PBE
       &END XC_FUNCTIONAL
       &VDW_POTENTIAL
         POTENTIAL_TYPE  PAIR_POTENTIAL
         &PAIR_POTENTIAL
           R_CUTOFF     1.0000000000000005E+01
           TYPE  DFTD3
           PARAMETER_FILE_NAME dftd3.dat
           REFERENCE_FUNCTIONAL PBE
           EPS_CN     9.9999999999999995E-07
           CALCULATE_C9_TERM  T
           REFERENCE_C9_TERM  T
           LONG_RANGE_CORRECTION  F
           VERBOSE_OUTPUT  F
         &END PAIR_POTENTIAL
       &END VDW_POTENTIAL
     &END XC
   &END DFT
   &SUBSYS
     &CELL
       A     9.7367653356401487E+00    0.0000000000000000E+00    0.0000000000000000E+00
       B    -4.8591341382960209E+00    8.4162672083210595E+00    0.0000000000000000E+00
       C     0.0000000000000000E+00    0.0000000000000000E+00    3.0744000000000000E+01
       MULTIPLE_UNIT_CELL  1 1 1
       &CELL_REF
         A     9.5580000000000052E+00    0.0000000000000000E+00    0.0000000000000000E+00
         B    -4.7790000000000026E+00    8.2774708093716640E+00    0.0000000000000000E+00
         C     0.0000000000000000E+00    0.0000000000000000E+00    3.0744000000000000E+01
         MULTIPLE_UNIT_CELL  1 1 1
       &END CELL_REF
     &END CELL
     &COORD
Ga   -3.4565432171070991E-02   -1.1586207878342882E-02   -4.4250452170275728E-01
N   -3.2007146915575761E-02    1.8632344349975436E+00    7.0143868424676770E-01
Ga   -3.1939724219024732E-02    1.8319694917334277E+00    2.7322909486672433E+00
N   -3.4662477482200083E-02   -1.1722573400242702E-02    3.3649138208716796E+00
Ga   -3.3998607219168843E-02   -1.0704037054757972E-02    5.3549265682832852E+00
N   -3.1679092408702106E-02    1.8634875373689639E+00    5.9451628718006821E+00
Ga   -3.3084303267857572E-02    1.8615930545754742E+00    7.9438699253288547E+00
N   -3.5294858407960268E-02   -1.1445855188077749E-02    8.5486680076370263E+00
Ga   -3.5334420983148089E-02   -1.1644420112158440E-02    1.0547381934876148E+01
N   -3.2658392107236783E-02    1.8624826776261165E+00    1.1146281951181779E+01
Ga   -3.7397114294089789E-02    1.8580283120698118E+00    1.3140164605634178E+01
N   -3.9338382660344798E-02   -1.1610318898051777E-02    1.3738494387036511E+01
Ga   -3.8661205868589968E-02   -2.4468894232492985E-02    1.5736958952461457E+01
N   -3.1217348418525134E-02    1.8686125775241087E+00    1.6287651639429658E+01
Ga   -8.8922103456692464E-02    1.8278128675889942E+00    1.8268456448854231E+01
N   -3.5912137334947580E-02   -2.5463803460002758E-02    1.8749740059357553E+01
Ga   -1.6547925773172218E+00    2.7941996354097869E+00    4.1790685913328646E-01
N   -1.6562531400144418E+00    4.6636958077039505E+00    7.0321518050844389E-01
Ga   -1.6273846495520179E+00    4.6795420321997652E+00    2.7325490411481703E+00
N   -1.6542722583056828E+00    2.7937724584111221E+00    3.3251372841499576E+00
Ga   -1.6537080485543549E+00    2.7948521720658079E+00    5.3352894213383326E+00
N   -1.6537088564880751E+00    4.6648885564729996E+00    5.9445856696847965E+00
Ga   -1.6538052351227803E+00    4.6652743955167955E+00    7.9425127662948372E+00
N   -1.6552620691403368E+00    2.7953152253068567E+00    8.5498499434296988E+00
Ga   -1.6563131613074560E+00    2.7972378074297661E+00    1.0545939442341203E+01
N   -1.6545775275854688E+00    4.6699470384898234E+00    1.1152088737341966E+01
Ga   -1.6595770794446374E+00    4.6713151386324858E+00    1.3148180578618296E+01
N   -1.6629997841674022E+00    2.7958295352347591E+00    1.3734581845915438E+01
Ga   -1.6637313916487608E+00    2.7988724605447315E+00    1.5725869995511188E+01
N   -1.6409218840082422E+00    4.6649646980998050E+00    1.6325532954655426E+01
Ga   -1.6652923028008895E+00    4.6278537020005670E+00    1.8333994704852955E+01
N   -1.5911331791210299E+00    2.8137440817383239E+00    1.8993553996832109E+01
Ga   -3.2748775007446835E+00    5.5995302965207152E+00    4.1812154323137030E-01
N   -3.2681226390478031E+00    7.4697918750770995E+00    7.0182570945175859E-01
Ga   -3.2953448836097454E+00    7.4846282885861317E+00    2.7324970493260676E+00
N   -3.2738885233774155E+00    5.5994785614641671E+00    3.3254880840167838E+00
Ga   -3.2732261505656197E+00    5.6006093563941217E+00    5.3354027164350857E+00
N   -3.2683370715269660E+00    7.4706889306188087E+00    5.9448531705501857E+00
Ga   -3.2706724074119600E+00    7.4714334738279691E+00    7.9431778476246633E+00
N   -3.2749342125701810E+00    5.6005703825792743E+00    8.5479912566583121E+00
Ga   -3.2740976762292227E+00    5.6037942407614691E+00    1.0542911252545204E+01
N   -3.2702042697280187E+00    7.4726068375698897E+00    1.1154723821263527E+01
Ga   -3.2704484098569382E+00    7.4746894030756765E+00    1.3154061431276125E+01
N   -3.2796761410287409E+00    5.6055774482763381E+00    1.3774632897011656E+01
Ga   -3.2774784321368400E+00    5.6132964410259181E+00    1.5786003644252757E+01
N   -3.2697666172320980E+00    7.5018793248007718E+00    1.6356984246863330E+01
Ga   -3.2464055181184213E+00    7.4611045066053387E+00    1.8437983866627796E+01
N   -3.2623852066192263E+00    5.5785972116002851E+00    1.8791988940889208E+01
Ga    3.2112670417455007E+00   -1.1741608303839987E-02    4.1737963865290734E-01
N    3.2090453020666914E+00    1.8578385611757025E+00    7.0217697970805693E-01
Ga    3.2378074018646044E+00    1.8736387953827518E+00    2.7317989683674408E+00
N    3.2109070895773186E+00   -1.1799835724371802E-02    3.3249155778782513E+00
Ga    3.2113710414488374E+00   -1.1011124074903360E-02    5.3348974959740616E+00
N    3.2119927981203182E+00    1.8591417351760842E+00    5.9437939578000183E+00
Ga    3.2120546099351541E+00    1.8591777073902509E+00    7.9415280489593290E+00
N    3.2105812054026317E+00   -1.0919571166108153E-02    8.5494996383169166E+00
Ga    3.2109985775160648E+00   -1.1286072037603803E-02    1.0545440416318234E+01
N    3.2151700098162728E+00    1.8624573926797952E+00    1.1146511460087908E+01
Ga    3.2194244255925279E+00    1.8576715476989913E+00    1.3138422958383940E+01
N    3.2120762750466931E+00   -3.8452907308355287E-03    1.3761016589728678E+01
Ga    3.2133439864790305E+00   -7.7946990195757130E-03    1.5768983921645392E+01
N    3.2111181572354117E+00    1.8832064857579984E+00    1.6364757696582060E+01
Ga    3.2131838258635828E+00    1.8214812402154361E+00    1.8359287138742239E+01
N    3.2180756583679346E+00   -1.0824092361200738E-02    1.8837813057672136E+01
Ga    1.5907108944956210E+00    2.7943523741696912E+00    4.1751211276257860E-01
N    1.5971451375823618E+00    4.6642107778598474E+00    7.0263870326010314E-01
Ga    1.5693916158678476E+00    4.6792779663139648E+00    2.7323796432769960E+00
N    1.5911363362928570E+00    2.7936848747709662E+00    3.3253001737581975E+00
Ga    1.5915067045377718E+00    2.7946648290044060E+00    5.3357990068769166E+00
N    1.5968633515340533E+00    4.6650791891918617E+00    5.9449721512668923E+00
Ga    1.5950209373944335E+00    4.6653092434451757E+00    7.9434768223842731E+00
N    1.5909911334788831E+00    2.7936112222004597E+00    8.5458397436622828E+00
Ga    1.5905775021500492E+00    2.7930846356211352E+00    1.0539121807322049E+01
N    1.5921741202989235E+00    4.6664292772023641E+00    1.1136375542083337E+01
Ga    1.5912249964098113E+00    4.6631844758044796E+00    1.3121661950061608E+01
N    1.5939157747309241E+00    2.7953391993598227E+00    1.3734378091009591E+01
Ga    1.5944265855585495E+00    2.7940722236997719E+00    1.5714508111614396E+01
N    1.5935673631565241E+00    4.6576624782923952E+00    1.6362566119046804E+01
Ga    1.5765312864739556E+00    4.6463632528752470E+00    1.8324875669540312E+01
N    1.5607379742003007E+00    2.7751920681644102E+00    1.8977446612944298E+01
Ga   -2.9976661423220623E-02    5.5997518872718599E+00   -4.4987680868385538E-01
N   -2.5876313075125629E-02    7.4741195843877133E+00    7.0272268267322791E-01
Ga   -2.6033815696095218E-02    7.4421636039801307E+00    2.7324349265106211E+00
N   -2.8580297646928456E-02    5.5989665851696682E+00    3.3658607431395731E+00
Ga   -2.8186796079994678E-02    5.6001697294958834E+00    5.3554637686062527E+00
N   -2.5387375677214840E-02    7.4746856648124789E+00    5.9442391752891623E+00
Ga   -2.6478396853022997E-02    7.4731695031079157E+00    7.9420985697606516E+00
N   -2.9865733136071246E-02    5.6004544406993659E+00    8.5454837913159203E+00
Ga   -3.2663864626437257E-02    5.6035433575074576E+00    1.0541904446455545E+01
N   -2.6296058157935349E-02    7.4728924991922652E+00    1.1154065149610977E+01
Ga   -2.5288639700986569E-02    7.4772424472442607E+00    1.3152575915812728E+01
N   -2.5285808748828624E-02    5.5959239249971846E+00    1.3739549062863375E+01
Ga   -3.0474155382916431E-02    5.6057915151419762E+00    1.5726618679165670E+01
N   -3.1719595194058987E-02    7.4536539143997649E+00    1.6360984233502990E+01
Ga   -1.9955932355659168E-02    7.5109787179419456E+00    1.8393812732870959E+01
N   -2.4995705505381317E-02    5.6098203737651193E+00    1.8912181157076375E+01
Ga    6.4552764704676511E+00   -1.1249688035766784E-02    4.1783172796776180E-01
N    6.4631564716429866E+00    1.8583656079795494E+00    7.0262866498978260E-01
Ga    6.4350332488455670E+00    1.8737919248504875E+00    2.7319829869619774E+00
N    6.4564556530032489E+00   -1.1852865708627962E-02    3.3251298365075401E+00
Ga    6.4570742287251957E+00   -1.0792317545262163E-02    5.3353586815665306E+00
N    6.4626292584641467E+00    1.8593636773039621E+00    5.9445811230971541E+00
Ga    6.4606154762148806E+00    1.8596843037281139E+00    7.9428071322823914E+00
N    6.4557995908076444E+00   -1.1465755027900147E-02    8.5479079763579264E+00
Ga    6.4549282232107075E+00   -1.1865559482887623E-02    1.0543075135444074E+01
N    6.4568536787749329E+00    1.8599406941896104E+00    1.1146265130810473E+01
Ga    6.4560341975812703E+00    1.8536750961738004E+00    1.3139978037205209E+01
N    6.4533613766283473E+00   -8.7647628328343767E-03    1.3764705927325553E+01
Ga    6.4503728377006979E+00   -1.1335841172471973E-02    1.5778500623068162E+01
N    6.4625671999638898E+00    1.8723849104160561E+00    1.6384028145188452E+01
Ga    6.5439481393359129E+00    1.8807869503448897E+00    1.8444194866827992E+01
N    6.4692432453395545E+00    6.4025236391708007E-03    1.8783810536857658E+01
Ga    4.8372470786325499E+00    2.7949644527561253E+00   -4.5130044299550137E-01
N    4.8398540450761471E+00    4.6695341630396925E+00    7.0371257177551971E-01
Ga    4.8398613851688692E+00    4.6373145340445001E+00    2.7327170243263645E+00
N    4.8367292105134849E+00    2.7934187907166153E+00    3.3650832461393674E+00
Ga    4.8376819806958693E+00    2.7944762164619950E+00    5.3545710938473130E+00
N    4.8403620107833589E+00    4.6692117960579287E+00    5.9435138685863587E+00
Ga    4.8391774646311490E+00    4.6680418560824437E+00    7.9411773345269889E+00
N    4.8362250159938274E+00    2.7950254534410242E+00    8.5435624559243966E+00
Ga    4.8376417250747847E+00    2.7959653596384704E+00    1.0538522877894943E+01
N    4.8416380847168456E+00    4.6667146607393928E+00    1.1149254616580867E+01
Ga    4.8455496075529538E+00    4.6665345477646500E+00    1.3142845268867031E+01
N    4.8402896008829366E+00    2.7950377619990801E+00    1.3755514398122060E+01
Ga    4.8435802022930803E+00    2.7939534073145680E+00    1.5746767715040523E+01
N    4.8243617795706779E+00    4.6564149959009136E+00    1.6359416686015066E+01
Ga    4.8676937728947740E+00    4.6749498462380563E+00    1.8347184229947228E+01
N    4.8296725226947954E+00    2.7983662003880010E+00    1.8946570934707449E+01
Ga    3.2172737561010227E+00    5.5985173399756398E+00    4.1846474503088926E-01
N    3.2156750627952713E+00    7.4690271945887652E+00    7.0180758390247044E-01
Ga    3.2440191093596442E+00    7.4845443264035358E+00    2.7324942395298546E+00
N    3.2169694895266070E+00    5.5991981501330494E+00    3.3252080638901331E+00
Ga    3.2175187312381133E+00    5.6002537793270815E+00    5.3353687748557119E+00
N    3.2181605252808776E+00    7.4704034967642645E+00    5.9447000468158455E+00
Ga    3.2184179814956955E+00    7.4705253585474338E+00    7.9430731271443973E+00
N    3.2173855190625660E+00    5.5996841774787249E+00    8.5479004664911766E+00
Ga    3.2186049722298122E+00    5.6018585763922584E+00    1.0542593839937901E+01
N    3.2169955263387351E+00    7.4713635863336458E+00    1.1151546802502976E+01
Ga    3.2133796736458824E+00    7.4725761050841371E+00    1.3149466109615929E+01
N    3.2129211185101374E+00    5.5884118425300491E+00    1.3735040608904484E+01
Ga    3.2114616440018069E+00    5.5914880940514236E+00    1.5716349457973253E+01
N    3.2180112632603697E+00    7.4398086390488105E+00    1.6313538803192248E+01
Ga    3.2132995709555359E+00    7.4981756880723731E+00    1.8325900896684395E+01
N    3.2042492241224889E+00    5.5888384881450079E+00    1.8929715646156275E+01
O    2.0537077285681071E-01    3.3676364421484646E+00    2.0887156768875659E+01
H   -1.8251643297182436E-02    5.5094735541108424E+00    1.9935298980753618E+01
C    1.3729032847945617E+00    2.6894807250017045E+00    2.0454776880103125E+01
H   -5.8859048609634690E-01    3.0702784732106800E+00    2.0285579175898892E+01
H    1.3339160511732095E+00    1.6160706877300202E+00    2.0732197041981749E+01
H    2.2237398330650437E+00    3.1443817466399615E+00    2.0990865103034750E+01
O    5.7508059189834331E+00    3.1113014814046851E+00    2.1819737229162175E+01
H    3.2071089914516460E+00    5.6115295453447427E+00    1.9956279441716376E+01
C    6.7803707751143145E+00    3.7577850107177166E+00    2.1662083861905973E+01
H    4.8407315380594769E+00    2.8217937461484865E+00    1.9978408898527722E+01
H    6.8202542766202461E+00    4.6144933581735783E+00    2.0948679549931903E+01
H    7.7072943852978320E+00    3.5218712185193342E+00    2.2222222485764728E+01
     &END COORD
     &KIND C
       BASIS_SET DZVP-MOLOPT-SR-GTH-q4
       POTENTIAL GTH-PBE-q4
       &POTENTIAL
 2 2
  0.3384712400000000E+00 2 -0.8803673979999999E+01  0.1339210850000000E+01
 2
  0.3025757500000000E+00 1  0.9622486650000001E+01
  0.2915069400000000E+00 0
         # Potential name:  GTH-PBE-Q4  for symbol:  C
         # Potential read from the potential filename: GTH_POTENTIALS
       &END POTENTIAL
     &END KIND
     &KIND O
       BASIS_SET DZVP-MOLOPT-SR-GTH-q6
       POTENTIAL GTH-PBE-q6
       &POTENTIAL
 2 4
  0.2445543000000000E+00 2 -0.1666721480000000E+02  0.2487311320000000E+01
 2
  0.2209559200000000E+00 1  0.1833745811000000E+02
  0.2113324700000000E+00 0
         # Potential name:  GTH-PBE-Q6  for symbol:  O
         # Potential read from the potential filename: GTH_POTENTIALS
       &END POTENTIAL
     &END KIND
     &KIND H
       BASIS_SET DZVP-MOLOPT-SR-GTH-q1
       POTENTIAL GTH-PBE-q1
       &POTENTIAL
 1
  0.2000000000000000E+00 2 -0.4178900440000000E+01  0.7244633100000000E+00
 0
         # Potential name:  GTH-PBE-Q1  for symbol:  H
         # Potential read from the potential filename: GTH_POTENTIALS
       &END POTENTIAL
     &END KIND
     &KIND N
       BASIS_SET DZVP-MOLOPT-SR-GTH-q5
       POTENTIAL GTH-PBE-q5
       &POTENTIAL
 2 3
  0.2837905100000000E+00 2 -0.1241522559000000E+02  0.1868095920000000E+01
 2
  0.2554050000000000E+00 1  0.1363026257000000E+02
  0.2454945300000000E+00 0
         # Potential name:  GTH-PBE-Q5  for symbol:  N
         # Potential read from the potential filename: GTH_POTENTIALS
       &END POTENTIAL
     &END KIND
     &KIND Ga
       BASIS_SET DZVP-MOLOPT-SR-GTH-q13
       POTENTIAL GTH-PBE-q13
       &POTENTIAL
 2 1 10
  0.4900000000000000E+00 0
 3
  0.4167772300000000E+00 3  0.1047568975000000E+02 -0.4921768140000000E+01  0.8707055900000000E+00
  0.7770178090000000E+01 -0.2248152160000000E+01
  0.1784415450000000E+01
  0.5696265200000000E+00 2  0.1777985340000000E+01  0.1958597600000000E+00
 -0.2317443900000000E+00
  0.2381265000000000E+00 1 -0.1624868022000000E+02
         # Potential name:  GTH-PBE-Q13  for symbol:  GA
         # Potential read from the potential filename: GTH_POTENTIALS
       &END POTENTIAL
     &END KIND
     &TOPOLOGY
       COORD_FILE_NAME ../start-first.xyz
       COORD_FILE_FORMAT  XYZ
       NUMBER_OF_ATOMS  156
       MULTIPLE_UNIT_CELL  1 1 1
     &END TOPOLOGY
     &COLVAR
       &DISTANCE
         ATOMS  32 148
       &END DISTANCE
       &PRINT
       &END PRINT
     &END COLVAR
   &END SUBSYS
 &END FORCE_EVAL
