 # Version information for this restart file 
 # current date 2019-05-28 07:03:39.473
 # current working dir /lustre03/project/6004141/rzk/GaN-carbene/334-native/08-2Methanol-Htransfer/02-NH-constraint/1.64
 # Program compiled at                              Sun Apr  7 00:48:11 EDT 2019
 # Program compiled on                          beluga2.int.ets1.calculquebec.ca
 # Program compiled for                        Beluga-Linux-x86-64-intel-openmpi
 # Source code revision number                                         svn:18619
 &GLOBAL
   PRINT_LEVEL  MEDIUM
   PROJECT_NAME TEST
   RUN_TYPE  GEO_OPT
 &END GLOBAL
 &MOTION
   &GEO_OPT
     MAX_ITER  500
     STEP_START_VAL  323
   &END GEO_OPT
   &CONSTRAINT
     &COLLECTIVE
       COLVAR  1
       INTERMOLECULAR  T
       TARGET     3.0991508579324543E+00
       &RESTRAINT
         K     1.0000000000000001E-01
       &END RESTRAINT
     &END COLLECTIVE
     &COLVAR_RESTART
           3.0991508579324543E+00
     &END COLVAR_RESTART
   &END CONSTRAINT
 &END MOTION
 &FORCE_EVAL
   METHOD  QS
   STRESS_TENSOR  ANALYTICAL
   &DFT
     BASIS_SET_FILE_NAME BASIS_MOLOPT
     POTENTIAL_FILE_NAME GTH_POTENTIALS
     &SCF
       MAX_SCF  100
       EPS_SCF     5.0000000000000004E-06
       &OT  T
         PRECONDITIONER  FULL_ALL
       &END OT
       &OUTER_SCF  T
         OPTIMIZER  NONE
         EPS_SCF     5.0000000000000004E-06
         MAX_SCF  4
       &END OUTER_SCF
       &PRINT
         &RESTART  OFF
           BACKUP_COPIES  1
           &EACH
             JUST_ENERGY  0
             QS_SCF  0
             MD  20
           &END EACH
         &END RESTART
       &END PRINT
     &END SCF
     &QS
       EPS_DEFAULT     1.0000000000000000E-14
       ALMO_SCF  F
       METHOD  GPW
     &END QS
     &MGRID
       NGRIDS  5
       CUTOFF     1.2000000000000000E+03
     &END MGRID
     &XC
       DENSITY_CUTOFF     1.0000000000000000E-10
       GRADIENT_CUTOFF     1.0000000000000000E-10
       TAU_CUTOFF     1.0000000000000000E-10
       &XC_FUNCTIONAL  NO_SHORTCUT
         &PBE  T
         &END PBE
       &END XC_FUNCTIONAL
       &VDW_POTENTIAL
         POTENTIAL_TYPE  PAIR_POTENTIAL
         &PAIR_POTENTIAL
           R_CUTOFF     1.0000000000000005E+01
           TYPE  DFTD3
           PARAMETER_FILE_NAME dftd3.dat
           REFERENCE_FUNCTIONAL PBE
           EPS_CN     9.9999999999999995E-07
           CALCULATE_C9_TERM  T
           REFERENCE_C9_TERM  T
           LONG_RANGE_CORRECTION  F
           VERBOSE_OUTPUT  F
         &END PAIR_POTENTIAL
       &END VDW_POTENTIAL
     &END XC
   &END DFT
   &SUBSYS
     &CELL
       A     9.7367653356401487E+00    0.0000000000000000E+00    0.0000000000000000E+00
       B    -4.8591341382960209E+00    8.4162672083210595E+00    0.0000000000000000E+00
       C     0.0000000000000000E+00    0.0000000000000000E+00    3.0744000000000000E+01
       MULTIPLE_UNIT_CELL  1 1 1
       &CELL_REF
         A     9.5580000000000052E+00    0.0000000000000000E+00    0.0000000000000000E+00
         B    -4.7790000000000026E+00    8.2774708093716640E+00    0.0000000000000000E+00
         C     0.0000000000000000E+00    0.0000000000000000E+00    3.0744000000000000E+01
         MULTIPLE_UNIT_CELL  1 1 1
       &END CELL_REF
     &END CELL
     &COORD
Ga   -3.4381096988122056E-02   -1.1722334850270442E-02   -4.4291989901121265E-01
N   -3.1862807779954247E-02    1.8633037277154032E+00    7.0158543004851093E-01
Ga   -3.2065586755701751E-02    1.8321534910971673E+00    2.7323068378438675E+00
N   -3.4864776666738401E-02   -1.1670447296190207E-02    3.3646433798841930E+00
Ga   -3.4319538201965240E-02   -1.0523691407764563E-02    5.3545796334817686E+00
N   -3.1997382969375501E-02    1.8636221924616403E+00    5.9450458445684502E+00
Ga   -3.3250866713507569E-02    1.8614633997113110E+00    7.9438882884334854E+00
N   -3.5370369524609639E-02   -1.1487499702815717E-02    8.5487093497859572E+00
Ga   -3.5407752708163875E-02   -1.1858140073460156E-02    1.0547612337970625E+01
N   -3.2708874749542295E-02    1.8623073814167810E+00    1.1146083288911763E+01
Ga   -3.7552917449734768E-02    1.8580712842361959E+00    1.3139742590486604E+01
N   -3.9418942909821085E-02   -1.1547417378701713E-02    1.3738332083350052E+01
Ga   -3.8437714002214164E-02   -2.4611408772052597E-02    1.5736646333278053E+01
N   -3.1331422607694059E-02    1.8684853134243435E+00    1.6287755723457522E+01
Ga   -8.9328025617067458E-02    1.8275858889157475E+00    1.8268988533320439E+01
N   -3.6300688217131317E-02   -2.5826970041219369E-02    1.8749289099647392E+01
Ga   -1.6545399650524144E+00    2.7939588751655284E+00    4.1746357235616732E-01
N   -1.6561360397666953E+00    4.6636377989796367E+00    7.0251686357603038E-01
Ga   -1.6276119138890635E+00    4.6796792315609643E+00    2.7321112832033818E+00
N   -1.6545110142143129E+00    2.7940201693065325E+00    3.3249533026369211E+00
Ga   -1.6540304810491278E+00    2.7950837685682148E+00    5.3351599400957790E+00
N   -1.6539405196189843E+00    4.6651397218929338E+00    5.9444843392892679E+00
Ga   -1.6538927373392776E+00    4.6652431418458722E+00    7.9426195229447725E+00
N   -1.6553791974659886E+00    2.7951899410914103E+00    8.5498741493479162E+00
Ga   -1.6563289939925918E+00    2.7970925630900778E+00    1.0546041790596743E+01
N   -1.6545779179583866E+00    4.6696780215047449E+00    1.1152020834355485E+01
Ga   -1.6594557541663777E+00    4.6710915914565811E+00    1.3148031317664566E+01
N   -1.6628466017645471E+00    2.7958056703885452E+00    1.3734503176840121E+01
Ga   -1.6640132522983178E+00    2.7990040770741440E+00    1.5725689632235850E+01
N   -1.6406584912710700E+00    4.6649779526257307E+00    1.6325458444514695E+01
Ga   -1.6651926223557996E+00    4.6271636422188243E+00    1.8333636130558535E+01
N   -1.5911872252380019E+00    2.8133597031141906E+00    1.8995103804830208E+01
Ga   -3.2748855340485861E+00    5.5993730502555943E+00    4.1750254589929792E-01
N   -3.2679296068519519E+00    7.4695818367416216E+00    7.0167143255550002E-01
Ga   -3.2954425990540113E+00    7.4847173433126404E+00    2.7322001416008224E+00
N   -3.2740951982719122E+00    5.5996405438600965E+00    3.3251786388407258E+00
Ga   -3.2734572093791408E+00    5.6008771265504063E+00    5.3352632620411642E+00
N   -3.2685710626242344E+00    7.4709310329394718E+00    5.9447562796196687E+00
Ga   -3.2707812130699376E+00    7.4713852172295558E+00    7.9432634838503438E+00
N   -3.2749527660155655E+00    5.6005571612126701E+00    8.5481174542506935E+00
Ga   -3.2740345060458775E+00    5.6037062322693192E+00    1.0543117165228695E+01
N   -3.2701781842965665E+00    7.4725124143271415E+00    1.1154712513096980E+01
Ga   -3.2703146561996208E+00    7.4747127694786899E+00    1.3153929576641447E+01
N   -3.2796268736956415E+00    5.6056614966211074E+00    1.3774446835351805E+01
Ga   -3.2769999059556669E+00    5.6130132229631675E+00    1.5785842120217154E+01
N   -3.2697511876764049E+00    7.5017277905995217E+00    1.6356842451127882E+01
Ga   -3.2464573942541981E+00    7.4612019171891957E+00    1.8437740752030681E+01
N   -3.2625138829130966E+00    5.5784800066152442E+00    1.8791436084754682E+01
Ga    3.2112158083716196E+00   -1.1697485569044675E-02    4.1714470331204784E-01
N    3.2089336693356105E+00    1.8577364310327142E+00    7.0218413496788490E-01
Ga    3.2376741353959613E+00    1.8737806658291194E+00    2.7316058721156700E+00
N    3.2107704483941015E+00   -1.1634866088778086E-02    3.3247645330727722E+00
Ga    3.2111375566761393E+00   -1.0832984627606887E-02    5.3347822100902365E+00
N    3.2118518003776604E+00    1.8593080913433653E+00    5.9438028920887103E+00
Ga    3.2119878963416264E+00    1.8591225327470919E+00    7.9415841352085152E+00
N    3.2104448899575577E+00   -1.1040147024514344E-02    8.5496262313882898E+00
Ga    3.2110058325217605E+00   -1.1445433369913148E-02    1.0545575793775994E+01
N    3.2151180544045399E+00    1.8623032431513320E+00    1.1146510220999335E+01
Ga    3.2195668328379750E+00    1.8576982325489593E+00    1.3138263625872153E+01
N    3.2121578589320214E+00   -3.7633603536961842E-03    1.3760966187210810E+01
Ga    3.2135952847090592E+00   -7.8794589870074781E-03    1.5769011420195476E+01
N    3.2111016894033093E+00    1.8831142902993774E+00    1.6364558747640498E+01
Ga    3.2131658776483114E+00    1.8216192205727939E+00    1.8359285426587480E+01
N    3.2181023112714531E+00   -1.0842632078433258E-02    1.8837092957884909E+01
Ga    1.5907609849244397E+00    2.7942265278134979E+00    4.1721943884840140E-01
N    1.5972596906909569E+00    4.6641338287959897E+00    7.0215476385936726E-01
Ga    1.5692814579230654E+00    4.6793384803989868E+00    2.7320249813216830E+00
N    1.5909984289947026E+00    2.7938622237391768E+00    3.3253156093849414E+00
Ga    1.5912707039521767E+00    2.7948340034903967E+00    5.3358059885238500E+00
N    1.5965998508929038E+00    4.6652905775007758E+00    5.9449376003164911E+00
Ga    1.5949636356172261E+00    4.6653234257543863E+00    7.9435056085316829E+00
N    1.5909008388858299E+00    2.7935124567483864E+00    8.5458501980975647E+00
Ga    1.5905689303471939E+00    2.7929238845122470E+00    1.0539128492020618E+01
N    1.5922826165900534E+00    4.6662792907514721E+00    1.1136277802138711E+01
Ga    1.5911687637069476E+00    4.6630478743539419E+00    1.3121484730423253E+01
N    1.5938408697638557E+00    2.7951821701269841E+00    1.3734257665337520E+01
Ga    1.5945610024096717E+00    2.7942220680612047E+00    1.5714445558272461E+01
N    1.5935401613877098E+00    4.6575396273332537E+00    1.6362540849828129E+01
Ga    1.5761900153159809E+00    4.6460778600048993E+00    1.8324919661604643E+01
N    1.5605086283260738E+00    2.7748951312972010E+00    1.8977412069708794E+01
Ga   -2.9791331593312018E-02    5.5998364091659862E+00   -4.4916691570259309E-01
N   -2.5799405930786081E-02    7.4742071313016085E+00    7.0217557947578335E-01
Ga   -2.6142376711451792E-02    7.4425264266951840E+00    2.7320494068543253E+00
N   -2.8764215973525121E-02    5.5991787554565544E+00    3.3653320464919823E+00
Ga   -2.8467427454234823E-02    5.6003088374455912E+00    5.3550797802613053E+00
N   -2.5623350849608834E-02    7.4748025997231426E+00    5.9441534174860244E+00
Ga   -2.6612482483520293E-02    7.4730801539091800E+00    7.9421507356955665E+00
N   -2.9903863014757889E-02    5.6003378895867124E+00    8.5456551263492173E+00
Ga   -3.2560597558649602E-02    5.6034031045480885E+00    1.0542103208999748E+01
N   -2.6361574097057285E-02    7.4727516385184574E+00    1.1153954043141002E+01
Ga   -2.5405263509246628E-02    7.4771469084221653E+00    1.3152425348159740E+01
N   -2.5257729818937699E-02    5.5959241113659051E+00    1.3739330864582243E+01
Ga   -3.0506540467329327E-02    5.6054599439060340E+00    1.5726370947045035E+01
N   -3.1533852527557499E-02    7.4533922193823532E+00    1.6360398049915997E+01
Ga   -2.0047917574540670E-02    7.5108380695296191E+00    1.8393214573369619E+01
N   -2.5405612714370560E-02    5.6096163784751374E+00    1.8912127843730016E+01
Ga    6.4554460425968596E+00   -1.1114427696246813E-02    4.1747691623211675E-01
N    6.4633946426956133E+00    1.8583611661480330E+00    7.0235818686762408E-01
Ga    6.4348626461877254E+00    1.8739967764914647E+00    2.7315939305729300E+00
N    6.4562749425083332E+00   -1.1608459613999565E-02    3.3249957895020361E+00
Ga    6.4567650337875913E+00   -1.0520609174041080E-02    5.3352324532953803E+00
N    6.4622710010062763E+00    1.8596482317412897E+00    5.9446189704590138E+00
Ga    6.4603708315388664E+00    1.8597669400160568E+00    7.9429547923014825E+00
N    6.4555964284995042E+00   -1.1458281984457462E-02    8.5480008091060284E+00
Ga    6.4548916105681426E+00   -1.2011528996560260E-02    1.0543266995539559E+01
N    6.4568751128756592E+00    1.8598459959334661E+00    1.1146147427688303E+01
Ga    6.4560718392273113E+00    1.8537133648076922E+00    1.3139864702365379E+01
N    6.4532447996683970E+00   -8.9475451146708400E-03    1.3764415704646824E+01
Ga    6.4503313473771788E+00   -1.1254504677394016E-02    1.5778409291211497E+01
N    6.4625957583881632E+00    1.8722424995714977E+00    1.6383616270448240E+01
Ga    6.5442963465643800E+00    1.8807335454175476E+00    1.8443442837565751E+01
N    6.4689980130258213E+00    6.2936794084644618E-03    1.8783626997881257E+01
Ga    4.8371809063645470E+00    2.7947629095447835E+00   -4.5185984319977462E-01
N    4.8398899314221566E+00    4.6695347404282188E+00    7.0320108331112952E-01
Ga    4.8396494857295416E+00    4.6375140037903755E+00    2.7323174121587788E+00
N    4.8366148067248114E+00    2.7936649871451138E+00    3.3648529434584353E+00
Ga    4.8374650260021959E+00    2.7947956468847970E+00    5.3544052933149873E+00
N    4.8400916091612611E+00    4.6694796293710805E+00    5.9435176028748229E+00
Ga    4.8390783597058258E+00    4.6681580574257238E+00    7.9413087968173812E+00
N    4.8360075328491927E+00    2.7951190584351115E+00    8.5437986288071883E+00
Ga    4.8375500881447202E+00    2.7959146087171391E+00    1.0538833948920118E+01
N    4.8415971040799084E+00    4.6667670626861897E+00    1.1149195429891074E+01
Ga    4.8456304148207225E+00    4.6666054686853631E+00    1.3142624082061026E+01
N    4.8403966641943299E+00    2.7951854159669502E+00    1.3755226272949699E+01
Ga    4.8439208436857255E+00    2.7939211362871137E+00    1.5746439251962043E+01
N    4.8245598970205474E+00    4.6564453513527324E+00    1.6359522555675721E+01
Ga    4.8672289361758958E+00    4.6747707138276917E+00    1.8347198485087382E+01
N    4.8296035949925331E+00    2.7983630576849099E+00    1.8946256237435122E+01
Ga    3.2173834407371946E+00    5.5985805538920470E+00    4.1785536167441562E-01
N    3.2155867236817990E+00    7.4689811044440884E+00    7.0159410797161337E-01
Ga    3.2437030581725388E+00    7.4846335276317326E+00    2.7322330479587102E+00
N    3.2167150865822602E+00    5.5993213104522992E+00    3.3249919951106861E+00
Ga    3.2172520875235007E+00    5.6005287575447316E+00    5.3352007332389366E+00
N    3.2178460470490706E+00    7.4706550979724256E+00    5.9446037469949182E+00
Ga    3.2182925491768031E+00    7.4705919026705949E+00    7.9431292688964241E+00
N    3.2173490120223058E+00    5.5998592085248768E+00    8.5478762024409090E+00
Ga    3.2185592127300620E+00    5.6017920787228075E+00    1.0542671674327369E+01
N    3.2169719455650112E+00    7.4711943054191865E+00    1.1151524590269721E+01
Ga    3.2131877338684030E+00    7.4724697828935023E+00    1.3149417898989837E+01
N    3.2128398812266252E+00    5.5881549135835975E+00    1.3735153241541385E+01
Ga    3.2114935482663984E+00    5.5912612946155997E+00    1.5716295933004478E+01
N    3.2181339171125534E+00    7.4396836895710923E+00    1.6313329306869722E+01
Ga    3.2127688447015363E+00    7.4976908110494014E+00    1.8325740435354401E+01
N    3.2037832744437718E+00    5.5883729723484237E+00    1.8929988423478470E+01
O    2.0609857757566341E-01    3.3667128501156398E+00    2.0888203793820374E+01
H   -1.8609774576167113E-02    5.5097411458756538E+00    1.9935253675688983E+01
C    1.3733242747067829E+00    2.6883562173166085E+00    2.0455154148108676E+01
H   -5.8827555115310670E-01    3.0694174786034707E+00    2.0286978386967210E+01
H    1.3345336953213240E+00    1.6144804378678175E+00    2.0731464029875891E+01
H    2.2245530329210861E+00    3.1424833337949254E+00    2.0991046529318321E+01
O    5.7505663002345813E+00    3.1149367289387451E+00    2.1818797666433188E+01
H    3.2061988155834724E+00    5.6112321801040634E+00    1.9956576059340851E+01
C    6.7804886390063830E+00    3.7609550964459522E+00    2.1661467929387193E+01
H    4.8410099728365426E+00    2.8219412900756802E+00    1.9978023117446718E+01
H    6.8210477837693944E+00    4.6176652954054456E+00    2.0947837813175827E+01
H    7.7072012545378001E+00    3.5251300283812119E+00    2.2222287016548762E+01
     &END COORD
     &KIND C
       BASIS_SET DZVP-MOLOPT-SR-GTH-q4
       POTENTIAL GTH-PBE-q4
       &POTENTIAL
 2 2
  0.3384712400000000E+00 2 -0.8803673979999999E+01  0.1339210850000000E+01
 2
  0.3025757500000000E+00 1  0.9622486650000001E+01
  0.2915069400000000E+00 0
         # Potential name:  GTH-PBE-Q4  for symbol:  C
         # Potential read from the potential filename: GTH_POTENTIALS
       &END POTENTIAL
     &END KIND
     &KIND O
       BASIS_SET DZVP-MOLOPT-SR-GTH-q6
       POTENTIAL GTH-PBE-q6
       &POTENTIAL
 2 4
  0.2445543000000000E+00 2 -0.1666721480000000E+02  0.2487311320000000E+01
 2
  0.2209559200000000E+00 1  0.1833745811000000E+02
  0.2113324700000000E+00 0
         # Potential name:  GTH-PBE-Q6  for symbol:  O
         # Potential read from the potential filename: GTH_POTENTIALS
       &END POTENTIAL
     &END KIND
     &KIND H
       BASIS_SET DZVP-MOLOPT-SR-GTH-q1
       POTENTIAL GTH-PBE-q1
       &POTENTIAL
 1
  0.2000000000000000E+00 2 -0.4178900440000000E+01  0.7244633100000000E+00
 0
         # Potential name:  GTH-PBE-Q1  for symbol:  H
         # Potential read from the potential filename: GTH_POTENTIALS
       &END POTENTIAL
     &END KIND
     &KIND N
       BASIS_SET DZVP-MOLOPT-SR-GTH-q5
       POTENTIAL GTH-PBE-q5
       &POTENTIAL
 2 3
  0.2837905100000000E+00 2 -0.1241522559000000E+02  0.1868095920000000E+01
 2
  0.2554050000000000E+00 1  0.1363026257000000E+02
  0.2454945300000000E+00 0
         # Potential name:  GTH-PBE-Q5  for symbol:  N
         # Potential read from the potential filename: GTH_POTENTIALS
       &END POTENTIAL
     &END KIND
     &KIND Ga
       BASIS_SET DZVP-MOLOPT-SR-GTH-q13
       POTENTIAL GTH-PBE-q13
       &POTENTIAL
 2 1 10
  0.4900000000000000E+00 0
 3
  0.4167772300000000E+00 3  0.1047568975000000E+02 -0.4921768140000000E+01  0.8707055900000000E+00
  0.7770178090000000E+01 -0.2248152160000000E+01
  0.1784415450000000E+01
  0.5696265200000000E+00 2  0.1777985340000000E+01  0.1958597600000000E+00
 -0.2317443900000000E+00
  0.2381265000000000E+00 1 -0.1624868022000000E+02
         # Potential name:  GTH-PBE-Q13  for symbol:  GA
         # Potential read from the potential filename: GTH_POTENTIALS
       &END POTENTIAL
     &END KIND
     &TOPOLOGY
       COORD_FILE_NAME ../start-first.xyz
       COORD_FILE_FORMAT  XYZ
       NUMBER_OF_ATOMS  156
       MULTIPLE_UNIT_CELL  1 1 1
     &END TOPOLOGY
     &COLVAR
       &DISTANCE
         ATOMS  32 148
       &END DISTANCE
       &PRINT
       &END PRINT
     &END COLVAR
   &END SUBSYS
 &END FORCE_EVAL
