 # Version information for this restart file 
 # current date 2019-05-28 07:04:21.160
 # current working dir /lustre03/project/6004141/rzk/GaN-carbene/334-native/08-2Methanol-Htransfer/02-NH-constraint/1.64
 # Program compiled at                              Sun Apr  7 00:48:11 EDT 2019
 # Program compiled on                          beluga2.int.ets1.calculquebec.ca
 # Program compiled for                        Beluga-Linux-x86-64-intel-openmpi
 # Source code revision number                                         svn:18619
 &GLOBAL
   PRINT_LEVEL  MEDIUM
   PROJECT_NAME TEST
   RUN_TYPE  GEO_OPT
 &END GLOBAL
 &MOTION
   &GEO_OPT
     MAX_ITER  500
     STEP_START_VAL  324
   &END GEO_OPT
   &CONSTRAINT
     &COLLECTIVE
       COLVAR  1
       INTERMOLECULAR  T
       TARGET     3.0991508579324543E+00
       &RESTRAINT
         K     1.0000000000000001E-01
       &END RESTRAINT
     &END COLLECTIVE
     &COLVAR_RESTART
           3.0991508579324543E+00
     &END COLVAR_RESTART
   &END CONSTRAINT
 &END MOTION
 &FORCE_EVAL
   METHOD  QS
   STRESS_TENSOR  ANALYTICAL
   &DFT
     BASIS_SET_FILE_NAME BASIS_MOLOPT
     POTENTIAL_FILE_NAME GTH_POTENTIALS
     &SCF
       MAX_SCF  100
       EPS_SCF     5.0000000000000004E-06
       &OT  T
         PRECONDITIONER  FULL_ALL
       &END OT
       &OUTER_SCF  T
         OPTIMIZER  NONE
         EPS_SCF     5.0000000000000004E-06
         MAX_SCF  4
       &END OUTER_SCF
       &PRINT
         &RESTART  OFF
           BACKUP_COPIES  1
           &EACH
             JUST_ENERGY  0
             QS_SCF  0
             MD  20
           &END EACH
         &END RESTART
       &END PRINT
     &END SCF
     &QS
       EPS_DEFAULT     1.0000000000000000E-14
       ALMO_SCF  F
       METHOD  GPW
     &END QS
     &MGRID
       NGRIDS  5
       CUTOFF     1.2000000000000000E+03
     &END MGRID
     &XC
       DENSITY_CUTOFF     1.0000000000000000E-10
       GRADIENT_CUTOFF     1.0000000000000000E-10
       TAU_CUTOFF     1.0000000000000000E-10
       &XC_FUNCTIONAL  NO_SHORTCUT
         &PBE  T
         &END PBE
       &END XC_FUNCTIONAL
       &VDW_POTENTIAL
         POTENTIAL_TYPE  PAIR_POTENTIAL
         &PAIR_POTENTIAL
           R_CUTOFF     1.0000000000000005E+01
           TYPE  DFTD3
           PARAMETER_FILE_NAME dftd3.dat
           REFERENCE_FUNCTIONAL PBE
           EPS_CN     9.9999999999999995E-07
           CALCULATE_C9_TERM  T
           REFERENCE_C9_TERM  T
           LONG_RANGE_CORRECTION  F
           VERBOSE_OUTPUT  F
         &END PAIR_POTENTIAL
       &END VDW_POTENTIAL
     &END XC
   &END DFT
   &SUBSYS
     &CELL
       A     9.7367653356401487E+00    0.0000000000000000E+00    0.0000000000000000E+00
       B    -4.8591341382960209E+00    8.4162672083210595E+00    0.0000000000000000E+00
       C     0.0000000000000000E+00    0.0000000000000000E+00    3.0744000000000000E+01
       MULTIPLE_UNIT_CELL  1 1 1
       &CELL_REF
         A     9.5580000000000052E+00    0.0000000000000000E+00    0.0000000000000000E+00
         B    -4.7790000000000026E+00    8.2774708093716640E+00    0.0000000000000000E+00
         C     0.0000000000000000E+00    0.0000000000000000E+00    3.0744000000000000E+01
         MULTIPLE_UNIT_CELL  1 1 1
       &END CELL_REF
     &END CELL
     &COORD
Ga   -3.4361904374284727E-02   -1.1550541701660944E-02   -4.4289715858974116E-01
N   -3.1856009995627925E-02    1.8633129837177413E+00    7.0143899160090850E-01
Ga   -3.2149720994396461E-02    1.8321425555471564E+00    2.7322294464006438E+00
N   -3.4983512073069711E-02   -1.1630195273309748E-02    3.3646593418685149E+00
Ga   -3.4475749760895021E-02   -1.0556971430665757E-02    5.3546294003595856E+00
N   -3.2168458792177647E-02    1.8635849020364736E+00    5.9449788383284341E+00
Ga   -3.3424219692872854E-02    1.8613275717817646E+00    7.9438334967587716E+00
N   -3.5571315425525309E-02   -1.1628544424950560E-02    8.5486885358662672E+00
Ga   -3.5512098353434662E-02   -1.2073438974152858E-02    1.0547608854698979E+01
N   -3.2806205008928273E-02    1.8620922207890955E+00    1.1146130554613663E+01
Ga   -3.7607934078746061E-02    1.8579823451470447E+00    1.3139873556164320E+01
N   -3.9306522978611314E-02   -1.1681236269480914E-02    1.3738337346910317E+01
Ga   -3.8253097393713589E-02   -2.4783031347686182E-02    1.5736697322936315E+01
N   -3.1276259613569266E-02    1.8683746487492805E+00    1.6287739049402894E+01
Ga   -8.9115564834380684E-02    1.8273305019334036E+00    1.8269210894294094E+01
N   -3.5955195119955152E-02   -2.5982236656422658E-02    1.8749214695407417E+01
Ga   -1.6545047412907476E+00    2.7940968294114699E+00    4.1753058762847889E-01
N   -1.6561678989549455E+00    4.6637467779089015E+00    7.0246910309212729E-01
Ga   -1.6277178053526504E+00    4.6797198608419421E+00    2.7320534453183138E+00
N   -1.6545996054677528E+00    2.7940314514303664E+00    3.3248616712578900E+00
Ga   -1.6542217640734935E+00    2.7950802299850035E+00    5.3351387153495473E+00
N   -1.6540962144791598E+00    4.6651343178438927E+00    5.9444001001341666E+00
Ga   -1.6540557191213967E+00    4.6651507290309313E+00    7.9425567870269749E+00
N   -1.6555464584759394E+00    2.7950785131458304E+00    8.5498386488836360E+00
Ga   -1.6564356495750248E+00    2.7969072907479426E+00    1.0546089331197395E+01
N   -1.6546773566175601E+00    4.6695134099973945E+00    1.1152126838046078E+01
Ga   -1.6594128053505415E+00    4.6709713299313753E+00    1.3148241516887824E+01
N   -1.6628272584766790E+00    2.7956932911886048E+00    1.3734453126980544E+01
Ga   -1.6640864725417106E+00    2.7991265295406653E+00    1.5725794749455469E+01
N   -1.6404161399007167E+00    4.6650348273636126E+00    1.6325392157205815E+01
Ga   -1.6648057930664164E+00    4.6268117497519032E+00    1.8333573784944829E+01
N   -1.5908211612157208E+00    2.8132135807493159E+00    1.8995405947283945E+01
Ga   -3.2748730145252543E+00    5.5994773244635985E+00    4.1751605890642596E-01
N   -3.2680501923346554E+00    7.4697273794626575E+00    7.0149501994771779E-01
Ga   -3.2955948503660357E+00    7.4847721529190760E+00    2.7320943586535771E+00
N   -3.2742280077470531E+00    5.5996854859001823E+00    3.3250702274731498E+00
Ga   -3.2736224751898688E+00    5.6008468974898289E+00    5.3351987943071846E+00
N   -3.2687515674148493E+00    7.4708676341643301E+00    5.9446849048834878E+00
Ga   -3.2709421093653805E+00    7.4712595396686314E+00    7.9432312402545602E+00
N   -3.2751192788214332E+00    5.6004173549957068E+00    8.5480783111597081E+00
Ga   -3.2741413692145693E+00    5.6034765542188119E+00    1.0543154949420366E+01
N   -3.2702587940194485E+00    7.4722617448774233E+00    1.1154725962380001E+01
Ga   -3.2703155145129741E+00    7.4745779628237718E+00    1.3153992643295773E+01
N   -3.2796262114292034E+00    5.6055287207324955E+00    1.3774553802195308E+01
Ga   -3.2767842264454625E+00    5.6128332269290375E+00    1.5786073155895462E+01
N   -3.2696983124479568E+00    7.5017187644872063E+00    1.6357003407067488E+01
Ga   -3.2461593909053752E+00    7.4610922287443229E+00    1.8437971082670824E+01
N   -3.2622274289538775E+00    5.5782977757801131E+00    1.8791312513375992E+01
Ga    3.2112217027616401E+00   -1.1618480098694798E-02    4.1721622307245121E-01
N    3.2089184866793841E+00    1.8578309904781969E+00    7.0220703597789058E-01
Ga    3.2375975384618667E+00    1.8738458253001402E+00    2.7316401489710560E+00
N    3.2106203623322251E+00   -1.1604378786274983E-02    3.3246668650877487E+00
Ga    3.2109837407267698E+00   -1.0869140842207570E-02    5.3347636681065191E+00
N    3.2116457456012788E+00    1.8592655778101352E+00    5.9436734904985613E+00
Ga    3.2118097489374207E+00    1.8589914238752829E+00    7.9415188141687585E+00
N    3.2102951492859182E+00   -1.1167778468589670E-02    8.5495484707436464E+00
Ga    3.2108999205966033E+00   -1.1625476255814655E-02    1.0545605435258860E+01
N    3.2150162678838092E+00    1.8621269534112459E+00    1.1146543945114132E+01
Ga    3.2195215466491947E+00    1.8575829115384765E+00    1.3138360743614701E+01
N    3.2121136262693977E+00   -3.8826490810263971E-03    1.3760867891130653E+01
Ga    3.2135987955727501E+00   -7.9836343431807892E-03    1.5769035348292144E+01
N    3.2111692976077690E+00    1.8830795516479231E+00    1.6364328418736427E+01
Ga    3.2133379749210338E+00    1.8214708808025089E+00    1.8359111496506777E+01
N    3.2184335238383643E+00   -1.0908191316428763E-02    1.8836895625601585E+01
Ga    1.5907516602180165E+00    2.7943783432421281E+00    4.1728686165417150E-01
N    1.5972385727612333E+00    4.6642341496191682E+00    7.0213778515020131E-01
Ga    1.5691480838209568E+00    4.6794053663326389E+00    2.7319732618514774E+00
N    1.5908555945651028E+00    2.7938859650592516E+00    3.3252202398917321E+00
Ga    1.5911054292816100E+00    2.7948087137549695E+00    5.3357516354271644E+00
N    1.5964404446641336E+00    4.6652318876953833E+00    5.9448702305127501E+00
Ga    1.5947756509501787E+00    4.6651592293375854E+00    7.9434559923569905E+00
N    1.5907325417687828E+00    2.7933366203077936E+00    8.5458228311401001E+00
Ga    1.5904470479257666E+00    2.7926542004794830E+00    1.0539136787120386E+01
N    1.5921379670826468E+00    4.6660507876541848E+00    1.1136234577943098E+01
Ga    1.5911509772155283E+00    4.6629729318964390E+00    1.3121484998617142E+01
N    1.5938049275261246E+00    2.7951346797336689E+00    1.3734238429957246E+01
Ga    1.5946162646478230E+00    2.7942358847171214E+00    1.5714540445395409E+01
N    1.5936597466077298E+00    4.6576265870691316E+00    1.6362593575950502E+01
Ga    1.5764071872831789E+00    4.6461383343305487E+00    1.8325104994729230E+01
N    1.5607421116072906E+00    2.7747991051911329E+00    1.8977355524353811E+01
Ga   -2.9730966528870719E-02    5.5999942130585953E+00   -4.4971840724131434E-01
N   -2.5812674811342497E-02    7.4743099337812247E+00    7.0222365564613343E-01
Ga   -2.6253227046882762E-02    7.4425259394062726E+00    2.7320074961842296E+00
N   -2.8888455342605326E-02    5.5991841645518319E+00    3.3653467715346439E+00
Ga   -2.8604071380793641E-02    5.6002875784995272E+00    5.3550764874280876E+00
N   -2.5782635934329171E-02    7.4747722954003519E+00    5.9440923777128143E+00
Ga   -2.6754591649076738E-02    7.4729728865145493E+00    7.9421563460980771E+00
N   -3.0040293355791673E-02    5.6002073202966862E+00    8.5456122169141491E+00
Ga   -3.2703397002114706E-02    5.6032144238121546E+00    1.0542159480072357E+01
N   -2.6454224026275609E-02    7.4725612554877916E+00    1.1153938782581843E+01
Ga   -2.5365530419288823E-02    7.4770999149968338E+00    1.3152483648335364E+01
N   -2.5236769362597861E-02    5.5958914232999426E+00    1.3739172184399800E+01
Ga   -3.0424283945878511E-02    5.6054966401599611E+00    1.5726288096419792E+01
N   -3.1350140889752187E-02    7.4534068471719417E+00    1.6360077630283939E+01
Ga   -1.9677148634500222E-02    7.5108976107489109E+00    1.8393048106665240E+01
N   -2.5174406313210659E-02    5.6096968491741004E+00    1.8912174986611436E+01
Ga    6.4554212648322364E+00   -1.1115590720590941E-02    4.1750767948475170E-01
N    6.4634324040537923E+00    1.8583900291958266E+00    7.0241476554721360E-01
Ga    6.4347314231940000E+00    1.8740392254734828E+00    2.7316233607792237E+00
N    6.4561828008680031E+00   -1.1598423200066710E-02    3.3248959511618423E+00
Ga    6.4565954955535085E+00   -1.0557136732669252E-02    5.3352209470186596E+00
N    6.4620949644057371E+00    1.8596137307619753E+00    5.9445154420230324E+00
Ga    6.4601905908434549E+00    1.8596475270045518E+00    7.9429232516304529E+00
N    6.4554556490651338E+00   -1.1570477818391451E-02    8.5479994454048622E+00
Ga    6.4548063870453047E+00   -1.2119015726971931E-02    1.0543359094647956E+01
N    6.4567543743067297E+00    1.8597417919370596E+00    1.1146182546713254E+01
Ga    6.4560708314118997E+00    1.8537335234760870E+00    1.3139948279840290E+01
N    6.4533146734524811E+00   -8.9793129093570061E-03    1.3764273725666420E+01
Ga    6.4505182900813027E+00   -1.1074991998407231E-02    1.5778372879568371E+01
N    6.4625998268190159E+00    1.8723014262585251E+00    1.6383687732002681E+01
Ga    6.5446505154938546E+00    1.8809287148342746E+00    1.8443532741971779E+01
N    6.4693733963419975E+00    6.3090045859946226E-03    1.8783591363786453E+01
Ga    4.8371893906943626E+00    2.7947568987263716E+00   -4.5110782361677437E-01
N    4.8398684430233763E+00    4.6695938717807222E+00    7.0316290702191520E-01
Ga    4.8395454859542992E+00    4.6375115920580754E+00    2.7322960112759147E+00
N    4.8364904319395778E+00    2.7937092859327208E+00    3.3648502614640905E+00
Ga    4.8372713719889457E+00    2.7947775037608169E+00    5.3544159579798256E+00
N    4.8399615782622272E+00    4.6694616513596197E+00    5.9434162123561753E+00
Ga    4.8389128047875989E+00    4.6680243732857667E+00    7.9412698387530298E+00
N    4.8358334011026276E+00    2.7949641331533286E+00    8.5437598525329452E+00
Ga    4.8374215282389859E+00    2.7957369424678697E+00    1.0538896360586216E+01
N    4.8414879354366223E+00    4.6665971195070215E+00    1.1149268751099768E+01
Ga    4.8455952542889138E+00    4.6665078299604179E+00    1.3142729299620898E+01
N    4.8403094832612119E+00    2.7950864026159752E+00    1.3755139407157882E+01
Ga    4.8440353101297307E+00    2.7938088709317066E+00    1.5746363475178768E+01
N    4.8246461078576930E+00    4.6563602248799763E+00    1.6359488063512870E+01
Ga    4.8674370121199209E+00    4.6746355610441706E+00    1.8347152744111156E+01
N    4.8297048288999518E+00    2.7982045659695229E+00    1.8946222337596200E+01
Ga    3.2173297373804224E+00    5.5986415570655081E+00    4.1789778917165099E-01
N    3.2156690870318281E+00    7.4690865327883449E+00    7.0143227579357370E-01
Ga    3.2436375999793796E+00    7.4846776271498952E+00    2.7321685904484445E+00
N    3.2166182847709428E+00    5.5993523875083149E+00    3.3249073696357190E+00
Ga    3.2171172397177319E+00    5.6004807857832954E+00    5.3351792099009732E+00
N    3.2176789230513378E+00    7.4706348984354163E+00    5.9445181619185403E+00
Ga    3.2181135406223618E+00    7.4704597495202627E+00    7.9430978417588562E+00
N    3.2171574846782218E+00    5.5996984740121594E+00    8.5478322183760422E+00
Ga    3.2184268301343537E+00    5.6015949691386542E+00    1.0542727008229031E+01
N    3.2168784390531959E+00    7.4710023027034334E+00    1.1151573177012912E+01
Ga    3.2132459647319842E+00    7.4723947357713927E+00    1.3149549047059493E+01
N    3.2128145164857931E+00    5.5880661010539789E+00    1.3735140803807326E+01
Ga    3.2116152741842070E+00    5.5911861859186400E+00    1.5716310541149316E+01
N    3.2183066112184919E+00    7.4397208919431801E+00    1.6313246529043330E+01
Ga    3.2130981076073017E+00    7.4976251213251501E+00    1.8325634206965127E+01
N    3.2041427791772241E+00    5.5883390638274628E+00    1.8929995867841644E+01
O    2.0666022488221603E-01    3.3668848702151815E+00    2.0888210164149172E+01
H   -1.8372253614081038E-02    5.5100834565096859E+00    1.9935341712535102E+01
C    1.3740243276671986E+00    2.6885383073382094E+00    2.0455206984031307E+01
H   -5.8771201260550054E-01    3.0691425969771253E+00    2.0287139108519845E+01
H    1.3354930501412472E+00    1.6147183019374700E+00    2.0731688128175982E+01
H    2.2252997442098934E+00    3.1429299566467135E+00    2.0990798490820723E+01
O    5.7513679892049181E+00    3.1134586300772638E+00    2.1818870600196124E+01
H    3.2066146703896399E+00    5.6110203599446686E+00    1.9956612109889498E+01
C    6.7806856864521192E+00    3.7603477326425478E+00    2.1661511131685852E+01
H    4.8409410422233323E+00    2.8215555018183993E+00    1.9978018612246693E+01
H    6.8207091863335743E+00    4.6171271253026367E+00    2.0948315783889846E+01
H    7.7077260826730214E+00    3.5246411323398856E+00    2.2221736929144715E+01
     &END COORD
     &KIND C
       BASIS_SET DZVP-MOLOPT-SR-GTH-q4
       POTENTIAL GTH-PBE-q4
       &POTENTIAL
 2 2
  0.3384712400000000E+00 2 -0.8803673979999999E+01  0.1339210850000000E+01
 2
  0.3025757500000000E+00 1  0.9622486650000001E+01
  0.2915069400000000E+00 0
         # Potential name:  GTH-PBE-Q4  for symbol:  C
         # Potential read from the potential filename: GTH_POTENTIALS
       &END POTENTIAL
     &END KIND
     &KIND O
       BASIS_SET DZVP-MOLOPT-SR-GTH-q6
       POTENTIAL GTH-PBE-q6
       &POTENTIAL
 2 4
  0.2445543000000000E+00 2 -0.1666721480000000E+02  0.2487311320000000E+01
 2
  0.2209559200000000E+00 1  0.1833745811000000E+02
  0.2113324700000000E+00 0
         # Potential name:  GTH-PBE-Q6  for symbol:  O
         # Potential read from the potential filename: GTH_POTENTIALS
       &END POTENTIAL
     &END KIND
     &KIND H
       BASIS_SET DZVP-MOLOPT-SR-GTH-q1
       POTENTIAL GTH-PBE-q1
       &POTENTIAL
 1
  0.2000000000000000E+00 2 -0.4178900440000000E+01  0.7244633100000000E+00
 0
         # Potential name:  GTH-PBE-Q1  for symbol:  H
         # Potential read from the potential filename: GTH_POTENTIALS
       &END POTENTIAL
     &END KIND
     &KIND N
       BASIS_SET DZVP-MOLOPT-SR-GTH-q5
       POTENTIAL GTH-PBE-q5
       &POTENTIAL
 2 3
  0.2837905100000000E+00 2 -0.1241522559000000E+02  0.1868095920000000E+01
 2
  0.2554050000000000E+00 1  0.1363026257000000E+02
  0.2454945300000000E+00 0
         # Potential name:  GTH-PBE-Q5  for symbol:  N
         # Potential read from the potential filename: GTH_POTENTIALS
       &END POTENTIAL
     &END KIND
     &KIND Ga
       BASIS_SET DZVP-MOLOPT-SR-GTH-q13
       POTENTIAL GTH-PBE-q13
       &POTENTIAL
 2 1 10
  0.4900000000000000E+00 0
 3
  0.4167772300000000E+00 3  0.1047568975000000E+02 -0.4921768140000000E+01  0.8707055900000000E+00
  0.7770178090000000E+01 -0.2248152160000000E+01
  0.1784415450000000E+01
  0.5696265200000000E+00 2  0.1777985340000000E+01  0.1958597600000000E+00
 -0.2317443900000000E+00
  0.2381265000000000E+00 1 -0.1624868022000000E+02
         # Potential name:  GTH-PBE-Q13  for symbol:  GA
         # Potential read from the potential filename: GTH_POTENTIALS
       &END POTENTIAL
     &END KIND
     &TOPOLOGY
       COORD_FILE_NAME ../start-first.xyz
       COORD_FILE_FORMAT  XYZ
       NUMBER_OF_ATOMS  156
       MULTIPLE_UNIT_CELL  1 1 1
     &END TOPOLOGY
     &COLVAR
       &DISTANCE
         ATOMS  32 148
       &END DISTANCE
       &PRINT
       &END PRINT
     &END COLVAR
   &END SUBSYS
 &END FORCE_EVAL
