 # Version information for this restart file 
 # current date 2019-07-12 04:50:51.970
 # current working dir /lustre04/scratch/rzk/rzk/GaN-carbene/443-adatoms-both-2x2/09-BondBreaking-CH/03-0501-CH-to-Nsur-PES
 # Program compiled at                              Sun Apr  7 00:48:11 EDT 2019
 # Program compiled on                          beluga2.int.ets1.calculquebec.ca
 # Program compiled for                        Beluga-Linux-x86-64-intel-openmpi
 # Source code revision number                                         svn:18619
 &GLOBAL
   PRINT_LEVEL  MEDIUM
   PROJECT_NAME TEST
   RUN_TYPE  GEO_OPT
 &END GLOBAL
 &MOTION
   &GEO_OPT
     MAX_ITER  500
     !STEP_START_VAL  134
   &END GEO_OPT
   &CONSTRAINT
     &COLLECTIVE
       COLVAR  1
       INTERMOLECULAR  T
       TARGET [angstrom] 1.80 !     3.9684248790598504E+00
       &RESTRAINT
         K     2.0000000000000000E+00
       &END RESTRAINT
     &END COLLECTIVE
   &END CONSTRAINT
 &END MOTION
 &FORCE_EVAL
   METHOD  QS
   STRESS_TENSOR  ANALYTICAL
   &DFT
     BASIS_SET_FILE_NAME BASIS_MOLOPT
     POTENTIAL_FILE_NAME GTH_POTENTIALS
     UKS  T
     SURFACE_DIPOLE_CORRECTION  T
     SURF_DIP_DIR  Z
     &SCF
       MAX_SCF  80
       EPS_SCF     5.0000000000000004E-06
       &OT  T
         PRECONDITIONER  FULL_ALL
       &END OT
       &OUTER_SCF  T
         OPTIMIZER  NONE
         EPS_SCF     5.0000000000000004E-06
         MAX_SCF  4
       &END OUTER_SCF
       &PRINT
         &RESTART  OFF
           BACKUP_COPIES  1
           &EACH
             JUST_ENERGY  0
             QS_SCF  0
             MD  20
           &END EACH
         &END RESTART
       &END PRINT
     &END SCF
     &QS
       EPS_DEFAULT     1.0000000000000000E-14
       METHOD  GPW
     &END QS
     &MGRID
       NGRIDS  5
       CUTOFF     1.2000000000000000E+03
     &END MGRID
     &XC
       DENSITY_CUTOFF     1.0000000000000000E-10
       GRADIENT_CUTOFF     1.0000000000000000E-10
       TAU_CUTOFF     1.0000000000000000E-10
       &XC_FUNCTIONAL  NO_SHORTCUT
         &PBE  T
         &END PBE
       &END XC_FUNCTIONAL
       &VDW_POTENTIAL
         POTENTIAL_TYPE  PAIR_POTENTIAL
         &PAIR_POTENTIAL
           R_CUTOFF     1.0000000000000009E+01
           TYPE  DFTD3
           PARAMETER_FILE_NAME dftd3.dat
           REFERENCE_FUNCTIONAL PBE
           EPS_CN     9.9999999999999995E-07
           CALCULATE_C9_TERM  T
           REFERENCE_C9_TERM  T
           LONG_RANGE_CORRECTION  F
           VERBOSE_OUTPUT  F
         &END PAIR_POTENTIAL
       &END VDW_POTENTIAL
     &END XC
   &END DFT
   &SUBSYS
     &CELL
       A     1.2864472766435110E+01    0.0000000000000000E+00    0.0000000000000000E+00
       B    -6.4322363581020028E+00    1.1140960178524477E+01    0.0000000000000000E+00
       C     0.0000000000000000E+00    0.0000000000000000E+00    3.2000000000000000E+01
       MULTIPLE_UNIT_CELL  1 1 1
       &CELL_REF
         A     1.2982353780853531E+01    0.0000000000000000E+00    0.0000000000000000E+00
         B    -6.4911768904267628E+00    1.1243048175136114E+01    0.0000000000000000E+00
         C     0.0000000000000000E+00    0.0000000000000000E+00    3.2000000000000000E+01
         MULTIPLE_UNIT_CELL  1 1 1
       &END CELL_REF
     &END CELL
     &COORD
N    6.8406427863172943E-03    2.0466927506758013E+00    2.4633548780715824E+00
Ga    2.5561066000842691E-02    8.9876825480367531E-02    2.7984606113235166E+00
N   -2.1182180440755187E-03    5.2329248017919744E-02    4.9789553645402336E+00
Ga    7.1800715988201268E-03    1.8834679555805167E+00    5.7502576309162308E+00
N    2.7774998053189501E-03    1.8936326878331200E+00    7.7564160780741300E+00
Ga    5.9629910338553872E-03    4.8057090792375204E-02    8.3978373130106583E+00
N    2.2138851569587104E-03    4.6989275712313421E-02    1.0376466060199814E+01
Ga    2.1888123034005140E-03    1.8856236911250099E+00    1.1025864936911098E+01
N    8.2415976155117529E-04    1.8652219685443414E+00    1.3027817925865643E+01
Ga    1.5157318322882821E-03    3.6081265583577223E-02    1.3819252575034605E+01
N    1.1397583590968671E-03    3.3309531802495296E-02    1.6030006404324382E+01
Ga    7.2476837832216069E-04    2.0327408887754999E+00    1.6392000179956000E+01
Ga    5.4859475913793462E-03    3.7202708651357033E+00    1.2710906582321566E+00
N   -1.4694337133235724E+00    4.6245815083822626E+00    2.4445544530951575E+00
Ga   -1.6621650291212526E+00    2.7946793195880004E+00    3.2253447173600396E+00
N   -1.6064782274905316E+00    2.8347673349665818E+00    5.2101354756309757E+00
Ga   -1.6299883767260794E+00    4.7001344786044008E+00    5.7614324119524172E+00
N   -1.6139394550364834E+00    4.6971614973085938E+00    7.7602619421627121E+00
Ga   -1.5927535133406785E+00    2.8383222413041795E+00    8.3969673211443148E+00
N   -1.5952923172443783E+00    2.8396007173707392E+00    1.0394685258960607E+01
Ga   -1.6236717162717704E+00    4.6986885596149923E+00    1.1028482287668565E+01
N   -1.6413313619402661E+00    4.7090904745586055E+00    1.3029243015966347E+01
Ga   -1.5960297255714251E+00    2.8387324600717885E+00    1.3573572442532441E+01
N   -1.6135931530167194E+00    2.8298434465901754E+00    1.5552376356279522E+01
Ga   -1.4954521933827569E+00    4.6255398879397376E+00    1.6392392313643523E+01
N    3.0538292931156902E-05    3.7596295630619143E+00    1.7515600578008115E+01
N   -3.2208455534153000E+00    7.5802387144682983E+00    2.4542635747491137E+00
Ga   -3.1777335510321754E+00    5.6063706862416653E+00    2.7998614568211249E+00
N   -3.2094562846367465E+00    5.6108651179093263E+00    4.9808810066970848E+00
Ga   -3.2286997115088050E+00    7.4403446304219854E+00    5.7432433382501591E+00
N   -3.2165053873484784E+00    7.4653733086468943E+00    7.7453412011107705E+00
Ga   -3.2139782885950074E+00    5.6202684056023147E+00    8.4014275989955927E+00
N   -3.2148603251738068E+00    5.6193805967619443E+00    1.0378002414184751E+01
Ga   -3.2170056373170275E+00    7.4591461405398674E+00    1.1027875976792354E+01
N   -3.2165027903189212E+00    7.4405737739646174E+00    1.3021255454314529E+01
Ga   -3.2250554238151721E+00    5.6245358957833682E+00    1.3820314616117534E+01
N   -3.2278449645916383E+00    5.6257014773278673E+00    1.6030261821286185E+01
Ga   -3.2183031788858720E+00    7.6839962140966849E+00    1.6459989616483472E+01
Ga   -3.2477610206083396E+00    9.3557607319723743E+00    1.2537600504176118E+00
N   -4.7312668355021188E+00    1.0194013884732421E+01    2.4617249241512211E+00
Ga   -4.9274093196310700E+00    8.3412018112853961E+00    3.1744055576322343E+00
N   -4.8332481042669349E+00    8.3938586621271245E+00    5.1674859930361912E+00
Ga   -4.8499699344220710E+00    1.0267575389392240E+01    5.7320411043487436E+00
N   -4.8327790351329813E+00    1.0261407793744977E+01    7.7416894525266970E+00
Ga   -4.8134217759762503E+00    8.4106553580923364E+00    8.3915961450773757E+00
N   -4.8120887156221768E+00    8.4095817221458784E+00    1.0386475904751732E+01
Ga   -4.8365371108349553E+00    1.0267860352394502E+01    1.1025045286131489E+01
N   -4.8536380995077746E+00    1.0276682613433772E+01    1.3019617960767601E+01
Ga   -4.8138694279109195E+00    8.4095444659980725E+00    1.3583429701233571E+01
N   -4.8410527884118695E+00    8.3937243555313756E+00    1.5541186388746556E+01
Ga   -4.6446801575779499E+00    1.0154331422010879E+01    1.6460062249028859E+01
N   -3.2088395523126563E+00    9.3362836473598474E+00    1.7605951969336026E+01
N    3.2089654132180274E+00    1.9027080717702005E+00    2.5738463670362082E+00
Ga    3.2050274000602599E+00    1.3629255363422790E-01    3.2082521312593886E+00
N    3.2169013630846335E+00    4.4250883389890694E-02    5.1931996481153977E+00
Ga    3.2072870353466536E+00    1.9011983813445745E+00    5.8212054783091434E+00
N    3.2164373532465156E+00    1.9024136723151308E+00    7.8039385591202963E+00
Ga    3.2136788647170516E+00    3.5493084454757719E-02    8.3871669431266032E+00
N    3.2170573973276877E+00    3.4029726973637639E-02    1.0386021289713700E+01
Ga    3.2170256551011098E+00    1.9023685209653325E+00    1.0983818645938820E+01
N    3.2146902401888218E+00    1.9047414931289322E+00    1.2959919955568838E+01
Ga    3.2158773820565121E+00    3.3691671366949894E-02    1.3584203450211195E+01
N    3.2099478404866550E+00    6.9823251751987739E-02    1.5543455049157849E+01
Ga    3.2178688159902982E+00    1.9030822332003323E+00    1.5822274969635934E+01
N    1.4886876646407317E+00    4.6311901250514191E+00    2.4120601925255509E+00
Ga    1.6864997184078765E+00    2.7996511374512183E+00    3.2177071053272956E+00
N    1.6123672259758319E+00    2.8408334957914603E+00    5.2009853856418138E+00
Ga    1.6573790004283007E+00    4.7083918751317393E+00    5.7603059148742837E+00
N    1.6153880706442727E+00    4.6952720306364784E+00    7.7670003283987885E+00
Ga    1.6004676064648606E+00    2.8374054598805079E+00    8.3938980119996227E+00
N    1.5984510276103412E+00    2.8386100419662585E+00    1.0393690714050512E+01
Ga    1.6261180678585363E+00    4.6977531262233061E+00    1.1027345595519677E+01
N    1.6423681843812725E+00    4.7087970787064179E+00    1.3028706912539363E+01
Ga    1.5982189725116458E+00    2.8385871618925567E+00    1.3572712261381326E+01
N    1.6146174264049979E+00    2.8300631326046464E+00    1.5551643166359066E+01
Ga    1.4956926296139024E+00    4.6249175874094766E+00    1.6392085726097740E+01
N   -8.6310672915921195E-03    7.4696342408836971E+00    2.6538617452761692E+00
Ga    1.5853084257868699E-02    5.6044860976540640E+00    3.2688549974893220E+00
N    6.9480625944586434E-03    5.6308721493386997E+00    5.2088357550397522E+00
Ga   -8.4537150005529593E-03    7.4664162572907182E+00    5.8618580342473638E+00
N   -9.9273731893542369E-04    7.4744597776218713E+00    7.8222008997411105E+00
Ga    2.5974158841911223E-03    5.6022833612891390E+00    8.4062712079459008E+00
N    5.5257590940757293E-04    5.6059300908042102E+00    1.0400036843446692E+01
Ga   -9.6137855099198623E-04    7.4759898533197271E+00    1.0989749316695780E+01
N   -1.7744117476287353E-05    7.4731570649161352E+00    1.2963513417584267E+01
Ga    9.2132570208092440E-04    5.6053559364314633E+00    1.3573541343918434E+01
N    6.3980106947051632E-04    5.6250378051640721E+00    1.5551956940142297E+01
Ga   -2.6206976020050224E-04    7.4773007776279856E+00    1.5822383561608580E+01
N   -1.7050158154640849E+00    1.0195811729544397E+01    2.4699444175610172E+00
Ga   -1.6260701941745137E+00    8.3977923281431650E+00    3.2586360542196888E+00
N   -1.5982919540025442E+00    8.3938772563317237E+00    5.2013896335970182E+00
Ga   -1.5886978494809245E+00    1.0277701503893798E+01    5.7562497989096864E+00
N   -1.5973679799148823E+00    1.0262787785665854E+01    7.7531166043867561E+00
Ga   -1.6227133514190220E+00    8.4098614293094336E+00    8.3998102095741594E+00
N   -1.6192386063781750E+00    8.4101200603748030E+00    1.0392483385796687E+01
Ga   -1.5943353253000487E+00    1.0269689221501942E+01    1.1031739766664435E+01
N   -1.5760607088405438E+00    1.0278728516901223E+01    1.3026392440275314E+01
Ga   -1.6204774868152578E+00    8.4106417914578024E+00    1.3585218527863983E+01
N   -1.5919391812973471E+00    8.3871211757711190E+00    1.5544319859541217E+01
Ga   -1.7763094573654639E+00    1.0163332572387651E+01    1.6460061401864472E+01
N    6.4411903126153245E+00    2.0197196121649066E+00    2.5164024537656666E+00
Ga    6.4115895737417965E+00    4.5946216770153946E-02    2.8442052681313710E+00
N    6.4368858968060199E+00    4.6696477867973291E-02    4.9928342510938846E+00
Ga    6.4317013186600267E+00    1.8789925408151724E+00    5.7688046484407494E+00
N    6.4341394386998534E+00    1.8916222018117488E+00    7.7641288302370599E+00
Ga    6.4298646015794354E+00    4.7144868103228113E-02    8.4092000427250504E+00
N    6.4320570569176780E+00    4.6586103025393136E-02    1.0382499572641427E+01
Ga    6.4321271582970221E+00    1.8866487010136921E+00    1.1032343764737957E+01
N    6.4328840460595060E+00    1.8668776967253717E+00    1.3027689331199673E+01
Ga    6.4318173561204341E+00    4.7267666652083720E-02    1.3841206981627389E+01
N    6.4317020364316901E+00    4.7120230024854722E-02    1.6033712292490950E+01
Ga    6.4321001237474587E+00    2.0920478979470096E+00    1.6453696565898611E+01
Ga    6.4576344968328634E+00    3.7306138468093164E+00    1.5069362704751954E+00
N    4.9460284387773790E+00    4.6066087036967360E+00    2.4867545763525092E+00
Ga    4.7078543081017319E+00    2.7691251712265723E+00    3.2665391535806014E+00
N    4.8256296280686906E+00    2.8317498351459478E+00    5.2221026652411382E+00
Ga    4.7868009489689749E+00    4.7118903431142423E+00    5.7606133341269272E+00
N    4.8204134534432068E+00    4.6932418756062786E+00    7.7665011427000188E+00
Ga    4.8324020054017547E+00    2.8367536302484422E+00    8.3963364093876560E+00
N    4.8356593757316011E+00    2.8370536308405878E+00    1.0393097528433955E+01
Ga    4.8114940620930344E+00    4.6972263652860020E+00    1.1026075026005952E+01
N    4.7951442578637797E+00    4.7075262226805759E+00    1.3021174882089978E+01
Ga    4.8360874051372624E+00    2.8398787595257549E+00    1.3582369151754261E+01
N    4.8017567864932529E+00    2.8278971647944822E+00    1.5543418631040254E+01
Ga    5.0019665105635669E+00    4.5900207209150086E+00    1.6453908999697042E+01
N    6.4320485151056825E+00    3.7509748201365887E+00    1.7594254013037016E+01
N    3.2054446682274249E+00    7.6230934683145017E+00    2.4991610586770316E+00
N    3.2218257811365758E+00    5.6226575895099664E+00    5.0204504862785377E+00
Ga    3.2244880820578636E+00    7.4214135529219627E+00    5.7716417671773828E+00
N    3.2161156646003559E+00    7.4703762446849238E+00    7.7698094548187671E+00
Ga    3.2182283643201162E+00    5.6169594688539988E+00    8.4030624712945823E+00
N    3.2175955985793778E+00    5.6188014839963296E+00    1.0381394118610771E+01
Ga    3.2182415169411045E+00    7.4583718128751597E+00    1.1029016646357439E+01
N    3.2176153216997205E+00    7.4405400199419933E+00    1.3022588404423592E+01
Ga    3.2264428319967537E+00    5.6237682887216769E+00    1.3818504142964070E+01
N    3.2284949989651297E+00    5.6248630881016473E+00    1.6030062425372822E+01
Ga    3.2188883268704083E+00    7.6807523699225886E+00    1.6457769891139748E+01
Ga    3.2354471095330379E+00    9.3660657007036487E+00    1.4874206494367301E+00
N    1.7100414827311872E+00    1.0196390559518990E+01    2.4989714209050224E+00
Ga    1.5711237611801527E+00    8.3812451117768774E+00    3.3129056757019755E+00
N    1.5956560576240197E+00    8.3977354815086453E+00    5.2315443885334325E+00
Ga    1.5825853060016493E+00    1.0281935660966251E+01    5.7796434559801604E+00
N    1.5993525631936973E+00    1.0264862777364870E+01    7.7673976586053435E+00
Ga    1.6197589288481657E+00    8.4094435648295445E+00    8.4092424682927209E+00
N    1.6181461819266816E+00    8.4106944265474990E+00    1.0399616319996573E+01
Ga    1.5927374147765303E+00    1.0270161153096081E+01    1.1035755242333561E+01
N    1.5762697274867856E+00    1.0279282967205360E+01    1.3029302830348454E+01
Ga    1.6211731588250742E+00    8.4101618190703533E+00    1.3584572791102181E+01
N    1.5925705728167299E+00    8.3865587975126399E+00    1.5544793376040261E+01
Ga    1.7735430272054675E+00    1.0164826587845836E+01    1.6457852158200026E+01
N    3.2087843880123521E+00    9.3362322781838483E+00    1.7601876213622123E+01
N    9.6660022226277089E+00    1.9133346661192130E+00    2.5817279298456350E+00
Ga    9.6621517459507853E+00    1.8136634257814005E-01    3.2679407629838870E+00
N    9.6485864112467290E+00    4.6395287494377629E-02    5.2236759620359861E+00
Ga    9.6624179104985668E+00    1.9104808938254323E+00    5.8431543832718464E+00
N    9.6514914774923408E+00    1.9041925844239014E+00    7.8170352719228866E+00
Ga    9.6518696377876054E+00    3.7177237966236003E-02    8.4033379557293433E+00
N    9.6485354789673519E+00    3.4723741114525475E-02    1.0396135325000829E+01
Ga    9.6493830649750301E+00    1.9047565108341771E+00    1.0986567402299714E+01
N    9.6511798981254326E+00    1.9056192735316535E+00    1.2961808933919901E+01
Ga    9.6500136174586970E+00    3.3691521572019954E-02    1.3584088874627357E+01
N    9.6553719095656181E+00    6.9862831027081476E-02    1.5544358129250098E+01
Ga    9.6471366676786339E+00    1.9036230159630256E+00    1.5823713687557392E+01
N    7.9415649931537162E+00    4.6244156383535655E+00    2.4991491235445853E+00
Ga    8.1624928732066593E+00    2.7734971123519228E+00    3.2752555666089420E+00
N    8.0459453376925900E+00    2.8302895452635393E+00    5.2293464878335856E+00
Ga    8.0704122781486447E+00    4.7063665915790285E+00    5.7622576305358750E+00
N    8.0520914072119307E+00    4.6955953681874885E+00    7.7599026597364160E+00
Ga    8.0323601732695131E+00    2.8384340458819084E+00    8.3999940178729791E+00
N    8.0300698728990394E+00    2.8385137250903361E+00    1.0394452541585137E+01
Ga    8.0554522502867041E+00    4.6985811295049036E+00    1.1027312673358159E+01
N    8.0714208373424405E+00    4.7079641228479447E+00    1.3021683695347129E+01
Ga    8.0290340328733016E+00    2.8401974165069968E+00    1.3583168798831879E+01
N    8.0630533466763836E+00    2.8277058919652314E+00    1.5544061043560051E+01
Ga    7.8625538815052840E+00    4.5901122900476068E+00    1.6454383368855122E+01
N    6.3939981302239142E+00    7.4529752278388983E+00    2.4940930924946523E+00
Ga    6.4317601383857559E+00    5.7317881819081444E+00    3.2602939140842415E+00
N    6.4354986441706057E+00    5.6210078032998583E+00    5.2129687343529616E+00
Ga    6.4398020417382336E+00    7.4766473895291456E+00    5.8364333755871751E+00
N    6.4335600311641024E+00    7.4746413069117565E+00    7.8085342889940303E+00
Ga    6.4337086639960344E+00    5.6058319248422306E+00    8.3990143249625344E+00
N    6.4342116269274134E+00    5.6064323084700023E+00    1.0392478676455816E+01
Ga    6.4341897780122030E+00    7.4754790449325474E+00    1.0985093990576567E+01
N    6.4331799065219011E+00    7.4752115024557595E+00    1.2956454515948574E+01
Ga    6.4328553769932979E+00    5.6067384570984995E+00    1.3581286605700091E+01
N    6.4322985963153547E+00    5.6377501584861616E+00    1.5540524199435351E+01
Ga    6.4328737395340498E+00    7.4752935403660157E+00    1.5818802345160259E+01
N    4.7256771489970797E+00    1.0205909232852187E+01    2.4952194774500156E+00
Ga    4.9324803386278315E+00    8.3478736714893937E+00    3.2688068920562228E+00
N    4.8262988362611585E+00    8.4046707057944818E+00    5.2178317870117388E+00
Ga    4.8590148033796234E+00    1.0279528052862087E+01    5.7648907765859807E+00
N    4.8352301884895974E+00    1.0266213096338831E+01    7.7609619011729984E+00
Ga    4.8170941423640370E+00    8.4104577530408164E+00    8.4003650052137200E+00
N    4.8152703922834652E+00    8.4101676328175579E+00    1.0393008607269485E+01
Ga    4.8410497977007330E+00    1.0268617317706555E+01    1.1027828416583127E+01
N    4.8559678000932909E+00    1.0277369539947648E+01    1.3021676954893618E+01
Ga    4.8152272810384851E+00    8.4094690303366288E+00    1.3582552189012672E+01
N    4.8415421507232645E+00    8.3934721878783947E+00    1.5541487327480242E+01
Ga    4.6479984306308459E+00    1.0155464076607375E+01    1.6458206290971408E+01
O    1.8840133630394279E-01    3.7121972233447926E+00   -5.4407279868267611E-01
H    6.7606683926098535E-03    7.4706302559079090E+00    1.6273291327714470E+00
C    2.4646209366720795E-01    2.4193939772520623E+00   -1.1674409648074289E+00
H    1.0420585019393966E+00    1.7832026784443169E+00   -7.4414317007691499E-01
H   -7.0789262596386426E-01    1.8742968532750262E+00   -1.0840853910952588E+00
H    4.6022809987558588E-01    2.5773776662227372E+00   -2.2350790310017379E+00
Ga    3.2030254105905436E+00    5.6020317849565089E+00    2.4881616008512437E+00
O    3.5237092856343257E+00    5.9626950148362496E+00    2.3175114208564768E-01
H    3.2383045125672294E+00    5.2417948718212397E+00   -3.5683636505100358E-01
C    4.8574858346382106E+00    6.4287254582027664E+00   -1.3618925576667512E-01
H    4.7739247341906648E+00    7.1827895168561797E+00   -9.3142484328219832E-01
H    5.3579824698695955E+00    6.8636747771524087E+00    7.6351416964391738E-01
H    5.4752307455029303E+00    5.5953760769893144E+00   -5.0577804275587845E-01
     &END COORD
     &KIND C
       BASIS_SET DZVP-MOLOPT-SR-GTH-q4
       POTENTIAL GTH-PBE-q4
       &POTENTIAL
2 2
0.3384712400000000E+00 2 -0.8803673979999999E+01  0.1339210850000000E+01
2
0.3025757500000000E+00 1  0.9622486650000001E+01
0.2915069400000000E+00 0
       &END POTENTIAL
     &END KIND
     &KIND O
       BASIS_SET DZVP-MOLOPT-SR-GTH-q6
       POTENTIAL GTH-PBE-q6
       &POTENTIAL
2 4
0.2445543000000000E+00 2 -0.1666721480000000E+02  0.2487311320000000E+01
2
0.2209559200000000E+00 1  0.1833745811000000E+02
0.2113324700000000E+00 0
       &END POTENTIAL
     &END KIND
     &KIND H
       BASIS_SET DZVP-MOLOPT-SR-GTH-q1
       POTENTIAL GTH-PBE-q1
       &POTENTIAL
1
0.2000000000000000E+00 2 -0.4178900440000000E+01  0.7244633100000000E+00
0
       &END POTENTIAL
     &END KIND
     &KIND N
       BASIS_SET DZVP-MOLOPT-SR-GTH
       POTENTIAL GTH-PBE-q5
       &POTENTIAL
2 3
0.2837905100000000E+00 2 -0.1241522559000000E+02  0.1868095920000000E+01
2
0.2554050000000000E+00 1  0.1363026257000000E+02
0.2454945300000000E+00 0
       &END POTENTIAL
     &END KIND
     &KIND Ga
       BASIS_SET DZVP-MOLOPT-SR-GTH
       POTENTIAL GTH-PBE-q13
       &POTENTIAL
2 1 10
0.4900000000000000E+00 0
3
0.4167772300000000E+00 3  0.1047568975000000E+02 -0.4921768140000000E+01  0.8707055900000000E+00
0.7770178090000000E+01 -0.2248152160000000E+01
0.1784415450000000E+01
0.5696265200000000E+00 2  0.1777985340000000E+01  0.1958597600000000E+00
-0.2317443900000000E+00
0.2381265000000000E+00 1 -0.1624868022000000E+02
       &END POTENTIAL
     &END KIND
     &TOPOLOGY
       NUMBER_OF_ATOMS  212
       MULTIPLE_UNIT_CELL  1 1 1
     &END TOPOLOGY
     &COLVAR
       &DISTANCE
         ATOMS  176 211
       &END DISTANCE
       &PRINT
       &END PRINT
     &END COLVAR
   &END SUBSYS
 &END FORCE_EVAL
