 # Version information for this restart file 
 # current date 2019-07-11 08:54:22.546
 # current working dir /lustre04/scratch/rzk/rzk/GaN-carbene/443-adatoms-both-2x2/09-BondBreaking-CH/03-0501-CH-to-Nsur-PES
 # Program compiled at                              Sun Apr  7 00:48:11 EDT 2019
 # Program compiled on                          beluga2.int.ets1.calculquebec.ca
 # Program compiled for                        Beluga-Linux-x86-64-intel-openmpi
 # Source code revision number                                         svn:18619
 &GLOBAL
   PRINT_LEVEL  MEDIUM
   PROJECT_NAME TEST
   RUN_TYPE  GEO_OPT
 &END GLOBAL
 &MOTION
   &GEO_OPT
     MAX_ITER  500
     !STEP_START_VAL  134
   &END GEO_OPT
   &CONSTRAINT
     &COLLECTIVE
       COLVAR  1
       INTERMOLECULAR  T
       TARGET [angstrom] 2.40 !     5.1022605587912366E+00
       &RESTRAINT
         K     2.0000000000000000E+00
       &END RESTRAINT
     &END COLLECTIVE
   &END CONSTRAINT
 &END MOTION
 &FORCE_EVAL
   METHOD  QS
   STRESS_TENSOR  ANALYTICAL
   &DFT
     BASIS_SET_FILE_NAME BASIS_MOLOPT
     POTENTIAL_FILE_NAME GTH_POTENTIALS
     UKS  T
     SURFACE_DIPOLE_CORRECTION  T
     SURF_DIP_DIR  Z
     &SCF
       MAX_SCF  80
       EPS_SCF     5.0000000000000004E-06
       &OT  T
         PRECONDITIONER  FULL_ALL
       &END OT
       &OUTER_SCF  T
         OPTIMIZER  NONE
         EPS_SCF     5.0000000000000004E-06
         MAX_SCF  4
       &END OUTER_SCF
       &PRINT
         &RESTART  OFF
           BACKUP_COPIES  1
           &EACH
             JUST_ENERGY  0
             QS_SCF  0
             MD  20
           &END EACH
         &END RESTART
       &END PRINT
     &END SCF
     &QS
       EPS_DEFAULT     1.0000000000000000E-14
       METHOD  GPW
     &END QS
     &MGRID
       NGRIDS  5
       CUTOFF     1.2000000000000000E+03
     &END MGRID
     &XC
       DENSITY_CUTOFF     1.0000000000000000E-10
       GRADIENT_CUTOFF     1.0000000000000000E-10
       TAU_CUTOFF     1.0000000000000000E-10
       &XC_FUNCTIONAL  NO_SHORTCUT
         &PBE  T
         &END PBE
       &END XC_FUNCTIONAL
       &VDW_POTENTIAL
         POTENTIAL_TYPE  PAIR_POTENTIAL
         &PAIR_POTENTIAL
           R_CUTOFF     1.0000000000000009E+01
           TYPE  DFTD3
           PARAMETER_FILE_NAME dftd3.dat
           REFERENCE_FUNCTIONAL PBE
           EPS_CN     9.9999999999999995E-07
           CALCULATE_C9_TERM  T
           REFERENCE_C9_TERM  T
           LONG_RANGE_CORRECTION  F
           VERBOSE_OUTPUT  F
         &END PAIR_POTENTIAL
       &END VDW_POTENTIAL
     &END XC
   &END DFT
   &SUBSYS
     &CELL
       A     1.2864472766435110E+01    0.0000000000000000E+00    0.0000000000000000E+00
       B    -6.4322363581020028E+00    1.1140960178524477E+01    0.0000000000000000E+00
       C     0.0000000000000000E+00    0.0000000000000000E+00    3.2000000000000000E+01
       MULTIPLE_UNIT_CELL  1 1 1
       &CELL_REF
         A     1.2982353780853531E+01    0.0000000000000000E+00    0.0000000000000000E+00
         B    -6.4911768904267628E+00    1.1243048175136114E+01    0.0000000000000000E+00
         C     0.0000000000000000E+00    0.0000000000000000E+00    3.2000000000000000E+01
         MULTIPLE_UNIT_CELL  1 1 1
       &END CELL_REF
     &END CELL
     &COORD
N    1.0314340765691595E-02    2.0421482359332770E+00    2.4975481082398443E+00
Ga    2.6410783668034957E-02    8.2296052456871341E-02    2.8330476517834757E+00
N   -2.3892339935292087E-03    4.9026689357469927E-02    5.0166683879436444E+00
Ga    1.2657648161077593E-04    1.8762396712631677E+00    5.7974632856110864E+00
N   -7.1724648254867587E-04    1.8889856527082327E+00    7.8003520380990192E+00
Ga    4.8525912663947932E-03    4.3051191769297052E-02    8.4390017127191541E+00
N    2.1043009110087128E-03    4.2817843030090001E-02    1.0417011782560836E+01
Ga    2.2247115964294868E-03    1.8824427834367279E+00    1.1068173495616248E+01
N    6.5877672598248802E-04    1.8633284595268238E+00    1.3064858407563134E+01
Ga    1.7269477970544586E-03    4.2622828035583732E-02    1.3866611700862597E+01
N    2.4629974240537047E-03    4.1452630067614606E-02    1.6070067178902981E+01
Ga    8.3872771958943485E-04    2.0777916873394440E+00    1.6477404137036764E+01
Ga    7.3150822385579489E-02    3.7365888941028884E+00    1.3459623460896903E+00
N   -1.4655738538196290E+00    4.6221945150677488E+00    2.4666476057266218E+00
Ga   -1.6626793316048776E+00    2.7918084746634619E+00    3.2511959877616006E+00
N   -1.6063627727361007E+00    2.8324327117105876E+00    5.2407800778324232E+00
Ga   -1.6376610878245137E+00    4.6935199237815608E+00    5.8092852356400986E+00
N   -1.6171112985214389E+00    4.6915461878279832E+00    7.8047593231542614E+00
Ga   -1.5954808604302178E+00    2.8333890626104989E+00    8.4407632498281533E+00
N   -1.5960587495878109E+00    2.8353399738642686E+00    1.0435310798256722E+01
Ga   -1.6233955233710022E+00    4.6945189941623999E+00    1.1070456684114010E+01
N   -1.6398127788138201E+00    4.7040999204059100E+00    1.3065424221624859E+01
Ga   -1.5963637258493779E+00    2.8352985025870088E+00    1.3620034988854689E+01
N   -1.6239134520615670E+00    2.8209618539475896E+00    1.5583563885723750E+01
Ga   -1.4448593371642586E+00    4.5913632789224836E+00    1.6478859887236354E+01
N    8.6345850479921053E-03    3.7507321675741041E+00    1.7610698165494824E+01
N   -3.2157411442674753E+00    7.5784527628360427E+00    2.4915172358420490E+00
Ga   -3.1815603637104379E+00    5.6044947633113695E+00    2.8294598356400944E+00
N   -3.2099550839260447E+00    5.6066905822673414E+00    5.0161151702946096E+00
Ga   -3.2277821091516543E+00    7.4364022489776405E+00    5.7811741487320774E+00
N   -3.2161678820282003E+00    7.4613506553468785E+00    7.7842967557881808E+00
Ga   -3.2161407432111577E+00    5.6169344896800286E+00    8.4429949489096217E+00
N   -3.2156168835480616E+00    5.6157167091748876E+00    1.0418839930493402E+01
Ga   -3.2173012883059084E+00    7.4542685023176904E+00    1.1070026614830896E+01
N   -3.2160254610219741E+00    7.4348035547255851E+00    1.3064636993945902E+01
Ga   -3.2153107477864356E+00    5.6147849184072074E+00    1.3866639688255859E+01
N   -3.2138297761055274E+00    5.6139375320555516E+00    1.6070623371837996E+01
Ga   -3.2157074014990101E+00    7.6559039361665695E+00    1.6482879816538766E+01
Ga   -3.2463502961019999E+00    9.3537375694896543E+00    1.2918452272949450E+00
N   -4.7272932280390707E+00    1.0192478776080387E+01    2.5011899172087877E+00
Ga   -4.9225617236149848E+00    8.3390070385835138E+00    3.2145066472518660E+00
N   -4.8312792642581863E+00    8.3914133887170053E+00    5.2077667911903864E+00
Ga   -4.8499088892468061E+00    1.0264834625540072E+01    5.7715473185211197E+00
N   -4.8330797491430122E+00    1.0258292867254880E+01    7.7815450288772228E+00
Ga   -4.8136677306358546E+00    8.4067862746456878E+00    8.4301097420184394E+00
N   -4.8118272438474268E+00    8.4056300926125047E+00    1.0427089233229610E+01
Ga   -4.8375762211954427E+00    1.0264171897875526E+01    1.1066694082360458E+01
N   -4.8548895413198352E+00    1.0273956980301282E+01    1.3062284007541137E+01
Ga   -4.8129382264906466E+00    8.4064789111160110E+00    1.3621199990167305E+01
N   -4.8406029110167061E+00    8.3904807909226289E+00    1.5582774639072742E+01
Ga   -4.6576887721750992E+00    1.0159824276758082E+01    1.6483138707288333E+01
N   -3.2084717922279453E+00    9.3238519943436255E+00    1.7618144586154425E+01
N    3.2026290180768546E+00    1.9016854813123596E+00    2.6173469775164961E+00
Ga    3.2083472001689155E+00    1.3358917395140113E-01    3.2495360498197581E+00
N    3.2180786670791530E+00    4.0951025690160923E-02    5.2341809567367230E+00
Ga    3.2115661852018733E+00    1.8943698023748818E+00    5.8703753214629799E+00
N    3.2183061818750960E+00    1.8979214423063229E+00    7.8497863589857078E+00
Ga    3.2134131233823449E+00    3.0692157916172764E-02    8.4292550145307104E+00
N    3.2165297203091798E+00    2.9529353754760523E-02    1.0427448350595530E+01
Ga    3.2169449981919325E+00    1.8988557581635475E+00    1.1023921640575084E+01
N    3.2169810023590339E+00    1.8996452095151215E+00    1.2998387021359568E+01
Ga    3.2158638099662267E+00    3.0603727876642599E-02    1.3620609333074688E+01
N    3.2149291001127724E+00    6.2101259824574699E-02    1.5582445643284883E+01
Ga    3.2166284639796032E+00    1.8996713407171788E+00    1.5861480314224067E+01
N    1.4791146994446567E+00    4.6207245927834855E+00    2.5515166032504655E+00
Ga    1.6843297105437940E+00    2.7817484975929712E+00    3.2959204473074690E+00
N    1.6107482093464727E+00    2.8295932439113485E+00    5.2664581334712626E+00
Ga    1.6537673979647609E+00    4.7048478441901000E+00    5.8035891965932560E+00
N    1.6153107506128062E+00    4.6922174225855713E+00    7.8089900743608576E+00
Ga    1.5995231792852078E+00    2.8333510484411359E+00    8.4339350692833275E+00
N    1.5986535557839632E+00    2.8342705952522871E+00    1.0432779443413414E+01
Ga    1.6248761619415948E+00    4.6930399644921881E+00    1.1069388823479688E+01
N    1.6404878097174462E+00    4.7037422683878178E+00    1.3065771167062920E+01
Ga    1.5978585167837549E+00    2.8347558400622139E+00    1.3619677339055487E+01
N    1.6249591664911343E+00    2.8194066450616648E+00    1.5584552596136271E+01
Ga    1.4530799072618503E+00    4.5949556158971356E+00    1.6477706154728729E+01
N   -7.2699901577949425E-03    7.4628902427666350E+00    2.7002942586540524E+00
Ga   -3.2117080412360716E-03    5.6056538272087559E+00    3.3387393611414073E+00
N   -2.8595763184393942E-03    5.6298561466768202E+00    5.2713087783082466E+00
Ga   -9.6021275670688331E-03    7.4681983710156858E+00    5.9088332244788955E+00
N   -8.4179613485433160E-04    7.4729990832880624E+00    7.8671607495960725E+00
Ga    1.3238322042102297E-03    5.5986112302113469E+00    8.4469437305222090E+00
N    1.3537154196447028E-04    5.6019502144949422E+00    1.0438945253253481E+01
Ga   -5.0172244799060687E-04    7.4712315239376093E+00    1.1029335376442024E+01
N    1.6507644690702854E-05    7.4710592187885414E+00    1.3001482634671863E+01
Ga    2.7402577679068538E-04    5.6008569103810464E+00    1.3620503026645210E+01
N   -6.8805395736022527E-04    5.6313517767038883E+00    1.5583926204354341E+01
Ga    3.6965152974806397E-04    7.4705730432971258E+00    1.5861662319185676E+01
N   -1.7027651202187397E+00    1.0194549413928375E+01    2.5087161339844322E+00
Ga   -1.6228465137155357E+00    8.3971983345505823E+00    3.2982439307990252E+00
N   -1.5978994047074584E+00    8.3920693696558200E+00    5.2410653665348086E+00
Ga   -1.5877948813748883E+00    1.0274882702855733E+01    5.7966837462958045E+00
N   -1.5972617853364108E+00    1.0259346795175880E+01    7.7935578435643702E+00
Ga   -1.6236863021584340E+00    8.4065249468184096E+00    8.4414938575022429E+00
N   -1.6199980594572416E+00    8.4058078810648666E+00    1.0433835783337825E+01
Ga   -1.5945655337237745E+00    1.0265539170449999E+01    1.1069746897737817E+01
N   -1.5762842184094368E+00    1.0274487442642098E+01    1.3064554122754961E+01
Ga   -1.6194572645654732E+00    8.4062981585953587E+00    1.3621893170542837E+01
N   -1.5910921799639579E+00    8.3887726529200126E+00    1.5584488747141091E+01
Ga   -1.7676962365828024E+00    1.0163219769918308E+01    1.6482350216156600E+01
N    6.4373555851706730E+00    2.0197323102464466E+00    2.5510607879186318E+00
Ga    6.4132306397775967E+00    4.4615112508014705E-02    2.8814605365462169E+00
N    6.4373090760793019E+00    4.4439604015460578E-02    5.0311197955064912E+00
Ga    6.4318826760748458E+00    1.8770651983509359E+00    5.8065845193382319E+00
N    6.4342067202142870E+00    1.8887934539885860E+00    7.8023127102076000E+00
Ga    6.4304138653108840E+00    4.4135511395782707E-02    8.4477734789111150E+00
N    6.4322500171218451E+00    4.3154225350910319E-02    1.0421400777982262E+01
Ga    6.4330239152849735E+00    1.8839480561296433E+00    1.1069535481725634E+01
N    6.4330941573216336E+00    1.8637513569981501E+00    1.3065348804908425E+01
Ga    6.4326827384197838E+00    4.2936103907187148E-02    1.3867429189109481E+01
N    6.4335869911990802E+00    4.1120738350349975E-02    1.6070136178864406E+01
Ga    6.4323613245283697E+00    2.0766814304635410E+00    1.6476285216027332E+01
Ga    6.4491755414824858E+00    3.7341561899591791E+00    1.5432255770536529E+00
N    4.9392568332574145E+00    4.6108659680116535E+00    2.5187062836117824E+00
Ga    4.7053841074815290E+00    2.7694215057635816E+00    3.3032099487140365E+00
N    4.8241158088455727E+00    2.8291993209880761E+00    5.2603949647004162E+00
Ga    4.7875627302747406E+00    4.7089716631970342E+00    5.8009604994270818E+00
N    4.8198481478408874E+00    4.6901227257529117E+00    7.8062505357279175E+00
Ga    4.8335490679825002E+00    2.8341441055014904E+00    8.4378063510193115E+00
N    4.8362994418532486E+00    2.8343587725563424E+00    1.0433968692176764E+01
Ga    4.8108056198587432E+00    4.6942218599617274E+00    1.1067859803805581E+01
N    4.7935953797060007E+00    4.7037955234190436E+00    1.3064086725589959E+01
Ga    4.8352388476663073E+00    2.8353092381281333E+00    1.3618913549100224E+01
N    4.8083635475881508E+00    2.8211566717322429E+00    1.5583108317427005E+01
Ga    4.9854683847121439E+00    4.5921359083455489E+00    1.6477047618964622E+01
N    6.4400354299468647E+00    3.7513511010342917E+00    1.7608956947418296E+01
N    3.2107536141852959E+00    7.6169161252693245E+00    2.5333242794347943E+00
N    3.2201337118133275E+00    5.6193886312430221E+00    5.0597691111201559E+00
Ga    3.2256697307746118E+00    7.4199997486670064E+00    5.8116284821547648E+00
N    3.2164138099493904E+00    7.4668577742305109E+00    7.8094425725600063E+00
Ga    3.2177978686864734E+00    5.6137038564943493E+00    8.4447078211200814E+00
N    3.2174523327252338E+00    5.6148783632813410E+00    1.0422229751687141E+01
Ga    3.2186867369461809E+00    7.4534460059115597E+00    1.1071108891128228E+01
N    3.2170131772705441E+00    7.4347894314050542E+00    1.3065939617535099E+01
Ga    3.2174632721822523E+00    5.6141395731348043E+00    1.3865540460284118E+01
N    3.2179217128372706E+00    5.6132610596056223E+00    1.6070400954360355E+01
Ga    3.2167413785060059E+00    7.6541697937487712E+00    1.6481888506984649E+01
Ga    3.2378137982346620E+00    9.3590130899977879E+00    1.5255825959501179E+00
N    1.7109665732361612E+00    1.0191903233466668E+01    2.5355286938554364E+00
Ga    1.5748208886601127E+00    8.3768034202813428E+00    3.3507687009671585E+00
N    1.5957210412683014E+00    8.3937978121044434E+00    5.2704046005464553E+00
Ga    1.5833252683999182E+00    1.0279126915396594E+01    5.8170066074343154E+00
N    1.5995972683559969E+00    1.0261545609379738E+01    7.8054740437466332E+00
Ga    1.6209142555105092E+00    8.4067644449509018E+00    8.4505111032494096E+00
N    1.6194716833338196E+00    8.4066521503098404E+00    1.0439971899169066E+01
Ga    1.5940930068086121E+00    1.0266546632574997E+01    1.1072129676900163E+01
N    1.5769431902142210E+00    1.0275052846387934E+01    1.3065677873679018E+01
Ga    1.6195696134548283E+00    8.4062756831672925E+00    1.3621456344604084E+01
N    1.5920573978239876E+00    8.3904400709196327E+00    1.5583562891354468E+01
Ga    1.7739054159870624E+00    1.0159942124015897E+01    1.6482829150528886E+01
N    3.2248819040202958E+00    9.3232677583867360E+00    1.7617883788040722E+01
N    9.6632287190474635E+00    1.9098009347916067E+00    2.6154480449523634E+00
Ga    9.6623497439231869E+00    1.7780910076817066E-01    3.3035156812098085E+00
N    9.6489266825513198E+00    4.3374722528849816E-02    5.2596995483461226E+00
Ga    9.6620939955694851E+00    1.9080712538070221E+00    5.8765585261965763E+00
N    9.6509414536905087E+00    1.9007821463545076E+00    7.8519057279049305E+00
Ga    9.6524623728567089E+00    3.4145482112990545E-02    8.4398840940907167E+00
N    9.6496049632672030E+00    3.1157534920957845E-02    1.0433634185347145E+01
Ga    9.6496553671130059E+00    1.9008548374551881E+00    1.1027034227139071E+01
N    9.6488205055185734E+00    1.9005079438359145E+00    1.3000275921752374E+01
Ga    9.6490230694429240E+00    3.0866210095935796E-02    1.3621517139369088E+01
N    9.6475512773297876E+00    6.1939055831101486E-02    1.5583724285634650E+01
Ga    9.6490106205213468E+00    1.8999911561739857E+00    1.5862303063817773E+01
N    7.9389234340314774E+00    4.6214359870949204E+00    2.5318690442976237E+00
Ga    8.1596430641023776E+00    2.7718813251798973E+00    3.3080781923897407E+00
N    8.0452783062332163E+00    2.8276557597759302E+00    5.2635351684453751E+00
Ga    8.0681282630553444E+00    4.7037520934255390E+00    5.7978401768324828E+00
N    8.0511698277974695E+00    4.6925708903633492E+00    7.7967346422699872E+00
Ga    8.0330202712513916E+00    2.8355410535236367E+00    8.4369398725681144E+00
N    8.0308404368640662E+00    2.8354939740561971E+00    1.0432667448844848E+01
Ga    8.0562175501938125E+00    4.6948640274367976E+00    1.1069085999727257E+01
N    8.0728950271647282E+00    4.7039756802669253E+00    1.3064984113223520E+01
Ga    8.0296256018575125E+00    2.8354796861934171E+00    1.3620501917258972E+01
N    8.0568313581981190E+00    2.8196794588082796E+00    1.5585481946231520E+01
Ga    7.8864910642682853E+00    4.5962329058577369E+00    1.6476959836771140E+01
N    6.4040352690676867E+00    7.4542299293694469E+00    2.5353256250595324E+00
Ga    6.4270115387143303E+00    5.7338196468504448E+00    3.2904034279940375E+00
N    6.4336781006375814E+00    5.6172539628467781E+00    5.2473772356235715E+00
Ga    6.4393724915159547E+00    7.4730783651628903E+00    5.8712156154142168E+00
N    6.4334300761852523E+00    7.4710551484335532E+00    7.8458305188541511E+00
Ga    6.4336301568216525E+00    5.6028290753549808E+00    8.4379667244588799E+00
N    6.4343904852027931E+00    5.6023892265254318E+00    1.0433204330881027E+01
Ga    6.4349672888646863E+00    7.4713408956241629E+00    1.1025603657032281E+01
N    6.4336286469077102E+00    7.4707564628841743E+00    1.2998913873026639E+01
Ga    6.4325746098185030E+00    5.6013566954394651E+00    1.3619499543165315E+01
N    6.4313606705339721E+00    5.6311001132016996E+00    1.5583510740977964E+01
Ga    6.4328621094905873E+00    7.4705756280632691E+00    1.5861870464290122E+01
N    4.7258089436430835E+00    1.0203612789365470E+01    2.5308294217025038E+00
Ga    4.9370251876534779E+00    8.3405913916878358E+00    3.2978297894755531E+00
N    4.8259026164056502E+00    8.4007486893788439E+00    5.2518070219447921E+00
Ga    4.8586441608993285E+00    1.0274254567475861E+01    5.8013143096583448E+00
N    4.8350655790005899E+00    1.0261728933603525E+01    7.7983097877530820E+00
Ga    4.8176953831576661E+00    8.4067521291187663E+00    8.4398390775902161E+00
N    4.8157814115902431E+00    8.4061502823089711E+00    1.0434242144613814E+01
Ga    4.8416621926045798E+00    1.0265486078940805E+01    1.1069361793879191E+01
N    4.8567757564805643E+00    1.0274829881987628E+01    1.3064708675843935E+01
Ga    4.8143491111715964E+00    8.4060247002200725E+00    1.3620960598464547E+01
N    4.8410995607376961E+00    8.3889132433565266E+00    1.5584405572228532E+01
Ga    4.6667719500707499E+00    1.0163976114473533E+01    1.6481889598345152E+01
O    6.4913542204702523E-01    3.8473969751289734E+00   -4.0449555218219069E-01
H    8.5349484768684949E-03    7.4497050876403410E+00    1.6739422998777465E+00
C    9.1505211799717801E-01    2.5888355758727113E+00   -1.0529767843899591E+00
H    1.6214692683998677E+00    1.9666246154178393E+00   -4.7767894066476663E-01
H   -6.0330691065267538E-03    2.0072737687098896E+00   -1.2172983812372307E+00
H    1.3599560210463220E+00    2.8082063184911981E+00   -2.0347441186808024E+00
Ga    3.1814961262616843E+00    5.5903467288411184E+00    2.5737610841699250E+00
O    3.0781730738440705E+00    5.7537124414603209E+00    3.4726004536437532E-01
H    2.5521900006827360E+00    5.0513065397884755E+00   -9.9666745552734942E-02
C    4.3266264278286588E+00    6.0620024045105714E+00   -3.1550574457356789E-01
H    4.1445928130995631E+00    6.6973092008402935E+00   -1.1932225634281026E+00
H    4.9621563656047663E+00    6.5949630495268607E+00    4.1946338597967864E-01
H    4.8475305478994501E+00    5.1459517202566252E+00   -6.3241055771245391E-01
     &END COORD
     &KIND C
       BASIS_SET DZVP-MOLOPT-SR-GTH-q4
       POTENTIAL GTH-PBE-q4
       &POTENTIAL
2 2
0.3384712400000000E+00 2 -0.8803673979999999E+01  0.1339210850000000E+01
2
0.3025757500000000E+00 1  0.9622486650000001E+01
0.2915069400000000E+00 0
       &END POTENTIAL
     &END KIND
     &KIND O
       BASIS_SET DZVP-MOLOPT-SR-GTH-q6
       POTENTIAL GTH-PBE-q6
       &POTENTIAL
2 4
0.2445543000000000E+00 2 -0.1666721480000000E+02  0.2487311320000000E+01
2
0.2209559200000000E+00 1  0.1833745811000000E+02
0.2113324700000000E+00 0
       &END POTENTIAL
     &END KIND
     &KIND H
       BASIS_SET DZVP-MOLOPT-SR-GTH-q1
       POTENTIAL GTH-PBE-q1
       &POTENTIAL
1
0.2000000000000000E+00 2 -0.4178900440000000E+01  0.7244633100000000E+00
0
       &END POTENTIAL
     &END KIND
     &KIND N
       BASIS_SET DZVP-MOLOPT-SR-GTH
       POTENTIAL GTH-PBE-q5
       &POTENTIAL
2 3
0.2837905100000000E+00 2 -0.1241522559000000E+02  0.1868095920000000E+01
2
0.2554050000000000E+00 1  0.1363026257000000E+02
0.2454945300000000E+00 0
       &END POTENTIAL
     &END KIND
     &KIND Ga
       BASIS_SET DZVP-MOLOPT-SR-GTH
       POTENTIAL GTH-PBE-q13
       &POTENTIAL
2 1 10
0.4900000000000000E+00 0
3
0.4167772300000000E+00 3  0.1047568975000000E+02 -0.4921768140000000E+01  0.8707055900000000E+00
0.7770178090000000E+01 -0.2248152160000000E+01
0.1784415450000000E+01
0.5696265200000000E+00 2  0.1777985340000000E+01  0.1958597600000000E+00
-0.2317443900000000E+00
0.2381265000000000E+00 1 -0.1624868022000000E+02
       &END POTENTIAL
     &END KIND
     &TOPOLOGY
       NUMBER_OF_ATOMS  212
       MULTIPLE_UNIT_CELL  1 1 1
     &END TOPOLOGY
     &COLVAR
       &DISTANCE
         ATOMS  176 211
       &END DISTANCE
       &PRINT
       &END PRINT
     &END COLVAR
   &END SUBSYS
 &END FORCE_EVAL
