 # Version information for this restart file 
 # current date 2019-07-10 06:33:48.404
 # current working dir /lustre04/scratch/rzk/rzk/GaN-carbene/443-adatoms-both-2x2/09-BondBreaking-CH/03-0501-CH-to-Nsur-PES
 # Program compiled at                              Sun Apr  7 00:48:11 EDT 2019
 # Program compiled on                          beluga2.int.ets1.calculquebec.ca
 # Program compiled for                        Beluga-Linux-x86-64-intel-openmpi
 # Source code revision number                                         svn:18619
 &GLOBAL
   PRINT_LEVEL  MEDIUM
   PROJECT_NAME TEST
   RUN_TYPE  GEO_OPT
 &END GLOBAL
 &MOTION
   &GEO_OPT
     MAX_ITER  500
     !STEP_START_VAL  56
   &END GEO_OPT
   &CONSTRAINT
     &COLLECTIVE
       COLVAR  1
       INTERMOLECULAR  T
       TARGET [angstrom] 3.00 !     6.2360962385226211E+00
       &RESTRAINT
         K     2.0000000000000000E+00
       &END RESTRAINT
     &END COLLECTIVE
   &END CONSTRAINT
 &END MOTION
 &FORCE_EVAL
   METHOD  QS
   STRESS_TENSOR  ANALYTICAL
   &DFT
     BASIS_SET_FILE_NAME BASIS_MOLOPT
     POTENTIAL_FILE_NAME GTH_POTENTIALS
     UKS  T
     SURFACE_DIPOLE_CORRECTION  T
     SURF_DIP_DIR  Z
     &SCF
       MAX_SCF  80
       EPS_SCF     5.0000000000000004E-06
       &OT  T
         PRECONDITIONER  FULL_ALL
       &END OT
       &OUTER_SCF  T
         OPTIMIZER  NONE
         EPS_SCF     5.0000000000000004E-06
         MAX_SCF  4
       &END OUTER_SCF
       &PRINT
         &RESTART  OFF
           BACKUP_COPIES  1
           &EACH
             JUST_ENERGY  0
             QS_SCF  0
             MD  20
           &END EACH
         &END RESTART
       &END PRINT
     &END SCF
     &QS
       EPS_DEFAULT     1.0000000000000000E-14
       METHOD  GPW
     &END QS
     &MGRID
       NGRIDS  5
       CUTOFF     1.2000000000000000E+03
     &END MGRID
     &XC
       DENSITY_CUTOFF     1.0000000000000000E-10
       GRADIENT_CUTOFF     1.0000000000000000E-10
       TAU_CUTOFF     1.0000000000000000E-10
       &XC_FUNCTIONAL  NO_SHORTCUT
         &PBE  T
         &END PBE
       &END XC_FUNCTIONAL
       &VDW_POTENTIAL
         POTENTIAL_TYPE  PAIR_POTENTIAL
         &PAIR_POTENTIAL
           R_CUTOFF     1.0000000000000007E+01
           TYPE  DFTD3
           PARAMETER_FILE_NAME dftd3.dat
           REFERENCE_FUNCTIONAL PBE
           EPS_CN     9.9999999999999995E-07
           CALCULATE_C9_TERM  T
           REFERENCE_C9_TERM  T
           LONG_RANGE_CORRECTION  F
           VERBOSE_OUTPUT  F
         &END PAIR_POTENTIAL
       &END VDW_POTENTIAL
     &END XC
   &END DFT
   &SUBSYS
     &CELL
       A     1.2864472766435110E+01    0.0000000000000000E+00    0.0000000000000000E+00
       B    -6.4322363581020028E+00    1.1140960178524477E+01    0.0000000000000000E+00
       C     0.0000000000000000E+00    0.0000000000000000E+00    3.2000000000000000E+01
       MULTIPLE_UNIT_CELL  1 1 1
       &CELL_REF
         A     1.2982353780853531E+01    0.0000000000000000E+00    0.0000000000000000E+00
         B    -6.4911768904267628E+00    1.1243048175136114E+01    0.0000000000000000E+00
         C     0.0000000000000000E+00    0.0000000000000000E+00    3.2000000000000000E+01
         MULTIPLE_UNIT_CELL  1 1 1
       &END CELL_REF
     &END CELL
     &COORD
N    7.5203400529798466E-03    2.0430347023948583E+00    2.4919219863305071E+00
Ga    2.2931001330201525E-02    7.7325118513947452E-02    2.8322228906638935E+00
N   -6.6808003338461172E-03    4.9700572451042285E-02    5.0082930758334756E+00
Ga   -4.3104483784867295E-03    1.8767585604500925E+00    5.7932987412872210E+00
N   -6.0617876850106436E-03    1.8892235582900021E+00    7.7947554273824089E+00
Ga   -7.7606816098048793E-04    4.3447250552904576E-02    8.4324262335312312E+00
N   -3.9684431528747045E-03    4.3592801120955330E-02    1.0410906899849071E+01
Ga   -3.9449528891833249E-03    1.8829850022927390E+00    1.1063246626850667E+01
N   -5.8272999290270465E-03    1.8637303976584525E+00    1.3059393625739848E+01
Ga   -4.6450190174955469E-03    4.4148864093289671E-02    1.3860548487710231E+01
N   -5.9832187705377285E-03    4.4129751146514275E-02    1.6066323789084063E+01
Ga   -6.3741004683269681E-03    2.0862873248990175E+00    1.6474849568327024E+01
Ga    7.1763566098332204E-02    3.7354452661570199E+00    1.3589881714614938E+00
N   -1.4666114129032704E+00    4.6227396471318007E+00    2.4595550986682109E+00
Ga   -1.6697493593512382E+00    2.7900316473629978E+00    3.2480666856677352E+00
N   -1.6108630871981868E+00    2.8332961166264403E+00    5.2344984612860417E+00
Ga   -1.6421355550969297E+00    4.6945282845130363E+00    5.8056897549649058E+00
N   -1.6227745795517761E+00    4.6924712942518223E+00    7.7997139171517995E+00
Ga   -1.6009050850279869E+00    2.8340610333223855E+00    8.4352768985522353E+00
N   -1.6018321406507410E+00    2.8366708224320685E+00    1.0429816442915850E+01
Ga   -1.6299066761265595E+00    4.6956130249302213E+00    1.1067028040625726E+01
N   -1.6462821421791918E+00    4.7042792243204801E+00    1.3062272496877723E+01
Ga   -1.6024851188857168E+00    2.8347123397004208E+00    1.3615751792102881E+01
N   -1.6286419878421632E+00    2.8183179163448147E+00    1.5579567262233891E+01
Ga   -1.4600932167208500E+00    4.5958660393394819E+00    1.6474501252208210E+01
N   -6.9889446115560389E-03    3.7656259112985584E+00    1.7608082773085986E+01
N   -3.2152938360421826E+00    7.5816397127753987E+00    2.4881363391979998E+00
Ga   -3.1887530578228525E+00    5.6086057482888005E+00    2.8282359150405516E+00
N   -3.2140129479008510E+00    5.6076681109721838E+00    5.0074683507420481E+00
Ga   -3.2296904480671120E+00    7.4377523096019553E+00    5.7768498361868845E+00
N   -3.2200311151381862E+00    7.4618528655191385E+00    7.7787203147488073E+00
Ga   -3.2217973131219799E+00    5.6172851298865574E+00    8.4370287235968622E+00
N   -3.2215702910289896E+00    5.6165088740427054E+00    1.0413233290089893E+01
Ga   -3.2232356927323567E+00    7.4555977072707282E+00    1.1063436558108611E+01
N   -3.2221509158057993E+00    7.4352989128328666E+00    1.3058387243958611E+01
Ga   -3.2222366218908269E+00    5.6155719754444426E+00    1.3862238488140909E+01
N   -3.2230735692056292E+00    5.6162100507718602E+00    1.6066850534969060E+01
Ga   -3.2231498677334089E+00    7.6615474636650216E+00    1.6478338811073503E+01
Ga   -3.2504536509549533E+00    9.3531119674282159E+00    1.2884516151206489E+00
N   -4.7272102319952127E+00    1.0196228274716479E+01    2.4970642619430325E+00
Ga   -4.9183807254633551E+00    8.3451160711334147E+00    3.2198367645556853E+00
N   -4.8331658272200562E+00    8.3941096875479300E+00    5.2087099854167587E+00
Ga   -4.8523111822408307E+00    1.0268130208980310E+01    5.7673161474621359E+00
N   -4.8371663876621946E+00    1.0260650828535692E+01    7.7759016723824788E+00
Ga   -4.8197466965446196E+00    8.4071731788514867E+00    8.4210928254221145E+00
N   -4.8176280616848066E+00    8.4069501380604574E+00    1.0419440604565340E+01
Ga   -4.8432808850162683E+00    1.0265123412131706E+01    1.1060711878864641E+01
N   -4.8609839187041475E+00    1.0274247808914346E+01    1.3057332301986788E+01
Ga   -4.8184430226274397E+00    8.4062294827631714E+00    1.3616528016939514E+01
N   -4.8458748892713901E+00    8.3887759117382057E+00    1.5578539190237278E+01
Ga   -4.6726132963794074E+00    1.0164455354454521E+01    1.6477057301276439E+01
N   -3.2230676146674879E+00    9.3367606562321672E+00    1.7611834777883182E+01
N    3.1968613807748154E+00    1.9079903312786262E+00    2.6042339191659098E+00
Ga    3.2076429229355936E+00    1.3996680517565929E-01    3.2422838613082128E+00
N    3.2150584676927383E+00    4.5388102246573150E-02    5.2262671357374870E+00
Ga    3.2102609708034580E+00    1.8997168412224583E+00    5.8634512997640149E+00
N    3.2144797282852444E+00    1.9004116434825340E+00    7.8431042448301493E+00
Ga    3.2093280490514648E+00    3.3219701576474976E-02    8.4235257669373098E+00
N    3.2110110097834776E+00    3.1258416031710583E-02    1.0422048816915773E+01
Ga    3.2109437287023903E+00    1.9000532930883771E+00    1.1021283127944889E+01
N    3.2103173711834270E+00    1.9000647171541682E+00    1.2995407169832289E+01
Ga    3.2102941442006241E+00    3.0524358205415991E-02    1.3615877166821621E+01
N    3.2091519114950162E+00    6.2385707538879370E-02    1.5579528006695686E+01
Ga    3.2097413720824854E+00    1.9001520979329536E+00    1.5856724577008315E+01
N    1.4742603529457674E+00    4.6239644754824267E+00    2.5489525077436097E+00
Ga    1.6856542203369209E+00    2.7871132437222088E+00    3.2990292356271120E+00
N    1.6049975373098062E+00    2.8315965071710858E+00    5.2636292877682003E+00
Ga    1.6524776178359655E+00    4.7081373926324837E+00    5.8111205377568602E+00
N    1.6051695930764853E+00    4.6904513661325540E+00    7.8166822269834793E+00
Ga    1.5940831311265298E+00    2.8330260166241064E+00    8.4323452306639322E+00
N    1.5926706356661970E+00    2.8340466711828700E+00    1.0430277833160259E+01
Ga    1.6191895125363092E+00    4.6943631439213913E+00    1.1064109287076489E+01
N    1.6343011676671315E+00    4.7042311522473277E+00    1.3061322711464248E+01
Ga    1.5910391756754600E+00    2.8351315855479378E+00    1.3615104030829510E+01
N    1.6158154128174009E+00    2.8183817135090314E+00    1.5579388597047336E+01
Ga    1.4465376693845839E+00    4.5954193342219041E+00    1.6474372228302158E+01
N   -9.7886162979841720E-03    7.4622436725975207E+00    2.6916737874378462E+00
Ga   -2.7361752713608058E-03    5.6104305263520340E+00    3.3403312955323519E+00
N   -7.8904599391414615E-03    5.6294775305510329E+00    5.2689384916858266E+00
Ga   -8.7190249959358170E-03    7.4699638069031860E+00    5.9016757613415161E+00
N   -4.1211846150451771E-03    7.4745683440682562E+00    7.8606020815056219E+00
Ga   -5.2428195729970857E-03    5.6003540042457418E+00    8.4459584973333310E+00
N   -7.2037094494476631E-03    5.6044883659927400E+00    1.0437616634219461E+01
Ga   -7.4209813559779365E-03    7.4736588367649670E+00    1.1026793651644320E+01
N   -6.6073627731466078E-03    7.4720035114910583E+00    1.2998780182377402E+01
Ga   -5.4686138524835748E-03    5.6007175458939944E+00    1.3616638227352846E+01
N   -6.4148935742200869E-03    5.6316514092115657E+00    1.5581830738620413E+01
Ga   -6.7324899711865968E-03    7.4705614136046226E+00    1.5857588103146139E+01
N   -1.7053071704442544E+00    1.0197487786162998E+01    2.5018312480231137E+00
Ga   -1.6220793402576859E+00    8.4009330814426022E+00    3.2937824566316536E+00
N   -1.5996399051488581E+00    8.3937161486520733E+00    5.2356433367105435E+00
Ga   -1.5914413334797135E+00    1.0277223627763602E+01    5.7896322580710988E+00
N   -1.6021339520653619E+00    1.0261053092354786E+01    7.7862907686845730E+00
Ga   -1.6275910368236470E+00    8.4079704041226950E+00    8.4342973720239058E+00
N   -1.6258268900410655E+00    8.4074262040646257E+00    1.0427159667204529E+01
Ga   -1.5999338595542281E+00    1.0266903557434468E+01    1.1063801130244691E+01
N   -1.5818752498737756E+00    1.0275081503303698E+01    1.3059220961844272E+01
Ga   -1.6260820764087596E+00    8.4065971243791537E+00    1.3617108431643258E+01
N   -1.5996027638497448E+00    8.3883077650618532E+00    1.5579254587785236E+01
Ga   -1.7733788814744875E+00    1.0164574203859265E+01    1.6477113194269148E+01
N    6.4316974895980943E+00    2.0241468193258214E+00    2.5403920203473578E+00
Ga    6.4115505173445877E+00    4.4904727791349665E-02    2.8771890104951647E+00
N    6.4344527562080742E+00    4.5882039345230011E-02    5.0222397239150576E+00
Ga    6.4253960640290471E+00    1.8802671296015132E+00    5.7966683454170624E+00
N    6.4284582257342002E+00    1.8898146489646468E+00    7.7929685273862406E+00
Ga    6.4265507191541440E+00    4.5503818524499445E-02    8.4392925756259771E+00
N    6.4271484112482016E+00    4.4300918262190805E-02    1.0414165098577064E+01
Ga    6.4281338000336063E+00    1.8848083535397315E+00    1.1064315440284663E+01
N    6.4276173587227463E+00    1.8641918213509927E+00    1.3059531922022794E+01
Ga    6.4262919641777572E+00    4.5063309240226966E-02    1.3862653586858857E+01
N    6.4251643315955427E+00    4.4577542388003467E-02    1.6066458514356142E+01
Ga    6.4252590853911791E+00    2.0889627894834226E+00    1.6476156356916452E+01
Ga    6.4569522801242138E+00    3.7317478873943091E+00    1.5203011576854457E+00
N    4.9277180291264431E+00    4.6203936788540689E+00    2.4547407140407049E+00
Ga    4.6975984465837044E+00    2.7854873833331206E+00    3.2851930673484953E+00
N    4.8205506722742015E+00    2.8353272450455314E+00    5.2435081391935219E+00
Ga    4.7799233314753833E+00    4.7121128349747172E+00    5.8069650867642197E+00
N    4.8201418788328665E+00    4.6880149290483653E+00    7.8126552520430126E+00
Ga    4.8299203869030425E+00    2.8341864588909336E+00    8.4371993139469268E+00
N    4.8307129804957079E+00    2.8343110978173334E+00    1.0432243376809074E+01
Ga    4.8051890242566300E+00    4.6959747384220307E+00    1.1062903308167817E+01
N    4.7878380371145326E+00    4.7043547344097689E+00    1.3060030009076158E+01
Ga    4.8299013244254034E+00    2.8351671425670371E+00    1.3614342620511426E+01
N    4.8028276107454326E+00    2.8183842632958647E+00    1.5577856607995527E+01
Ga    4.9744691011798077E+00    4.5945791936177995E+00    1.6475268922650539E+01
N    6.4252361617567972E+00    3.7658924824600399E+00    1.7610586983994377E+01
N    3.2067528463864807E+00    7.6000584667557920E+00    2.4606912610443201E+00
N    3.2153474692308595E+00    5.6198119631175842E+00    5.1188862107545861E+00
Ga    3.2216243086876530E+00    7.4171777077093015E+00    5.8187169455664653E+00
N    3.2113407609837950E+00    7.4737329150093608E+00    7.8164959974509074E+00
Ga    3.2131446691079528E+00    5.6145266821998270E+00    8.4371614517246609E+00
N    3.2117809751029247E+00    5.6159127908962692E+00    1.0418013079172134E+01
Ga    3.2133921327765340E+00    7.4541878579119727E+00    1.1065553300609430E+01
N    3.2111027029381058E+00    7.4355730427540712E+00    1.3061012245346662E+01
Ga    3.2113332110973833E+00    5.6148139007018747E+00    1.3860308888842741E+01
N    3.2098623120676004E+00    5.6155851413104223E+00    1.6066971363643177E+01
Ga    3.2097622685034848E+00    7.6595842916512158E+00    1.6476220048411520E+01
Ga    3.2364174861975039E+00    9.3695895134191467E+00    1.4971373066458287E+00
N    1.7108269788853780E+00    1.0186601897488483E+01    2.5254250461434373E+00
Ga    1.5851300486876447E+00    8.3624002650255793E+00    3.3307615763047096E+00
N    1.5968711073400623E+00    8.3918472079847284E+00    5.2524488065939501E+00
Ga    1.5802513462049470E+00    1.0275830697127848E+01    5.8062832086434542E+00
N    1.5944193152767099E+00    1.0261475665638740E+01    7.7958108050859609E+00
Ga    1.6155591164302152E+00    8.4093953246271731E+00    8.4502883621997729E+00
N    1.6126096320081402E+00    8.4088419403681680E+00    1.0438835663826113E+01
Ga    1.5885024803070580E+00    1.0268700017775885E+01    1.1068234088179107E+01
N    1.5710837910638544E+00    1.0275981059981179E+01    1.3062494914930308E+01
Ga    1.6140056637918161E+00    8.4061131009835179E+00    1.3616468412193141E+01
N    1.5865426149376827E+00    8.3883438544549236E+00    1.5579592886409609E+01
Ga    1.7580422078795623E+00    1.0165371210940590E+01    1.6475592043370160E+01
N    3.2094547896663363E+00    9.3365577749127180E+00    1.7608596923135433E+01
N    9.6584607583008228E+00    1.9082025372259370E+00    2.6076002131921068E+00
Ga    9.6580511555393898E+00    1.7434925170925253E-01    3.2957693433110076E+00
N    9.6449686293460388E+00    4.4008594053022862E-02    5.2514590874240676E+00
Ga    9.6568494978359709E+00    1.9078187964580828E+00    5.8697312232762142E+00
N    9.6457249216368677E+00    1.9015019281907195E+00    7.8445607342311003E+00
Ga    9.6477140431798869E+00    3.3968417119690578E-02    8.4312090715830372E+00
N    9.6439460148677458E+00    3.2368278423834350E-02    1.0426623373147017E+01
Ga    9.6433310386965374E+00    1.9024686801747079E+00    1.1020895329512982E+01
N    9.6426253188145274E+00    1.9009308520279293E+00    1.2994618394013340E+01
Ga    9.6434464010062673E+00    3.1659863312038510E-02    1.3617313512648444E+01
N    9.6424300035687729E+00    6.2839653526483602E-02    1.5581461902148746E+01
Ga    9.6423321271586548E+00    1.9006286228458360E+00    1.5859235787480982E+01
N    7.9330599885432145E+00    4.6213558009157394E+00    2.5232634496955333E+00
Ga    8.1545628408133712E+00    2.7720003437928837E+00    3.3008090034972453E+00
N    8.0413410501525355E+00    2.8284556370642084E+00    5.2553245125790857E+00
Ga    8.0598277175913680E+00    4.7058017944482735E+00    5.7873021653347196E+00
N    8.0462180345049799E+00    4.6947192710345593E+00    7.7873236203982659E+00
Ga    8.0271553313963739E+00    2.8373449512761395E+00    8.4282373525168435E+00
N    8.0248821672905937E+00    2.8370956387096298E+00    1.0424820339140558E+01
Ga    8.0504929518190806E+00    4.6957561988608214E+00    1.1064762832730635E+01
N    8.0669903527350648E+00    4.7040961131008885E+00    1.3060485171054138E+01
Ga    8.0238106174689570E+00    2.8353232409613902E+00    1.3616501397784942E+01
N    8.0492099232741534E+00    2.8181556299819390E+00    1.5579536024125931E+01
Ga    7.8762812102522695E+00    4.5947994740373987E+00    1.6475966349979444E+01
N    6.4146185430406018E+00    7.4615043207269460E+00    2.5468006193602735E+00
Ga    6.4104975201231849E+00    5.7335896801798212E+00    3.2722254237524413E+00
N    6.4251156968263654E+00    5.6139870053116132E+00    5.2314351702523716E+00
Ga    6.4304763305922661E+00    7.4715668245801643E+00    5.8564072380639134E+00
N    6.4273308145475507E+00    7.4716540466815173E+00    7.8343147736874297E+00
Ga    6.4303014094169209E+00    5.6049299724889847E+00    8.4350594992928247E+00
N    6.4300253473490194E+00    5.6052069116511420E+00    1.0430493727248310E+01
Ga    6.4299655060695589E+00    7.4737979801345871E+00    1.1022507634981094E+01
N    6.4275749791975896E+00    7.4720892651885498E+00    1.2995526339140547E+01
Ga    6.4270061869746469E+00    5.6015591335511417E+00    1.3615729114851696E+01
N    6.4257444706237212E+00    5.6325015223605197E+00    1.5580224067718257E+01
Ga    6.4261846928080519E+00    7.4706534184744537E+00    1.5857826332915831E+01
N    4.7198591890444925E+00    1.0199608087392400E+01    2.5210872280339700E+00
Ga    4.9240238847570748E+00    8.3269431335424606E+00    3.2763745677116600E+00
N    4.8151846389375601E+00    8.3990536281370982E+00    5.2335786164243494E+00
Ga    4.8533276658715705E+00    1.0270185734856662E+01    5.7902800612028473E+00
N    4.8311009552000748E+00    1.0261837314390451E+01    7.7885234600932396E+00
Ga    4.8142873639520438E+00    8.4086682647979423E+00    8.4370736362343930E+00
N    4.8113959680549749E+00    8.4082035017324266E+00    1.0431116100483058E+01
Ga    4.8357235613854703E+00    1.0266974897539116E+01    1.1064840936255623E+01
N    4.8504850637433297E+00    1.0275521016976450E+01    1.3060500520985515E+01
Ga    4.8080070777595196E+00    8.4062455905179281E+00    1.3615988854794209E+01
N    4.8330794443128493E+00    8.3885913236962768E+00    1.5579257435659331E+01
Ga    4.6609266241383907E+00    1.0164866001979256E+01    1.6475698619744431E+01
O    7.9653718023588616E-01    3.8810837289588416E+00   -3.6150481312241073E-01
H   -1.7634820609494996E-03    7.4455083884889914E+00    1.6655144042400578E+00
C    1.1627759875563706E+00    2.6258421376845220E+00   -9.7759244900138254E-01
H    1.8549824204921148E+00    2.0458087392483351E+00   -3.4433504710437390E-01
H    2.7671941260245742E-01    2.0084486062951057E+00   -1.1876776394999777E+00
H    1.6573160507437845E+00    2.8527109009837899E+00   -1.9329698200853478E+00
Ga    3.1686778235433710E+00    5.5822618238028783E+00    2.3712065657997141E+00
O    2.8848681015451607E+00    5.5764692471697055E+00    2.4145471697483811E-01
H    2.2029233689200662E+00    4.8953210522902042E+00   -6.9551796987249032E-02
C    4.0449353062457449E+00    5.6765774053451077E+00   -6.0892526253749568E-01
H    3.7767455034458237E+00    6.1431778339760168E+00   -1.5662486196829397E+00
H    4.7776324412937017E+00    6.3042710149620627E+00   -7.5048785790952505E-02
H    4.4907242212681666E+00    4.6874497455856083E+00   -7.9347080371377088E-01
     &END COORD
     &KIND C
       BASIS_SET DZVP-MOLOPT-SR-GTH-q4
       POTENTIAL GTH-PBE-q4
       &POTENTIAL
2 2
0.3384712400000000E+00 2 -0.8803673979999999E+01  0.1339210850000000E+01
2
0.3025757500000000E+00 1  0.9622486650000001E+01
0.2915069400000000E+00 0
       &END POTENTIAL
     &END KIND
     &KIND O
       BASIS_SET DZVP-MOLOPT-SR-GTH-q6
       POTENTIAL GTH-PBE-q6
       &POTENTIAL
2 4
0.2445543000000000E+00 2 -0.1666721480000000E+02  0.2487311320000000E+01
2
0.2209559200000000E+00 1  0.1833745811000000E+02
0.2113324700000000E+00 0
       &END POTENTIAL
     &END KIND
     &KIND H
       BASIS_SET DZVP-MOLOPT-SR-GTH-q1
       POTENTIAL GTH-PBE-q1
       &POTENTIAL
1
0.2000000000000000E+00 2 -0.4178900440000000E+01  0.7244633100000000E+00
0
       &END POTENTIAL
     &END KIND
     &KIND N
       BASIS_SET DZVP-MOLOPT-SR-GTH
       POTENTIAL GTH-PBE-q5
       &POTENTIAL
2 3
0.2837905100000000E+00 2 -0.1241522559000000E+02  0.1868095920000000E+01
2
0.2554050000000000E+00 1  0.1363026257000000E+02
0.2454945300000000E+00 0
       &END POTENTIAL
     &END KIND
     &KIND Ga
       BASIS_SET DZVP-MOLOPT-SR-GTH
       POTENTIAL GTH-PBE-q13
       &POTENTIAL
2 1 10
0.4900000000000000E+00 0
3
0.4167772300000000E+00 3  0.1047568975000000E+02 -0.4921768140000000E+01  0.8707055900000000E+00
0.7770178090000000E+01 -0.2248152160000000E+01
0.1784415450000000E+01
0.5696265200000000E+00 2  0.1777985340000000E+01  0.1958597600000000E+00
-0.2317443900000000E+00
0.2381265000000000E+00 1 -0.1624868022000000E+02
       &END POTENTIAL
     &END KIND
     &TOPOLOGY
       NUMBER_OF_ATOMS  212
       MULTIPLE_UNIT_CELL  1 1 1
     &END TOPOLOGY
     &COLVAR
       &DISTANCE
         ATOMS  176 211
       &END DISTANCE
       &PRINT
       &END PRINT
     &END COLVAR
   &END SUBSYS
 &END FORCE_EVAL
