 # Version information for this restart file 
 # current date 2019-07-10 16:59:48.760
 # current working dir /lustre04/scratch/rzk/rzk/GaN-carbene/443-adatoms-both-2x2/09-BondBreaking-CH/03-0501-CH-to-Nsur-PES
 # Program compiled at                              Sun Apr  7 00:48:11 EDT 2019
 # Program compiled on                          beluga2.int.ets1.calculquebec.ca
 # Program compiled for                        Beluga-Linux-x86-64-intel-openmpi
 # Source code revision number                                         svn:18619
 &GLOBAL
   PRINT_LEVEL  MEDIUM
   PROJECT_NAME TEST
   RUN_TYPE  GEO_OPT
 &END GLOBAL
 &MOTION
   &GEO_OPT
     MAX_ITER  500
     STEP_START_VAL  118
   &END GEO_OPT
   &CONSTRAINT
     &COLLECTIVE
       COLVAR  1
       INTERMOLECULAR  T
       TARGET     5.6691783986569284E+00
       &RESTRAINT
         K     2.0000000000000000E+00
       &END RESTRAINT
     &END COLLECTIVE
     &COLVAR_RESTART
           5.6691783986569284E+00
     &END COLVAR_RESTART
   &END CONSTRAINT
 &END MOTION
 &FORCE_EVAL
   METHOD  QS
   STRESS_TENSOR  ANALYTICAL
   &DFT
     BASIS_SET_FILE_NAME BASIS_MOLOPT
     POTENTIAL_FILE_NAME GTH_POTENTIALS
     UKS  T
     SURFACE_DIPOLE_CORRECTION  T
     SURF_DIP_DIR  Z
     &SCF
       MAX_SCF  80
       EPS_SCF     5.0000000000000004E-06
       &OT  T
         PRECONDITIONER  FULL_ALL
       &END OT
       &OUTER_SCF  T
         OPTIMIZER  NONE
         EPS_SCF     5.0000000000000004E-06
         MAX_SCF  4
       &END OUTER_SCF
       &PRINT
         &RESTART  OFF
           BACKUP_COPIES  1
           &EACH
             JUST_ENERGY  0
             QS_SCF  0
             MD  20
           &END EACH
         &END RESTART
       &END PRINT
     &END SCF
     &QS
       EPS_DEFAULT     1.0000000000000000E-14
       METHOD  GPW
     &END QS
     &MGRID
       NGRIDS  5
       CUTOFF     1.2000000000000000E+03
     &END MGRID
     &XC
       DENSITY_CUTOFF     1.0000000000000000E-10
       GRADIENT_CUTOFF     1.0000000000000000E-10
       TAU_CUTOFF     1.0000000000000000E-10
       &XC_FUNCTIONAL  NO_SHORTCUT
         &PBE  T
         &END PBE
       &END XC_FUNCTIONAL
       &VDW_POTENTIAL
         POTENTIAL_TYPE  PAIR_POTENTIAL
         &PAIR_POTENTIAL
           R_CUTOFF     1.0000000000000009E+01
           TYPE  DFTD3
           PARAMETER_FILE_NAME dftd3.dat
           REFERENCE_FUNCTIONAL PBE
           EPS_CN     9.9999999999999995E-07
           CALCULATE_C9_TERM  T
           REFERENCE_C9_TERM  T
           LONG_RANGE_CORRECTION  F
           VERBOSE_OUTPUT  F
         &END PAIR_POTENTIAL
       &END VDW_POTENTIAL
     &END XC
   &END DFT
   &SUBSYS
     &CELL
       A     1.2864472766435110E+01    0.0000000000000000E+00    0.0000000000000000E+00
       B    -6.4322363581020028E+00    1.1140960178524477E+01    0.0000000000000000E+00
       C     0.0000000000000000E+00    0.0000000000000000E+00    3.2000000000000000E+01
       MULTIPLE_UNIT_CELL  1 1 1
       &CELL_REF
         A     1.2982353780853531E+01    0.0000000000000000E+00    0.0000000000000000E+00
         B    -6.4911768904267628E+00    1.1243048175136114E+01    0.0000000000000000E+00
         C     0.0000000000000000E+00    0.0000000000000000E+00    3.2000000000000000E+01
         MULTIPLE_UNIT_CELL  1 1 1
       &END CELL_REF
     &END CELL
     &COORD
N    7.7986567877558624E-03    2.0392836262169185E+00    2.4880614932823377E+00
Ga    1.7103786148100788E-02    7.4068777268378558E-02    2.8310584064714117E+00
N   -5.7635859816637814E-03    4.7890381387992877E-02    5.0119679087167226E+00
Ga   -6.3031899268290821E-03    1.8736537474562189E+00    5.7961482686249788E+00
N   -6.0959998376668876E-03    1.8877250316503409E+00    7.7985089939118843E+00
Ga   -1.9663151992713743E-03    4.1750095165680276E-02    8.4333967792458591E+00
N   -2.6251889160260281E-03    4.1221720694763792E-02    1.0414301125941245E+01
Ga   -2.5311566147814815E-03    1.8820615547473842E+00    1.1064298836617294E+01
N   -3.1216159968012643E-03    1.8628994488310204E+00    1.3062047888222025E+01
Ga   -4.0466320778261679E-03    4.3873119363209617E-02    1.3858729277560091E+01
N   -5.0580540300634259E-03    4.3150351377894580E-02    1.6068585141802565E+01
Ga   -2.2011043411132802E-03    2.0805660806105317E+00    1.6476831287919996E+01
Ga    8.3727466455540217E-02    3.7369490905549192E+00    1.3509117556687857E+00
N   -1.4671647791241482E+00    4.6220134744872610E+00    2.4560524343380088E+00
Ga   -1.6697346557752970E+00    2.7881937149222153E+00    3.2432866679401569E+00
N   -1.6114220387111990E+00    2.8302793771534653E+00    5.2334254401839875E+00
Ga   -1.6443849098132723E+00    4.6904411464876352E+00    5.8072707691517289E+00
N   -1.6221475718735272E+00    4.6895574383744707E+00    7.8030638015376601E+00
Ga   -1.6015309558700992E+00    2.8305296948601035E+00    8.4370354346110030E+00
N   -1.6017791048574848E+00    2.8333494338346914E+00    1.0433874882342725E+01
Ga   -1.6268585617174764E+00    4.6919606518996355E+00    1.1067713432577960E+01
N   -1.6451300635629680E+00    4.7040822062064294E+00    1.3063126800307495E+01
Ga   -1.5988522135740626E+00    2.8358500682474763E+00    1.3616965192363079E+01
N   -1.6272136623278401E+00    2.8165643774811517E+00    1.5581295563466725E+01
Ga   -1.4523780962959760E+00    4.5924613353281707E+00    1.6477270873527672E+01
N   -1.2767759872319253E-02    3.7493175048341669E+00    1.7605586355806675E+01
N   -3.2183631642403894E+00    7.5768663059824544E+00    2.4848983131969118E+00
Ga   -3.1918295914238346E+00    5.6029856515249161E+00    2.8280021615069626E+00
N   -3.2133500067716825E+00    5.6059571447369292E+00    5.0107414045226903E+00
Ga   -3.2314204324323881E+00    7.4346440732933932E+00    5.7771904925986446E+00
N   -3.2212157344397965E+00    7.4585882866957638E+00    7.7821712174974573E+00
Ga   -3.2218847035233833E+00    5.6131310310564793E+00    8.4391208827187736E+00
N   -3.2202094710612199E+00    5.6145936571179114E+00    1.0417851104556913E+01
Ga   -3.2223524648270589E+00    7.4547997028083355E+00    1.1064980075489423E+01
N   -3.2200926153516733E+00    7.4309096364829061E+00    1.3061402263996067E+01
Ga   -3.2224202567027187E+00    5.6096844866143964E+00    1.3858294549866109E+01
N   -3.2171758108994264E+00    5.6111091355215654E+00    1.6069648970088274E+01
Ga   -3.2189989855550385E+00    7.6480409979678399E+00    1.6472356724676136E+01
Ga   -3.2522489032592765E+00    9.3478239226770441E+00    1.3033684452424994E+00
N   -4.7319248372506815E+00    1.0191837493262494E+01    2.4942506347614866E+00
Ga   -4.9282555707045628E+00    8.3363682258697072E+00    3.2189805797075843E+00
N   -4.8369755847466998E+00    8.3894361592886870E+00    5.2084148284177045E+00
Ga   -4.8541331356940631E+00    1.0264057451503581E+01    5.7695796163290831E+00
N   -4.8383104708668450E+00    1.0256853879267283E+01    7.7800258640310336E+00
Ga   -4.8211991114744555E+00    8.4041488802321282E+00    8.4233729590044533E+00
N   -4.8178860740021241E+00    8.4040069827311115E+00    1.0423108597966774E+01
Ga   -4.8415858368199434E+00    1.0262517934262714E+01    1.1061544439138054E+01
N   -4.8595286801685145E+00    1.0272766720741680E+01    1.3060244372253406E+01
Ga   -4.8166900781193247E+00    8.4034907259998288E+00    1.3616997800642729E+01
N   -4.8440570975332511E+00    8.3900165657293275E+00    1.5581418540179696E+01
Ga   -4.6724556583734520E+00    1.0167269493832872E+01    1.6472463611836776E+01
N   -3.2288245745857691E+00    9.3214456625272426E+00    1.7612577071461505E+01
N    3.1969354529882996E+00    1.9005564104124471E+00    2.6096581913472781E+00
Ga    3.2067694296966427E+00    1.3318714630784029E-01    3.2494560925631188E+00
N    3.2134939677181396E+00    4.1551388210405313E-02    5.2328146324912712E+00
Ga    3.2085002742534621E+00    1.8957281042428424E+00    5.8687713962244334E+00
N    3.2143605068781769E+00    1.8984450453474646E+00    7.8481485031772635E+00
Ga    3.2081876734001291E+00    3.1294018732767916E-02    8.4237394185092445E+00
N    3.2123846778027421E+00    2.9182305746601505E-02    1.0424703838816159E+01
Ga    3.2128342559248053E+00    1.8988135811032072E+00    1.1021884004122736E+01
N    3.2127925381563371E+00    1.8993371513948323E+00    1.2999265980562823E+01
Ga    3.2143868993231814E+00    2.8656165547643359E-02    1.3613960706050293E+01
N    3.2143934391528322E+00    6.1760176314426644E-02    1.5577564992515299E+01
Ga    3.2125286292553157E+00    1.8993984232933629E+00    1.5860297709839926E+01
N    1.4712219220836302E+00    4.6188709221370017E+00    2.5630707137405300E+00
Ga    1.6828419554246139E+00    2.7790471941289527E+00    3.3032369773792261E+00
N    1.6044956157729198E+00    2.8270647462428014E+00    5.2697271305708702E+00
Ga    1.6531349251519469E+00    4.7058434343509274E+00    5.8066911077696890E+00
N    1.6088906895584090E+00    4.6898719254514667E+00    7.8131859366061640E+00
Ga    1.5943663876163223E+00    2.8320530099208243E+00    8.4304590612258981E+00
N    1.5943146397033801E+00    2.8327223913382573E+00    1.0431075037060850E+01
Ga    1.6199481689642894E+00    4.6914032425067349E+00    1.1066454983811175E+01
N    1.6386841730424639E+00    4.7043059942112073E+00    1.3062365071748328E+01
Ga    1.5923355617299053E+00    2.8374105125413887E+00    1.3614344287284760E+01
N    1.6227651545487594E+00    2.8193237991433571E+00    1.5578166604899465E+01
Ga    1.4384494942338335E+00    4.5870279686350433E+00    1.6479668586458960E+01
N   -9.6836237881434018E-03    7.4616084310778970E+00    2.6948531350583660E+00
Ga   -8.7838339264343143E-03    5.6076972039589705E+00    3.3453349150698011E+00
N   -1.0024049263848200E-02    5.6272871139379212E+00    5.2759689661327531E+00
Ga   -9.1466424654081356E-03    7.4671092572460340E+00    5.9071415837850747E+00
N   -3.8964681027462674E-03    7.4707539114047181E+00    7.8657389260998345E+00
Ga   -2.9509497278392897E-03    5.5966115209919378E+00    8.4438645685689675E+00
N   -4.7577528087588096E-03    5.6014985794266137E+00    1.0437290107252547E+01
Ga   -4.6126792673281602E-03    7.4705948819002401E+00    1.1027228718466491E+01
N   -3.1750807093079546E-03    7.4696796373862782E+00    1.3002098899793554E+01
Ga   -2.1639814000707115E-03    5.5957387156873963E+00    1.3615454484969973E+01
N   -2.5283782556359122E-05    5.6317905298847046E+00    1.5579465667131640E+01
Ga   -3.0788126600095559E-03    7.4686769448873944E+00    1.5865572017184101E+01
N   -1.7058065442524719E+00    1.0193397797936191E+01    2.4971008689374754E+00
Ga   -1.6249019321838520E+00    8.3978127240249254E+00    3.2986071147095641E+00
N   -1.6002507257406460E+00    8.3894137499067902E+00    5.2401595736321189E+00
Ga   -1.5920378344106423E+00    1.0273629830579868E+01    5.7926865393929496E+00
N   -1.6014952666244544E+00    1.0258426932950963E+01    7.7917074026971669E+00
Ga   -1.6269846504291396E+00    8.4041953626399799E+00    8.4350243068029602E+00
N   -1.6240320610896593E+00    8.4050695423344148E+00    1.0429706818491823E+01
Ga   -1.5985395893071617E+00    1.0264981221310903E+01    1.1065243688596194E+01
N   -1.5776749560636187E+00    1.0274323874998302E+01    1.3061032763759501E+01
Ga   -1.6240476433009077E+00    8.4062816862349106E+00    1.3615477638740904E+01
N   -1.5930592832986776E+00    8.3906668372336917E+00    1.5579442567879999E+01
Ga   -1.7757744883503610E+00    1.0161464825546927E+01    1.6474214279814344E+01
N    6.4306350145333910E+00    2.0185450729794181E+00    2.5411033768652076E+00
Ga    6.4113597223286360E+00    4.1199126613839621E-02    2.8772274883114357E+00
N    6.4316575781961518E+00    4.1704704448479950E-02    5.0264449037729149E+00
Ga    6.4256806685915420E+00    1.8753380892433069E+00    5.7982261115765681E+00
N    6.4283308201980622E+00    1.8884285784805062E+00    7.7964269989609027E+00
Ga    6.4283254047930942E+00    4.4089391792036838E-02    8.4430053132054343E+00
N    6.4283922097692834E+00    4.1966727634005128E-02    1.0419052454328670E+01
Ga    6.4290202576474265E+00    1.8829555349222453E+00    1.1067036683415932E+01
N    6.4303144551362950E+00    1.8666081276318660E+00    1.3062667365165078E+01
Ga    6.4300152992433253E+00    4.8098708279438906E-02    1.3855527767944997E+01
N    6.4277959657248793E+00    3.8908048788974942E-02    1.6068426338980956E+01
Ga    6.4283832348512622E+00    2.0758257953343562E+00    1.6470282055519867E+01
Ga    6.4487655318958375E+00    3.7298302328699422E+00    1.5211442214038693E+00
N    4.9313677522802051E+00    4.6124731566781652E+00    2.4850319256608357E+00
Ga    4.7011959344649181E+00    2.7763537999771692E+00    3.2911246667465885E+00
N    4.8188030433173195E+00    2.8294473854803774E+00    5.2512503306279745E+00
Ga    4.7781508266696751E+00    4.7094650038799317E+00    5.8008030848467662E+00
N    4.8176350635610659E+00    4.6877893570365741E+00    7.8080398471483123E+00
Ga    4.8293007442869298E+00    2.8337459501289293E+00    8.4370819699352406E+00
N    4.8323791116622576E+00    2.8326034009020464E+00    1.0434347338661221E+01
Ga    4.8068426493329106E+00    4.6922342359294253E+00    1.1065824763698380E+01
N    4.7924694449464091E+00    4.7026093758043599E+00    1.3062251234493628E+01
Ga    4.8348359046931275E+00    2.8360804405733400E+00    1.3614441407893827E+01
N    4.8043752231232544E+00    2.8177878612961376E+00    1.5580377611770940E+01
Ga    4.9737478177942283E+00    4.5945222821607219E+00    1.6470397505045842E+01
N    6.4214110748820730E+00    3.7514687029109948E+00    1.7607009384830320E+01
N    3.2074433149132422E+00    7.6081002085904839E+00    2.4927459684688524E+00
N    3.2146691521671098E+00    5.6175526773401323E+00    5.0833919553538314E+00
Ga    3.2206307775130463E+00    7.4142205681285311E+00    5.8124118486753984E+00
N    3.2124781397295226E+00    7.4673901165707370E+00    7.8117343422931498E+00
Ga    3.2137503110007195E+00    5.6122394461283758E+00    8.4390248169896207E+00
N    3.2131429934369726E+00    5.6139152824057703E+00    1.0421428118281836E+01
Ga    3.2142586534147175E+00    7.4531707586107077E+00    1.1068034987015478E+01
N    3.2143424610879450E+00    7.4331926167666644E+00    1.3064446579026903E+01
Ga    3.2164310947336361E+00    5.6105731288983760E+00    1.3854837422250702E+01
N    3.2075468401492255E+00    5.6112611433703714E+00    1.6069716414830182E+01
Ga    3.2132502270720962E+00    7.6486934622901313E+00    1.6470569235610487E+01
Ga    3.2345156531932489E+00    9.3612055205210627E+00    1.4984171606496188E+00
N    1.7072585019156103E+00    1.0186278726274079E+01    2.5242200764670812E+00
Ga    1.5829727078685609E+00    8.3702760055128227E+00    3.3394521029174560E+00
N    1.5938037512728056E+00    8.3906463142883876E+00    5.2624370422593287E+00
Ga    1.5789757221656657E+00    1.0274990001706009E+01    5.8086930522068068E+00
N    1.5950624015747821E+00    1.0258330075121403E+01    7.7997961308658068E+00
Ga    1.6175919205626790E+00    8.4050082124038230E+00    8.4477227586326613E+00
N    1.6147506195755992E+00    8.4065560499285858E+00    1.0438888385730689E+01
Ga    1.5903697852965766E+00    1.0266250919063273E+01    1.1069570593895417E+01
N    1.5741422120087516E+00    1.0274483546080672E+01    1.3065068576229633E+01
Ga    1.6193084006274754E+00    8.4063652509726001E+00    1.3618115785651806E+01
N    1.5875159477988847E+00    8.3880713802358322E+00    1.5584258835467182E+01
Ga    1.7615568273433917E+00    1.0166076673207174E+01    1.6470903758182338E+01
N    3.2059749114982048E+00    9.3220037099444486E+00    1.7603609229592404E+01
N    9.6562478627185779E+00    1.9049009289075269E+00    2.6085397259179777E+00
Ga    9.6568342287703466E+00    1.6830797793653171E-01    3.2929033199390050E+00
N    9.6439022035539530E+00    4.1586440854451553E-02    5.2520781129605307E+00
Ga    9.6567667589706900E+00    1.9048505753162333E+00    5.8690916455661100E+00
N    9.6457938481252654E+00    1.8996377251435743E+00    7.8454037150185787E+00
Ga    9.6485367186116484E+00    3.2846389915932604E-02    8.4324595182080095E+00
N    9.6445543012755603E+00    2.9709898562162849E-02    1.0429834008474989E+01
Ga    9.6433324129579212E+00    1.8991708917973391E+00    1.1022458709992202E+01
N    9.6452866241552488E+00    1.8991033344003181E+00    1.2998719465660283E+01
Ga    9.6457846128055671E+00    2.9620307565991568E-02    1.3619208659043501E+01
N    9.6480761667248487E+00    6.2145406917955184E-02    1.5583218594209184E+01
Ga    9.6475728248418484E+00    1.8993688529647279E+00    1.5863210026707213E+01
N    7.9317850463635384E+00    4.6186371443580665E+00    2.5219683373376611E+00
Ga    8.1511097008093110E+00    2.7709563919973070E+00    3.2982148963714608E+00
N    8.0407526667857798E+00    2.8248923989300194E+00    5.2556769753284973E+00
Ga    8.0607218954119038E+00    4.7027207729839295E+00    5.7865047509368068E+00
N    8.0451588768790945E+00    4.6922287018320965E+00    7.7891238747937859E+00
Ga    8.0285510632110135E+00    2.8343121343593412E+00    8.4317097040221256E+00
N    8.0253680201741915E+00    2.8339532121797300E+00    1.0429882887595518E+01
Ga    8.0501729904875692E+00    4.6921492969757361E+00    1.1064595643740933E+01
N    8.0671252474784740E+00    4.7023869481924274E+00    1.3060459154069958E+01
Ga    8.0259071137505131E+00    2.8355084622126738E+00    1.3616037867477344E+01
N    8.0544067532326302E+00    2.8190915847631071E+00    1.5581316495813292E+01
Ga    7.8772673210305424E+00    4.5916570114795583E+00    1.6471900972867662E+01
N    6.4033349297935018E+00    7.4537754096885251E+00    2.5297282632454019E+00
Ga    6.4154942483313295E+00    5.7299065441648196E+00    3.2761493278914999E+00
N    6.4257533111371332E+00    5.6142369282470650E+00    5.2371892511548541E+00
Ga    6.4295301122714754E+00    7.4692231757409866E+00    5.8640640058754672E+00
N    6.4270433569132148E+00    7.4681358810059315E+00    7.8403805174438439E+00
Ga    6.4286971056378999E+00    5.6014783611443590E+00    8.4367195444781213E+00
N    6.4296546092606661E+00    5.6016731501114432E+00    1.0433131958729739E+01
Ga    6.4293080544152774E+00    7.4698746117565786E+00    1.1021869772811034E+01
N    6.4288604409823495E+00    7.4699119002484364E+00    1.2996797214417132E+01
Ga    6.4294710241271389E+00    5.5997455938035170E+00    1.3616187418596956E+01
N    6.4300650474800287E+00    5.6302471144052122E+00    1.5581627224901903E+01
Ga    6.4296146800449661E+00    7.4704765088339942E+00    1.5857206748784643E+01
N    4.7196395190891849E+00    1.0197412108899476E+01    2.5195920009351469E+00
Ga    4.9259820982952558E+00    8.3324475729047887E+00    3.2821111216828767E+00
N    4.8181726991253413E+00    8.3964748105610632E+00    5.2404992515444730E+00
Ga    4.8526861421692411E+00    1.0268709514172471E+01    5.7910620282640863E+00
N    4.8307579568136818E+00    1.0258157965836748E+01    7.7906463153003198E+00
Ga    4.8133251734972449E+00    8.4052025769956877E+00    8.4367292329153809E+00
N    4.8114150063876462E+00    8.4051385963325203E+00    1.0432601532986860E+01
Ga    4.8357885950618584E+00    1.0264237323587814E+01    1.1064189520787501E+01
N    4.8521455181592765E+00    1.0272708681479406E+01    1.3061792349688215E+01
Ga    4.8102423845974762E+00    8.4044690456845501E+00    1.3619479280992696E+01
N    4.8384486255888808E+00    8.3909459277228677E+00    1.5584107102892851E+01
Ga    4.6596159069284324E+00    1.0162721615712059E+01    1.6471402500259263E+01
O    8.0601005829122185E-01    3.8991935602764562E+00   -3.6065086361118331E-01
H    1.8486632590642609E-03    7.4434024084370325E+00    1.6675608512565572E+00
C    1.1294962133229911E+00    2.6471053686848820E+00   -1.0046282647729248E+00
H    1.8119293099025042E+00    2.0319543208337332E+00   -3.9242439463232931E-01
H    2.3285933908489923E-01    2.0529790209952981E+00   -1.2341670315978068E+00
H    1.6345247558477378E+00    2.8854224841285303E+00   -1.9525997248211675E+00
Ga    3.1723614104980911E+00    5.5866918403269077E+00    2.4789389502850869E+00
O    2.9458442245964203E+00    5.6462620935331040E+00    3.1868575895486961E-01
H    2.3159788299604873E+00    4.9667742183199293E+00   -5.9924032181667718E-02
C    4.1437242009816408E+00    5.8573912385132214E+00   -4.5560341368878682E-01
H    3.9197076117759950E+00    6.4223575577002041E+00   -1.3694176383056627E+00
H    4.8430713395243910E+00    6.4256164367628097E+00    1.8310159876635215E-01
H    4.6214646546059379E+00    4.9043086406091358E+00   -7.2676745054472836E-01
     &END COORD
     &KIND C
       BASIS_SET DZVP-MOLOPT-SR-GTH-q4
       POTENTIAL GTH-PBE-q4
       &POTENTIAL
2 2
0.3384712400000000E+00 2 -0.8803673979999999E+01  0.1339210850000000E+01
2
0.3025757500000000E+00 1  0.9622486650000001E+01
0.2915069400000000E+00 0
       &END POTENTIAL
     &END KIND
     &KIND O
       BASIS_SET DZVP-MOLOPT-SR-GTH-q6
       POTENTIAL GTH-PBE-q6
       &POTENTIAL
2 4
0.2445543000000000E+00 2 -0.1666721480000000E+02  0.2487311320000000E+01
2
0.2209559200000000E+00 1  0.1833745811000000E+02
0.2113324700000000E+00 0
       &END POTENTIAL
     &END KIND
     &KIND H
       BASIS_SET DZVP-MOLOPT-SR-GTH-q1
       POTENTIAL GTH-PBE-q1
       &POTENTIAL
1
0.2000000000000000E+00 2 -0.4178900440000000E+01  0.7244633100000000E+00
0
       &END POTENTIAL
     &END KIND
     &KIND N
       BASIS_SET DZVP-MOLOPT-SR-GTH
       POTENTIAL GTH-PBE-q5
       &POTENTIAL
2 3
0.2837905100000000E+00 2 -0.1241522559000000E+02  0.1868095920000000E+01
2
0.2554050000000000E+00 1  0.1363026257000000E+02
0.2454945300000000E+00 0
       &END POTENTIAL
     &END KIND
     &KIND Ga
       BASIS_SET DZVP-MOLOPT-SR-GTH
       POTENTIAL GTH-PBE-q13
       &POTENTIAL
2 1 10
0.4900000000000000E+00 0
3
0.4167772300000000E+00 3  0.1047568975000000E+02 -0.4921768140000000E+01  0.8707055900000000E+00
0.7770178090000000E+01 -0.2248152160000000E+01
0.1784415450000000E+01
0.5696265200000000E+00 2  0.1777985340000000E+01  0.1958597600000000E+00
-0.2317443900000000E+00
0.2381265000000000E+00 1 -0.1624868022000000E+02
       &END POTENTIAL
     &END KIND
     &TOPOLOGY
       NUMBER_OF_ATOMS  212
       MULTIPLE_UNIT_CELL  1 1 1
     &END TOPOLOGY
     &COLVAR
       &DISTANCE
         ATOMS  176 211
       &END DISTANCE
       &PRINT
       &END PRINT
     &END COLVAR
   &END SUBSYS
 &END FORCE_EVAL
