 # Version information for this restart file 
 # current date 2019-07-11 13:02:00.018
 # current working dir /lustre04/scratch/rzk/rzk/GaN-carbene/443-adatoms-both-2x2/09-BondBreaking-CH/03-0501-CH-to-Nsur-PES
 # Program compiled at                              Sun Apr  7 00:48:11 EDT 2019
 # Program compiled on                          beluga2.int.ets1.calculquebec.ca
 # Program compiled for                        Beluga-Linux-x86-64-intel-openmpi
 # Source code revision number                                         svn:18619
 &GLOBAL
   PRINT_LEVEL  MEDIUM
   PROJECT_NAME TEST
   RUN_TYPE  GEO_OPT
 &END GLOBAL
 &MOTION
   &GEO_OPT
     MAX_ITER  500
     STEP_START_VAL  45
   &END GEO_OPT
   &CONSTRAINT
     &COLLECTIVE
       COLVAR  1
       INTERMOLECULAR  T
       TARGET     4.5353427189255431E+00
       &RESTRAINT
         K     2.0000000000000000E+00
       &END RESTRAINT
     &END COLLECTIVE
     &COLVAR_RESTART
           4.5353427189255431E+00
     &END COLVAR_RESTART
   &END CONSTRAINT
 &END MOTION
 &FORCE_EVAL
   METHOD  QS
   STRESS_TENSOR  ANALYTICAL
   &DFT
     BASIS_SET_FILE_NAME BASIS_MOLOPT
     POTENTIAL_FILE_NAME GTH_POTENTIALS
     UKS  T
     SURFACE_DIPOLE_CORRECTION  T
     SURF_DIP_DIR  Z
     &SCF
       MAX_SCF  80
       EPS_SCF     5.0000000000000004E-06
       &OT  T
         PRECONDITIONER  FULL_ALL
       &END OT
       &OUTER_SCF  T
         OPTIMIZER  NONE
         EPS_SCF     5.0000000000000004E-06
         MAX_SCF  4
       &END OUTER_SCF
       &PRINT
         &RESTART  OFF
           BACKUP_COPIES  1
           &EACH
             JUST_ENERGY  0
             QS_SCF  0
             MD  20
           &END EACH
         &END RESTART
       &END PRINT
     &END SCF
     &QS
       EPS_DEFAULT     1.0000000000000000E-14
       METHOD  GPW
     &END QS
     &MGRID
       NGRIDS  5
       CUTOFF     1.2000000000000000E+03
     &END MGRID
     &XC
       DENSITY_CUTOFF     1.0000000000000000E-10
       GRADIENT_CUTOFF     1.0000000000000000E-10
       TAU_CUTOFF     1.0000000000000000E-10
       &XC_FUNCTIONAL  NO_SHORTCUT
         &PBE  T
         &END PBE
       &END XC_FUNCTIONAL
       &VDW_POTENTIAL
         POTENTIAL_TYPE  PAIR_POTENTIAL
         &PAIR_POTENTIAL
           R_CUTOFF     1.0000000000000009E+01
           TYPE  DFTD3
           PARAMETER_FILE_NAME dftd3.dat
           REFERENCE_FUNCTIONAL PBE
           EPS_CN     9.9999999999999995E-07
           CALCULATE_C9_TERM  T
           REFERENCE_C9_TERM  T
           LONG_RANGE_CORRECTION  F
           VERBOSE_OUTPUT  F
         &END PAIR_POTENTIAL
       &END VDW_POTENTIAL
     &END XC
   &END DFT
   &SUBSYS
     &CELL
       A     1.2864472766435110E+01    0.0000000000000000E+00    0.0000000000000000E+00
       B    -6.4322363581020028E+00    1.1140960178524477E+01    0.0000000000000000E+00
       C     0.0000000000000000E+00    0.0000000000000000E+00    3.2000000000000000E+01
       MULTIPLE_UNIT_CELL  1 1 1
       &CELL_REF
         A     1.2982353780853531E+01    0.0000000000000000E+00    0.0000000000000000E+00
         B    -6.4911768904267628E+00    1.1243048175136114E+01    0.0000000000000000E+00
         C     0.0000000000000000E+00    0.0000000000000000E+00    3.2000000000000000E+01
         MULTIPLE_UNIT_CELL  1 1 1
       &END CELL_REF
     &END CELL
     &COORD
N    5.6082091938702014E-03    2.0439786273125584E+00    2.4905343302446408E+00
Ga    1.3598764817806735E-02    9.1376521132046404E-02    2.8354792083842240E+00
N   -2.9557725281782942E-03    4.7176266797306035E-02    5.0064353063107880E+00
Ga    1.3187869510622051E-03    1.8787180339403629E+00    5.7895807841589058E+00
N   -1.4710415361827763E-03    1.8881586180315799E+00    7.7888876976944923E+00
Ga    1.5008636746372120E-03    4.3755136007040757E-02    8.4394254745641337E+00
N   -1.4298499609377590E-03    4.1452020551633710E-02    1.0411604795246683E+01
Ga   -1.2503315828974976E-03    1.8805449786938746E+00    1.1069736123035673E+01
N   -3.3157004001144329E-03    1.8613176113369134E+00    1.3059869859614134E+01
Ga   -3.3815580320093468E-03    4.0965567802435952E-02    1.3873954095180899E+01
N   -3.4169864746401565E-03    4.0301185989675449E-02    1.6064823489484809E+01
Ga   -4.3291613908886441E-03    2.0815909919193070E+00    1.6478658912663573E+01
Ga    2.6451377859450960E-02    3.7291909929363216E+00    1.3149159336330807E+00
N   -1.4700205966754072E+00    4.6228111627985475E+00    2.4653402442199219E+00
Ga   -1.6666608991358269E+00    2.7903133554020116E+00    3.2518331872574566E+00
N   -1.6091257848003830E+00    2.8317987778637592E+00    5.2357804136994757E+00
Ga   -1.6359916993128056E+00    4.6944246680957136E+00    5.8025373872006663E+00
N   -1.6185659184127312E+00    4.6923666895776321E+00    7.7940947889572110E+00
Ga   -1.5972122046156085E+00    2.8328575246675043E+00    8.4368519217364728E+00
N   -1.5984496376758150E+00    2.8341922919355618E+00    1.0426859012108741E+01
Ga   -1.6269073228901942E+00    4.6928848270181298E+00    1.1072259433253910E+01
N   -1.6439750709465897E+00    4.7024737135347880E+00    1.3061076672732748E+01
Ga   -1.6007560448864924E+00    2.8329923301099860E+00    1.3619535791869632E+01
N   -1.6283030077057246E+00    2.8182467650835861E+00    1.5577744687380855E+01
Ga   -1.4478139405609771E+00    4.5872260727452172E+00    1.6479294798698387E+01
N    1.8694128389707570E-03    3.7495675435654863E+00    1.7620489744338229E+01
N   -3.2184806458905335E+00    7.5834051635800606E+00    2.4918071939077171E+00
Ga   -3.1831182795723936E+00    5.5930787877323969E+00    2.8350428516653849E+00
N   -3.2123682516705672E+00    5.6097147247074117E+00    5.0070483431066499E+00
Ga   -3.2303661463553981E+00    7.4338761338389325E+00    5.7886133219097724E+00
N   -3.2191498432536334E+00    7.4607636996067734E+00    7.7819318772184110E+00
Ga   -3.2177385868224828E+00    5.6147090825338211E+00    8.4438095497964003E+00
N   -3.2186210339874504E+00    5.6142973039596784E+00    1.0413738431378496E+01
Ga   -3.2203445106823381E+00    7.4519622108461290E+00    1.1073717388669314E+01
N   -3.2199696835688125E+00    7.4324634396776865E+00    1.3061910600149320E+01
Ga   -3.2201756549950966E+00    5.6121266648817247E+00    1.3877334320407863E+01
N   -3.2206965351447066E+00    5.6116043518253909E+00    1.6064032644168265E+01
Ga   -3.2212912486362022E+00    7.6577631325263340E+00    1.6482040419816080E+01
Ga   -3.2465186697690163E+00    9.3492219711764459E+00    1.3738033556701086E+00
N   -4.7300335950994121E+00    1.0190467045261737E+01    2.5030380262682561E+00
Ga   -4.9401233470805446E+00    8.3314017785958292E+00    3.2297311342875994E+00
N   -4.8334961593750467E+00    8.3909495622746757E+00    5.2087408747712898E+00
Ga   -4.8544969441091004E+00    1.0265509043301767E+01    5.7773463783831049E+00
N   -4.8359402027565297E+00    1.0257270010257297E+01    7.7778517888573848E+00
Ga   -4.8167349687047887E+00    8.4060212983356504E+00    8.4355752130555768E+00
N   -4.8148352707282527E+00    8.4048226792953944E+00    1.0424329555002586E+01
Ga   -4.8418589041898894E+00    1.0263860579389787E+01    1.1070326568502940E+01
N   -4.8595222026212523E+00    1.0272708687904709E+01    1.3059082132012369E+01
Ga   -4.8178521855280891E+00    8.4045447816173855E+00    1.3621234257562040E+01
N   -4.8477327014812266E+00    8.3890546190504924E+00    1.5577569091321502E+01
Ga   -4.6598883534213620E+00    1.0156353125240679E+01    1.6482354949352228E+01
N   -3.2147862978506607E+00    9.3227275287938323E+00    1.7610545954247367E+01
N    3.2035168719894127E+00    1.9031989955280053E+00    2.6025594191976258E+00
Ga    3.2031301947614472E+00    1.4982152890516831E-01    3.2615647985306189E+00
N    3.2151548042073999E+00    4.0120711202540439E-02    5.2327022736067885E+00
Ga    3.2069147886559310E+00    1.8999762061138961E+00    5.8681726997349841E+00
N    3.2147086249156103E+00    1.8973034207479551E+00    7.8420813583423232E+00
Ga    3.2107499794769216E+00    3.0803000765591816E-02    8.4322145150484271E+00
N    3.2132935747905402E+00    2.7838175756517668E-02    1.0422890044639187E+01
Ga    3.2136047292844996E+00    1.8978655454412716E+00    1.1024093401929193E+01
N    3.2124073022485922E+00    1.8977405494562825E+00    1.2990719774840134E+01
Ga    3.2119067174686582E+00    2.9501324234209602E-02    1.3620633209693686E+01
N    3.2091645577930321E+00    6.2084478686619655E-02    1.5577217075187706E+01
Ga    3.2109284990497349E+00    1.8986591626225169E+00    1.5859555751635634E+01
N    1.4815885975801562E+00    4.6229124635243419E+00    2.4902834395053102E+00
Ga    1.6808735226044613E+00    2.7920565928349728E+00    3.2683654277705241E+00
N    1.6100060627193051E+00    2.8323483242053813E+00    5.2438239087307794E+00
Ga    1.6538988116685540E+00    4.7037442384330195E+00    5.7983343787090114E+00
N    1.6136198435655780E+00    4.6913906519540785E+00    7.7988042367262986E+00
Ga    1.5965794231448560E+00    2.8330754250786261E+00    8.4345036575426935E+00
N    1.5949350135914688E+00    2.8336446787974334E+00    1.0426488131133087E+01
Ga    1.6227970738948323E+00    4.6921232278321430E+00    1.1072140905438001E+01
N    1.6373186168325202E+00    4.7025004108585646E+00    1.3061802830631402E+01
Ga    1.5940561756177232E+00    2.8330021598494359E+00    1.3618997487077666E+01
N    1.6189056190927897E+00    2.8169272533586316E+00    1.5578064047614326E+01
Ga    1.4438847553357057E+00    4.5899295917516856E+00    1.6478841487729330E+01
N   -6.1290980831949574E-03    7.4628012773024617E+00    2.6914340972904194E+00
Ga    7.2923284584154964E-03    5.5990700393489394E+00    3.3182704591572234E+00
N   -6.0451240124350736E-05    5.6281063936469833E+00    5.2525939632155199E+00
Ga   -6.9713453799748731E-03    7.4628023834497492E+00    5.9071479720613373E+00
N   -3.1553977899758550E-03    7.4711717305955254E+00    7.8606582926016539E+00
Ga   -3.6312481966155747E-04    5.5968612822890336E+00    8.4471480006842086E+00
N   -2.3793052439945862E-03    5.6001645654932526E+00    1.0433137993507986E+01
Ga   -2.7140653678099486E-03    7.4698013391988072E+00    1.1030110162795770E+01
N   -3.3358145885959553E-03    7.4694433249930947E+00    1.2995653025062481E+01
Ga   -3.3809956143315808E-03    5.5992132256565794E+00    1.3620654436647389E+01
N   -5.8735679377984931E-03    5.6294444056793997E+00    1.5578970238152747E+01
Ga   -3.6706059504033545E-03    7.4687953859463390E+00    1.5857848698127800E+01
N   -1.7099060313127277E+00    1.0189076232422176E+01    2.5083659304368053E+00
Ga   -1.6114525668397168E+00    8.3864699496992170E+00    3.3112591328616419E+00
N   -1.6002390163635445E+00    8.3907365707948802E+00    5.2432612346476430E+00
Ga   -1.5882777187490253E+00    1.0275567486909031E+01    5.8016719064895845E+00
N   -1.5998255536997243E+00    1.0258513488211637E+01    7.7899368484216360E+00
Ga   -1.6252046569121632E+00    8.4051931464095500E+00    8.4445517476560443E+00
N   -1.6228612478974562E+00    8.4045740835248761E+00    1.0430147418003235E+01
Ga   -1.5968695384933058E+00    1.0264887164265128E+01    1.1073611943659188E+01
N   -1.5792991305956487E+00    1.0273393941177231E+01    1.3061841903984288E+01
Ga   -1.6230024121416993E+00    8.4047037435258289E+00    1.3622059162533414E+01
N   -1.5941833420026119E+00    8.3865663840775362E+00    1.5579347309507819E+01
Ga   -1.7758818199593318E+00    1.0160174708722950E+01    1.6481304995232779E+01
N    6.4353257265730806E+00    2.0184517892333091E+00    2.5429797609668365E+00
Ga    6.4192129297288432E+00    4.9796359450799292E-02    2.8801751981748267E+00
N    6.4325791376458517E+00    4.2120987087732861E-02    5.0213757612676808E+00
Ga    6.4291754371128293E+00    1.8768290865370194E+00    5.8042781296506023E+00
N    6.4315067101340926E+00    1.8873431781060337E+00    7.7950976408680495E+00
Ga    6.4287192430835134E+00    4.3679502217533625E-02    8.4492225386051274E+00
N    6.4292933329360213E+00    4.1471778053451744E-02    1.0416944508630905E+01
Ga    6.4294696806384763E+00    1.8819271290819886E+00    1.1072211388918779E+01
N    6.4288687344689670E+00    1.8614463879383458E+00    1.3060860701603939E+01
Ga    6.4295243174678554E+00    4.2228294126152942E-02    1.3878270632566531E+01
N    6.4280744138379617E+00    4.1510424463435072E-02    1.6064304761541027E+01
Ga    6.4272596142676690E+00    2.0884361530860995E+00    1.6482049252116060E+01
Ga    6.4480538785409172E+00    3.7322993382150709E+00    1.5312846234834929E+00
N    4.9408675334200991E+00    4.6068439499288072E+00    2.5182357167288250E+00
Ga    4.7053288452925894E+00    2.7700753083857590E+00    3.2983812443722531E+00
N    4.8214274394671088E+00    2.8275896683426152E+00    5.2529516696429193E+00
Ga    4.7841415589253016E+00    4.7079780474618120E+00    5.7961211599935414E+00
N    4.8165677448104303E+00    4.6898329385015316E+00    7.7969564779957627E+00
Ga    4.8309551950892979E+00    2.8338005315418222E+00    8.4371260992174246E+00
N    4.8330851207245793E+00    2.8335336649447003E+00    1.0427419216210669E+01
Ga    4.8066866824870997E+00    4.6932626622209623E+00    1.1070893832325909E+01
N    4.7891441254310196E+00    4.7025993362772009E+00    1.3059785666607176E+01
Ga    4.8307137357998720E+00    2.8335049067263003E+00    1.3619368473725803E+01
N    4.7994700291021681E+00    2.8173790910915169E+00    1.5575083073984302E+01
Ga    4.9909974502292354E+00    4.5840134613811037E+00    1.6483322756342513E+01
N    6.4325195995167261E+00    3.7498158255430702E+00    1.7610938606592509E+01
N    3.2073434271142003E+00    7.6194876746431870E+00    2.5313350216844950E+00
N    3.2180704132983564E+00    5.6187743877583074E+00    5.0397103837289423E+00
Ga    3.2231562235118316E+00    7.4181117540095816E+00    5.8072628159353963E+00
N    3.2141252395182884E+00    7.4649193338972486E+00    7.8005837212885298E+00
Ga    3.2154232599754917E+00    5.6127082615895274E+00    8.4448998726296303E+00
N    3.2143157341230770E+00    5.6138891598202028E+00    1.0416624161056244E+01
Ga    3.2155813614923856E+00    7.4514939939741982E+00    1.1074191716443472E+01
N    3.2132154488283429E+00    7.4333341561964410E+00    1.3062532677527278E+01
Ga    3.2143206178566799E+00    5.6128689141365085E+00    1.3875342731638925E+01
N    3.2132482862536205E+00    5.6113884477952176E+00    1.6064871965723466E+01
Ga    3.2120648653759800E+00    7.6571323875346842E+00    1.6483201288005887E+01
Ga    3.2347512423450442E+00    9.3582476410337474E+00    1.5120721223303240E+00
N    1.7068469205273100E+00    1.0192052221810554E+01    2.5250086060085426E+00
Ga    1.5757781756451978E+00    8.3788644372735135E+00    3.3463443371665811E+00
N    1.5934166835045240E+00    8.3938006472694724E+00    5.2638923163940570E+00
Ga    1.5814052404092149E+00    1.0278496833940379E+01    5.8150764451046495E+00
N    1.5967516804382091E+00    1.0260754614516769E+01    7.7986925367431272E+00
Ga    1.6191914809935395E+00    8.4055906057600804E+00    8.4501116606374911E+00
N    1.6171020942217855E+00    8.4053241442441458E+00    1.0434134272847107E+01
Ga    1.5905056790341665E+00    1.0265168834747245E+01    1.1075241040050793E+01
N    1.5728319268717712E+00    1.0273141393246608E+01    1.3062353233668681E+01
Ga    1.6159660599446732E+00    8.4046303305595220E+00    1.3622571604174663E+01
N    1.5868129058695786E+00    8.3891349853654020E+00    1.5579220214660108E+01
Ga    1.7708483986503383E+00    1.0157364195710381E+01    1.6482996552958266E+01
N    3.2169506284103826E+00    9.3220626098252062E+00    1.7623419992534281E+01
N    9.6611442720009926E+00    1.9102762182183368E+00    2.6049898495776320E+00
Ga    9.6589586851427711E+00    1.7833718132597312E-01    3.2957144223141457E+00
N    9.6460139647007548E+00    4.2454986764634918E-02    5.2506449689620327E+00
Ga    9.6589139278663456E+00    1.9070339709237725E+00    5.8747383472496564E+00
N    9.6482357245953327E+00    1.8996068569089777E+00    7.8453968402174192E+00
Ga    9.6497069012807781E+00    3.3178049878571543E-02    8.4402433217383805E+00
N    9.6463026426551011E+00    2.8538867221773991E-02    1.0427912046032800E+01
Ga    9.6468810818860327E+00    1.8990101858612312E+00    1.1025748583512414E+01
N    9.6453360801707788E+00    1.8977733886645900E+00    1.2992343186966488E+01
Ga    9.6451054225541704E+00    2.8878317044368291E-02    1.3621921978589553E+01
N    9.6433112802511953E+00    5.9616844389448878E-02    1.5578824610021089E+01
Ga    9.6443563805531927E+00    1.8973606509801137E+00    1.5857860844916932E+01
N    7.9366817919773149E+00    4.6219954012800217E+00    2.5255876732528786E+00
Ga    8.1577226773407752E+00    2.7706267720707194E+00    3.3026010410213513E+00
N    8.0423054908944245E+00    2.8270680068884300E+00    5.2563380311154333E+00
Ga    8.0657950856122582E+00    4.7021056448020424E+00    5.7969143773455869E+00
N    8.0491947090697025E+00    4.6921594162138005E+00    7.7903063305385007E+00
Ga    8.0302206794203315E+00    2.8344689457456034E+00    8.4370146412252005E+00
N    8.0271666940125534E+00    2.8340934704767879E+00    1.0426933385064743E+01
Ga    8.0532356191363270E+00    4.6936172606847544E+00    1.1071673515756354E+01
N    8.0691080065717298E+00    4.7026960511916513E+00    1.3060514116245150E+01
Ga    8.0259176663608578E+00    2.8333638912990469E+00    1.3620487219993757E+01
N    8.0556005361514664E+00    2.8155666150675165E+00    1.5576980929597035E+01
Ga    7.8686771594982012E+00    4.5866817973164657E+00    1.6482962525391393E+01
N    6.3968551314270199E+00    7.4509436561911810E+00    2.5294384662453431E+00
Ga    6.4243961105977352E+00    5.7278724623646822E+00    3.2904392731114473E+00
N    6.4318394124483973E+00    5.6177138361447758E+00    5.2434565986245660E+00
Ga    6.4337800223196906E+00    7.4708117439257400E+00    5.8764385411093345E+00
N    6.4309169767717300E+00    7.4704627165973019E+00    7.8435080776625590E+00
Ga    6.4305686365471137E+00    5.6007912880012665E+00    8.4393397885011030E+00
N    6.4307226635211521E+00    5.6007908594754170E+00    1.0427986695190199E+01
Ga    6.4307736659446730E+00    7.4701702288067686E+00    1.1026540653301103E+01
N    6.4290201498747521E+00    7.4698437239421445E+00    1.2992011110064995E+01
Ga    6.4283742900117629E+00    5.6004910437841291E+00    1.3620503141986731E+01
N    6.4262603598911694E+00    5.6339337087146539E+00    1.5576399678562311E+01
Ga    6.4267160276534065E+00    7.4696927122988690E+00    1.5860586857983510E+01
N    4.7237458900930420E+00    1.0203072780465549E+01    2.5214977880773541E+00
Ga    4.9295791630223382E+00    8.3429950013684504E+00    3.2965986712327995E+00
N    4.8245444270110056E+00    8.4004834208597341E+00    5.2469716172582537E+00
Ga    4.8548411707646366E+00    1.0274561601646207E+01    5.7999024727792525E+00
N    4.8329577857870367E+00    1.0261340558417949E+01    7.7915744500928543E+00
Ga    4.8138675129780832E+00    8.4062726813080229E+00    8.4412224355905625E+00
N    4.8115289198332425E+00    8.4052193756887679E+00    1.0428913770685494E+01
Ga    4.8386532768881532E+00    1.0264235974353399E+01    1.1071884887013246E+01
N    4.8527177816665628E+00    1.0272791767112837E+01    1.3060617132092711E+01
Ga    4.8104259524144330E+00    8.4044156836771151E+00    1.3621778536301267E+01
N    4.8364436976204370E+00    8.3885541592119441E+00    1.5579292262655633E+01
Ga    4.6560219314004110E+00    1.0158907384960651E+01    1.6483000537686447E+01
O    3.9536060954444530E-01    3.7780059622588684E+00   -4.7919942259988457E-01
H    4.7650581556799567E-03    7.4587955710855836E+00    1.6646520945666490E+00
C    7.7013800441437030E-01    2.5220797408415461E+00   -1.0693235751592551E+00
H    1.5360807404837618E+00    1.9899092427390412E+00   -4.7719769116482852E-01
H   -9.5486563257417584E-02    1.8506163834206995E+00   -1.1942541178124522E+00
H    1.1862001717153983E+00    2.7356071752060411E+00   -2.0663506356935200E+00
Ga    3.1894107125443245E+00    5.5932286309460064E+00    2.5810668070044458E+00
O    3.2865252732639605E+00    5.8614472447060058E+00    3.0420987075457512E-01
H    2.8803648210025177E+00    5.1458247872545533E+00   -2.2285902981429767E-01
C    4.5838548601769356E+00    6.2522397168294717E+00   -2.1730872209849614E-01
H    4.4552621091324847E+00    6.9475218245414956E+00   -1.0588032994972028E+00
H    5.1514167065440555E+00    6.7382006350450645E+00    6.0432377214207378E-01
H    5.1536547842881326E+00    5.3756251510332662E+00   -5.6276492860949479E-01
     &END COORD
     &KIND C
       BASIS_SET DZVP-MOLOPT-SR-GTH-q4
       POTENTIAL GTH-PBE-q4
       &POTENTIAL
2 2
0.3384712400000000E+00 2 -0.8803673979999999E+01  0.1339210850000000E+01
2
0.3025757500000000E+00 1  0.9622486650000001E+01
0.2915069400000000E+00 0
       &END POTENTIAL
     &END KIND
     &KIND O
       BASIS_SET DZVP-MOLOPT-SR-GTH-q6
       POTENTIAL GTH-PBE-q6
       &POTENTIAL
2 4
0.2445543000000000E+00 2 -0.1666721480000000E+02  0.2487311320000000E+01
2
0.2209559200000000E+00 1  0.1833745811000000E+02
0.2113324700000000E+00 0
       &END POTENTIAL
     &END KIND
     &KIND H
       BASIS_SET DZVP-MOLOPT-SR-GTH-q1
       POTENTIAL GTH-PBE-q1
       &POTENTIAL
1
0.2000000000000000E+00 2 -0.4178900440000000E+01  0.7244633100000000E+00
0
       &END POTENTIAL
     &END KIND
     &KIND N
       BASIS_SET DZVP-MOLOPT-SR-GTH
       POTENTIAL GTH-PBE-q5
       &POTENTIAL
2 3
0.2837905100000000E+00 2 -0.1241522559000000E+02  0.1868095920000000E+01
2
0.2554050000000000E+00 1  0.1363026257000000E+02
0.2454945300000000E+00 0
       &END POTENTIAL
     &END KIND
     &KIND Ga
       BASIS_SET DZVP-MOLOPT-SR-GTH
       POTENTIAL GTH-PBE-q13
       &POTENTIAL
2 1 10
0.4900000000000000E+00 0
3
0.4167772300000000E+00 3  0.1047568975000000E+02 -0.4921768140000000E+01  0.8707055900000000E+00
0.7770178090000000E+01 -0.2248152160000000E+01
0.1784415450000000E+01
0.5696265200000000E+00 2  0.1777985340000000E+01  0.1958597600000000E+00
-0.2317443900000000E+00
0.2381265000000000E+00 1 -0.1624868022000000E+02
       &END POTENTIAL
     &END KIND
     &TOPOLOGY
       NUMBER_OF_ATOMS  212
       MULTIPLE_UNIT_CELL  1 1 1
     &END TOPOLOGY
     &COLVAR
       &DISTANCE
         ATOMS  176 211
       &END DISTANCE
       &PRINT
       &END PRINT
     &END COLVAR
   &END SUBSYS
 &END FORCE_EVAL
