 # Version information for this restart file 
 # current date 2019-07-11 13:04:13.488
 # current working dir /lustre04/scratch/rzk/rzk/GaN-carbene/443-adatoms-both-2x2/09-BondBreaking-CH/03-0501-CH-to-Nsur-PES
 # Program compiled at                              Sun Apr  7 00:48:11 EDT 2019
 # Program compiled on                          beluga2.int.ets1.calculquebec.ca
 # Program compiled for                        Beluga-Linux-x86-64-intel-openmpi
 # Source code revision number                                         svn:18619
 &GLOBAL
   PRINT_LEVEL  MEDIUM
   PROJECT_NAME TEST
   RUN_TYPE  GEO_OPT
 &END GLOBAL
 &MOTION
   &GEO_OPT
     MAX_ITER  500
     STEP_START_VAL  46
   &END GEO_OPT
   &CONSTRAINT
     &COLLECTIVE
       COLVAR  1
       INTERMOLECULAR  T
       TARGET     4.5353427189255431E+00
       &RESTRAINT
         K     2.0000000000000000E+00
       &END RESTRAINT
     &END COLLECTIVE
     &COLVAR_RESTART
           4.5353427189255431E+00
     &END COLVAR_RESTART
   &END CONSTRAINT
 &END MOTION
 &FORCE_EVAL
   METHOD  QS
   STRESS_TENSOR  ANALYTICAL
   &DFT
     BASIS_SET_FILE_NAME BASIS_MOLOPT
     POTENTIAL_FILE_NAME GTH_POTENTIALS
     UKS  T
     SURFACE_DIPOLE_CORRECTION  T
     SURF_DIP_DIR  Z
     &SCF
       MAX_SCF  80
       EPS_SCF     5.0000000000000004E-06
       &OT  T
         PRECONDITIONER  FULL_ALL
       &END OT
       &OUTER_SCF  T
         OPTIMIZER  NONE
         EPS_SCF     5.0000000000000004E-06
         MAX_SCF  4
       &END OUTER_SCF
       &PRINT
         &RESTART  OFF
           BACKUP_COPIES  1
           &EACH
             JUST_ENERGY  0
             QS_SCF  0
             MD  20
           &END EACH
         &END RESTART
       &END PRINT
     &END SCF
     &QS
       EPS_DEFAULT     1.0000000000000000E-14
       METHOD  GPW
     &END QS
     &MGRID
       NGRIDS  5
       CUTOFF     1.2000000000000000E+03
     &END MGRID
     &XC
       DENSITY_CUTOFF     1.0000000000000000E-10
       GRADIENT_CUTOFF     1.0000000000000000E-10
       TAU_CUTOFF     1.0000000000000000E-10
       &XC_FUNCTIONAL  NO_SHORTCUT
         &PBE  T
         &END PBE
       &END XC_FUNCTIONAL
       &VDW_POTENTIAL
         POTENTIAL_TYPE  PAIR_POTENTIAL
         &PAIR_POTENTIAL
           R_CUTOFF     1.0000000000000009E+01
           TYPE  DFTD3
           PARAMETER_FILE_NAME dftd3.dat
           REFERENCE_FUNCTIONAL PBE
           EPS_CN     9.9999999999999995E-07
           CALCULATE_C9_TERM  T
           REFERENCE_C9_TERM  T
           LONG_RANGE_CORRECTION  F
           VERBOSE_OUTPUT  F
         &END PAIR_POTENTIAL
       &END VDW_POTENTIAL
     &END XC
   &END DFT
   &SUBSYS
     &CELL
       A     1.2864472766435110E+01    0.0000000000000000E+00    0.0000000000000000E+00
       B    -6.4322363581020028E+00    1.1140960178524477E+01    0.0000000000000000E+00
       C     0.0000000000000000E+00    0.0000000000000000E+00    3.2000000000000000E+01
       MULTIPLE_UNIT_CELL  1 1 1
       &CELL_REF
         A     1.2982353780853531E+01    0.0000000000000000E+00    0.0000000000000000E+00
         B    -6.4911768904267628E+00    1.1243048175136114E+01    0.0000000000000000E+00
         C     0.0000000000000000E+00    0.0000000000000000E+00    3.2000000000000000E+01
         MULTIPLE_UNIT_CELL  1 1 1
       &END CELL_REF
     &END CELL
     &COORD
N    5.0796643238142890E-03    2.0438751338811576E+00    2.4903106244541648E+00
Ga    1.5059506014609880E-02    9.0958999617751141E-02    2.8344195920508843E+00
N   -3.3787867347902845E-03    4.7821513984230735E-02    5.0057510238229144E+00
Ga    1.1669786390363104E-03    1.8792168958723205E+00    5.7892668296785637E+00
N   -1.1307384563655541E-03    1.8885113305631749E+00    7.7884287793608156E+00
Ga    2.0533694482872266E-03    4.4121104773743217E-02    8.4388029555203072E+00
N   -5.7165757185396928E-04    4.1910240393143207E-02    1.0411221049267279E+01
Ga   -5.6647419538366473E-04    1.8813336437062971E+00    1.1068650909417402E+01
N   -2.5959550533130875E-03    1.8619618955450401E+00    1.3058573600947826E+01
Ga   -2.1576256909929745E-03    4.2220740075107448E-02    1.3873627288915802E+01
N   -2.6742574368332156E-03    4.0090776638132090E-02    1.6064146510862066E+01
Ga   -3.7424861566694762E-03    2.0825400842281727E+00    1.6479654200315018E+01
Ga    2.6831854247947685E-02    3.7305721194620181E+00    1.3163143298487971E+00
N   -1.4707245111559060E+00    4.6231945331926072E+00    2.4655416394754370E+00
Ga   -1.6670070252439546E+00    2.7905473327209322E+00    3.2510134466063634E+00
N   -1.6094344334358877E+00    2.8319456299521248E+00    5.2348405076622120E+00
Ga   -1.6359384499927816E+00    4.6944476484344415E+00    5.8025654158327500E+00
N   -1.6182214072271521E+00    4.6926889415372646E+00    7.7937284048921711E+00
Ga   -1.5966866152440584E+00    2.8332999076546739E+00    8.4362092360357845E+00
N   -1.5979151236193110E+00    2.8346641845622349E+00    1.0426059230060872E+01
Ga   -1.6260832420869327E+00    4.6934137039377939E+00    1.1071442942923428E+01
N   -1.6431695314710171E+00    4.7030788069638714E+00    1.3060117244180114E+01
Ga   -1.5999002043601749E+00    2.8337145036348406E+00    1.3619241283153290E+01
N   -1.6272296142623823E+00    2.8187536007969549E+00    1.5577042840196551E+01
Ga   -1.4456075815669696E+00    4.5870293439407277E+00    1.6480385565230151E+01
N    2.9055581285901857E-03    3.7493339635260319E+00    1.7620347548980199E+01
N   -3.2191939818181310E+00    7.5829314896064854E+00    2.4909723772620698E+00
Ga   -3.1835588522313225E+00    5.5947795212158127E+00    2.8341238371395772E+00
N   -3.2123228870387441E+00    5.6093917867350909E+00    5.0067118941570188E+00
Ga   -3.2303066024617131E+00    7.4345737610900793E+00    5.7873838333478487E+00
N   -3.2186830881827340E+00    7.4610224725084109E+00    7.7813203378381344E+00
Ga   -3.2172299891260048E+00    5.6151106856412722E+00    8.4433679889345932E+00
N   -3.2179594021300710E+00    5.6148384934241644E+00    1.0413217478750356E+01
Ga   -3.2194967076260972E+00    7.4524322062080497E+00    1.1073136717244706E+01
N   -3.2194395036640584E+00    7.4332469914961274E+00    1.3061334128181262E+01
Ga   -3.2190791275105428E+00    5.6127132744391233E+00    1.3876679155314752E+01
N   -3.2200441736878229E+00    5.6120627829850900E+00    1.6063390126493822E+01
Ga   -3.2204287573571442E+00    7.6577390787128747E+00    1.6481000493312049E+01
Ga   -3.2471384056498258E+00    9.3492594528552200E+00    1.3649693639200571E+00
N   -4.7306135182910660E+00    1.0190419063988276E+01    2.5017805051770350E+00
Ga   -4.9395297007244157E+00    8.3318547112628423E+00    3.2271126971807718E+00
N   -4.8338051899423258E+00    8.3908634819900332E+00    5.2071247366678737E+00
Ga   -4.8540435208738959E+00    1.0265478493840288E+01    5.7757653016453849E+00
N   -4.8356141337181295E+00    1.0257711525716491E+01    7.7769233176386949E+00
Ga   -4.8161816948793712E+00    8.4065613890745841E+00    8.4347204738024377E+00
N   -4.8140165787445310E+00    8.4051825219031251E+00    1.0423633263718024E+01
Ga   -4.8408860794570066E+00    1.0264169959056172E+01    1.1069653476214791E+01
N   -4.8587914039407014E+00    1.0273200949509739E+01    1.3058431895624024E+01
Ga   -4.8172389740668189E+00    8.4052047775790086E+00    1.3620908685525965E+01
N   -4.8472288408849824E+00    8.3892461107504346E+00    1.5577063134822245E+01
Ga   -4.6588746286944112E+00    1.0156526324419666E+01    1.6481447602079751E+01
N   -3.2148351974051730E+00    9.3222986454462777E+00    1.7609948100922207E+01
N    3.2027447859360181E+00    1.9027776033647752E+00    2.6018205390532505E+00
Ga    3.2027895626403105E+00    1.4811127839565241E-01    3.2591401081695799E+00
N    3.2151771902871578E+00    4.0448041299279855E-02    5.2313531462205267E+00
Ga    3.2065835341042712E+00    1.8994521594377201E+00    5.8675145994654434E+00
N    3.2150503478425527E+00    1.8977953035718593E+00    7.8414228833773896E+00
Ga    3.2112031116253847E+00    3.1234105768436982E-02    8.4310134859510377E+00
N    3.2141273627997098E+00    2.8262794733467118E-02    1.0421946584483988E+01
Ga    3.2145096633718935E+00    1.8983234051136000E+00    1.1023039361607765E+01
N    3.2131856834968380E+00    1.8980976265623750E+00    1.2989709552463401E+01
Ga    3.2125736529109723E+00    2.9981187597464685E-02    1.3620186777891965E+01
N    3.2100766826988862E+00    6.2774709428332395E-02    1.5576777772850679E+01
Ga    3.2110659858137582E+00    1.8992351868494941E+00    1.5858613709724860E+01
N    1.4807486432654842E+00    4.6230329040424367E+00    2.4927660850795790E+00
Ga    1.6805564230704613E+00    2.7913844267257701E+00    3.2682785174290951E+00
N    1.6098262682547886E+00    2.8325305639263942E+00    5.2435963640087806E+00
Ga    1.6535084835005049E+00    4.7038954666300912E+00    5.7977965927146853E+00
N    1.6142479163780883E+00    4.6919182337062715E+00    7.7980737000149700E+00
Ga    1.5970569337271410E+00    2.8335809003136978E+00    8.4335225066080870E+00
N    1.5958222151243522E+00    2.8340810401000640E+00    1.0425575641838027E+01
Ga    1.6233616674803963E+00    4.6926396848994996E+00    1.1071142355353237E+01
N    1.6379286427110760E+00    4.7031109306677479E+00    1.3060609810776979E+01
Ga    1.5948258510630346E+00    2.8336347268381807E+00    1.3618884230118928E+01
N    1.6190911558662400E+00    2.8175456368989198E+00    1.5577513339819326E+01
Ga    1.4434534451333132E+00    4.5900624888883312E+00    1.6479792031276855E+01
N   -7.2601112707687725E-03    7.4628338029759362E+00    2.6909079806417386E+00
Ga    6.1772407483861183E-03    5.5997360270171921E+00    3.3186930345284318E+00
N   -3.9098945648584203E-04    5.6285696425113123E+00    5.2526404801094975E+00
Ga   -7.8217049220078248E-03    7.4632364916641611E+00    5.9070636966185415E+00
N   -2.6078603787290460E-03    7.4715210654643105E+00    7.8603763378981641E+00
Ga    1.6907957395173861E-04    5.5971374587776532E+00    8.4462675493084820E+00
N   -1.6772060623819571E-03    5.6007537529324258E+00    1.0432184394732367E+01
Ga   -2.1226533779925148E-03    7.4702835741813658E+00    1.1029291007811340E+01
N   -2.8442527548385968E-03    7.4697853828371263E+00    1.2994841757036125E+01
Ga   -2.6604094339861403E-03    5.5995611467303119E+00    1.3620653300144289E+01
N   -5.1333956075077514E-03    5.6296848450799351E+00    1.5578453035214116E+01
Ga   -3.2587373308041526E-03    7.4685483907409003E+00    1.5857918458194970E+01
N   -1.7101380614452557E+00    1.0189638462257932E+01    2.5070919448283409E+00
Ga   -1.6135268479833653E+00    8.3877194213796340E+00    3.3087764113658298E+00
N   -1.6000778274701113E+00    8.3908280585443507E+00    5.2416180255867175E+00
Ga   -1.5888636550114126E+00    1.0275429615092548E+01    5.8003392003911802E+00
N   -1.5992217543892102E+00    1.0258952712089746E+01    7.7890846447869411E+00
Ga   -1.6246789182055736E+00    8.4056515041699651E+00    8.4436447166226340E+00
N   -1.6222083689461073E+00    8.4050513154850623E+00    1.0429253801962249E+01
Ga   -1.5961309742319503E+00    1.0265208323852479E+01    1.1072731830959279E+01
N   -1.5788861832715892E+00    1.0273939637810267E+01    1.3060893890231869E+01
Ga   -1.6223128497695261E+00    8.4053850526172234E+00    1.3621355661008300E+01
N   -1.5931026299449271E+00    8.3868689477134133E+00    1.5578399044260504E+01
Ga   -1.7759390464277542E+00    1.0159885380004283E+01    1.6480549349149154E+01
N    6.4347930200124770E+00    2.0183159291005177E+00    2.5429820857298084E+00
Ga    6.4170656313950571E+00    4.9230972039439817E-02    2.8789404652022244E+00
N    6.4328909925126920E+00    4.2531981231790875E-02    5.0205589533129054E+00
Ga    6.4292251204769713E+00    1.8771753229930921E+00    5.8040586695869862E+00
N    6.4318957002824337E+00    1.8876650404216178E+00    7.7947771344993679E+00
Ga    6.4291439873985565E+00    4.3979638135169585E-02    8.4487876180937569E+00
N    6.4299953347600161E+00    4.2061014956180628E-02    1.0416551637078516E+01
Ga    6.4302618214547573E+00    1.8826358090910271E+00    1.1071285863037934E+01
N    6.4294464972170644E+00    1.8620657506560412E+00    1.3059825793494252E+01
Ga    6.4296354981566815E+00    4.2984511894637152E-02    1.3876561341877384E+01
N    6.4288376457111944E+00    4.1445123133660160E-02    1.6063700958371648E+01
Ga    6.4278918068720978E+00    2.0884250838921838E+00    1.6480779120082385E+01
Ga    6.4471900821307813E+00    3.7323699683855920E+00    1.5332807384078262E+00
N    4.9403006979671416E+00    4.6066911902652148E+00    2.5192354932414691E+00
Ga    4.7041172452304405E+00    2.7692239758610433E+00    3.2983200067678076E+00
N    4.8211698860446361E+00    2.8277656789000898E+00    5.2527260972217489E+00
Ga    4.7842047666491787E+00    4.7082215700307808E+00    5.7959167614693294E+00
N    4.8167549852932474E+00    4.6903081006713609E+00    7.7965241957828884E+00
Ga    4.8311672394948602E+00    2.8341914638560541E+00    8.4363565313653783E+00
N    4.8339163532657476E+00    2.8339582487979618E+00    1.0426561978476446E+01
Ga    4.8076149581779841E+00    4.6935741007177612E+00    1.1070227680439467E+01
N    4.7897804343973949E+00    4.7034013350999491E+00    1.3059144816909004E+01
Ga    4.8313287761283661E+00    2.8341594490892223E+00    1.3618830297408058E+01
N    4.8000269217344345E+00    2.8173564982287207E+00    1.5574556878519838E+01
Ga    4.9914809668754367E+00    4.5844421299470097E+00    1.6481872679874172E+01
N    6.4332384534815015E+00    3.7504802573055862E+00    1.7609458597368018E+01
N    3.2067500732249110E+00    7.6201343648908679E+00    2.5326030467578211E+00
N    3.2180063866679718E+00    5.6190548217100806E+00    5.0383554553307413E+00
Ga    3.2231537433782185E+00    7.4183691540624723E+00    5.8069946691887688E+00
N    3.2145125015877865E+00    7.4651601140611810E+00    7.8001020931388121E+00
Ga    3.2157682628782696E+00    5.6129760290797952E+00    8.4445231573867066E+00
N    3.2151842841837421E+00    5.6143542897734156E+00    1.0416247838213945E+01
Ga    3.2161842935687823E+00    7.4520149518804049E+00    1.1073505733486698E+01
N    3.2140013241887790E+00    7.4337803302369565E+00    1.3062203406462016E+01
Ga    3.2145591618168945E+00    5.6128521200313344E+00    1.3875143900102659E+01
N    3.2141169329889516E+00    5.6118979791660770E+00    1.6064223692319526E+01
Ga    3.2123732313726370E+00    7.6564730016278357E+00    1.6481937974597624E+01
Ga    3.2341264787422088E+00    9.3578534642216145E+00    1.5165228027386775E+00
N    1.7065626794314868E+00    1.0192034545877872E+01    2.5249741004405917E+00
Ga    1.5736785772506794E+00    8.3786410394512902E+00    3.3466186507543720E+00
N    1.5930987332773960E+00    8.3938040679375643E+00    5.2637872338537131E+00
Ga    1.5814717114287467E+00    1.0278783564984254E+01    5.8146650890852234E+00
N    1.5971755795203211E+00    1.0261113564581317E+01    7.7980425244182880E+00
Ga    1.6195563227827681E+00    8.4059783324944313E+00    8.4495826798306464E+00
N    1.6177604311334990E+00    8.4057805120612468E+00    1.0433536432550335E+01
Ga    1.5912362809887797E+00    1.0265566149409329E+01    1.1074446670240629E+01
N    1.5734614898684847E+00    1.0273773517658848E+01    1.3061882940884040E+01
Ga    1.6162597827821197E+00    8.4050721501367320E+00    1.3621738386550293E+01
N    1.5869394859507588E+00    8.3893174744128274E+00    1.5578444483656877E+01
Ga    1.7721049387746979E+00    1.0157240953349531E+01    1.6482083969345915E+01
N    3.2187212529553042E+00    9.3215049446554374E+00    1.7623414223517088E+01
N    9.6607040323129656E+00    1.9105026290494818E+00    2.6041941692118868E+00
Ga    9.6586531916009069E+00    1.7921030377014721E-01    3.2955630706437944E+00
N    9.6460611214341583E+00    4.2867138748573702E-02    5.2499731259497198E+00
Ga    9.6589496453808081E+00    1.9073662709814776E+00    5.8745590422811134E+00
N    9.6486906854686616E+00    1.9000026971495383E+00    7.8448957833176074E+00
Ga    9.6500870623191286E+00    3.3584775254289032E-02    8.4396953342850285E+00
N    9.6469554536692854E+00    2.9134977391767899E-02    1.0427345114943032E+01
Ga    9.6474765226748769E+00    1.8996170160134205E+00    1.1024996123498495E+01
N    9.6461335237140418E+00    1.8984922751832953E+00    1.2991449256037784E+01
Ga    9.6457324351685880E+00    2.9784658961147643E-02    1.3620962919699666E+01
N    9.6438149292270516E+00    6.0474216621552265E-02    1.5578125160777411E+01
Ga    9.6454887556655446E+00    1.8982595181036344E+00    1.5857607984382353E+01
N    7.9360137958080061E+00    4.6222377214576236E+00    2.5255501405406249E+00
Ga    8.1574120950709066E+00    2.7707717426831491E+00    3.3019250339645310E+00
N    8.0424811028272654E+00    2.8272066183053282E+00    5.2554526068349050E+00
Ga    8.0657430429912189E+00    4.7023638751558359E+00    5.7968171830701980E+00
N    8.0496439584945154E+00    4.6924740614790474E+00    7.7900428166625684E+00
Ga    8.0306903871760955E+00    2.8347998186358283E+00    8.4364983869005350E+00
N    8.0278781045662804E+00    2.8345748282893863E+00    1.0426155084265849E+01
Ga    8.0540083397577416E+00    4.6940346336886813E+00    1.1071051214720365E+01
N    8.0698138648260596E+00    4.7035471639904030E+00    1.3059968181943329E+01
Ga    8.0265642524639755E+00    2.8339427268862170E+00    1.3619561532484335E+01
N    8.0562356070380847E+00    2.8155394146348387E+00    1.5576038865363113E+01
Ga    7.8696717239255545E+00    4.5872167738496570E+00    1.6481510604427942E+01
N    6.3963748255598087E+00    7.4507900706567369E+00    2.5267384220954709E+00
Ga    6.4242396333549499E+00    5.7290047594838800E+00    3.2904291759405297E+00
N    6.4317653449617458E+00    5.6181126940552550E+00    5.2431868624596492E+00
Ga    6.4343157391547638E+00    7.4712817605305277E+00    5.8762876264338644E+00
N    6.4312392082585337E+00    7.4708119302837179E+00    7.8433486142188338E+00
Ga    6.4309193806494598E+00    5.6010836869013154E+00    8.4387787595554240E+00
N    6.4315060871641183E+00    5.6012012505347624E+00    1.0427400044912121E+01
Ga    6.4317038749660576E+00    7.4704952622631033E+00    1.1025826032180118E+01
N    6.4300663639473328E+00    7.4701994000641081E+00    1.2991248340579551E+01
Ga    6.4289965797392163E+00    5.6010735159347558E+00    1.3620289669827075E+01
N    6.4268588824587978E+00    5.6345206761396058E+00    1.5576124198704242E+01
Ga    6.4275169742970188E+00    7.4699876248741006E+00    1.5859913181412987E+01
N    4.7233214939915991E+00    1.0202842392145204E+01    2.5214324808247102E+00
Ga    4.9309363846787306E+00    8.3423576078156145E+00    3.2968930232244631E+00
N    4.8246054078152927E+00    8.4006091948904142E+00    5.2467507915000331E+00
Ga    4.8550027436115348E+00    1.0274818889616027E+01    5.7995847207140807E+00
N    4.8332868455529443E+00    1.0261739226095958E+01    7.7910669294977266E+00
Ga    4.8142929872749809E+00    8.4066766967412114E+00    8.4408235341265225E+00
N    4.8123514689806237E+00    8.4055574419879768E+00    1.0428623999016192E+01
Ga    4.8393151092487567E+00    1.0264725083409791E+01    1.1071151511634028E+01
N    4.8536781358822356E+00    1.0273459162588098E+01    1.3060325854009765E+01
Ga    4.8116748141074357E+00    8.4047227908091049E+00    1.3621169000788493E+01
N    4.8370851368505914E+00    8.3888343042817795E+00    1.5578769614420899E+01
Ga    4.6570680119361176E+00    1.0159716473030148E+01    1.6481852717462871E+01
O    3.9992357051379968E-01    3.7800612674228753E+00   -4.7722710394980306E-01
H    4.4232328823903804E-03    7.4583587509728364E+00    1.6639795890457385E+00
C    7.6863096766487538E-01    2.5209338466273539E+00   -1.0655538771892259E+00
H    1.5379852232249474E+00    1.9883168812722576E+00   -4.7831653886907477E-01
H   -1.0025125161752944E-01    1.8516318205619617E+00   -1.1808970668943071E+00
H    1.1754326000547191E+00    2.7301382308278246E+00   -2.0674162978094275E+00
Ga    3.1883476603645953E+00    5.5929029253950677E+00    2.5833157910997198E+00
O    3.2792834119221737E+00    5.8597805071959685E+00    3.0904081656359278E-01
H    2.8704294509156725E+00    5.1438486178850118E+00   -2.1574716009141970E-01
C    4.5770598154826931E+00    6.2452920887387355E+00   -2.1455217067089502E-01
H    4.4500813807401620E+00    6.9415840522962649E+00   -1.0558918823078203E+00
H    5.1479793666622511E+00    6.7292241537207564E+00    6.0668099142353737E-01
H    5.1433928536602576E+00    5.3664363331714977E+00   -5.6103078606566381E-01
     &END COORD
     &KIND C
       BASIS_SET DZVP-MOLOPT-SR-GTH-q4
       POTENTIAL GTH-PBE-q4
       &POTENTIAL
2 2
0.3384712400000000E+00 2 -0.8803673979999999E+01  0.1339210850000000E+01
2
0.3025757500000000E+00 1  0.9622486650000001E+01
0.2915069400000000E+00 0
       &END POTENTIAL
     &END KIND
     &KIND O
       BASIS_SET DZVP-MOLOPT-SR-GTH-q6
       POTENTIAL GTH-PBE-q6
       &POTENTIAL
2 4
0.2445543000000000E+00 2 -0.1666721480000000E+02  0.2487311320000000E+01
2
0.2209559200000000E+00 1  0.1833745811000000E+02
0.2113324700000000E+00 0
       &END POTENTIAL
     &END KIND
     &KIND H
       BASIS_SET DZVP-MOLOPT-SR-GTH-q1
       POTENTIAL GTH-PBE-q1
       &POTENTIAL
1
0.2000000000000000E+00 2 -0.4178900440000000E+01  0.7244633100000000E+00
0
       &END POTENTIAL
     &END KIND
     &KIND N
       BASIS_SET DZVP-MOLOPT-SR-GTH
       POTENTIAL GTH-PBE-q5
       &POTENTIAL
2 3
0.2837905100000000E+00 2 -0.1241522559000000E+02  0.1868095920000000E+01
2
0.2554050000000000E+00 1  0.1363026257000000E+02
0.2454945300000000E+00 0
       &END POTENTIAL
     &END KIND
     &KIND Ga
       BASIS_SET DZVP-MOLOPT-SR-GTH
       POTENTIAL GTH-PBE-q13
       &POTENTIAL
2 1 10
0.4900000000000000E+00 0
3
0.4167772300000000E+00 3  0.1047568975000000E+02 -0.4921768140000000E+01  0.8707055900000000E+00
0.7770178090000000E+01 -0.2248152160000000E+01
0.1784415450000000E+01
0.5696265200000000E+00 2  0.1777985340000000E+01  0.1958597600000000E+00
-0.2317443900000000E+00
0.2381265000000000E+00 1 -0.1624868022000000E+02
       &END POTENTIAL
     &END KIND
     &TOPOLOGY
       NUMBER_OF_ATOMS  212
       MULTIPLE_UNIT_CELL  1 1 1
     &END TOPOLOGY
     &COLVAR
       &DISTANCE
         ATOMS  176 211
       &END DISTANCE
       &PRINT
       &END PRINT
     &END COLVAR
   &END SUBSYS
 &END FORCE_EVAL
