 # Version information for this restart file 
 # current date 2019-07-11 13:08:48.810
 # current working dir /lustre04/scratch/rzk/rzk/GaN-carbene/443-adatoms-both-2x2/09-BondBreaking-CH/03-0501-CH-to-Nsur-PES
 # Program compiled at                              Sun Apr  7 00:48:11 EDT 2019
 # Program compiled on                          beluga2.int.ets1.calculquebec.ca
 # Program compiled for                        Beluga-Linux-x86-64-intel-openmpi
 # Source code revision number                                         svn:18619
 &GLOBAL
   PRINT_LEVEL  MEDIUM
   PROJECT_NAME TEST
   RUN_TYPE  GEO_OPT
 &END GLOBAL
 &MOTION
   &GEO_OPT
     MAX_ITER  500
     STEP_START_VAL  47
   &END GEO_OPT
   &CONSTRAINT
     &COLLECTIVE
       COLVAR  1
       INTERMOLECULAR  T
       TARGET     4.5353427189255431E+00
       &RESTRAINT
         K     2.0000000000000000E+00
       &END RESTRAINT
     &END COLLECTIVE
     &COLVAR_RESTART
           4.5353427189255431E+00
     &END COLVAR_RESTART
   &END CONSTRAINT
 &END MOTION
 &FORCE_EVAL
   METHOD  QS
   STRESS_TENSOR  ANALYTICAL
   &DFT
     BASIS_SET_FILE_NAME BASIS_MOLOPT
     POTENTIAL_FILE_NAME GTH_POTENTIALS
     UKS  T
     SURFACE_DIPOLE_CORRECTION  T
     SURF_DIP_DIR  Z
     &SCF
       MAX_SCF  80
       EPS_SCF     5.0000000000000004E-06
       &OT  T
         PRECONDITIONER  FULL_ALL
       &END OT
       &OUTER_SCF  T
         OPTIMIZER  NONE
         EPS_SCF     5.0000000000000004E-06
         MAX_SCF  4
       &END OUTER_SCF
       &PRINT
         &RESTART  OFF
           BACKUP_COPIES  1
           &EACH
             JUST_ENERGY  0
             QS_SCF  0
             MD  20
           &END EACH
         &END RESTART
       &END PRINT
     &END SCF
     &QS
       EPS_DEFAULT     1.0000000000000000E-14
       METHOD  GPW
     &END QS
     &MGRID
       NGRIDS  5
       CUTOFF     1.2000000000000000E+03
     &END MGRID
     &XC
       DENSITY_CUTOFF     1.0000000000000000E-10
       GRADIENT_CUTOFF     1.0000000000000000E-10
       TAU_CUTOFF     1.0000000000000000E-10
       &XC_FUNCTIONAL  NO_SHORTCUT
         &PBE  T
         &END PBE
       &END XC_FUNCTIONAL
       &VDW_POTENTIAL
         POTENTIAL_TYPE  PAIR_POTENTIAL
         &PAIR_POTENTIAL
           R_CUTOFF     1.0000000000000009E+01
           TYPE  DFTD3
           PARAMETER_FILE_NAME dftd3.dat
           REFERENCE_FUNCTIONAL PBE
           EPS_CN     9.9999999999999995E-07
           CALCULATE_C9_TERM  T
           REFERENCE_C9_TERM  T
           LONG_RANGE_CORRECTION  F
           VERBOSE_OUTPUT  F
         &END PAIR_POTENTIAL
       &END VDW_POTENTIAL
     &END XC
   &END DFT
   &SUBSYS
     &CELL
       A     1.2864472766435110E+01    0.0000000000000000E+00    0.0000000000000000E+00
       B    -6.4322363581020028E+00    1.1140960178524477E+01    0.0000000000000000E+00
       C     0.0000000000000000E+00    0.0000000000000000E+00    3.2000000000000000E+01
       MULTIPLE_UNIT_CELL  1 1 1
       &CELL_REF
         A     1.2982353780853531E+01    0.0000000000000000E+00    0.0000000000000000E+00
         B    -6.4911768904267628E+00    1.1243048175136114E+01    0.0000000000000000E+00
         C     0.0000000000000000E+00    0.0000000000000000E+00    3.2000000000000000E+01
         MULTIPLE_UNIT_CELL  1 1 1
       &END CELL_REF
     &END CELL
     &COORD
N   -3.0171804033326979E-03    2.0430821070512466E+00    2.4859932847193282E+00
Ga    3.7185750583258577E-02    8.6336497097542750E-02    2.8194692811738022E+00
N   -9.2022650866637832E-03    5.4664399000320281E-02    4.9965412134823231E+00
Ga   -1.2049430591170884E-03    1.8844569319414746E+00    5.7832668424671345E+00
N    2.6898436384743883E-03    1.8928622890839713E+00    7.7808524725434296E+00
Ga    9.3634620000083608E-03    4.8683142047987335E-02    8.4298160689366934E+00
N    1.0205585517632560E-02    4.7836430540377922E-02    1.0404600943336714E+01
Ga    8.7130147956208416E-03    1.8907104956319587E+00    1.1055083223211044E+01
N    7.2453620296767628E-03    1.8705790396704483E+00    1.3042110885620168E+01
Ga    1.2799266820219349E-02    5.7669959788062490E-02    1.3867109953777941E+01
N    8.0086559271535553E-03    4.1208531853819529E-02    1.6052677782508891E+01
Ga    6.0864231210501279E-03    2.1004205964880232E+00    1.6490273501355890E+01
Ga    3.3512710206793209E-02    3.7487629699991198E+00    1.3318818530206149E+00
N   -1.4796789913617439E+00    4.6272826920760854E+00    2.4663078025355727E+00
Ga   -1.6717404216315865E+00    2.7939631854442393E+00    3.2404992384748357E+00
N   -1.6138195540351168E+00    2.8336709635564965E+00    5.2229149306886837E+00
Ga   -1.6365809761532637E+00    4.6950254331183752E+00    5.8015418643386507E+00
N   -1.6141824440800214E+00    4.6968186596391233E+00    7.7880215957212080E+00
Ga   -1.5902124490398384E+00    2.8388443905375640E+00    8.4275519346020271E+00
N   -1.5902017164604618E+00    2.8409434887526843E+00    1.0415082546747280E+01
Ga   -1.6152085200163560E+00    4.7003985518541320E+00    1.1060877081756242E+01
N   -1.6323722417406499E+00    4.7114098370342603E+00    1.3047736266879907E+01
Ga   -1.5889172823868163E+00    2.8428777880317559E+00    1.3612444085520877E+01
N   -1.6144170399324973E+00    2.8244941317955137E+00    1.5565058317453321E+01
Ga   -1.4124695289478526E+00    4.5823400936744347E+00    1.6492267956766955E+01
N    1.7405989728060421E-02    3.7478963190525385E+00    1.7623317678316347E+01
N   -3.2288442688297403E+00    7.5764246415982432E+00    2.4794082346111264E+00
Ga   -3.1884262911246242E+00    5.6184693439272788E+00    2.8225638746995263E+00
N   -3.2129781408198221E+00    5.6058501756908070E+00    5.0033941415555310E+00
Ga   -3.2301057236304871E+00    7.4439599202923175E+00    5.7706403094413572E+00
N   -3.2129793538003146E+00    7.4648140045819087E+00    7.7721480547153465E+00
Ga   -3.2110717040092576E+00    5.6210807028267782E+00    8.4370671262457773E+00
N   -3.2089194544948687E+00    5.6217809677688653E+00    1.0405755393975010E+01
Ga   -3.2088783129986767E+00    7.4587546998093268E+00    1.1064508395293386E+01
N   -3.2109851736698696E+00    7.4440461814474164E+00    1.3052608525428484E+01
Ga   -3.2055760015770378E+00    5.6210001118372954E+00    1.3866329481166524E+01
N   -3.2092327435870520E+00    5.6175582137924795E+00    1.6052573989456079E+01
Ga   -3.2089504877887474E+00    7.6559209685989327E+00    1.6465995306401386E+01
Ga   -3.2569917298754216E+00    9.3504289367045690E+00    1.2305187586975763E+00
N   -4.7380433653925866E+00    1.0189925893168136E+01    2.4848838750125877E+00
Ga   -4.9269339420273672E+00    8.3405951200280963E+00    3.1909326841589656E+00
N   -4.8376218238068844E+00    8.3907206790739810E+00    5.1865978343347523E+00
Ga   -4.8481962165572368E+00    1.0265416691139771E+01    5.7544033863238626E+00
N   -4.8316384005620527E+00    1.0263134295727628E+01    7.7637392941568573E+00
Ga   -4.8089139189990222E+00    8.4136228580751471E+00    8.4235127921738080E+00
N   -4.8036781666561268E+00    8.4105002468603107E+00    1.0414106919429145E+01
Ga   -4.8288269876133638E+00    1.0268847055548642E+01    1.1060523912344960E+01
N   -4.8483700530156719E+00    1.0280576647616369E+01    1.3049491633914020E+01
Ga   -4.8082299135944817E+00    8.4142826060479567E+00    1.3613858044228298E+01
N   -4.8387881237922450E+00    8.3934851245670714E+00    1.5568685532963659E+01
Ga   -4.6467068815862200E+00    1.0159792708917264E+01    1.6468357407914219E+01
N   -3.2114436316767563E+00    9.3181720384422508E+00    1.7601931189526386E+01
N    3.1919196092387989E+00    1.8966952138702657E+00    2.5932968538162280E+00
Ga    3.1980922804863154E+00    1.2230837346451123E-01    3.2229737831973826E+00
N    3.2149688871340163E+00    4.4231233028933038E-02    5.2114892333851666E+00
Ga    3.2016652480275654E+00    1.8913048187362560E+00    5.8576504856207006E+00
N    3.2191432389345835E+00    1.9031491533720133E+00    7.8316412497469097E+00
Ga    3.2167371968927960E+00    3.6047006504440926E-02    8.4151945749883073E+00
N    3.2245396078400144E+00    3.3694359723797918E-02    1.0408897008390195E+01
Ga    3.2258384199783148E+00    1.9041748932525018E+00    1.1009098292361365E+01
N    3.2243271846177799E+00    1.9034302722282037E+00    1.2975992930768314E+01
Ga    3.2223306525781221E+00    3.7096405145050790E-02    1.3612300734026569E+01
N    3.2224235997386024E+00    7.0206262263113786E-02    1.5570098701649924E+01
Ga    3.2162547902738874E+00    1.9066262872780870E+00    1.5843519008837356E+01
N    1.4682535888066817E+00    4.6249991722594457E+00    2.5266557243265542E+00
Ga    1.6746382033070981E+00    2.7816212471595438E+00    3.2670585881131586E+00
N    1.6072232307444265E+00    2.8340353488952319E+00    5.2403959306819390E+00
Ga    1.6474934707110651E+00    4.7051723820313294E+00    5.7885782699189452E+00
N    1.6219076428885699E+00    4.6986833135009256E+00    7.7866378950653221E+00
Ga    1.6030067267350649E+00    2.8395267735411918E+00    8.4197311193177793E+00
N    1.6068637177003358E+00    2.8401783358534178E+00    1.0412637490429939E+01
Ga    1.6312218015207669E+00    4.6994928192888104E+00    1.1058861954551721E+01
N    1.6470434727993839E+00    4.7117789667839913E+00    1.3045785716727043E+01
Ga    1.6056370658298169E+00    2.8420901265843428E+00    1.3613232705672765E+01
N    1.6258039938608988E+00    2.8244992704580416E+00    1.5565594378985390E+01
Ga    1.4367729896469463E+00    4.5890355450284579E+00    1.6489975005309727E+01
N   -2.4715593399385210E-02    7.4637908468504843E+00    2.6832362224559301E+00
Ga   -1.1054576528629755E-02    5.6088264352766863E+00    3.3247323588187854E+00
N   -5.4697731675665065E-03    5.6347422618278920E+00    5.2539582155599431E+00
Ga   -2.0424786812974324E-02    7.4696392565966407E+00    5.9043435808811626E+00
N    3.3139448819164180E-03    7.4765928396431018E+00    7.8551422271316671E+00
Ga    6.5609748652463076E-03    5.6013421922716971E+00    8.4341760366160337E+00
N    7.7521805685392782E-03    5.6078335014375735E+00    1.0418951797793257E+01
Ga    6.0633047961354261E-03    7.4763238620863488E+00    1.1017833777239735E+01
N    5.2585500848472957E-03    7.4759972322750103E+00    1.2983099809469222E+01
Ga    7.4637221800772273E-03    5.6058862020534130E+00    1.3617484941538551E+01
N    5.9101396486765274E-03    5.6359935153258380E+00    1.5569381671130941E+01
Ga    3.8246166306489149E-03    7.4690791865429453E+00    1.5854323394660886E+01
N   -1.7131113010089851E+00    1.0196889117271441E+01    2.4899022217932822E+00
Ga   -1.6448224316032549E+00    8.4055047736809563E+00    3.2740055249810340E+00
N   -1.5994251642585966E+00    8.3929173431567961E+00    5.2195089839865068E+00
Ga   -1.5971211422068368E+00    1.0274045073701922E+01    5.7816346032451831E+00
N   -1.5920476904654517E+00    1.0264444750275063E+01    7.7763121315598864E+00
Ga   -1.6187774172273000E+00    8.4118878513354396E+00    8.4319572267686329E+00
N   -1.6135943943303104E+00    8.4114679279153730E+00    1.0417650068423892E+01
Ga   -1.5866510125970017E+00    1.0270073010900029E+01    1.1060635067343931E+01
N   -1.5720286737666767E+00    1.0281542151784581E+01    1.3048070441734001E+01
Ga   -1.6119962433321968E+00    8.4145639795813452E+00    1.3610823625074390E+01
N   -1.5800992792646458E+00    8.3926650054892296E+00    1.5565739584497678E+01
Ga   -1.7721168487442669E+00    1.0158898786008324E+01    1.6468323002949866E+01
N    6.4278956426384406E+00    2.0175110474368436E+00    2.5431440580753644E+00
Ga    6.3860487008831717E+00    4.2074287336325011E-02    2.8632001318539988E+00
N    6.4364920244510175E+00    4.7368456344885762E-02    5.0096146851883150E+00
Ga    6.4289642339224526E+00    1.8807703654374397E+00    5.7998113129595215E+00
N    6.4367130189351789E+00    1.8917446233514548E+00    7.7888636033639829E+00
Ga    6.4336997819126633E+00    4.7675070831055738E-02    8.4415861465527726E+00
N    6.4395130904626985E+00    4.9137792030938383E-02    1.0409588385852231E+01
Ga    6.4401210889688230E+00    1.8913340555316762E+00    1.1058337958439029E+01
N    6.4379645461494048E+00    1.8704922535339712E+00    1.3045115172135446E+01
Ga    6.4331997977449378E+00    5.3478704539363250E-02    1.3854360109503714E+01
N    6.4399285064292977E+00    4.2829042480966507E-02    1.6054099987583836E+01
Ga    6.4377798702018083E+00    2.0896770828618618E+00    1.6462708958445660E+01
Ga    6.4332999955283388E+00    3.7350960873310628E+00    1.5647168626100274E+00
N    4.9328920958068414E+00    4.6051570452598813E+00    2.5370617897950152E+00
Ga    4.6871081596840272E+00    2.7569661416402660E+00    3.2992499608053434E+00
N    4.8170651106722460E+00    2.8293911670439482E+00    5.2504586937138580E+00
Ga    4.7845340460184884E+00    4.7106714775291199E+00    5.7916191367054104E+00
N    4.8184563749996396E+00    4.6964385336887293E+00    7.7890722997224442E+00
Ga    4.8335311957433023E+00    2.8388364669203505E+00    8.4251247298796308E+00
N    4.8442906502260676E+00    2.8401216550226169E+00    1.0414353649515498E+01
Ga    4.8190156823562544E+00    4.6983958315348318E+00    1.1061459014782676E+01
N    4.7985721850017935E+00    4.7135766091916027E+00    1.3050099098547948E+01
Ga    4.8404789780195578E+00    2.8428524890061082E+00    1.3609284662844560E+01
N    4.8093527033630457E+00    2.8192267018347170E+00    1.5564789812101347E+01
Ga    5.0005319408451419E+00    4.5906321753201267E+00    1.6462603185294526E+01
N    6.4442008785406415E+00    3.7576626716000123E+00    1.7592862069707341E+01
N    3.1986109501831872E+00    7.6283017862401472E+00    2.5524106653935292E+00
N    3.2166976232061173E+00    5.6229708263634341E+00    5.0175270933028857E+00
Ga    3.2222905021372759E+00    7.4222686718657584E+00    5.8022312352107113E+00
N    3.2189334955373314E+00    7.4681144965608492E+00    7.7921292503364645E+00
Ga    3.2197381628844326E+00    5.6165935967975047E+00    8.4390683014088808E+00
N    3.2260129776482671E+00    5.6207094805437734E+00    1.0409936331053739E+01
Ga    3.2244234791883621E+00    7.4586690040549497E+00    1.1064755268869318E+01
N    3.2241895902097535E+00    7.4405661349604602E+00    1.3056536599503973E+01
Ga    3.2196130011973758E+00    5.6150465510698186E+00    1.3871056421935494E+01
N    3.2250607045812663E+00    5.6181914806418236E+00    1.6052703083799159E+01
Ga    3.2200811077870091E+00    7.6493528812698868E+00    1.6464727633829131E+01
Ga    3.2260109552162470E+00    9.3507271478485858E+00    1.5878240063498714E+00
N    1.7023764341832466E+00    1.0191860224610734E+01    2.5235900238103350E+00
Ga    1.5423714674183000E+00    8.3748595460424546E+00    3.3511609454843598E+00
N    1.5883126264262117E+00    8.3943907686360895E+00    5.2623721708821005E+00
Ga    1.5811690851142259E+00    1.0282698575465835E+01    5.8087679476329646E+00
N    1.6023519196412692E+00    1.0265754594788685E+01    7.7887342858258375E+00
Ga    1.6236203587496416E+00    8.4107253263669097E+00    8.4417589620876878E+00
N    1.6268965687057000E+00    8.4117488928369557E+00    1.0424576562306020E+01
Ga    1.6011168462272629E+00    1.0270773714184285E+01    1.1063728583514630E+01
N    1.5822714504085564E+00    1.0282449476478689E+01    1.3054257791223561E+01
Ga    1.6218402078233403E+00    8.4120638510942491E+00    1.3610709982016918E+01
N    1.5915895889975111E+00    8.3930655089212891E+00    1.5568042219811970E+01
Ga    1.7895402050661446E+00    1.0157078072946206E+01    1.6468556042565247E+01
N    3.2404875425152704E+00    9.3161807674525399E+00    1.7618774913755217E+01
N    9.6547026892914012E+00    1.9143154262986588E+00    2.5910052024752095E+00
Ga    9.6547710161964879E+00    1.9330766579643069E-01    3.2951258380637016E+00
N    9.6460573932948890E+00    4.7557355840148127E-02    5.2413968754033595E+00
Ga    9.6589669239293450E+00    1.9116567443298951E+00    5.8716884123750601E+00
N    9.6540252630001842E+00    1.9049362766566946E+00    7.8374984460102919E+00
Ga    9.6547794863008374E+00    3.8623625410701558E-02    8.4321483992709094E+00
N    9.6558360103182057E+00    3.6370603658624344E-02    1.0418853802665867E+01
Ga    9.6558456735461622E+00    1.9071103165854757E+00    1.1014728639845378E+01
N    9.6565550922296914E+00    1.9071952641969399E+00    1.2978821587432190E+01
Ga    9.6544212213597156E+00    4.1064296901813083E-02    1.3608340224008215E+01
N    9.6527123601518934E+00    7.0924664287346714E-02    1.5568546979604667E+01
Ga    9.6592766936164836E+00    1.9092636285214326E+00    1.5850037046749719E+01
N    7.9269574369338001E+00    4.6244155799592699E+00    2.5250535272399550E+00
Ga    8.1543749200630593E+00    2.7724995983990204E+00    3.2949733334108582E+00
N    8.0437121045285238E+00    2.8291033691556837E+00    5.2452409217525657E+00
Ga    8.0653224774406933E+00    4.7057478657575791E+00    5.7955730922904447E+00
N    8.0550060335936919E+00    4.6965116534998455E+00    7.7861425026159745E+00
Ga    8.0361448871009440E+00    2.8390480300417460E+00    8.4296284699107193E+00
N    8.0372099145754561E+00    2.8410211493632560E+00    1.0415901408992138E+01
Ga    8.0639060864775800E+00    4.7002662824285144E+00    1.1062118730215847E+01
N    8.0794662328817886E+00    4.7138607018982812E+00    1.3051309817101348E+01
Ga    8.0357532328789993E+00    2.8414830753683584E+00    1.3605821846744700E+01
N    8.0651453965519071E+00    2.8174099442523337E+00    1.5561430997208390E+01
Ga    7.8824598827383108E+00    4.5942981048727489E+00    1.6462324123088031E+01
N    6.3919960082094258E+00    7.4496671151814731E+00    2.4983575307578367E+00
Ga    6.4240092155105488E+00    5.7436429434795038E+00    3.2929231558171206E+00
N    6.4306125803234835E+00    5.6231269476570063E+00    5.2416639771802611E+00
Ga    6.4418879523461401E+00    7.4782124097357903E+00    5.8736715602007843E+00
N    6.4355865783282793E+00    7.4758656430269124E+00    7.8401910102053254E+00
Ga    6.4349934539622451E+00    5.6053407523789245E+00    8.4306069493669380E+00
N    6.4411265217459244E+00    5.6066138162025085E+00    1.0418625709965413E+01
Ga    6.4434628196780901E+00    7.4750677838825457E+00    1.1016332965966427E+01
N    6.4432724175031826E+00    7.4761204776720547E+00    1.2981213314679659E+01
Ga    6.4378496228765218E+00    5.6090082750801544E+00    1.3614136021610234E+01
N    6.4361347637606894E+00    5.6429196805738213E+00    1.5569234956844566E+01
Ga    6.4388264795697747E+00    7.4751045277217019E+00    1.5850209189869240E+01
N    4.7177384466045593E+00    1.0201420886612359E+01    2.5193453343259979E+00
Ga    4.9499914128874591E+00    8.3358055555687383E+00    3.3029968938587815E+00
N    4.8248847850804228E+00    8.4030346713072976E+00    5.2449777969382270E+00
Ga    4.8569408906580955E+00    1.0278907591250016E+01    5.7955648997325779E+00
N    4.8373326022317489E+00    1.0266824084962392E+01    7.7840482207621537E+00
Ga    4.8195539041846640E+00    8.4115653955408813E+00    8.4346045962316278E+00
N    4.8225699098442742E+00    8.4103462979676245E+00    1.0423356271740415E+01
Ga    4.8484087297780523E+00    1.0271117541991153E+01    1.1061649286474895E+01
N    4.8657634845372861E+00    1.0282737525907562E+01    1.3054910887924658E+01
Ga    4.8266444763478074E+00    8.4102828199717266E+00    1.3611136180340466E+01
N    4.8478004628731100E+00    8.3935173972798651E+00    1.5568859674056473E+01
Ga    4.6721877170849568E+00    1.0168933212251689E+01    1.6466328310990693E+01
O    4.7383756853150860E-01    3.8101347022200964E+00   -4.5039233750569740E-01
H   -3.2526266065844305E-03    7.4517043475169542E+00    1.6548598704769895E+00
C    7.4165437810984292E-01    2.5034665656990911E+00   -1.0136303482909506E+00
H    1.5633486849736116E+00    1.9671223720248974E+00   -4.9839770036978503E-01
H   -1.6883650123384189E-01    1.8605158802574686E+00   -9.9586429397329690E-01
H    1.0216371945428018E+00    2.6503703007059154E+00   -2.0822103186253536E+00
Ga    3.1734059219190431E+00    5.5868197287134747E+00    2.6231806722605584E+00
O    3.1874615441064411E+00    5.8344564971441821E+00    3.7762993578013537E-01
H    2.7383061336435386E+00    5.1184269598086942E+00   -1.1780015830791751E-01
C    4.4908666502400356E+00    6.1544877377781226E+00   -1.7107053893369928E-01
H    4.3843825271453545E+00    6.8635009525563513E+00   -1.0092312974527409E+00
H    5.1025346323981733E+00    6.6098656174836448E+00    6.4793795471499049E-01
H    5.0084708567889420E+00    5.2459557504219338E+00   -5.3208445430044793E-01
     &END COORD
     &KIND C
       BASIS_SET DZVP-MOLOPT-SR-GTH-q4
       POTENTIAL GTH-PBE-q4
       &POTENTIAL
2 2
0.3384712400000000E+00 2 -0.8803673979999999E+01  0.1339210850000000E+01
2
0.3025757500000000E+00 1  0.9622486650000001E+01
0.2915069400000000E+00 0
       &END POTENTIAL
     &END KIND
     &KIND O
       BASIS_SET DZVP-MOLOPT-SR-GTH-q6
       POTENTIAL GTH-PBE-q6
       &POTENTIAL
2 4
0.2445543000000000E+00 2 -0.1666721480000000E+02  0.2487311320000000E+01
2
0.2209559200000000E+00 1  0.1833745811000000E+02
0.2113324700000000E+00 0
       &END POTENTIAL
     &END KIND
     &KIND H
       BASIS_SET DZVP-MOLOPT-SR-GTH-q1
       POTENTIAL GTH-PBE-q1
       &POTENTIAL
1
0.2000000000000000E+00 2 -0.4178900440000000E+01  0.7244633100000000E+00
0
       &END POTENTIAL
     &END KIND
     &KIND N
       BASIS_SET DZVP-MOLOPT-SR-GTH
       POTENTIAL GTH-PBE-q5
       &POTENTIAL
2 3
0.2837905100000000E+00 2 -0.1241522559000000E+02  0.1868095920000000E+01
2
0.2554050000000000E+00 1  0.1363026257000000E+02
0.2454945300000000E+00 0
       &END POTENTIAL
     &END KIND
     &KIND Ga
       BASIS_SET DZVP-MOLOPT-SR-GTH
       POTENTIAL GTH-PBE-q13
       &POTENTIAL
2 1 10
0.4900000000000000E+00 0
3
0.4167772300000000E+00 3  0.1047568975000000E+02 -0.4921768140000000E+01  0.8707055900000000E+00
0.7770178090000000E+01 -0.2248152160000000E+01
0.1784415450000000E+01
0.5696265200000000E+00 2  0.1777985340000000E+01  0.1958597600000000E+00
-0.2317443900000000E+00
0.2381265000000000E+00 1 -0.1624868022000000E+02
       &END POTENTIAL
     &END KIND
     &TOPOLOGY
       NUMBER_OF_ATOMS  212
       MULTIPLE_UNIT_CELL  1 1 1
     &END TOPOLOGY
     &COLVAR
       &DISTANCE
         ATOMS  176 211
       &END DISTANCE
       &PRINT
       &END PRINT
     &END COLVAR
   &END SUBSYS
 &END FORCE_EVAL
