 # Version information for this restart file 
 # current date 2019-07-10 17:04:09.094
 # current working dir /lustre04/scratch/rzk/rzk/GaN-carbene/443-adatoms-both-2x2/09-BondBreaking-CH/03-0501-CH-to-Nsur-PES
 # Program compiled at                              Sun Apr  7 00:48:11 EDT 2019
 # Program compiled on                          beluga2.int.ets1.calculquebec.ca
 # Program compiled for                        Beluga-Linux-x86-64-intel-openmpi
 # Source code revision number                                         svn:18619
 &GLOBAL
   PRINT_LEVEL  MEDIUM
   PROJECT_NAME TEST
   RUN_TYPE  GEO_OPT
 &END GLOBAL
 &MOTION
   &GEO_OPT
     MAX_ITER  500
     STEP_START_VAL  119
   &END GEO_OPT
   &CONSTRAINT
     &COLLECTIVE
       COLVAR  1
       INTERMOLECULAR  T
       TARGET     5.6691783986569284E+00
       &RESTRAINT
         K     2.0000000000000000E+00
       &END RESTRAINT
     &END COLLECTIVE
     &COLVAR_RESTART
           5.6691783986569284E+00
     &END COLVAR_RESTART
   &END CONSTRAINT
 &END MOTION
 &FORCE_EVAL
   METHOD  QS
   STRESS_TENSOR  ANALYTICAL
   &DFT
     BASIS_SET_FILE_NAME BASIS_MOLOPT
     POTENTIAL_FILE_NAME GTH_POTENTIALS
     UKS  T
     SURFACE_DIPOLE_CORRECTION  T
     SURF_DIP_DIR  Z
     &SCF
       MAX_SCF  80
       EPS_SCF     5.0000000000000004E-06
       &OT  T
         PRECONDITIONER  FULL_ALL
       &END OT
       &OUTER_SCF  T
         OPTIMIZER  NONE
         EPS_SCF     5.0000000000000004E-06
         MAX_SCF  4
       &END OUTER_SCF
       &PRINT
         &RESTART  OFF
           BACKUP_COPIES  1
           &EACH
             JUST_ENERGY  0
             QS_SCF  0
             MD  20
           &END EACH
         &END RESTART
       &END PRINT
     &END SCF
     &QS
       EPS_DEFAULT     1.0000000000000000E-14
       METHOD  GPW
     &END QS
     &MGRID
       NGRIDS  5
       CUTOFF     1.2000000000000000E+03
     &END MGRID
     &XC
       DENSITY_CUTOFF     1.0000000000000000E-10
       GRADIENT_CUTOFF     1.0000000000000000E-10
       TAU_CUTOFF     1.0000000000000000E-10
       &XC_FUNCTIONAL  NO_SHORTCUT
         &PBE  T
         &END PBE
       &END XC_FUNCTIONAL
       &VDW_POTENTIAL
         POTENTIAL_TYPE  PAIR_POTENTIAL
         &PAIR_POTENTIAL
           R_CUTOFF     1.0000000000000009E+01
           TYPE  DFTD3
           PARAMETER_FILE_NAME dftd3.dat
           REFERENCE_FUNCTIONAL PBE
           EPS_CN     9.9999999999999995E-07
           CALCULATE_C9_TERM  T
           REFERENCE_C9_TERM  T
           LONG_RANGE_CORRECTION  F
           VERBOSE_OUTPUT  F
         &END PAIR_POTENTIAL
       &END VDW_POTENTIAL
     &END XC
   &END DFT
   &SUBSYS
     &CELL
       A     1.2864472766435110E+01    0.0000000000000000E+00    0.0000000000000000E+00
       B    -6.4322363581020028E+00    1.1140960178524477E+01    0.0000000000000000E+00
       C     0.0000000000000000E+00    0.0000000000000000E+00    3.2000000000000000E+01
       MULTIPLE_UNIT_CELL  1 1 1
       &CELL_REF
         A     1.2982353780853531E+01    0.0000000000000000E+00    0.0000000000000000E+00
         B    -6.4911768904267628E+00    1.1243048175136114E+01    0.0000000000000000E+00
         C     0.0000000000000000E+00    0.0000000000000000E+00    3.2000000000000000E+01
         MULTIPLE_UNIT_CELL  1 1 1
       &END CELL_REF
     &END CELL
     &COORD
N    8.8448362803180639E-03    2.0410044675699481E+00    2.4895833581166582E+00
Ga    2.2963470117794562E-02    7.7053298512952548E-02    2.8293467922112736E+00
N   -6.4754542270603916E-03    4.7502150087780935E-02    5.0101967013878985E+00
Ga   -5.2535405124217128E-03    1.8738644865019625E+00    5.7953224858790042E+00
N   -5.9613729002201514E-03    1.8868494955367399E+00    7.7970902785368139E+00
Ga    1.5195682341749229E-05    4.0890352030667453E-02    8.4346405362656540E+00
N   -2.4202787428904255E-03    4.1053701292528465E-02    1.0413064404254570E+01
Ga   -2.4126993442694115E-03    1.8806975779783630E+00    1.1065052146276487E+01
N   -3.0947719952381125E-03    1.8619748480568183E+00    1.3061586636482643E+01
Ga   -2.8127862606724856E-03    4.1733881702852998E-02    1.3862120808534252E+01
N   -4.2240803335318955E-03    4.0549677515716490E-02    1.6067491201483168E+01
Ga   -2.7730308245265491E-03    2.0777689307073341E+00    1.6475526373077010E+01
Ga    8.6232875004425946E-02    3.7392937653943830E+00    1.3549235529643944E+00
N   -1.4663012723263413E+00    4.6212300329268707E+00    2.4579494960204165E+00
Ga   -1.6671286325694183E+00    2.7894648044535186E+00    3.2441590139283059E+00
N   -1.6102351589046755E+00    2.8308508682480586E+00    5.2335716026135506E+00
Ga   -1.6429271662808851E+00    4.6910236158713055E+00    5.8074461366808334E+00
N   -1.6222477306377163E+00    4.6892901984713538E+00    7.8018574081569243E+00
Ga   -1.6006743744744669E+00    2.8311734126390782E+00    8.4378687967846560E+00
N   -1.6010029302223974E+00    2.8336266810832020E+00    1.0432430334570359E+01
Ga   -1.6281808157296749E+00    4.6929463631042125E+00    1.1068194481363980E+01
N   -1.6437378295332987E+00    4.7026742281189859E+00    1.3063404005202482E+01
Ga   -1.5998750031623303E+00    2.8335253140947887E+00    1.3617280224380265E+01
N   -1.6269898057552976E+00    2.8174988122073699E+00    1.5581943871747944E+01
Ga   -1.4554725691007810E+00    4.5936085697353848E+00    1.6475992445770800E+01
N   -1.1103414777246443E-02    3.7500429114881029E+00    1.7608554547972457E+01
N   -3.2175795688023587E+00    7.5779850745053645E+00    2.4876990677787916E+00
Ga   -3.1875601703419303E+00    5.6043097141676217E+00    2.8260178287724758E+00
N   -3.2138965036298854E+00    5.6048128639449182E+00    5.0097469519618993E+00
Ga   -3.2312544026982466E+00    7.4348142484043311E+00    5.7772436192047785E+00
N   -3.2203124127689673E+00    7.4593683170761320E+00    7.7801025155325609E+00
Ga   -3.2210693179717076E+00    5.6148775122339538E+00    8.4390496504628452E+00
N   -3.2201520812872868E+00    5.6142065232236567E+00    1.0415202707226742E+01
Ga   -3.2219534870857287E+00    7.4529607086275176E+00    1.1066303788113350E+01
N   -3.2196950982919521E+00    7.4331848804256264E+00    1.3061463989709766E+01
Ga   -3.2202651602791796E+00    5.6125810788875512E+00    1.3863680580663489E+01
N   -3.2209653908278768E+00    5.6116955603044545E+00    1.6068147894578338E+01
Ga   -3.2195715577046040E+00    7.6512617560694833E+00    1.6478431622532099E+01
Ga   -3.2498600558493038E+00    9.3506620745336040E+00    1.2906209430194948E+00
N   -4.7290948219169957E+00    1.0191514054882560E+01    2.4969304495806157E+00
Ga   -4.9245317150079195E+00    8.3384089821079410E+00    3.2139846579556348E+00
N   -4.8349170995875363E+00    8.3901447093868526E+00    5.2054424416535605E+00
Ga   -4.8535105425886620E+00    1.0263815880318367E+01    5.7678009331240778E+00
N   -4.8372514699866809E+00    1.0256988741617757E+01    7.7773413659967181E+00
Ga   -4.8189680469297649E+00    8.4045801052117284E+00    8.4245951071731238E+00
N   -4.8167164630921873E+00    8.4039633971552981E+00    1.0422638734539422E+01
Ga   -4.8420202392237002E+00    1.0262413145755563E+01    1.1063117304078721E+01
N   -4.8585775827649451E+00    1.0272466988481716E+01    1.3059600588115627E+01
Ga   -4.8161799854622389E+00    8.4047015634261353E+00    1.3618373403630237E+01
N   -4.8437149994476982E+00    8.3883227193095369E+00    1.5581842532926286E+01
Ga   -4.6696044273428612E+00    1.0163265771811936E+01    1.6478071387423608E+01
N   -3.2273224446104467E+00    9.3217279878663675E+00    1.7613195930391772E+01
N    3.1971398942628073E+00    1.9020307474204650E+00    2.6103675176658356E+00
Ga    3.2061481459131187E+00    1.3396076624234149E-01    3.2453384382667374E+00
N    3.2144386691792031E+00    4.0546993565765896E-02    5.2294417438071754E+00
Ga    3.2094047777834147E+00    1.8940382152176978E+00    5.8675523214863503E+00
N    3.2146104865375014E+00    1.8967342283669189E+00    7.8465317513589552E+00
Ga    3.2093121048573190E+00    2.9439509122910386E-02    8.4255661785322733E+00
N    3.2120289384503722E+00    2.7925247663847182E-02    1.0423828026435961E+01
Ga    3.2118485135654686E+00    1.8970566001115130E+00    1.1021703612198170E+01
N    3.2128161844780112E+00    1.8979426432403106E+00    1.2996117705187423E+01
Ga    3.2131923693922588E+00    2.9071996423215351E-02    1.3617220159735941E+01
N    3.2141112513138927E+00    6.0002559960510717E-02    1.5579845235454574E+01
Ga    3.2130375232671633E+00    1.8984840888678998E+00    1.5858672986105386E+01
N    1.4735855646736284E+00    4.6192874616208703E+00    2.5665305373784379E+00
Ga    1.6834406499061523E+00    2.7793975620619582E+00    3.3023776501490310E+00
N    1.6056655070915042E+00    2.8270019859698734E+00    5.2679757083984846E+00
Ga    1.6515861811343777E+00    4.7047770355234269E+00    5.8060870858631608E+00
N    1.6085386849725354E+00    4.6893440252802598E+00    7.8119481854315458E+00
Ga    1.5947048455805188E+00    2.8311440178850531E+00    8.4319097460226065E+00
N    1.5938091022662371E+00    2.8320921620538715E+00    1.0430388159430887E+01
Ga    1.6204077462748807E+00    4.6915902373372385E+00    1.1065614571224694E+01
N    1.6368250954569519E+00    4.7024046900927399E+00    1.3061863311719696E+01
Ga    1.5942528258702053E+00    2.8339668317507383E+00    1.3616346222653378E+01
N    1.6213281224901768E+00    2.8191643832235931E+00    1.5580104764753248E+01
Ga    1.4423409849662130E+00    4.5893976992510890E+00    1.6476615171144527E+01
N   -1.0416648561172430E-02    7.4602107128079327E+00    2.6958847241258153E+00
Ga   -8.0731403592496347E-03    5.6070921708804082E+00    3.3434687613425398E+00
N   -8.9252730520618436E-03    5.6278938120242712E+00    5.2729515073795232E+00
Ga   -1.1288185591282241E-02    7.4676256086229555E+00    5.9055293516938336E+00
N   -4.4366442479369435E-03    7.4718398528439485E+00    7.8638461825010566E+00
Ga   -3.8518672444407308E-03    5.5971417335574793E+00    8.4452510710191788E+00
N   -5.2503281262571274E-03    5.6009412556491096E+00    1.0437168983440742E+01
Ga   -5.9254009783732114E-03    7.4700078752134154E+00    1.1027277945492525E+01
N   -4.0404541994336256E-03    7.4699162728681312E+00    1.2999593401092755E+01
Ga   -2.5432266165936693E-03    5.5991094932869592E+00    1.3617541731806019E+01
N   -1.5250432027684704E-03    5.6302179364113538E+00    1.5581126982051442E+01
Ga   -3.3732732871356104E-03    7.4690988533624054E+00    1.5859854464496784E+01
N   -1.7062085431838931E+00    1.0193452748070111E+01    2.5034866127276212E+00
Ga   -1.6244930244783147E+00    8.3968455244649896E+00    3.2953308146045872E+00
N   -1.6010329440284001E+00    8.3906836999768384E+00    5.2374788150464404E+00
Ga   -1.5916548220178253E+00    1.0273747373900944E+01    5.7924500752287447E+00
N   -1.6014943336206662E+00    1.0258017325785014E+01    7.7892158211140297E+00
Ga   -1.6277960249867633E+00    8.4050255746443820E+00    8.4370268793961358E+00
N   -1.6247719301213597E+00    8.4044740499148176E+00    1.0429582096141759E+01
Ga   -1.5987313957245435E+00    1.0264137876009764E+01    1.1065632265468096E+01
N   -1.5795637080806151E+00    1.0273199223396931E+01    1.3060526787393879E+01
Ga   -1.6229427893905952E+00    8.4053200872672562E+00    1.3618533306520026E+01
N   -1.5948150462472410E+00    8.3896721527855753E+00    1.5580887395508260E+01
Ga   -1.7761147328668603E+00    1.0159562108841415E+01    1.6478982639913429E+01
N    6.4320587992054286E+00    2.0196551883082505E+00    2.5443393205642222E+00
Ga    6.4102735966755411E+00    4.2388510452939579E-02    2.8777164356309126E+00
N    6.4335555395140798E+00    4.2800207886517880E-02    5.0253866538131353E+00
Ga    6.4265699954819997E+00    1.8764279143138374E+00    5.8004234463833741E+00
N    6.4293273868671230E+00    1.8871844124405268E+00    7.7964713713003544E+00
Ga    6.4269501129661073E+00    4.2771900633093732E-02    8.4426810259154852E+00
N    6.4283014266334622E+00    4.1662663033254214E-02    1.0417084048967958E+01
Ga    6.4291519061022617E+00    1.8824471311693951E+00    1.1066361094117054E+01
N    6.4298973144404332E+00    1.8626578743556208E+00    1.3061888550877468E+01
Ga    6.4285435196380956E+00    4.2729500892792975E-02    1.3863741556188986E+01
N    6.4273026464372869E+00    4.0821000294859917E-02    1.6067784654958459E+01
Ga    6.4286634701821761E+00    2.0794542529087212E+00    1.6476577558165079E+01
Ga    6.4493050783653212E+00    3.7313437118551276E+00    1.5301129322854821E+00
N    4.9306365113772932E+00    4.6132079533186836E+00    2.4869513619602257E+00
Ga    4.6992453295372538E+00    2.7749332717141608E+00    3.2936162155528552E+00
N    4.8199336240612105E+00    2.8298272701892482E+00    5.2513480609631129E+00
Ga    4.7807740855854099E+00    4.7086149380938194E+00    5.8028210324919876E+00
N    4.8178926878417885E+00    4.6868258187985701E+00    7.8083943992726654E+00
Ga    4.8299195446653860E+00    2.8320853023138195E+00    8.4370857317636609E+00
N    4.8316848796428795E+00    2.8320990131379244E+00    1.0432814989458405E+01
Ga    4.8064843384503266E+00    4.6929931234909326E+00    1.1064971077970251E+01
N    4.7902839548407297E+00    4.7024848818511460E+00    1.3061518034603830E+01
Ga    4.8322987977232081E+00    2.8338434651305140E+00    1.3616241370480324E+01
N    4.8045975367154137E+00    2.8175901254136790E+00    1.5580759067100017E+01
Ga    4.9779508298972051E+00    4.5926395605481041E+00    1.6476402772666741E+01
N    6.4209343130097833E+00    3.7504165044113580E+00    1.7611056230718138E+01
N    3.2071806585943263E+00    7.6066605603635571E+00    2.4967555430714379E+00
N    3.2157763025816224E+00    5.6175819856179103E+00    5.0869604382074671E+00
Ga    3.2215764415593569E+00    7.4157669307185259E+00    5.8138310204878918E+00
N    3.2118766472404521E+00    7.4680863581283194E+00    7.8118092421590841E+00
Ga    3.2136916704658223E+00    5.6120604405225443E+00    8.4402601794581003E+00
N    3.2131134643310908E+00    5.6135057152300982E+00    1.0419557758010136E+01
Ga    3.2145267625424201E+00    7.4519003594658662E+00    1.1068037171459157E+01
N    3.2136108620314543E+00    7.4335568823373039E+00    1.3063433104797461E+01
Ga    3.2134963896647473E+00    5.6120878230135975E+00    1.3861909213323498E+01
N    3.2116137567019858E+00    5.6112225517246026E+00    1.6068028570584325E+01
Ga    3.2131636167867712E+00    7.6499523153657920E+00    1.6476712889196261E+01
Ga    3.2355477092872649E+00    9.3610386927721887E+00    1.5085457277541321E+00
N    1.7088709616028404E+00    1.0187055816519168E+01    2.5283133066106820E+00
Ga    1.5785823368664846E+00    8.3678750572149330E+00    3.3398901584417011E+00
N    1.5941066397471677E+00    8.3906476033995272E+00    5.2606150240154390E+00
Ga    1.5798522035182589E+00    1.0275362410251727E+01    5.8102177192387838E+00
N    1.5951565323448578E+00    1.0259194602768240E+01    7.7993434587908350E+00
Ga    1.6165068384150618E+00    8.4059446478885462E+00    8.4498477272398880E+00
N    1.6142798563440857E+00    8.4055633059017456E+00    1.0439156337008916E+01
Ga    1.5899663336602754E+00    1.0265597164333695E+01    1.1069669143218860E+01
N    1.5736250531946014E+00    1.0273932655872308E+01    1.3063944562621781E+01
Ga    1.6165983236980845E+00    8.4047595701509028E+00    1.3618538038287680E+01
N    1.5886369825203592E+00    8.3879258066015634E+00    1.5582717481339087E+01
Ga    1.7616620880981424E+00    1.0163766519747904E+01    1.6477012513069088E+01
N    3.2053045528729647E+00    9.3214165351427773E+00    1.7611139355315267E+01
N    9.6589675815885023E+00    1.9069662132102982E+00    2.6088351413529982E+00
Ga    9.6584597937679710E+00    1.7370824394987738E-01    3.2969295588729208E+00
N    9.6448815963086272E+00    4.1467691505209105E-02    5.2531779929485793E+00
Ga    9.6577959067415176E+00    1.9058869065193098E+00    5.8701540379542054E+00
N    9.6465165371708075E+00    1.8990162028403523E+00    7.8457374828850810E+00
Ga    9.6483027786798257E+00    3.2050736458095870E-02    8.4336755523895377E+00
N    9.6451057999522565E+00    2.9460399709464433E-02    1.0428529261926602E+01
Ga    9.6442829915909396E+00    1.8990746212892400E+00    1.1023103229464834E+01
N    9.6449089623627096E+00    1.8987301811387209E+00    1.2996562877813277E+01
Ga    9.6463246772965086E+00    2.9764099298335542E-02    1.3618711123061871E+01
N    9.6472444796095171E+00    6.0333555104565256E-02    1.5581591717848829E+01
Ga    9.6455414178203416E+00    1.8988749624156032E+00    1.5860420493869258E+01
N    7.9335500122329909E+00    4.6193005667924281E+00    2.5257726113531715E+00
Ga    8.1549869318335197E+00    2.7699301608228892E+00    3.3020388049980247E+00
N    8.0411355364359416E+00    2.8257762745068065E+00    5.2572949345653663E+00
Ga    8.0615749974798909E+00    4.7026003962428655E+00    5.7905101636654166E+00
N    8.0466952522767556E+00    4.6915956985300120E+00    7.7902368182716124E+00
Ga    8.0284054907995177E+00    2.8342315831030733E+00    8.4308833365486198E+00
N    8.0261732975461015E+00    2.8341071663718047E+00    1.0427172850532477E+01
Ga    8.0516309357569824E+00    4.6930622766364216E+00    1.1065462088529527E+01
N    8.0691080963972972E+00    4.7023346319823869E+00    1.3060733356099082E+01
Ga    8.0266174583272409E+00    2.8343438851621725E+00    1.3617838431990197E+01
N    8.0540696930183096E+00    2.8192608452110530E+00    1.5580806646122793E+01
Ga    7.8730053632288932E+00    4.5892667706211450E+00    1.6477926426286004E+01
N    6.4055378926840447E+00    7.4542515308525390E+00    2.5347118047032473E+00
Ga    6.4156526444743607E+00    5.7316156537510397E+00    3.2798049195672494E+00
N    6.4269303964216089E+00    5.6135268402507110E+00    5.2378506158880214E+00
Ga    6.4325873665148237E+00    7.4700091906588924E+00    5.8624938988408646E+00
N    6.4282862408565364E+00    7.4690971524525569E+00    7.8386690602879794E+00
Ga    6.4299136775628396E+00    5.6015684157748709E+00    8.4352149545446018E+00
N    6.4304352432280867E+00    5.6015753113175837E+00    1.0430538937935422E+01
Ga    6.4302597125008765E+00    7.4701409288663241E+00    1.1023141862213976E+01
N    6.4297375093904261E+00    7.4698338544777645E+00    1.2996439088762342E+01
Ga    6.4298054319314257E+00    5.5998618425444198E+00    1.3616896060497577E+01
N    6.4305082854308981E+00    5.6304637494005334E+00    1.5580180460459040E+01
Ga    6.4292257943231572E+00    7.4690971775517108E+00    1.5859300801472680E+01
N    4.7212760904541087E+00    1.0199444884137229E+01    2.5235966509274523E+00
Ga    4.9286624816456035E+00    8.3311639371915476E+00    3.2852123611823174E+00
N    4.8185958885000533E+00    8.3975501373144485E+00    5.2408450930097974E+00
Ga    4.8538852825193866E+00    1.0269916490412262E+01    5.7936313454446324E+00
N    4.8312647674344298E+00    1.0259494474279842E+01    7.7914839348353073E+00
Ga    4.8139390632999577E+00    8.4055551634439141E+00    8.4370691083962193E+00
N    4.8117337010804286E+00    8.4050890465574408E+00    1.0431394635830978E+01
Ga    4.8369596310868657E+00    1.0264115334287215E+01    1.1065630697702321E+01
N    4.8528363635865137E+00    1.0273398881707012E+01    1.3060939209837944E+01
Ga    4.8109335954310550E+00    8.4050307619099165E+00    1.3617738217546297E+01
N    4.8377310580809372E+00    8.3898917556970503E+00    1.5580861117782495E+01
Ga    4.6577832405450756E+00    1.0159743866629359E+01    1.6477787369532241E+01
O    8.0244854188435832E-01    3.8955031916802279E+00   -3.6047119786109361E-01
H    1.2770035760488168E-03    7.4431340090671601E+00    1.6695799077496478E+00
C    1.1307943527651629E+00    2.6469930807086604E+00   -1.0069467602952737E+00
H    1.8090464272912470E+00    2.0320237121570126E+00   -3.9142042132918631E-01
H    2.2922625737106575E-01    2.0571626292992327E+00   -1.2322662721180828E+00
H    1.6309975505745615E+00    2.8834387396993244E+00   -1.9574106117345234E+00
Ga    3.1710351247708233E+00    5.5839651463624547E+00    2.4754661106904514E+00
O    2.9445047371277457E+00    5.6507401724615667E+00    3.1440385868383436E-01
H    2.3205643502109377E+00    4.9617895903283369E+00   -5.9820487093809008E-02
C    4.1431471095900632E+00    5.8704152720456841E+00   -4.5821207278616205E-01
H    3.9127514933265282E+00    6.4405203581282873E+00   -1.3684713044378147E+00
H    4.8367812218590132E+00    6.4438873439946400E+00    1.8488213283643284E-01
H    4.6214731900902262E+00    4.9185407700662722E+00   -7.3423095616331302E-01
     &END COORD
     &KIND C
       BASIS_SET DZVP-MOLOPT-SR-GTH-q4
       POTENTIAL GTH-PBE-q4
       &POTENTIAL
2 2
0.3384712400000000E+00 2 -0.8803673979999999E+01  0.1339210850000000E+01
2
0.3025757500000000E+00 1  0.9622486650000001E+01
0.2915069400000000E+00 0
       &END POTENTIAL
     &END KIND
     &KIND O
       BASIS_SET DZVP-MOLOPT-SR-GTH-q6
       POTENTIAL GTH-PBE-q6
       &POTENTIAL
2 4
0.2445543000000000E+00 2 -0.1666721480000000E+02  0.2487311320000000E+01
2
0.2209559200000000E+00 1  0.1833745811000000E+02
0.2113324700000000E+00 0
       &END POTENTIAL
     &END KIND
     &KIND H
       BASIS_SET DZVP-MOLOPT-SR-GTH-q1
       POTENTIAL GTH-PBE-q1
       &POTENTIAL
1
0.2000000000000000E+00 2 -0.4178900440000000E+01  0.7244633100000000E+00
0
       &END POTENTIAL
     &END KIND
     &KIND N
       BASIS_SET DZVP-MOLOPT-SR-GTH
       POTENTIAL GTH-PBE-q5
       &POTENTIAL
2 3
0.2837905100000000E+00 2 -0.1241522559000000E+02  0.1868095920000000E+01
2
0.2554050000000000E+00 1  0.1363026257000000E+02
0.2454945300000000E+00 0
       &END POTENTIAL
     &END KIND
     &KIND Ga
       BASIS_SET DZVP-MOLOPT-SR-GTH
       POTENTIAL GTH-PBE-q13
       &POTENTIAL
2 1 10
0.4900000000000000E+00 0
3
0.4167772300000000E+00 3  0.1047568975000000E+02 -0.4921768140000000E+01  0.8707055900000000E+00
0.7770178090000000E+01 -0.2248152160000000E+01
0.1784415450000000E+01
0.5696265200000000E+00 2  0.1777985340000000E+01  0.1958597600000000E+00
-0.2317443900000000E+00
0.2381265000000000E+00 1 -0.1624868022000000E+02
       &END POTENTIAL
     &END KIND
     &TOPOLOGY
       NUMBER_OF_ATOMS  212
       MULTIPLE_UNIT_CELL  1 1 1
     &END TOPOLOGY
     &COLVAR
       &DISTANCE
         ATOMS  176 211
       &END DISTANCE
       &PRINT
       &END PRINT
     &END COLVAR
   &END SUBSYS
 &END FORCE_EVAL
