 # Version information for this restart file 
 # current date 2019-07-11 17:28:04.211
 # current working dir /lustre04/scratch/rzk/rzk/GaN-carbene/443-adatoms-both-2x2/09-BondBreaking-CH/03-0501-CH-to-Nsur-PES
 # Program compiled at                              Sun Apr  7 00:48:11 EDT 2019
 # Program compiled on                          beluga2.int.ets1.calculquebec.ca
 # Program compiled for                        Beluga-Linux-x86-64-intel-openmpi
 # Source code revision number                                         svn:18619
 &GLOBAL
   PRINT_LEVEL  MEDIUM
   PROJECT_NAME TEST
   RUN_TYPE  GEO_OPT
 &END GLOBAL
 &MOTION
   &GEO_OPT
     MAX_ITER  500
     STEP_START_VAL  122
   &END GEO_OPT
   &CONSTRAINT
     &COLLECTIVE
       COLVAR  1
       INTERMOLECULAR  T
       TARGET     4.5353427189255431E+00
       &RESTRAINT
         K     2.0000000000000000E+00
       &END RESTRAINT
     &END COLLECTIVE
     &COLVAR_RESTART
           4.5353427189255431E+00
     &END COLVAR_RESTART
   &END CONSTRAINT
 &END MOTION
 &FORCE_EVAL
   METHOD  QS
   STRESS_TENSOR  ANALYTICAL
   &DFT
     BASIS_SET_FILE_NAME BASIS_MOLOPT
     POTENTIAL_FILE_NAME GTH_POTENTIALS
     UKS  T
     SURFACE_DIPOLE_CORRECTION  T
     SURF_DIP_DIR  Z
     &SCF
       MAX_SCF  80
       EPS_SCF     5.0000000000000004E-06
       &OT  T
         PRECONDITIONER  FULL_ALL
       &END OT
       &OUTER_SCF  T
         OPTIMIZER  NONE
         EPS_SCF     5.0000000000000004E-06
         MAX_SCF  4
       &END OUTER_SCF
       &PRINT
         &RESTART  OFF
           BACKUP_COPIES  1
           &EACH
             JUST_ENERGY  0
             QS_SCF  0
             MD  20
           &END EACH
         &END RESTART
       &END PRINT
     &END SCF
     &QS
       EPS_DEFAULT     1.0000000000000000E-14
       METHOD  GPW
     &END QS
     &MGRID
       NGRIDS  5
       CUTOFF     1.2000000000000000E+03
     &END MGRID
     &XC
       DENSITY_CUTOFF     1.0000000000000000E-10
       GRADIENT_CUTOFF     1.0000000000000000E-10
       TAU_CUTOFF     1.0000000000000000E-10
       &XC_FUNCTIONAL  NO_SHORTCUT
         &PBE  T
         &END PBE
       &END XC_FUNCTIONAL
       &VDW_POTENTIAL
         POTENTIAL_TYPE  PAIR_POTENTIAL
         &PAIR_POTENTIAL
           R_CUTOFF     1.0000000000000009E+01
           TYPE  DFTD3
           PARAMETER_FILE_NAME dftd3.dat
           REFERENCE_FUNCTIONAL PBE
           EPS_CN     9.9999999999999995E-07
           CALCULATE_C9_TERM  T
           REFERENCE_C9_TERM  T
           LONG_RANGE_CORRECTION  F
           VERBOSE_OUTPUT  F
         &END PAIR_POTENTIAL
       &END VDW_POTENTIAL
     &END XC
   &END DFT
   &SUBSYS
     &CELL
       A     1.2864472766435110E+01    0.0000000000000000E+00    0.0000000000000000E+00
       B    -6.4322363581020028E+00    1.1140960178524477E+01    0.0000000000000000E+00
       C     0.0000000000000000E+00    0.0000000000000000E+00    3.2000000000000000E+01
       MULTIPLE_UNIT_CELL  1 1 1
       &CELL_REF
         A     1.2982353780853531E+01    0.0000000000000000E+00    0.0000000000000000E+00
         B    -6.4911768904267628E+00    1.1243048175136114E+01    0.0000000000000000E+00
         C     0.0000000000000000E+00    0.0000000000000000E+00    3.2000000000000000E+01
         MULTIPLE_UNIT_CELL  1 1 1
       &END CELL_REF
     &END CELL
     &COORD
N    9.1605280565671653E-03    2.0458569833534663E+00    2.4722046887502578E+00
Ga    2.7927561003256152E-02    8.9560824239785203E-02    2.8059170103444369E+00
N    2.0934047798485890E-03    5.3075617107382018E-02    4.9864906072096042E+00
Ga    8.1249140350001577E-03    1.8829871706775914E+00    5.7588128691918881E+00
N    5.7721426620126071E-03    1.8945748545828012E+00    7.7634516110783895E+00
Ga    9.2656943758610728E-03    4.9277510922758304E-02    8.4043670778941202E+00
N    6.5723864043181557E-03    4.8395209986222307E-02    1.0381992726868853E+01
Ga    6.6875903090606549E-03    1.8882937391386210E+00    1.1031627567957958E+01
N    5.4686518464800117E-03    1.8693602187709186E+00    1.3028013164095489E+01
Ga    6.7471752846710161E-03    4.9308671995637675E-02    1.3828597938875573E+01
N    7.9085079881836742E-03    4.8647052065097486E-02    1.6034126871716119E+01
Ga    6.2729350659290733E-03    2.0875395099936478E+00    1.6443815720687223E+01
Ga    2.7997866025843633E-02    3.7252194773731993E+00    1.2920566646138072E+00
N   -1.4679231786941034E+00    4.6252060062771214E+00    2.4485311308585596E+00
Ga   -1.6608489248958451E+00    2.7952474368103433E+00    3.2299580966639287E+00
N   -1.6032786901775664E+00    2.8361684641329750E+00    5.2151329068725323E+00
Ga   -1.6293836738559897E+00    4.7004201303440061E+00    5.7695360851740514E+00
N   -1.6110870231788468E+00    4.6979827107361247E+00    7.7668605437700897E+00
Ga   -1.5893799296807019E+00    2.8394008141009146E+00    8.4034594877840068E+00
N   -1.5911650205667236E+00    2.8407848443548107E+00    1.0398520355415117E+01
Ga   -1.6181336715001817E+00    4.6994504195337434E+00    1.1033985262745205E+01
N   -1.6345635924430615E+00    4.7095087068511239E+00    1.3028824950748255E+01
Ga   -1.5914242887172536E+00    2.8409618522921622E+00    1.3584192514307802E+01
N   -1.6189104624386554E+00    2.8264505136396649E+00    1.5547133676823019E+01
Ga   -1.4373778234005039E+00    4.5959659385506120E+00    1.6445450616067223E+01
N    1.3992460990839008E-02    3.7574901615440446E+00    1.7578828528198372E+01
N   -3.2143399374753816E+00    7.5828735297496532E+00    2.4622796529173168E+00
Ga   -3.1762954211221204E+00    5.6077965710802022E+00    2.8051763737116087E+00
N   -3.2065230936098357E+00    5.6128061836845298E+00    4.9867865532424220E+00
Ga   -3.2236302205342291E+00    7.4417814826840525E+00    5.7510071466855246E+00
N   -3.2120630762548426E+00    7.4667243485793220E+00    7.7525633542709693E+00
Ga   -3.2105808327686769E+00    5.6214262084576658E+00    8.4076626949639639E+00
N   -3.2105069795900207E+00    5.6206546670855815E+00    1.0383348325900755E+01
Ga   -3.2121479372637536E+00    7.4591138257810892E+00    1.1034162412997954E+01
N   -3.2110520907792686E+00    7.4401482910454959E+00    1.3028979782792405E+01
Ga   -3.2101198423999948E+00    5.6195546334132640E+00    1.3829990386978235E+01
N   -3.2083827461862522E+00    5.6189940148085062E+00    1.6034790494878706E+01
Ga   -3.2104604188661674E+00    7.6588178303971883E+00    1.6445913469628632E+01
Ga   -3.2450994675083984E+00    9.3569802369967725E+00    1.2648170782332566E+00
N   -4.7256408757068025E+00    1.0197456566215189E+01    2.4704764048411643E+00
Ga   -4.9190628259150317E+00    8.3453900527120144E+00    3.1876601086698471E+00
N   -4.8271905678073637E+00    8.3967722357764956E+00    5.1785431082588342E+00
Ga   -4.8457418030248292E+00    1.0270076536336651E+01    5.7416886101354097E+00
N   -4.8286591549348463E+00    1.0263125410022621E+01    7.7500579452038192E+00
Ga   -4.8091679873074780E+00    8.4119712296154532E+00    8.3985252081550641E+00
N   -4.8072991510478289E+00    8.4107647054362911E+00    1.0393853834299119E+01
Ga   -4.8329516629651890E+00    1.0269850266147621E+01    1.1030696108794418E+01
N   -4.8499926050044548E+00    1.0279562028581816E+01    1.3026375221803315E+01
Ga   -4.8079020754295119E+00    8.4120408310287988E+00    1.3584772928382352E+01
N   -4.8347223141101354E+00    8.3973334364446668E+00    1.5547622853319201E+01
Ga   -4.6539393138631899E+00    1.0166922435545276E+01    1.6446274976463531E+01
N   -3.2028445946162614E+00    9.3289721570248592E+00    1.7580788732550587E+01
N    3.2101900342570184E+00    1.9063410100402602E+00    2.5832099435311919E+00
Ga    3.2102959294631956E+00    1.3960300976956852E-01    3.2160520000525827E+00
N    3.2211077949243272E+00    4.6097848298335416E-02    5.2009433884740979E+00
Ga    3.2125177148149140E+00    1.9016709159857643E+00    5.8316079956113729E+00
N    3.2213413218953368E+00    1.9035691464602993E+00    7.8122534732963622E+00
Ga    3.2178454205180596E+00    3.6784585880894137E-02    8.3943826748669608E+00
N    3.2212428861734046E+00    3.5153237383139954E-02    1.0391904409547058E+01
Ga    3.2214761162982279E+00    1.9044448694846146E+00    1.0987710585682462E+01
N    3.2219024158919800E+00    1.9050183276658992E+00    1.2962189773871383E+01
Ga    3.2207648063254388E+00    3.6247474010745823E-02    1.3584113652634443E+01
N    3.2204128044269003E+00    6.7004997170950403E-02    1.5547065793279435E+01
Ga    3.2217453534834575E+00    1.9056990888325147E+00    1.5824756180498079E+01
N    1.4853233319541890E+00    4.6274170662893690E+00    2.4528446644586843E+00
Ga    1.6868462842412371E+00    2.7943971064866249E+00    3.2383972272410557E+00
N    1.6153854309981717E+00    2.8390327489689917E+00    5.2168641050506457E+00
Ga    1.6587094478131699E+00    4.7091745966457630E+00    5.7651508357276260E+00
N    1.6201724441092267E+00    4.6971855485988208E+00    7.7706568529825537E+00
Ga    1.6042115555425471E+00    2.8389133046585098E+00    8.3991547832764137E+00
N    1.6034243593852979E+00    2.8399907555898825E+00    1.0397084441854394E+01
Ga    1.6296753547095209E+00    4.6985801910398290E+00    1.1033095676929612E+01
N    1.6451542354726945E+00    4.7093206333511777E+00    1.3028942321491449E+01
Ga    1.6026605291683602E+00    2.8404255746867451E+00    1.3583222748905518E+01
N    1.6303933673192621E+00    2.8249064639649992E+00    1.5547507463815279E+01
Ga    1.4563875507450077E+00    4.5996625987956072E+00    1.6443881653968262E+01
N   -3.6031522481195766E-03    7.4692509306688653E+00    2.6625721779185607E+00
Ga    9.9488565301509672E-03    5.6064772797970734E+00    3.2850736091624668E+00
N    6.8887436598798592E-03    5.6332082469497591E+00    5.2223630397334899E+00
Ga   -4.6430347031896444E-03    7.4697090657074243E+00    5.8695975745795836E+00
N    3.3874777614669592E-03    7.4766690729195542E+00    7.8288038371528073E+00
Ga    6.4754529256444322E-03    5.6035428672334726E+00    8.4104814467058411E+00
N    5.2628205383311207E-03    5.6072283277992776E+00    1.0402522105730977E+01
Ga    4.3770720252425581E-03    7.4761226550246969E+00    1.0993423587693449E+01
N    5.0217996080369528E-03    7.4767736556147160E+00    1.2965738218326702E+01
Ga    5.1532978166227705E-03    5.6062784186686407E+00    1.3584419677188739E+01
N    4.4405617040523693E-03    5.6379197322035548E+00    1.5547323445896618E+01
Ga    4.8964348432054749E-03    7.4763085818245445E+00    1.5825838233732963E+01
N   -1.7002435686227459E+00    1.0198404057183083E+01    2.4769017324314775E+00
Ga   -1.6190792155122267E+00    8.4000831863758751E+00    3.2654550832060036E+00
N   -1.5939768399397842E+00    8.3960043222536207E+00    5.2079319475110593E+00
Ga   -1.5844540783530154E+00    1.0279576943993959E+01    5.7622796005953978E+00
N   -1.5934708675421545E+00    1.0264046881759871E+01    7.7593394752667724E+00
Ga   -1.6183915004823350E+00    8.4110560844316602E+00    8.4059811119394467E+00
N   -1.6148425702831886E+00    8.4107627604718598E+00    1.0398121890189978E+01
Ga   -1.5899496916308526E+00    1.0270587084252423E+01    1.1033189454055970E+01
N   -1.5715802980710847E+00    1.0279825175636230E+01    1.3028226761825149E+01
Ga   -1.6145504339072299E+00    8.4117194601819811E+00    1.3585499219752158E+01
N   -1.5865857306487683E+00    8.3959248218177525E+00    1.5549201903810255E+01
Ga   -1.7604587946279719E+00    1.0170634660261376E+01    1.6445281589029204E+01
N    6.4428739443148126E+00    2.0228131778449465E+00    2.5221289521995214E+00
Ga    6.4167510871168512E+00    4.8608126965911720E-02    2.8504963451263001E+00
N    6.4409233938495056E+00    4.8891323792868313E-02    4.9994338242549299E+00
Ga    6.4355100880614176E+00    1.8810678016342097E+00    5.7744096236454769E+00
N    6.4383285129717116E+00    1.8936989867438427E+00    7.7695458574357881E+00
Ga    6.4341339677303022E+00    4.8773792868311634E-02    8.4125258719559888E+00
N    6.4368745002739987E+00    4.8169593995793618E-02    1.0386080737542891E+01
Ga    6.4370056214392184E+00    1.8893001505470903E+00    1.1032891748720907E+01
N    6.4377269877752097E+00    1.8693812061021571E+00    1.3028683724164688E+01
Ga    6.4371931657094947E+00    4.9041650170922685E-02    1.3829255047092360E+01
N    6.4390854433404661E+00    4.8125104652999760E-02    1.6034447735148564E+01
Ga    6.4379814950079703E+00    2.0854039318045547E+00    1.6440924435444725E+01
Ga    6.4569397421881787E+00    3.7359301250932084E+00    1.5138470553123964E+00
N    4.9475927169296163E+00    4.6126657520770120E+00    2.4945221890721103E+00
Ga    4.7108811323464881E+00    2.7722440024484558E+00    3.2731160296086368E+00
N    4.8287286341225393E+00    2.8335856995560813E+00    5.2288724642337980E+00
Ga    4.7917148392023377E+00    4.7138264964334518E+00    5.7639210411819901E+00
N    4.8237308017755893E+00    4.6958647848078297E+00    7.7697007410768668E+00
Ga    4.8367893296787088E+00    2.8395424608380679E+00    8.4011634387159528E+00
N    4.8403591722832289E+00    2.8397310855547397E+00    1.0397314915760452E+01
Ga    4.8150803638345954E+00    4.6991503412052298E+00    1.1031434026627723E+01
N    4.7983491847332598E+00    4.7092483668753200E+00    1.3027515651617792E+01
Ga    4.8400918661655785E+00    2.8409098393309189E+00    1.3582677768009901E+01
N    4.8136262923059592E+00    2.8265420418365426E+00    1.5546582508437840E+01
Ga    4.9923371256939175E+00    4.5972678285913853E+00    1.6441885644615567E+01
N    6.4463694871746400E+00    3.7582146205769877E+00    1.7574575305042714E+01
N    3.2128144692135847E+00    7.6238950350516417E+00    2.5060476360816875E+00
N    3.2241144243442426E+00    5.6237467708747104E+00    5.0159850091876645E+00
Ga    3.2289995110201595E+00    7.4245159693746432E+00    5.7743352282024274E+00
N    3.2209211770925537E+00    7.4709371503447830E+00    7.7725260849627595E+00
Ga    3.2220337008965054E+00    5.6185333131290749E+00    8.4083328024834092E+00
N    3.2220413826901644E+00    5.6201342810738257E+00    1.0385703704462459E+01
Ga    3.2227708643478312E+00    7.4583743718524298E+00    1.1034801673913607E+01
N    3.2216739229043196E+00    7.4401968495249102E+00    1.3030128145684438E+01
Ga    3.2219387380430224E+00    5.6186874158910118E+00    1.3828237340904739E+01
N    3.2232073195284925E+00    5.6183506895319173E+00    1.6034345017219664E+01
Ga    3.2223741336290148E+00    7.6566799950734117E+00    1.6441876397949407E+01
Ga    3.2406111579028720E+00    9.3658190304694369E+00    1.4907571943126676E+00
N    1.7136822501928834E+00    1.0197581697238295E+01    2.5042588085581454E+00
Ga    1.5768329304983939E+00    8.3831806489652472E+00    3.3175835237862308E+00
N    1.5993905591337836E+00    8.3990018409977090E+00    5.2368780672123991E+00
Ga    1.5867514038745851E+00    1.0283394397555796E+01    5.7848238483212118E+00
N    1.6038271847512049E+00    1.0266151127888605E+01    7.7723973337203391E+00
Ga    1.6249550545604221E+00    8.4104003160545133E+00    8.4130204365408261E+00
N    1.6239244451877612E+00    8.4112415530422808E+00    1.0403238425940518E+01
Ga    1.5985147838011686E+00    1.0270947813377038E+01    1.1035684127865304E+01
N    1.5818310000052180E+00    1.0280214410428671E+01    1.3029868330087302E+01
Ga    1.6243852754488555E+00    8.4116301890454892E+00    1.3584769454991690E+01
N    1.5968342591603064E+00    8.3967197235012225E+00    1.5548061620255176E+01
Ga    1.7772738591402946E+00    1.0167522045435883E+01    1.6442804881925682E+01
N    3.2308853389985721E+00    9.3290711117212766E+00    1.7574299173292207E+01
N    9.6672870927356787E+00    1.9140233637086619E+00    2.5875875339511327E+00
Ga    9.6650935038256947E+00    1.8154715524772130E-01    3.2732758509726874E+00
N    9.6523902442184788E+00    4.7688048678418200E-02    5.2292198365325699E+00
Ga    9.6654127000020686E+00    1.9117713395768872E+00    5.8474030333207327E+00
N    9.6551679108414259E+00    1.9055072245110618E+00    7.8213331131580119E+00
Ga    9.6566458111277473E+00    3.8631501375999661E-02    8.4071068505568363E+00
N    9.6541054941839946E+00    3.5983656630707926E-02    1.0399880219025480E+01
Ga    9.6547502390034250E+00    1.9062787546492772E+00    1.0990780362705262E+01
N    9.6539497535178178E+00    1.9058640411727865E+00    1.2964031333354969E+01
Ga    9.6536900185100514E+00    3.6797164640887212E-02    1.3584422407206000E+01
N    9.6526259385142925E+00    6.8093050533557145E-02    1.5547752898437198E+01
Ga    9.6540949690744267E+00    1.9066648640214359E+00    1.5826374956130875E+01
N    7.9440674547065893E+00    4.6261021056873153E+00    2.5044400711616208E+00
Ga    8.1643005369304511E+00    2.7755084936929473E+00    3.2800869632799099E+00
N    8.0490891931861501E+00    2.8322500090014664E+00    5.2343957703517567E+00
Ga    8.0728796632205295E+00    4.7083427004725307E+00    5.7667651195903842E+00
N    8.0555196991247104E+00    4.6973913483303136E+00    7.7649543285730873E+00
Ga    8.0368755274515475E+00    2.8404242783629488E+00    8.4044473107794442E+00
N    8.0353005154467674E+00    2.8406964563100350E+00    1.0398907980890728E+01
Ga    8.0610484549537702E+00    4.7002432634956142E+00    1.1033211490153917E+01
N    8.0775984685521021E+00    4.7095710445626944E+00    1.3029020020777164E+01
Ga    8.0346429235057624E+00    2.8407462269901576E+00    1.3583802563414528E+01
N    8.0618891050905006E+00    2.8250990720474767E+00    1.5548445532195519E+01
Ga    7.8911683643273198E+00    4.6017054714987013E+00    1.6441416453556897E+01
N    6.4067530756775115E+00    7.4603672451646226E+00    2.5104845093260235E+00
Ga    6.4350319459965082E+00    5.7375069863010353E+00    3.2622431576575615E+00
N    6.4387819103134314E+00    5.6231059528852354E+00    5.2176575749503318E+00
Ga    6.4437722515004046E+00    7.4785072673598849E+00    5.8416904743214291E+00
N    6.4379827548773267E+00    7.4762695153075169E+00    7.8148050310506534E+00
Ga    6.4374348638761951E+00    5.6075215002491010E+00    8.4042147741899171E+00
N    6.4387250123960902E+00    5.6075031400962763E+00    1.0398681764129565E+01
Ga    6.4390634441844758E+00    7.4763603406459351E+00    1.0990273038905395E+01
N    6.4383570688913085E+00    7.4764851654349895E+00    1.2963703573875032E+01
Ga    6.4371840021584958E+00    5.6067802598220053E+00    1.3583255127257001E+01
N    6.4364378450015813E+00    5.6375306320442844E+00    1.5547011929575561E+01
Ga    6.4385659027653466E+00    7.4763252288131676E+00    1.5825880748774901E+01
N    4.7290127528420252E+00    1.0208483588615428E+01    2.5012172388939895E+00
Ga    4.9387056412293919E+00    8.3495466724735152E+00    3.2705718235952443E+00
N    4.8305105446658168E+00    8.4058440162508337E+00    5.2225210873652177E+00
Ga    4.8625713272848419E+00    1.0279883137487497E+01    5.7694909225247519E+00
N    4.8393645933286527E+00    1.0266846570928374E+01    7.7661066241838164E+00
Ga    4.8213549671559575E+00    8.4114871097594683E+00    8.4055923515347466E+00
N    4.8199192356101435E+00    8.4111968931057834E+00    1.0399657187263950E+01
Ga    4.8464151670116600E+00    1.0270634019613231E+01    1.1033488660775685E+01
N    4.8614602419870829E+00    1.0280178579715219E+01    1.3029269680783194E+01
Ga    4.8190456679037323E+00    8.4113049550678678E+00    1.3583851003521740E+01
N    4.8467142327437074E+00    8.3951540747391817E+00    1.5548426705171991E+01
Ga    4.6749762752801285E+00    1.0171898678182995E+01    1.6441629298172479E+01
O    3.0816401898458035E-01    3.7415233911234798E+00   -5.1478382910740283E-01
H    1.1737717390926734E-02    7.4653562091248462E+00    1.6362812688224744E+00
C    3.5336329019369578E-01    2.4550440730015843E+00   -1.1545831684139491E+00
H    1.1488172460575929E+00    1.8120529822487341E+00   -7.4273900848094321E-01
H   -6.0260783343947066E-01    1.9132818300187844E+00   -1.0708068976092129E+00
H    5.5961508004554350E-01    2.6231750499235522E+00   -2.2221511769903532E+00
Ga    3.1959096990542668E+00    5.5995021800825047E+00    2.5392099533391890E+00
O    3.3125666406379737E+00    5.8619761102430932E+00    2.6791462416772666E-01
H    2.9323450374779312E+00    5.1287900560448492E+00   -2.5111919962651341E-01
C    4.6119002697212679E+00    6.2625385958351769E+00   -2.4420315822108768E-01
H    4.4833471625499275E+00    6.9498607411862245E+00   -1.0915796768653807E+00
H    5.1669260023631143E+00    6.7600933031593646E+00    5.7747961823265748E-01
H    5.1932301424228058E+00    5.3891356291519061E+00   -5.7701080458119436E-01
     &END COORD
     &KIND C
       BASIS_SET DZVP-MOLOPT-SR-GTH-q4
       POTENTIAL GTH-PBE-q4
       &POTENTIAL
2 2
0.3384712400000000E+00 2 -0.8803673979999999E+01  0.1339210850000000E+01
2
0.3025757500000000E+00 1  0.9622486650000001E+01
0.2915069400000000E+00 0
       &END POTENTIAL
     &END KIND
     &KIND O
       BASIS_SET DZVP-MOLOPT-SR-GTH-q6
       POTENTIAL GTH-PBE-q6
       &POTENTIAL
2 4
0.2445543000000000E+00 2 -0.1666721480000000E+02  0.2487311320000000E+01
2
0.2209559200000000E+00 1  0.1833745811000000E+02
0.2113324700000000E+00 0
       &END POTENTIAL
     &END KIND
     &KIND H
       BASIS_SET DZVP-MOLOPT-SR-GTH-q1
       POTENTIAL GTH-PBE-q1
       &POTENTIAL
1
0.2000000000000000E+00 2 -0.4178900440000000E+01  0.7244633100000000E+00
0
       &END POTENTIAL
     &END KIND
     &KIND N
       BASIS_SET DZVP-MOLOPT-SR-GTH
       POTENTIAL GTH-PBE-q5
       &POTENTIAL
2 3
0.2837905100000000E+00 2 -0.1241522559000000E+02  0.1868095920000000E+01
2
0.2554050000000000E+00 1  0.1363026257000000E+02
0.2454945300000000E+00 0
       &END POTENTIAL
     &END KIND
     &KIND Ga
       BASIS_SET DZVP-MOLOPT-SR-GTH
       POTENTIAL GTH-PBE-q13
       &POTENTIAL
2 1 10
0.4900000000000000E+00 0
3
0.4167772300000000E+00 3  0.1047568975000000E+02 -0.4921768140000000E+01  0.8707055900000000E+00
0.7770178090000000E+01 -0.2248152160000000E+01
0.1784415450000000E+01
0.5696265200000000E+00 2  0.1777985340000000E+01  0.1958597600000000E+00
-0.2317443900000000E+00
0.2381265000000000E+00 1 -0.1624868022000000E+02
       &END POTENTIAL
     &END KIND
     &TOPOLOGY
       NUMBER_OF_ATOMS  212
       MULTIPLE_UNIT_CELL  1 1 1
     &END TOPOLOGY
     &COLVAR
       &DISTANCE
         ATOMS  176 211
       &END DISTANCE
       &PRINT
       &END PRINT
     &END COLVAR
   &END SUBSYS
 &END FORCE_EVAL
