 # Version information for this restart file 
 # current date 2019-07-11 12:59:09.164
 # current working dir /lustre04/scratch/rzk/rzk/GaN-carbene/443-adatoms-both-2x2/09-BondBreaking-CH/03-0501-CH-to-Nsur-PES
 # Program compiled at                              Sun Apr  7 00:48:11 EDT 2019
 # Program compiled on                          beluga2.int.ets1.calculquebec.ca
 # Program compiled for                        Beluga-Linux-x86-64-intel-openmpi
 # Source code revision number                                         svn:18619
 &GLOBAL
   PRINT_LEVEL  MEDIUM
   PROJECT_NAME TEST
   RUN_TYPE  GEO_OPT
 &END GLOBAL
 &MOTION
   &GEO_OPT
     MAX_ITER  500
     STEP_START_VAL  44
   &END GEO_OPT
   &CONSTRAINT
     &COLLECTIVE
       COLVAR  1
       INTERMOLECULAR  T
       TARGET     4.5353427189255431E+00
       &RESTRAINT
         K     2.0000000000000000E+00
       &END RESTRAINT
     &END COLLECTIVE
     &COLVAR_RESTART
           4.5353427189255431E+00
     &END COLVAR_RESTART
   &END CONSTRAINT
 &END MOTION
 &FORCE_EVAL
   METHOD  QS
   STRESS_TENSOR  ANALYTICAL
   &DFT
     BASIS_SET_FILE_NAME BASIS_MOLOPT
     POTENTIAL_FILE_NAME GTH_POTENTIALS
     UKS  T
     SURFACE_DIPOLE_CORRECTION  T
     SURF_DIP_DIR  Z
     &SCF
       MAX_SCF  80
       EPS_SCF     5.0000000000000004E-06
       &OT  T
         PRECONDITIONER  FULL_ALL
       &END OT
       &OUTER_SCF  T
         OPTIMIZER  NONE
         EPS_SCF     5.0000000000000004E-06
         MAX_SCF  4
       &END OUTER_SCF
       &PRINT
         &RESTART  OFF
           BACKUP_COPIES  1
           &EACH
             JUST_ENERGY  0
             QS_SCF  0
             MD  20
           &END EACH
         &END RESTART
       &END PRINT
     &END SCF
     &QS
       EPS_DEFAULT     1.0000000000000000E-14
       METHOD  GPW
     &END QS
     &MGRID
       NGRIDS  5
       CUTOFF     1.2000000000000000E+03
     &END MGRID
     &XC
       DENSITY_CUTOFF     1.0000000000000000E-10
       GRADIENT_CUTOFF     1.0000000000000000E-10
       TAU_CUTOFF     1.0000000000000000E-10
       &XC_FUNCTIONAL  NO_SHORTCUT
         &PBE  T
         &END PBE
       &END XC_FUNCTIONAL
       &VDW_POTENTIAL
         POTENTIAL_TYPE  PAIR_POTENTIAL
         &PAIR_POTENTIAL
           R_CUTOFF     1.0000000000000009E+01
           TYPE  DFTD3
           PARAMETER_FILE_NAME dftd3.dat
           REFERENCE_FUNCTIONAL PBE
           EPS_CN     9.9999999999999995E-07
           CALCULATE_C9_TERM  T
           REFERENCE_C9_TERM  T
           LONG_RANGE_CORRECTION  F
           VERBOSE_OUTPUT  F
         &END PAIR_POTENTIAL
       &END VDW_POTENTIAL
     &END XC
   &END DFT
   &SUBSYS
     &CELL
       A     1.2864472766435110E+01    0.0000000000000000E+00    0.0000000000000000E+00
       B    -6.4322363581020028E+00    1.1140960178524477E+01    0.0000000000000000E+00
       C     0.0000000000000000E+00    0.0000000000000000E+00    3.2000000000000000E+01
       MULTIPLE_UNIT_CELL  1 1 1
       &CELL_REF
         A     1.2982353780853531E+01    0.0000000000000000E+00    0.0000000000000000E+00
         B    -6.4911768904267628E+00    1.1243048175136114E+01    0.0000000000000000E+00
         C     0.0000000000000000E+00    0.0000000000000000E+00    3.2000000000000000E+01
         MULTIPLE_UNIT_CELL  1 1 1
       &END CELL_REF
     &END CELL
     &COORD
N    5.8830994237506484E-03    2.0437154830543300E+00    2.4909076371304084E+00
Ga    1.1967294992960346E-02    9.1249932604803768E-02    2.8364958482536986E+00
N   -3.0556915227247898E-03    4.6770993964329349E-02    5.0067443481287714E+00
Ga    9.8041890960397227E-04    1.8782826080784192E+00    5.7895789765298717E+00
N   -1.7020365561503611E-03    1.8879369749158077E+00    7.7887866773442305E+00
Ga    9.8432304022394446E-04    4.3410007059516406E-02    8.4393065373132607E+00
N   -1.5751856625954839E-03    4.1542332430101227E-02    1.0411368593103415E+01
Ga   -1.5235318146793987E-03    1.8804387663353090E+00    1.1070422143910292E+01
N   -3.4899808553776300E-03    1.8612871663865935E+00    1.3060289982632854E+01
Ga   -3.5741107560351201E-03    4.1197292366688926E-02    1.3874463179983447E+01
N   -3.7556885669450084E-03    4.0860100404786805E-02    1.6065287055050341E+01
Ga   -4.4856285276895823E-03    2.0819411609671308E+00    1.6477913927927730E+01
Ga    2.7958185356512382E-02    3.7289025035107453E+00    1.3157033375209539E+00
N   -1.4698712185935257E+00    4.6225648136783297E+00    2.4655887388101974E+00
Ga   -1.6666728871980048E+00    2.7900336710006295E+00    3.2520446787694737E+00
N   -1.6092195820981825E+00    2.8316282843012268E+00    5.2360601050540758E+00
Ga   -1.6361515350317382E+00    4.6941926025127518E+00    5.8022416738510794E+00
N   -1.6189048876222574E+00    4.6920704986897217E+00    7.7939770594650710E+00
Ga   -1.5976902155830617E+00    2.8323876750994801E+00    8.4370616155265790E+00
N   -1.5986310040835350E+00    2.8340445430949019E+00    1.0427005426829449E+01
Ga   -1.6271657644372521E+00    4.6925531638296514E+00    1.1072763410687973E+01
N   -1.6441807333678258E+00    4.7019934381767605E+00    1.3061200562529493E+01
Ga   -1.6007477752959602E+00    2.8328070645869166E+00    1.3619974277024584E+01
N   -1.6291467945606062E+00    2.8180887450977794E+00    1.5577860511874414E+01
Ga   -1.4483890072952674E+00    4.5870052390835117E+00    1.6478643069487699E+01
N    1.5077238896755440E-03    3.7497347113200834E+00    1.7620607687070926E+01
N   -3.2187462090579815E+00    7.5838351200187617E+00    2.4921206926408455E+00
Ga   -3.1830622541483122E+00    5.5918413285506006E+00    2.8353556266734792E+00
N   -3.2125479580163656E+00    5.6096755007776800E+00    5.0068054205397683E+00
Ga   -3.2308112838384120E+00    7.4334727247995298E+00    5.7883920478205066E+00
N   -3.2194270920786527E+00    7.4606615331682056E+00    7.7814766825388633E+00
Ga   -3.2181875551902670E+00    5.6145076870315274E+00    8.4437870091418610E+00
N   -3.2186972102357121E+00    5.6140223395442677E+00    1.0413766921590048E+01
Ga   -3.2205602925681860E+00    7.4516087544785137E+00    1.1074335779349727E+01
N   -3.2200021716311054E+00    7.4316784173946164E+00    1.3062395470928871E+01
Ga   -3.2198753348580946E+00    5.6114604890936590E+00    1.3877904732833208E+01
N   -3.2208883246389406E+00    5.6113885162623243E+00    1.6064801554980296E+01
Ga   -3.2212405493539835E+00    7.6575130086693619E+00    1.6482091571443178E+01
Ga   -3.2463342112601539E+00    9.3490280313457177E+00    1.3812405327725661E+00
N   -4.7301392954705026E+00    1.0189771564842699E+01    2.5034340932594086E+00
Ga   -4.9422996773310413E+00    8.3300782412877830E+00    3.2301233331482999E+00
N   -4.8338915653108456E+00    8.3906648677664943E+00    5.2086123066502488E+00
Ga   -4.8552041052323167E+00    1.0265128245868903E+01    5.7775410429226310E+00
N   -4.8360471108263052E+00    1.0256952270660289E+01    7.7777762478427537E+00
Ga   -4.8170917254637260E+00    8.4055918506290279E+00    8.4357428645221830E+00
N   -4.8147757125711674E+00    8.4047874974186261E+00    1.0424304453139785E+01
Ga   -4.8422068180262379E+00    1.0263849717098932E+01    1.1070743916190926E+01
N   -4.8598344301229810E+00    1.0272727047780860E+01    1.3059461681419478E+01
Ga   -4.8175317758217986E+00    8.4044440998816512E+00    1.3621452201835419E+01
N   -4.8476222199355705E+00    8.3890319505752693E+00    1.5577984374452159E+01
Ga   -4.6604164051657246E+00    1.0156546305404092E+01    1.6482407663531436E+01
N   -3.2145920857564012E+00    9.3226394643306971E+00    1.7611327818028698E+01
N    3.2035516850775045E+00    1.9030775217852092E+00    2.6036286978522640E+00
Ga    3.2029410744926352E+00    1.5064838921697263E-01    3.2635501467270331E+00
N    3.2150209692907397E+00    3.9579471504156236E-02    5.2336619655154530E+00
Ga    3.2071688287206599E+00    1.9001585068955329E+00    5.8684185224448262E+00
N    3.2146100953884575E+00    1.8971611584836174E+00    7.8421656598250902E+00
Ga    3.2106049281332782E+00    3.0648103553290180E-02    8.4325708377820465E+00
N    3.2129385132237753E+00    2.7775848115750387E-02    1.0423041600614420E+01
Ga    3.2132465509269119E+00    1.8978343648390141E+00    1.1024671181993618E+01
N    3.2119855551764287E+00    1.8979246685036411E+00    1.2991186929489048E+01
Ga    3.2115984596915634E+00    2.9741014049666042E-02    1.3620834740237989E+01
N    3.2091497305517849E+00    6.1654518757520274E-02    1.5577504489782024E+01
Ga    3.2107543969304211E+00    1.8986353117356436E+00    1.5859938871372822E+01
N    1.4815942215819666E+00    4.6223584784095886E+00    2.4912279349445812E+00
Ga    1.6807597711967128E+00    2.7917111606030836E+00    3.2697342636077678E+00
N    1.6099813464822521E+00    2.8320931557167883E+00    5.2447464687567225E+00
Ga    1.6540035730455867E+00    4.7038086477767242E+00    5.7983642220792984E+00
N    1.6134892229287450E+00    4.6911974719806508E+00    7.7988134126399045E+00
Ga    1.5962787354940942E+00    2.8328745807167421E+00    8.4347585524982858E+00
N    1.5945533449739120E+00    2.8334052731808024E+00    1.0426611463935537E+01
Ga    1.6224678716243801E+00    4.6917953298439343E+00    1.1072490673520402E+01
N    1.6370926697353945E+00    4.7019885498795855E+00    1.3062084717378315E+01
Ga    1.5935948587093431E+00    2.8327197188486859E+00    1.3619291067310677E+01
N    1.6194034390009715E+00    2.8167098883666668E+00    1.5578142233779882E+01
Ga    1.4438606715182107E+00    4.5895438823219568E+00    1.6478413530590142E+01
N   -5.3524148189965917E-03    7.4627512119447488E+00    2.6923480903692365E+00
Ga    7.1485444538968278E-03    5.5987578632195030E+00    3.3188716790295287E+00
N   -1.6143324417262618E-04    5.6279986746135586E+00    5.2529869756966567E+00
Ga   -6.4192839433935642E-03    7.4626624804974426E+00    5.9070826015601536E+00
N   -3.3457104700811186E-03    7.4709648569300349E+00    7.8605524687835988E+00
Ga   -6.0701912379236968E-04    5.5966550466221063E+00    8.4472772878338862E+00
N   -2.7698772043493183E-03    5.5996489440651551E+00    1.0433213854668265E+01
Ga   -2.9873951339463639E-03    7.4693379100560184E+00    1.1030292570057414E+01
N   -3.6178539560814903E-03    7.4690993248197124E+00    1.2995896163390274E+01
Ga   -3.6991070961078488E-03    5.5986987138992426E+00    1.3620711330594634E+01
N   -6.0880684926006689E-03    5.6297167665019474E+00    1.5578981495079393E+01
Ga   -3.7409498938270908E-03    7.4688813760561503E+00    1.5857998301643018E+01
N   -1.7102901130379899E+00    1.0188428940336969E+01    2.5090193667417990E+00
Ga   -1.6101603605011607E+00    8.3853363512558570E+00    3.3127586781043048E+00
N   -1.6004421322150180E+00    8.3905832793066750E+00    5.2439508028667499E+00
Ga   -1.5876307543310568E+00    1.0275648887498958E+01    5.8020128678729863E+00
N   -1.6000427546546772E+00    1.0258293266590362E+01    7.7899507830825572E+00
Ga   -1.6254188862074050E+00    8.4048697516714750E+00    8.4446132837132861E+00
N   -1.6232217012183638E+00    8.4043176440969845E+00    1.0430199185989766E+01
Ga   -1.5972653620134505E+00    1.0264719107738182E+01    1.1074080677597488E+01
N   -1.5795150513970997E+00    1.0273147397864726E+01    1.3062459467485192E+01
Ga   -1.6233069668705795E+00    8.4042487308607914E+00    1.3622475986184158E+01
N   -1.5945399500557020E+00    8.3867240665730751E+00    1.5579932985486396E+01
Ga   -1.7755368710439061E+00    1.0160235040964190E+01    1.6481521137754619E+01
N    6.4354113827124877E+00    2.0180049644696325E+00    2.5431704335704897E+00
Ga    6.4206303708783699E+00    4.9861364984816942E-02    2.8808213196555728E+00
N    6.4325260717956363E+00    4.1876615133937339E-02    5.0216318867762517E+00
Ga    6.4293216275599994E+00    1.8765778184495441E+00    5.8039185385036127E+00
N    6.4312753732829657E+00    1.8871763655837550E+00    7.7946454793857676E+00
Ga    6.4286841966789519E+00    4.3602072252838790E-02    8.4491094439112349E+00
N    6.4289207822642362E+00    4.1368868878492213E-02    1.0416889244081517E+01
Ga    6.4293174107068172E+00    1.8819062884934432E+00    1.1072808222599312E+01
N    6.4288426273152073E+00    1.8614608269795507E+00    1.3061694385176839E+01
Ga    6.4295144594124380E+00    4.2000178816856235E-02    1.3879142498287820E+01
N    6.4279021197357951E+00    4.1919369676720483E-02    1.6064966264993650E+01
Ga    6.4273049489394696E+00    2.0884026673962439E+00    1.6482539829683603E+01
Ga    6.4483206264489992E+00    3.7322128205552256E+00    1.5311258875266984E+00
N    4.9405164806884896E+00    4.6064229723868486E+00    2.5180580630059946E+00
Ga    4.7059690001469274E+00    2.7701236461797611E+00    3.2985274527520314E+00
N    4.8215892861388534E+00    2.8274323175317524E+00    5.2531180206761512E+00
Ga    4.7842081773719913E+00    4.7079166086513311E+00    5.7958926682816445E+00
N    4.8165076916820917E+00    4.6896312512932914E+00    7.7967169163943781E+00
Ga    4.8310443778440169E+00    2.8336935004493538E+00    8.4371822991108925E+00
N    4.8328093081121501E+00    2.8333406735396562E+00    1.0427520511922655E+01
Ga    4.8064300202216685E+00    4.6931430136376528E+00    1.1071060796539138E+01
N    4.7888919207748231E+00    4.7022071847963494E+00    1.3060154970789586E+01
Ga    4.8303584922915190E+00    2.8331300346668309E+00    1.3619649857522658E+01
N    4.7996125919137134E+00    2.8174690136534650E+00    1.5575612919609092E+01
Ga    4.9903675641378848E+00    4.5838684882210501E+00    1.6483864828183702E+01
N    6.4325413056545298E+00    3.7495817348513274E+00    1.7611692269948410E+01
N    3.2071578033513051E+00    7.6191778897630256E+00    2.5311660378438452E+00
N    3.2181215521836792E+00    5.6187735013994695E+00    5.0407080496053522E+00
Ga    3.2232197409844505E+00    7.4183204427649292E+00    5.8070242712913611E+00
N    3.2140296097545002E+00    7.4647830768427994E+00    7.8002620205455377E+00
Ga    3.2154519775659498E+00    5.6128134434274752E+00    8.4447681434801840E+00
N    3.2139126353165861E+00    5.6135125103900751E+00    1.0416499217203496E+01
Ga    3.2154255241078316E+00    7.4512308986140177E+00    1.1074174324242373E+01
N    3.2130860866050543E+00    7.4326071031081602E+00    1.3062545665778693E+01
Ga    3.2138851597355167E+00    5.6122869080638260E+00    1.3875773814757798E+01
N    3.2128930668783662E+00    5.6112160040332402E+00    1.6065305622785452E+01
Ga    3.2118190310464203E+00    7.6568525080587602E+00    1.6484422956690700E+01
Ga    3.2350917437209246E+00    9.3583732453420190E+00    1.5092747520264405E+00
N    1.7066413523131045E+00    1.0192122613421695E+01    2.5254402040048731E+00
Ga    1.5771140940634820E+00    8.3794317201831845E+00    3.3464859144581953E+00
N    1.5934958804506529E+00    8.3938291331841288E+00    5.2641123779388055E+00
Ga    1.5815523590225342E+00    1.0278327116961810E+01    5.8148165694952878E+00
N    1.5964618288553636E+00    1.0260510825258150E+01    7.7984811104490825E+00
Ga    1.6192533956218842E+00    8.4053940818192423E+00    8.4497950726933340E+00
N    1.6167492150504295E+00    8.4050838415382287E+00    1.0433935869444841E+01
Ga    1.5904209774296676E+00    1.0265085645926080E+01    1.1075236526374660E+01
N    1.5727162885480850E+00    1.0273076612330195E+01    1.3062378254242693E+01
Ga    1.6158973298048971E+00    8.4043181811921528E+00    1.3622754739871676E+01
N    1.5869938098309471E+00    8.3894952496592818E+00    1.5579648425542505E+01
Ga    1.7700123996393506E+00    1.0157737777206062E+01    1.6484196203649734E+01
N    3.2164612959436210E+00    9.3221053109458545E+00    1.7623218038405867E+01
N    9.6612119794511422E+00    1.9097104624738734E+00    2.6065115796433114E+00
Ga    9.6590145328796506E+00    1.7712347841415355E-01    3.2956562154991809E+00
N    9.6459137117056155E+00    4.2126074851430814E-02    5.2507015949294500E+00
Ga    9.6587358045284670E+00    1.9064722078957423E+00    5.8741479784994510E+00
N    9.6479345306414341E+00    1.8993401467720508E+00    7.8450764735848368E+00
Ga    9.6495350551058614E+00    3.2867527715553804E-02    8.4397682170320483E+00
N    9.6461840861685175E+00    2.8536779076246872E-02    1.0427598500422997E+01
Ga    9.6466943622524646E+00    1.8989384597730106E+00    1.1026124900725280E+01
N    9.6452321175538831E+00    1.8979645344286966E+00    1.2992664858998808E+01
Ga    9.6452310408944779E+00    2.9005783901788224E-02    1.3622264800603274E+01
N    9.6428432225242950E+00    5.9127323840184244E-02    1.5579174017306924E+01
Ga    9.6441459910404816E+00    1.8972069393385547E+00    1.5858002413580456E+01
N    7.9369135143727716E+00    4.6218973623791131E+00    2.5260871442340314E+00
Ga    8.1576401376961378E+00    2.7704183381400505E+00    3.3027134021881990E+00
N    8.0422496487542396E+00    2.8269200526959857E+00    5.2564305160185176E+00
Ga    8.0654861335228762E+00    4.7018154527241549E+00    5.7963429222176739E+00
N    8.0489735929179655E+00    4.6919404052516818E+00    7.7898013163409772E+00
Ga    8.0299796037656730E+00    2.8341972747187065E+00    8.4367723082489405E+00
N    8.0269819769710384E+00    2.8340492904050740E+00    1.0426877247054193E+01
Ga    8.0531627331338367E+00    4.6934235383500775E+00    1.1072206134573985E+01
N    8.0693868013760444E+00    4.7023187159555393E+00    1.3060953558892518E+01
Ga    8.0260156456714693E+00    2.8332739600615837E+00    1.3621106978572213E+01
N    8.0552846839475212E+00    2.8156116681864454E+00    1.5577730405760805E+01
Ga    7.8690311461387266E+00    4.5863217063643864E+00    1.6483262834729434E+01
N    6.3953927310639891E+00    7.4503265695287881E+00    2.5274800706839180E+00
Ga    6.4238638924898757E+00    5.7274390199317917E+00    3.2900576913742823E+00
N    6.4317670586648381E+00    5.6176804407668168E+00    5.2430901991844809E+00
Ga    6.4331971443731204E+00    7.4706281280149023E+00    5.8763838117740264E+00
N    6.4307743662701338E+00    7.4703491028454128E+00    7.8432500449659424E+00
Ga    6.4304994777848767E+00    5.6007446122160749E+00    8.4391785625099871E+00
N    6.4306977701012000E+00    5.6004558079163287E+00    1.0427826753319843E+01
Ga    6.4307021971498779E+00    7.4699382144104201E+00    1.1026653380002433E+01
N    6.4288392977365190E+00    7.4696753241123064E+00    1.2992472343012210E+01
Ga    6.4285006168134178E+00    5.5998345218451213E+00    1.3620517392812392E+01
N    6.4261209499629235E+00    5.6333626276858650E+00    1.5576808697475883E+01
Ga    6.4263928493438964E+00    7.4697148654926115E+00    1.5860731485114959E+01
N    4.7238525487212364E+00    1.0202841196828906E+01    2.5220818994277088E+00
Ga    4.9283355210562956E+00    8.3430108159371077E+00    3.2960420261237182E+00
N    4.8245579140987465E+00    8.4002672339973028E+00    5.2466141984692047E+00
Ga    4.8543569586771991E+00    1.0274144040980561E+01    5.7993577263963427E+00
N    4.8327857254944480E+00    1.0261035025935829E+01    7.7910886877029384E+00
Ga    4.8136521098953908E+00    8.4061245896552794E+00    8.4408146544340976E+00
N    4.8114504947106695E+00    8.4051528381958214E+00    1.0428524598871828E+01
Ga    4.8385275530981779E+00    1.0264236450098082E+01    1.1071993631551400E+01
N    4.8528868355037398E+00    1.0272931664111205E+01    1.3060548001031117E+01
Ga    4.8098431304259552E+00    8.4046254726607117E+00    1.3621948464641070E+01
N    4.8359093612700415E+00    8.3885876579568937E+00    1.5579776416798282E+01
Ga    4.6560673131206807E+00    1.0159119443191186E+01    1.6483991535651661E+01
O    4.0289459191664290E-01    3.7792721664769964E+00   -4.7666514517153402E-01
H    5.3570141737678519E-03    7.4585756177812534E+00    1.6658712196370684E+00
C    7.7571602867376166E-01    2.5251398422184810E+00   -1.0710888431449532E+00
H    1.5379679821675227E+00    1.9908641278347270E+00   -4.7644108632069482E-01
H   -8.9365077650466918E-02    1.8551821195382370E+00   -1.2025984243188481E+00
H    1.1987856551513070E+00    2.7414197444391659E+00   -2.0641467930650395E+00
Ga    3.1891336596934705E+00    5.5934237766058033E+00    2.5814821436171211E+00
O    3.2843608629864489E+00    5.8598645966376059E+00    3.0554334285064483E-01
H    2.8774747492496213E+00    5.1445097740221106E+00   -2.2124585127760482E-01
C    4.5812351500458472E+00    6.2507355869723495E+00   -2.1744585871059366E-01
H    4.4516114887360416E+00    6.9449200859557383E+00   -1.0592988140670092E+00
H    5.1478295263092537E+00    6.7378450615656007E+00    6.0416477788672462E-01
H    5.1511838624490673E+00    5.3743194908391310E+00   -5.6192040160313561E-01
     &END COORD
     &KIND C
       BASIS_SET DZVP-MOLOPT-SR-GTH-q4
       POTENTIAL GTH-PBE-q4
       &POTENTIAL
2 2
0.3384712400000000E+00 2 -0.8803673979999999E+01  0.1339210850000000E+01
2
0.3025757500000000E+00 1  0.9622486650000001E+01
0.2915069400000000E+00 0
       &END POTENTIAL
     &END KIND
     &KIND O
       BASIS_SET DZVP-MOLOPT-SR-GTH-q6
       POTENTIAL GTH-PBE-q6
       &POTENTIAL
2 4
0.2445543000000000E+00 2 -0.1666721480000000E+02  0.2487311320000000E+01
2
0.2209559200000000E+00 1  0.1833745811000000E+02
0.2113324700000000E+00 0
       &END POTENTIAL
     &END KIND
     &KIND H
       BASIS_SET DZVP-MOLOPT-SR-GTH-q1
       POTENTIAL GTH-PBE-q1
       &POTENTIAL
1
0.2000000000000000E+00 2 -0.4178900440000000E+01  0.7244633100000000E+00
0
       &END POTENTIAL
     &END KIND
     &KIND N
       BASIS_SET DZVP-MOLOPT-SR-GTH
       POTENTIAL GTH-PBE-q5
       &POTENTIAL
2 3
0.2837905100000000E+00 2 -0.1241522559000000E+02  0.1868095920000000E+01
2
0.2554050000000000E+00 1  0.1363026257000000E+02
0.2454945300000000E+00 0
       &END POTENTIAL
     &END KIND
     &KIND Ga
       BASIS_SET DZVP-MOLOPT-SR-GTH
       POTENTIAL GTH-PBE-q13
       &POTENTIAL
2 1 10
0.4900000000000000E+00 0
3
0.4167772300000000E+00 3  0.1047568975000000E+02 -0.4921768140000000E+01  0.8707055900000000E+00
0.7770178090000000E+01 -0.2248152160000000E+01
0.1784415450000000E+01
0.5696265200000000E+00 2  0.1777985340000000E+01  0.1958597600000000E+00
-0.2317443900000000E+00
0.2381265000000000E+00 1 -0.1624868022000000E+02
       &END POTENTIAL
     &END KIND
     &TOPOLOGY
       NUMBER_OF_ATOMS  212
       MULTIPLE_UNIT_CELL  1 1 1
     &END TOPOLOGY
     &COLVAR
       &DISTANCE
         ATOMS  176 211
       &END DISTANCE
       &PRINT
       &END PRINT
     &END COLVAR
   &END SUBSYS
 &END FORCE_EVAL
