 # Version information for this restart file 
 # current date 2019-07-12 09:15:43.231
 # current working dir /lustre04/scratch/rzk/rzk/GaN-carbene/443-adatoms-both-2x2/09-BondBreaking-CH/03-0501-CH-to-Nsur-PES
 # Program compiled at                              Sun Apr  7 00:48:11 EDT 2019
 # Program compiled on                          beluga2.int.ets1.calculquebec.ca
 # Program compiled for                        Beluga-Linux-x86-64-intel-openmpi
 # Source code revision number                                         svn:18619
 &GLOBAL
   PRINT_LEVEL  MEDIUM
   PROJECT_NAME TEST
   RUN_TYPE  GEO_OPT
 &END GLOBAL
 &MOTION
   &GEO_OPT
     MAX_ITER  500
     STEP_START_VAL  53
   &END GEO_OPT
   &CONSTRAINT
     &COLLECTIVE
       COLVAR  1
       INTERMOLECULAR  T
       TARGET     3.4015070391941573E+00
       &RESTRAINT
         K     2.0000000000000000E+00
       &END RESTRAINT
     &END COLLECTIVE
     &COLVAR_RESTART
           3.4015070391941573E+00
     &END COLVAR_RESTART
   &END CONSTRAINT
 &END MOTION
 &FORCE_EVAL
   METHOD  QS
   STRESS_TENSOR  ANALYTICAL
   &DFT
     BASIS_SET_FILE_NAME BASIS_MOLOPT
     POTENTIAL_FILE_NAME GTH_POTENTIALS
     UKS  T
     SURFACE_DIPOLE_CORRECTION  T
     SURF_DIP_DIR  Z
     &SCF
       MAX_SCF  80
       EPS_SCF     5.0000000000000004E-06
       &OT  T
         PRECONDITIONER  FULL_ALL
       &END OT
       &OUTER_SCF  T
         OPTIMIZER  NONE
         EPS_SCF     5.0000000000000004E-06
         MAX_SCF  4
       &END OUTER_SCF
       &PRINT
         &RESTART  OFF
           BACKUP_COPIES  1
           &EACH
             JUST_ENERGY  0
             QS_SCF  0
             MD  20
           &END EACH
         &END RESTART
       &END PRINT
     &END SCF
     &QS
       EPS_DEFAULT     1.0000000000000000E-14
       METHOD  GPW
     &END QS
     &MGRID
       NGRIDS  5
       CUTOFF     1.2000000000000000E+03
     &END MGRID
     &XC
       DENSITY_CUTOFF     1.0000000000000000E-10
       GRADIENT_CUTOFF     1.0000000000000000E-10
       TAU_CUTOFF     1.0000000000000000E-10
       &XC_FUNCTIONAL  NO_SHORTCUT
         &PBE  T
         &END PBE
       &END XC_FUNCTIONAL
       &VDW_POTENTIAL
         POTENTIAL_TYPE  PAIR_POTENTIAL
         &PAIR_POTENTIAL
           R_CUTOFF     1.0000000000000009E+01
           TYPE  DFTD3
           PARAMETER_FILE_NAME dftd3.dat
           REFERENCE_FUNCTIONAL PBE
           EPS_CN     9.9999999999999995E-07
           CALCULATE_C9_TERM  T
           REFERENCE_C9_TERM  T
           LONG_RANGE_CORRECTION  F
           VERBOSE_OUTPUT  F
         &END PAIR_POTENTIAL
       &END VDW_POTENTIAL
     &END XC
   &END DFT
   &SUBSYS
     &CELL
       A     1.2864472766435110E+01    0.0000000000000000E+00    0.0000000000000000E+00
       B    -6.4322363581020028E+00    1.1140960178524477E+01    0.0000000000000000E+00
       C     0.0000000000000000E+00    0.0000000000000000E+00    3.2000000000000000E+01
       MULTIPLE_UNIT_CELL  1 1 1
       &CELL_REF
         A     1.2982353780853531E+01    0.0000000000000000E+00    0.0000000000000000E+00
         B    -6.4911768904267628E+00    1.1243048175136114E+01    0.0000000000000000E+00
         C     0.0000000000000000E+00    0.0000000000000000E+00    3.2000000000000000E+01
         MULTIPLE_UNIT_CELL  1 1 1
       &END CELL_REF
     &END CELL
     &COORD
N    2.6614265399023691E-03    2.0464558447755223E+00    2.4613563763664064E+00
Ga    1.9441319546365025E-02    8.9053111540256941E-02    2.7980074652630909E+00
N   -7.7512825161667387E-03    5.0636901444442765E-02    4.9761371875644738E+00
Ga    4.5644611240724100E-03    1.8830351186149035E+00    5.7458195941470400E+00
N   -7.8330651112604632E-04    1.8914933237752010E+00    7.7521894073587587E+00
Ga    1.3918721762769292E-03    4.6370480088275219E-02    8.3951115001467578E+00
N   -2.5496542343908845E-03    4.5225040099077247E-02    1.0373837290456079E+01
Ga   -2.4158895452514148E-03    1.8839959207744026E+00    1.1025437731501430E+01
N   -4.1344520881945101E-03    1.8645026761895054E+00    1.3024854617212068E+01
Ga   -5.3791128092492493E-03    3.9580476059716048E-02    1.3822148112311243E+01
N   -4.5408244963787850E-03    3.8549369779869141E-02    1.6028829308666381E+01
Ga   -4.6227240267843117E-03    2.0561415991583578E+00    1.6415720666024232E+01
Ga   -1.3891107931454772E-02    3.7135164906102154E+00    1.2597156511097483E+00
N   -1.4721364774208525E+00    4.6223745834813288E+00    2.4453462080866060E+00
Ga   -1.6660883771388140E+00    2.7926881190730408E+00    3.2258998851041363E+00
N   -1.6113266149957288E+00    2.8323947928685289E+00    5.2091744532723041E+00
Ga   -1.6319159081846317E+00    4.6987374999016804E+00    5.7571451674608785E+00
N   -1.6179671955875399E+00    4.6954865856063677E+00    7.7561323162292970E+00
Ga   -1.5964798459447502E+00    2.8363286824575962E+00    8.3933002104956032E+00
N   -1.5992961915001793E+00    2.8374053399027885E+00    1.0390501990910829E+01
Ga   -1.6273423375972027E+00    4.6957795788144860E+00    1.1026867412256133E+01
N   -1.6444101389610213E+00    4.7059746079550830E+00    1.3024560403276134E+01
Ga   -1.6013477547177317E+00    2.8368118338447359E+00    1.3575603724998944E+01
N   -1.6249666919935952E+00    2.8263260553922809E+00    1.5546176929716767E+01
Ga   -1.4703708262116537E+00    4.6058269840506805E+00    1.6416695322457276E+01
N    4.7037746741011438E-03    3.7539434999598473E+00    1.7539471637773861E+01
N   -3.2309566763167195E+00    7.5760140522284694E+00    2.4523493113413912E+00
Ga   -3.1817665328263010E+00    5.6022409302555483E+00    2.8015062574225000E+00
N   -3.2142102118860194E+00    5.6077647385810403E+00    4.9789732468366399E+00
Ga   -3.2354920670635945E+00    7.4376158845745577E+00    5.7399200562635944E+00
N   -3.2225081791706818E+00    7.4631954382891283E+00    7.7421775691650110E+00
Ga   -3.2179123759346377E+00    5.6177988545750788E+00    8.3986572392552663E+00
N   -3.2190624964154564E+00    5.6168315029285543E+00    1.0375392419858857E+01
Ga   -3.2211352885605620E+00    7.4560099673863700E+00    1.1025833120667400E+01
N   -3.2206770725918448E+00    7.4372451233021950E+00    1.3020464685651808E+01
Ga   -3.2234006247981624E+00    5.6181744789227492E+00    1.3818327264413874E+01
N   -3.2236458104059498E+00    5.6179246340806204E+00    1.6028560901560443E+01
Ga   -3.2217551191197318E+00    7.6624823452938102E+00    1.6440964792609911E+01
Ga   -3.2534493092032002E+00    9.3531807387634576E+00    1.2534020471954506E+00
N   -4.7400969523669048E+00    1.0188547594622017E+01    2.4594107491139079E+00
Ga   -4.9409167052203413E+00    8.3341679740765944E+00    3.1675378310921207E+00
N   -4.8416659721070250E+00    8.3895825845502152E+00    5.1614709791123792E+00
Ga   -4.8563208795071766E+00    1.0264040787988053E+01    5.7282093341452702E+00
N   -4.8380430401712839E+00    1.0258135858929055E+01    7.7382113556712895E+00
Ga   -4.8184445430735554E+00    8.4083686900118462E+00    8.3908145180528457E+00
N   -4.8164114547217638E+00    8.4075439479119538E+00    1.0386022872006885E+01
Ga   -4.8421263055955519E+00    1.0266595546642895E+01    1.1023586812843716E+01
N   -4.8594528317660108E+00    1.0275613851618397E+01    1.3019377881592140E+01
Ga   -4.8180172656943325E+00    8.4079042840190166E+00    1.3578205316203720E+01
N   -4.8439293701506587E+00    8.3921599579414661E+00    1.5539743452210242E+01
Ga   -4.6635599636698863E+00    1.0161242911107257E+01    1.6441124520880248E+01
N   -3.2109603718014919E+00    9.3312749730503270E+00    1.7576381068553573E+01
N    3.2050823338934920E+00    1.8980187412511755E+00    2.5701490630820039E+00
Ga    3.1972917516862349E+00    1.3273682457397781E-01    3.2068263968225876E+00
N    3.2106151054331433E+00    4.1316105739190617E-02    5.1908823320975648E+00
Ga    3.2008281848848177E+00    1.9002021845386905E+00    5.8166824743551455E+00
N    3.2111502180048119E+00    1.9003076406428119E+00    7.8001367815016458E+00
Ga    3.2081319906857493E+00    3.3326081886737774E-02    8.3835141878593067E+00
N    3.2117922407575517E+00    3.1657952532468982E-02    1.0383186029328831E+01
Ga    3.2123867396494949E+00    1.8998861098670148E+00    1.0982228038516613E+01
N    3.2110567648007149E+00    1.9017716768456945E+00    1.2957840752338241E+01
Ga    3.2111281204534485E+00    3.1967577208422103E-02    1.3578670867961680E+01
N    3.2072610455980999E+00    6.5045368313826124E-02    1.5541062527376003E+01
Ga    3.2123109832861414E+00    1.9018421999762545E+00    1.5821544074001302E+01
N    1.4907224341571068E+00    4.6337871525412044E+00    2.3809845419739930E+00
Ga    1.6848080796967781E+00    2.8037826772026038E+00    3.2056956912985566E+00
N    1.6078664713263284E+00    2.8415202929403751E+00    5.1915080471175923E+00
Ga    1.6545716006270059E+00    4.7070211282263799E+00    5.7603184309527045E+00
N    1.6096495906167467E+00    4.6921166507769456E+00    7.7673058645743112E+00
Ga    1.5957523078402560E+00    2.8351029607064326E+00    8.3933790154707779E+00
N    1.5943246945212712E+00    2.8359208881420122E+00    1.0392333424128383E+01
Ga    1.6211771770482342E+00    4.6952219189506641E+00    1.1027358971590267E+01
N    1.6367169802482111E+00    4.7064236473617269E+00    1.3026392558226565E+01
Ga    1.5929349409544105E+00    2.8369885736422304E+00    1.3575095038369717E+01
N    1.6156245692537579E+00    2.8242426463350947E+00    1.5547297466108178E+01
Ga    1.4704025630415285E+00    4.6115195928316339E+00    1.6415746041809637E+01
N   -1.5877843764385779E-02    7.4692609541329658E+00    2.6502936067042420E+00
Ga    1.9984808454324696E-02    5.6024244770683964E+00    3.2580323664949176E+00
N    5.1111328234932276E-03    5.6277520754771100E+00    5.1998804564561594E+00
Ga   -1.3269825477225257E-02    7.4622517605280638E+00    5.8582032746855575E+00
N   -6.0356646470427740E-03    7.4714893446616797E+00    7.8187569434228781E+00
Ga   -1.9756408330190585E-03    5.5997479533778165E+00    8.4053882981245636E+00
N   -3.9529411810456201E-03    5.6037164092756448E+00    1.0397840082170845E+01
Ga   -5.1988647913742232E-03    7.4732295595432383E+00    1.0987875615772362E+01
N   -5.1130019494018348E-03    7.4720866176356759E+00    1.2960511911822559E+01
Ga   -4.1499721568210692E-03    5.6034362242933282E+00    1.3575783560037150E+01
N   -6.6718041581781407E-03    5.6295781018103037E+00    1.5546333057378400E+01
Ga   -3.3287149316133169E-03    7.4750477904183716E+00    1.5820792041960869E+01
N   -1.7124190356635804E+00    1.0191865128619700E+01    2.4691269371578954E+00
Ga   -1.6347002055673121E+00    8.3933006412099598E+00    3.2573934668797611E+00
N   -1.6046114790800805E+00    8.3905665647526426E+00    5.1993221518285910E+00
Ga   -1.5944460538454110E+00    1.0274817007961776E+01    5.7540722251966114E+00
N   -1.6025548155660967E+00    1.0260281176886400E+01    7.7506034737762386E+00
Ga   -1.6277330958000804E+00    8.4068474503404769E+00    8.3963469065629788E+00
N   -1.6239914273490850E+00    8.4071764796828354E+00    1.0389528789204061E+01
Ga   -1.5995068855618861E+00    1.0266905588549109E+01    1.1027292010410259E+01
N   -1.5808338624593483E+00    1.0276385530173037E+01    1.3023005021456457E+01
Ga   -1.6243220974177377E+00    8.4081361078989350E+00    1.3579631062847671E+01
N   -1.5979931705159416E+00    8.3879680672620811E+00    1.5542565463860123E+01
Ga   -1.7680055297023103E+00    1.0168371582662159E+01    1.6439724673584724E+01
N    6.4368786531131388E+00    2.0160250597853748E+00    2.5156554817167844E+00
Ga    6.4051456603609660E+00    4.2464070162668482E-02    2.8438319510309134E+00
N    6.4309950776014340E+00    4.3857382505434521E-02    4.9909848122082714E+00
Ga    6.4260778183542335E+00    1.8763043630642713E+00    5.7673682514501348E+00
N    6.4292726995371492E+00    1.8891694830580248E+00    7.7624690505458114E+00
Ga    6.4250842853048589E+00    4.4644897499372262E-02    8.4065776309889166E+00
N    6.4272997974151354E+00    4.4169321464677884E-02    1.0379922125396169E+01
Ga    6.4278925845644688E+00    1.8845944199464930E+00    1.1028756280771681E+01
N    6.4285088782534565E+00    1.8651622481777477E+00    1.3024510758812790E+01
Ga    6.4303569495834338E+00    4.3940636723651970E-02    1.3830328024034056E+01
N    6.4300901822861469E+00    4.3688212934320750E-02    1.6028326273702927E+01
Ga    6.4275973250409244E+00    2.0798566943725798E+00    1.6437773745902053E+01
Ga    6.4554557984026459E+00    3.7243724605044246E+00    1.5041161785337704E+00
N    4.9408493524256949E+00    4.5998204267096776E+00    2.4803750700603939E+00
Ga    4.7021751668552572E+00    2.7657265516158067E+00    3.2648185823501934E+00
N    4.8209000877765673E+00    2.8295041638122003E+00    5.2199458664050011E+00
Ga    4.7796774156244046E+00    4.7092091117003996E+00    5.7634688018724747E+00
N    4.8172657289586134E+00    4.6899704983749508E+00    7.7690940934343118E+00
Ga    4.8273260037238046E+00    2.8337054246952222E+00    8.3953218684858353E+00
N    4.8308836417855083E+00    2.8347317960579717E+00    1.0392113679258891E+01
Ga    4.8057552025295056E+00    4.6953165702462716E+00    1.1025373064522451E+01
N    4.7893163072803224E+00    4.7057464090726571E+00    1.3021501868127485E+01
Ga    4.8309925383268491E+00    2.8375606713098991E+00    1.3577638924320075E+01
N    4.8005512878721817E+00    2.8245027525204747E+00    1.5540768260228502E+01
Ga    4.9853862555195185E+00    4.5931032498853153E+00    1.6439365681843544E+01
N    6.4313339634254403E+00    3.7491157714380083E+00    1.7573491498248259E+01
N    3.1950844638360145E+00    7.6208636291607172E+00    2.4949249488758380E+00
N    3.2182334078000414E+00    5.6210105507264272E+00    5.0365300579429073E+00
Ga    3.2182315794156322E+00    7.4177006181847522E+00    5.7746595993091772E+00
N    3.2114773526803990E+00    7.4698650660322086E+00    7.7723202866178918E+00
Ga    3.2133315146850330E+00    5.6146059034217748E+00    8.4014584528011618E+00
N    3.2126672024164322E+00    5.6165176308594784E+00    1.0380211795571986E+01
Ga    3.2134646097087720E+00    7.4556032234702823E+00    1.1029016807734147E+01
N    3.2124830024334323E+00    7.4381616897388607E+00    1.3022528518641824E+01
Ga    3.2166840068412150E+00    5.6208347014026740E+00    1.3822405763076425E+01
N    3.2178751373704260E+00    5.6202464760407773E+00    1.6029338436257863E+01
Ga    3.2129442350067632E+00    7.6773579021364684E+00    1.6459944235071891E+01
Ga    3.2279198116744823E+00    9.3639911298854734E+00    1.4848217808883641E+00
N    1.7042737175729530E+00    1.0193759170692450E+01    2.4977645911516899E+00
Ga    1.5640716370209182E+00    8.3783065242862094E+00    3.3125336772535676E+00
N    1.5904442286297353E+00    8.3955249237841763E+00    5.2304238570712620E+00
Ga    1.5771730191637114E+00    1.0279200942801152E+01    5.7779373205000066E+00
N    1.5945212735602290E+00    1.0262614565173624E+01    7.7654550010343382E+00
Ga    1.6142419124859491E+00    8.4071459033956852E+00    8.4080556935590138E+00
N    1.6135168943174323E+00    8.4081158301231920E+00    1.0397722241689520E+01
Ga    1.5889609634995336E+00    1.0267620574781608E+01    1.1032161971807932E+01
N    1.5728552382711238E+00    1.0276648609569065E+01    1.3024428130545445E+01
Ga    1.6157767553788058E+00    8.4084182131822356E+00    1.3583332550066814E+01
N    1.5863019430451706E+00    8.3897108291112907E+00    1.5541829352222443E+01
Ga    1.7800444161559541E+00    1.0156637507752677E+01    1.6459694442844995E+01
N    3.2142034492426292E+00    9.3290819391487467E+00    1.7607417809380415E+01
N    9.6621008161935471E+00    1.9112323879829693E+00    2.5809670373013125E+00
Ga    9.6565754701395434E+00    1.7870650566169702E-01    3.2662609271856513E+00
N    9.6431160364080668E+00    4.4066901834167269E-02    5.2218530316077585E+00
Ga    9.6577481787463189E+00    1.9079044163626089E+00    5.8420106684061990E+00
N    9.6469855178212693E+00    1.9018913172245864E+00    7.8151162855976413E+00
Ga    9.6474423572757022E+00    3.4821732645109016E-02    8.4012249751644212E+00
N    9.6445756850704978E+00    3.2385480498912073E-02    1.0393378637262614E+01
Ga    9.6460883350220961E+00    1.9026073533876757E+00    1.0983946599564000E+01
N    9.6457467465956253E+00    1.9033717654682365E+00    1.2957984314162593E+01
Ga    9.6447740957753094E+00    3.2471062646558121E-02    1.3582826819382792E+01
N    9.6456937300843766E+00    6.6855648863506298E-02    1.5541352855333198E+01
Ga    9.6432322107053103E+00    1.9006610515258184E+00    1.5821394366741385E+01
N    7.9357040275148423E+00    4.6215526242495413E+00    2.4995125224647921E+00
Ga    8.1579519760827566E+00    2.7701294212508571E+00    3.2751530436359988E+00
N    8.0409325665586984E+00    2.8274082585608693E+00    5.2285337895474386E+00
Ga    8.0661727960522196E+00    4.7032409435203366E+00    5.7617494567562693E+00
N    8.0474121520988291E+00    4.6934184490249677E+00    7.7585898052629414E+00
Ga    8.0278707971038621E+00    2.8360384370311640E+00    8.3978759602154671E+00
N    8.0259290083168988E+00    2.8363929702333945E+00    1.0392297384986744E+01
Ga    8.0519222513328756E+00    4.6961471856349659E+00    1.1025954474164591E+01
N    8.0678682152621217E+00    4.7056995623661377E+00    1.3021148377201008E+01
Ga    8.0254723684874385E+00    2.8373690363025501E+00    1.3578480134266263E+01
N    8.0549802711346583E+00    2.8244992605984387E+00    1.5542223591464486E+01
Ga    7.8718875482917001E+00    4.5938225815335461E+00    1.6439265710676793E+01
N    6.3746474673706199E+00    7.4426478276162413E+00    2.4772763349024443E+00
Ga    6.4242280441054938E+00    5.7232233663746879E+00    3.2642396068009560E+00
N    6.4301826226993750E+00    5.6184209466464567E+00    5.2129444254681916E+00
Ga    6.4335963748846758E+00    7.4738031730593519E+00    5.8379906235518710E+00
N    6.4282825609161183E+00    7.4719888245931010E+00    7.8089803483039217E+00
Ga    6.4294553297736483E+00    5.6029592905197978E+00    8.4000833860596185E+00
N    6.4299691675267345E+00    5.6040821648181023E+00    1.0393443937472313E+01
Ga    6.4300894372116915E+00    7.4732478230985260E+00    1.0984769652576320E+01
N    6.4291528833916693E+00    7.4728989889512727E+00    1.2956926319699971E+01
Ga    6.4281662709163774E+00    5.6038197582652316E+00    1.3577380595140877E+01
N    6.4281979357612586E+00    5.6339455488892058E+00    1.5539705012175395E+01
Ga    6.4269941884395818E+00    7.4734761408630455E+00    1.5818301247963580E+01
N    4.7196210528616378E+00    1.0201402703929933E+01    2.4935337310485015E+00
Ga    4.9204494506467071E+00    8.3453003406539317E+00    3.2725392563889311E+00
N    4.8208551969239082E+00    8.4020370249178171E+00    5.2177728119118347E+00
Ga    4.8536220855186309E+00    1.0278042898989920E+01    5.7637355259672418E+00
N    4.8307702881608021E+00    1.0263828297120389E+01    7.7590742249744480E+00
Ga    4.8121550775709325E+00    8.4089442173120261E+00    8.4015569510535801E+00
N    4.8112813954239870E+00    8.4080435460683880E+00    1.0393912191522894E+01
Ga    4.8369137033085936E+00    1.0267109245900569E+01    1.1027834352188174E+01
N    4.8513225564033364E+00    1.0276111243804191E+01    1.3021333931655343E+01
Ga    4.8094423805631648E+00    8.4082289969727455E+00    1.3582334437543443E+01
N    4.8379662667252781E+00    8.3912716901816413E+00    1.5541408550957783E+01
Ga    4.6439854774302303E+00    1.0155705786852048E+01    1.6459749661173866E+01
O    1.0301180973579201E-01    3.6912778800559618E+00   -5.5841287696061281E-01
H   -8.1438740524421782E-04    7.4749567288826064E+00    1.6240545174624927E+00
C    1.8791480547664460E-01    2.3958374773581075E+00   -1.1721653469011331E+00
H    1.0041041729085853E+00    1.7821400298860768E+00   -7.5531896080879424E-01
H   -7.5148680077677810E-01    1.8277365842748960E+00   -1.0742344681831757E+00
H    3.8610301034883532E-01    2.5519146402677553E+00   -2.2430319357998139E+00
Ga    3.2095138454600822E+00    5.6056901404184716E+00    2.4277490220049169E+00
O    3.7261035800544970E+00    6.0712449757076135E+00    2.1530018502460152E-01
H    3.5134933700389626E+00    5.3801858847188502E+00   -4.3476344432746011E-01
C    5.0876346715253478E+00    6.5723874955782966E+00   -1.8044767955628566E-02
H    5.0480755396971420E+00    7.3674451603284448E+00   -7.7598494625260561E-01
H    5.5483950295471098E+00    6.9624542335911288E+00    9.4874162909141102E-01
H    5.7312654399529226E+00    5.7638442499231370E+00   -4.0058328493734224E-01
     &END COORD
     &KIND C
       BASIS_SET DZVP-MOLOPT-SR-GTH-q4
       POTENTIAL GTH-PBE-q4
       &POTENTIAL
2 2
0.3384712400000000E+00 2 -0.8803673979999999E+01  0.1339210850000000E+01
2
0.3025757500000000E+00 1  0.9622486650000001E+01
0.2915069400000000E+00 0
       &END POTENTIAL
     &END KIND
     &KIND O
       BASIS_SET DZVP-MOLOPT-SR-GTH-q6
       POTENTIAL GTH-PBE-q6
       &POTENTIAL
2 4
0.2445543000000000E+00 2 -0.1666721480000000E+02  0.2487311320000000E+01
2
0.2209559200000000E+00 1  0.1833745811000000E+02
0.2113324700000000E+00 0
       &END POTENTIAL
     &END KIND
     &KIND H
       BASIS_SET DZVP-MOLOPT-SR-GTH-q1
       POTENTIAL GTH-PBE-q1
       &POTENTIAL
1
0.2000000000000000E+00 2 -0.4178900440000000E+01  0.7244633100000000E+00
0
       &END POTENTIAL
     &END KIND
     &KIND N
       BASIS_SET DZVP-MOLOPT-SR-GTH
       POTENTIAL GTH-PBE-q5
       &POTENTIAL
2 3
0.2837905100000000E+00 2 -0.1241522559000000E+02  0.1868095920000000E+01
2
0.2554050000000000E+00 1  0.1363026257000000E+02
0.2454945300000000E+00 0
       &END POTENTIAL
     &END KIND
     &KIND Ga
       BASIS_SET DZVP-MOLOPT-SR-GTH
       POTENTIAL GTH-PBE-q13
       &POTENTIAL
2 1 10
0.4900000000000000E+00 0
3
0.4167772300000000E+00 3  0.1047568975000000E+02 -0.4921768140000000E+01  0.8707055900000000E+00
0.7770178090000000E+01 -0.2248152160000000E+01
0.1784415450000000E+01
0.5696265200000000E+00 2  0.1777985340000000E+01  0.1958597600000000E+00
-0.2317443900000000E+00
0.2381265000000000E+00 1 -0.1624868022000000E+02
       &END POTENTIAL
     &END KIND
     &TOPOLOGY
       NUMBER_OF_ATOMS  212
       MULTIPLE_UNIT_CELL  1 1 1
     &END TOPOLOGY
     &COLVAR
       &DISTANCE
         ATOMS  176 211
       &END DISTANCE
       &PRINT
       &END PRINT
     &END COLVAR
   &END SUBSYS
 &END FORCE_EVAL
