 # Version information for this restart file 
 # current date 2019-06-24 02:49:43.229
 # current working dir /scratch/rzk/rzk/GaN-carbene/443-adatoms-both-2x2/01-Surface/01-GaN-NGa
 # Program compiled at                              Sun Apr  7 00:48:11 EDT 2019
 # Program compiled on                          beluga2.int.ets1.calculquebec.ca
 # Program compiled for                        Beluga-Linux-x86-64-intel-openmpi
 # Source code revision number                                         svn:18619
 &GLOBAL
   PRINT_LEVEL  MEDIUM
   PROJECT_NAME TEST
   RUN_TYPE  GEO_OPT
 &END GLOBAL
 &MOTION
   &GEO_OPT
     STEP_START_VAL  32
   &END GEO_OPT
   &CELL_OPT
     MAX_ITER  300
     EXTERNAL_PRESSURE     1.0000000000000000E+00
     KEEP_ANGLES  T
     KEEP_SYMMETRY  T
     CONSTRAINT  Z
     PRESSURE_TOLERANCE     5.0000000000000000E+02
   &END CELL_OPT
 &END MOTION
 &FORCE_EVAL
   METHOD  QS
   STRESS_TENSOR  ANALYTICAL
   &DFT
     BASIS_SET_FILE_NAME BASIS_MOLOPT
     POTENTIAL_FILE_NAME GTH_POTENTIALS
     UKS  T
     SURFACE_DIPOLE_CORRECTION  T
     SURF_DIP_DIR  Z
     &SCF
       MAX_SCF  80
       EPS_SCF     5.0000000000000004E-06
       &OT  T
         PRECONDITIONER  FULL_ALL
       &END OT
       &OUTER_SCF  T
         OPTIMIZER  NONE
         EPS_SCF     5.0000000000000004E-06
         MAX_SCF  4
       &END OUTER_SCF
       &PRINT
         &RESTART  OFF
           BACKUP_COPIES  1
           &EACH
             JUST_ENERGY  0
             QS_SCF  0
             MD  20
           &END EACH
         &END RESTART
       &END PRINT
     &END SCF
     &QS
       EPS_DEFAULT     1.0000000000000000E-14
       METHOD  GPW
     &END QS
     &MGRID
       NGRIDS  5
       CUTOFF     1.2000000000000000E+03
     &END MGRID
     &XC
       DENSITY_CUTOFF     1.0000000000000000E-10
       GRADIENT_CUTOFF     1.0000000000000000E-10
       TAU_CUTOFF     1.0000000000000000E-10
       &XC_FUNCTIONAL  NO_SHORTCUT
         &PBE  T
         &END PBE
       &END XC_FUNCTIONAL
       &VDW_POTENTIAL
         POTENTIAL_TYPE  PAIR_POTENTIAL
         &PAIR_POTENTIAL
           R_CUTOFF     1.0000000000000004E+01
           TYPE  DFTD3
           PARAMETER_FILE_NAME dftd3.dat
           REFERENCE_FUNCTIONAL PBE
           EPS_CN     9.9999999999999995E-07
           CALCULATE_C9_TERM  T
           REFERENCE_C9_TERM  T
           LONG_RANGE_CORRECTION  F
           VERBOSE_OUTPUT  F
         &END PAIR_POTENTIAL
       &END VDW_POTENTIAL
     &END XC
   &END DFT
   &SUBSYS
     &CELL
       A     1.2864472766435110E+01    0.0000000000000000E+00    0.0000000000000000E+00
       B    -6.4322363581020028E+00    1.1140960178524473E+01    0.0000000000000000E+00
       C     0.0000000000000000E+00    0.0000000000000000E+00    3.2000000000000000E+01
       MULTIPLE_UNIT_CELL  1 1 1
       &CELL_REF
         A     1.2982353780853531E+01    0.0000000000000000E+00    0.0000000000000000E+00
         B    -6.4911768904267628E+00    1.1243048175136114E+01    0.0000000000000000E+00
         C     0.0000000000000000E+00    0.0000000000000000E+00    3.2000000000000000E+01
         MULTIPLE_UNIT_CELL  1 1 1
       &END CELL_REF
     &END CELL
     &COORD
N    2.0665107858851544E-02    2.0285338263182791E+00    2.4742623641645363E+00
Ga    2.0504680181041970E-02    4.8031496910401546E-02    2.8022756146782921E+00
N    2.0398453837039737E-02    4.7363858827379320E-02    4.9675896739362981E+00
Ga    2.0451526597246059E-02    1.8749327367605602E+00    5.7507316490292713E+00
N    2.0400593226727094E-02    1.8932738946122991E+00    7.7472195242211992E+00
Ga    1.9877120919403617E-02    4.7712964881644809E-02    8.3957081019567941E+00
N    1.9839651221304672E-02    4.7630495805001907E-02    1.0369581754025713E+01
Ga    1.9813507671813075E-02    1.8868803964890903E+00    1.1019902574854878E+01
N    1.9382459739780759E-02    1.8672419300440135E+00    1.3016335560475316E+01
Ga    1.6921332352641535E-02    4.2916853451418650E-02    1.3816067953719067E+01
N    1.8883041737310931E-02    4.3221727010598641E-02    1.6021191427128059E+01
Ga    1.8798692076836442E-02    2.0660154489738445E+00    1.6411310933647442E+01
Ga    2.0396305077605679E-02    3.7620465475108880E+00    1.4383363891966550E+00
N   -1.4803407901718928E+00    4.6280280067799184E+00    2.4746872598437863E+00
Ga   -1.6855390015740546E+00    2.7760968108802171E+00    3.2394059252342267E+00
N   -1.5885405685956870E+00    2.8319669044166935E+00    5.2026329471751884E+00
Ga   -1.6128370153679674E+00    4.7039012264589788E+00    5.7505310684589164E+00
N   -1.5975937213909939E+00    4.6953058792336932E+00    7.7470370288822794E+00
Ga   -1.5779973439949582E+00    2.8384793274878972E+00    8.3873244798501414E+00
N   -1.5765757944846246E+00    2.8393253611464111E+00    1.0381403548608295E+01
Ga   -1.6027650025429228E+00    4.6982821033697899E+00    1.1018542178628607E+01
N   -1.6205649405585056E+00    4.7082803001582931E+00    1.3014696035614442E+01
Ga   -1.5784278565633156E+00    2.8392521610871522E+00    1.3568155817534940E+01
N   -1.6025178765986141E+00    2.8277434085472337E+00    1.5536079581152126E+01
Ga   -1.4427539984176037E+00    4.6061145507231922E+00    1.6411723914598053E+01
N    2.8697341967324486E-02    3.7596523073897621E+00    1.7531089178513898E+01
N   -3.1955527151419503E+00    7.5989969669697999E+00    2.4742807731512793E+00
Ga   -3.1955627480647948E+00    5.6182439584754240E+00    2.8022829049115310E+00
N   -3.1956718815056160E+00    5.6176994303547954E+00    4.9673479131590748E+00
Ga   -3.1958445228854901E+00    7.4453357481524316E+00    5.7504376767917371E+00
N   -3.1959053884006665E+00    7.4635733286947028E+00    7.7466890803998005E+00
Ga   -3.1960689591131972E+00    5.6181170459476721E+00    8.3952302982171716E+00
N   -3.1960844981239949E+00    5.6181677062378874E+00    1.0369331670596964E+01
Ga   -3.1963222042603086E+00    7.4585254931846166E+00    1.1018593255194419E+01
N   -3.1968385820632084E+00    7.4390435943542403E+00    1.3013180142196736E+01
Ga   -3.2003337399509806E+00    5.6187728559990973E+00    1.3811881635672361E+01
N   -3.1992450935659931E+00    5.6182009476342820E+00    1.6020637222562844E+01
Ga   -3.1974190718902507E+00    7.6565098942461720E+00    1.6426631285829956E+01
Ga   -3.1955393780101806E+00    9.3327635190545735E+00    1.4394418984146855E+00
N   -4.6963180430758582E+00    1.0198554569901047E+01    2.4748038803955454E+00
Ga   -4.9019220844009306E+00    8.3463634511877558E+00    3.2394037893812571E+00
N   -4.8048491698862801E+00    8.4024392146389513E+00    5.2024730728654252E+00
Ga   -4.8291118715248968E+00    1.0274442217363273E+01    5.7504871763288614E+00
N   -4.8138654387939752E+00    1.0265950267330837E+01    7.7468245766864197E+00
Ga   -4.7944870288143395E+00    8.4089806458102796E+00    8.3864258651603052E+00
N   -4.7931309035058085E+00    8.4098318872582603E+00    1.0379904544520281E+01
Ga   -4.8188216261167129E+00    1.0268431315377429E+01    1.1018939170028506E+01
N   -4.8363123357785316E+00    1.0278429257470274E+01    1.3013226727093123E+01
Ga   -4.7943727503179572E+00    8.4099295318341980E+00    1.3569881996873743E+01
N   -4.8185303575151526E+00    8.3955389748866303E+00    1.5533201206235026E+01
Ga   -4.6461261636885203E+00    1.0168018279051559E+01    1.6426181650655124E+01
N   -3.1860875634646528E+00    9.3338502356218331E+00    1.7559716925819984E+01
N    3.2367291360807382E+00    1.9045299486037357E+00    2.5635049719094840E+00
Ga    3.2369079226665507E+00    1.6168016633756635E-01    3.2401771269995123E+00
N    3.2365032097591513E+00    4.8825824590122614E-02    5.2030234753564946E+00
Ga    3.2363820791080906E+00    1.9045318337686683E+00    5.8270561787109170E+00
N    3.2361695186371149E+00    1.9044649941887630E+00    7.8002386344608565E+00
Ga    3.2363407564888589E+00    3.6194670379995096E-02    8.3873352199138331E+00
N    3.2364590499214332E+00    3.4973148798101039E-02    1.0381256754078683E+01
Ga    3.2367156613752455E+00    1.9045472624933901E+00    1.0975819122547481E+01
N    3.2349769192725297E+00    1.9049254148265884E+00    1.2949430600193262E+01
Ga    3.2350641517039160E+00    3.4808819780832820E-02    1.3570234954942723E+01
N    3.2314784935974106E+00    6.6241723692764307E-02    1.5534196947483666E+01
Ga    3.2369656458896126E+00    1.9053153246564676E+00    1.5814564768507099E+01
N    1.5214478104880762E+00    4.6280181841848096E+00    2.4746499309605370E+00
Ga    1.7268588069694242E+00    2.7761347173602475E+00    3.2393863741541149E+00
N    1.6294781901946762E+00    2.8319612012279962E+00    5.2027028190303364E+00
Ga    1.6536369146656136E+00    4.7038457569310443E+00    5.7507399912259718E+00
N    1.6379834957536537E+00    4.6951035757038131E+00    7.7472268453593331E+00
Ga    1.6184749152595712E+00    2.8385751414366611E+00    8.3881043803559283E+00
N    1.6170311461431817E+00    2.8394729462180641E+00    1.0382623767444457E+01
Ga    1.6435625930292501E+00    4.6988943211777059E+00    1.1020339896818832E+01
N    1.6606001897277463E+00    4.7089578221301007E+00    1.3016871087436565E+01
Ga    1.6163381231068468E+00    2.8396108617409026E+00    1.3568104129490871E+01
N    1.6409904675897837E+00    2.8246232417619055E+00    1.5537678222592413E+01
Ga    1.4909192597254912E+00    4.6123245402558801E+00    1.6410488523662835E+01
N    2.0561577611687497E-02    7.4747791471806684E+00    2.5636294070651582E+00
Ga    2.0658669083136176E-02    5.7316922683202201E+00    3.2398244636214293E+00
N    2.0424777753273643E-02    5.6190848231264177E+00    5.2028828628081802E+00
Ga    2.0324949588295574E-02    7.4747804815325685E+00    5.8266795383899783E+00
N    2.0056214322899092E-02    7.4746676230280320E+00    7.7997590117248565E+00
Ga    2.0267471130652907E-02    5.6067315274289777E+00    8.3874392208161552E+00
N    2.0357755147160133E-02    5.6053984401052803E+00    1.0381746412126571E+01
Ga    2.0424791711560541E-02    7.4756025204876329E+00    1.0975552302044555E+01
N    1.9046247517451428E-02    7.4742891793070010E+00    1.2948714108896381E+01
Ga    1.9305660973238967E-02    5.6060027973299125E+00    1.3567641392181523E+01
N    1.6622060512608085E-02    5.6343493672322831E+00    1.5535950624839865E+01
Ga    2.0541236752331944E-02    7.4777905383135721E+00    1.5814720869101068E+01
N   -1.6947366933688357E+00    1.0198534158014187E+01    2.4748435855216084E+00
Ga   -1.4891840920418458E+00    8.3462970132954126E+00    3.2395166128516282E+00
N   -1.5867216164656186E+00    8.4023569517950829E+00    5.2026403130769401E+00
Ga   -1.5624466262923233E+00    1.0274306420638144E+01    5.7506065900987924E+00
N   -1.5780360528575430E+00    1.0265756232167899E+01    7.7467897391414668E+00
Ga   -1.5976041771804002E+00    8.4090469717013345E+00    8.3872028966926209E+00
N   -1.5989555337215999E+00    8.4100112156072875E+00    1.0380954051524798E+01
Ga   -1.5728263620407843E+00    1.0268902932308190E+01    1.1020888230514823E+01
N   -1.5560803091611413E+00    1.0279217360928961E+01    1.3015931657509894E+01
Ga   -1.5998801315060989E+00    8.4100679725520724E+00    1.3570622197183310E+01
N   -1.5753356212630285E+00    8.3919483653646836E+00    1.5535766659395970E+01
Ga   -1.7372598187089625E+00    1.0175397587345680E+01    1.6425921526922693E+01
N    6.4528783836127088E+00    2.0283769776623557E+00    2.4744392992254522E+00
Ga    6.4529788084980311E+00    4.7695953560448277E-02    2.8026907218484678E+00
N    6.4526570891178503E+00    4.7131768699971016E-02    4.9672681362034758E+00
Ga    6.4526503125291583E+00    1.8747414954545263E+00    5.7504747851745179E+00
N    6.4523831518711514E+00    1.8928616937506435E+00    7.7466393678277390E+00
Ga    6.4524044622439307E+00    4.7527097328021413E-02    8.3961590010188498E+00
N    6.4523154435012273E+00    4.7532331555860147E-02    1.0369708174114189E+01
Ga    6.4525859046676874E+00    1.8870668711781649E+00    1.1021177971911232E+01
N    6.4522608748499897E+00    1.8683203988044492E+00    1.3014936717211713E+01
Ga    6.4556236239020102E+00    4.7954223020712686E-02    1.3822108594400135E+01
N    6.4554380908609872E+00    4.8351172873226336E-02    1.6020541617012618E+01
Ga    6.4520256041225590E+00    2.0897494528633920E+00    1.6436075686651208E+01
Ga    6.4526257031430108E+00    3.7618608382451222E+00    1.4392032179287992E+00
N    4.9518969160388808E+00    4.6279006235003441E+00    2.4746855652164390E+00
Ga    4.7464894400840851E+00    2.7759179125405860E+00    3.2396271096722957E+00
N    4.8435392685280307E+00    2.8317905775111640E+00    5.2027047528186898E+00
Ga    4.8192600621721127E+00    4.7037711282330257E+00    5.7504540587636637E+00
N    4.8342432154134096E+00    4.6951204545611507E+00    7.7466969608311516E+00
Ga    4.8542908669171725E+00    2.8383912769564974E+00    8.3875629325703827E+00
N    4.8556182292849659E+00    2.8391305658377246E+00    1.0381149558417242E+01
Ga    4.8298725500045325E+00    4.6984149622915421E+00    1.1019717828840253E+01
N    4.8128669252967571E+00    4.7083827910328866E+00    1.3012843059736378E+01
Ga    4.8554017554869811E+00    2.8404020477458789E+00    1.3571734618766085E+01
N    4.8249594105556177E+00    2.8259716611907564E+00    1.5532331740719295E+01
Ga    5.0121244939148779E+00    4.5940157725200192E+00    1.6435957110471239E+01
N    6.4544416248323069E+00    3.7537992159900946E+00    1.7574634128111377E+01
N    3.2366434716494985E+00    7.5988533021922375E+00    2.4740549264158056E+00
Ga    3.2364009037226111E+00    5.6181869278642047E+00    2.8024029473702452E+00
N    3.2364356424012604E+00    5.6175838017935567E+00    4.9673703609815965E+00
Ga    3.2363458233806051E+00    7.4452407138741608E+00    5.7505241098800912E+00
N    3.2361344393985099E+00    7.4633423720764531E+00    7.7466506821887524E+00
Ga    3.2361424250098727E+00    5.6181395959100877E+00    8.3959154406687055E+00
N    3.2362000045075261E+00    5.6182228426116358E+00    1.0369577318466581E+01
Ga    3.2362974150638988E+00    7.4585184172007359E+00    1.1020346442832608E+01
N    3.2363267499737121E+00    7.4394818171906039E+00    1.3012767170505754E+01
Ga    3.2405272104523530E+00    5.6224887285985963E+00    1.3818737825285730E+01
N    3.2413755465319150E+00    5.6212349393469703E+00    1.6019820959064575E+01
Ga    3.2367238701530061E+00    7.6764623522667801E+00    1.6451269174858467E+01
Ga    3.2364819817083648E+00    9.3327101498762204E+00    1.4386159713148801E+00
N    1.7358898157683922E+00    1.0198449400363952E+01    2.4749166589288665E+00
Ga    1.5305024616542051E+00    8.3461663288888257E+00    3.2393827216619528E+00
N    1.6273437252619050E+00    8.4022065860370247E+00    5.2024848917658533E+00
Ga    1.6031861118182102E+00    1.0274180364781357E+01    5.7503405665649803E+00
N    1.6182064359969091E+00    1.0265614537782263E+01    7.7465074855976068E+00
Ga    1.6379212411065813E+00    8.4089535345659510E+00    8.3873850048665464E+00
N    1.6391740905008902E+00    8.4098411639831738E+00    1.0380515997109448E+01
Ga    1.6138032556480781E+00    1.0268633268887200E+01    1.1020865008853882E+01
N    1.5969002647290496E+00    1.0278919637559827E+01    1.3013434139514906E+01
Ga    1.6396100866933541E+00    8.4107087297285368E+00    1.3574491917624389E+01
N    1.6104297081072581E+00    8.3929145567091883E+00    1.5532986679048276E+01
Ga    1.8036350077922547E+00    1.0159368611665712E+01    1.6451882151657685E+01
N    3.2370251724321220E+00    9.3295732252116057E+00    1.7597326773085289E+01
N    9.6691120786833284E+00    1.9043267994899007E+00    2.5633243296349288E+00
Ga    9.6692373489833177E+00    1.6142694082107917E-01    3.2399483218141683E+00
N    9.6687159745949049E+00    4.8632227170547354E-02    5.2027110856590264E+00
Ga    9.6687900791480725E+00    1.9042807564810929E+00    5.8266136457194664E+00
N    9.6687893512072431E+00    1.9043437198081787E+00    7.7995892154347306E+00
Ga    9.6682882243912562E+00    3.6022133754156416E-02    8.3870707509273554E+00
N    9.6682874492192088E+00    3.4997238077919934E-02    1.0380150755450551E+01
Ga    9.6683094156791700E+00    1.9041334497080948E+00    1.0975709699343092E+01
N    9.6690718339924917E+00    1.9055788801200368E+00    1.2948139589321535E+01
Ga    9.6681562838824036E+00    3.5031055881542941E-02    1.3575171546953806E+01
N    9.6700191750906939E+00    6.8390212105616938E-02    1.5533411452721090E+01
Ga    9.6660466077826985E+00    1.9034545526751023E+00    1.5814782755198886E+01
N    7.9537784678277150E+00    4.6279057423817260E+00    2.4746179906842487E+00
Ga    8.1593612203709664E+00    2.7757809398609830E+00    3.2393339381070771E+00
N    8.0617704824095373E+00    2.8317634893584804E+00    5.2024301393021508E+00
Ga    8.0858905603860567E+00    4.7037364065456941E+00    5.7502270253778738E+00
N    8.0703023443725588E+00    4.6950453718452474E+00    7.7465151449546665E+00
Ga    8.0507021854880811E+00    2.8381186804552203E+00    8.3871153746683991E+00
N    8.0493103333385339E+00    2.8389296640937380E+00    1.0380555279486334E+01
Ga    8.0742777548791462E+00    4.6978010769422216E+00    1.1018903657103195E+01
N    8.0907423083432555E+00    4.7076678659510875E+00    1.3012286219120817E+01
Ga    8.0492352266339342E+00    2.8396050352351967E+00    1.3572551742092804E+01
N    8.0787209101515902E+00    2.8266211408860706E+00    1.5533981001396601E+01
Ga    7.8920603414274764E+00    4.5936920396936749E+00    1.6436975518191076E+01
N    6.4527426044153504E+00    7.4747092069613910E+00    2.5632978386231624E+00
Ga    6.4528010911736713E+00    5.7317567888521657E+00    3.2397492881778240E+00
N    6.4525759263138456E+00    5.6189678453949581E+00    5.2025961904139031E+00
Ga    6.4523218540292078E+00    7.4747757240850996E+00    5.8261147832273279E+00
N    6.4523432179593092E+00    7.4747266455219883E+00    7.7989139911001422E+00
Ga    6.4522239071184355E+00    5.6066726964759663E+00    8.3864712767140297E+00
N    6.4523032014171475E+00    5.6054823097765052E+00    1.0379803311739410E+01
Ga    6.4522075451193466E+00    7.4750133778013907E+00    1.0975603527936052E+01
N    6.4527733879020674E+00    7.4750075276019476E+00    1.2947659103517628E+01
Ga    6.4517816066564073E+00    5.6058847813932120E+00    1.3571478645315842E+01
N    6.4530465016075178E+00    5.6369470932422843E+00    1.5531560855918221E+01
Ga    6.4510077789557130E+00    7.4749575539057211E+00    1.5811941022189371E+01
N    4.7376457214081373E+00    1.0198454428389281E+01    2.4744930567511005E+00
Ga    4.9428159551990687E+00    8.3461743235828347E+00    3.2390836553785656E+00
N    4.8453519750404972E+00    8.4022660288153563E+00    5.2022058135903331E+00
Ga    4.8696938116469219E+00    1.0274102601677845E+01    5.7504668107971533E+00
N    4.8541166775826046E+00    1.0265536888261245E+01    7.7466223456077081E+00
Ga    4.8345164347827101E+00    8.4086571569460808E+00    8.3869699337939903E+00
N    4.8333383706320436E+00    8.4094505780652842E+00    1.0380005243312022E+01
Ga    4.8579792844532603E+00    1.0268005905168627E+01    1.1019861808774696E+01
N    4.8745858117314045E+00    1.0277983078092269E+01    1.3012233083083968E+01
Ga    4.8329470571116486E+00    8.4101027687691463E+00    1.3574802346237686E+01
N    4.8623621110119757E+00    8.3939832744716441E+00    1.5533871605516193E+01
Ga    4.6676759741760536E+00    1.0158013297890676E+01    1.6452178285187589E+01
     &END COORD
     &KIND N
       BASIS_SET DZVP-MOLOPT-SR-GTH
       POTENTIAL GTH-PBE-q5
       &POTENTIAL
 2 3
  0.2837905100000000E+00 2 -0.1241522559000000E+02  0.1868095920000000E+01
 2
  0.2554050000000000E+00 1  0.1363026257000000E+02
  0.2454945300000000E+00 0
         # Potential name:  GTH-PBE-Q5  for symbol:  N
         # Potential read from the potential filename: GTH_POTENTIALS
       &END POTENTIAL
     &END KIND
     &KIND Ga
       BASIS_SET DZVP-MOLOPT-SR-GTH
       POTENTIAL GTH-PBE-q13
       &POTENTIAL
 2 1 10
  0.4900000000000000E+00 0
 3
  0.4167772300000000E+00 3  0.1047568975000000E+02 -0.4921768140000000E+01  0.8707055900000000E+00
  0.7770178090000000E+01 -0.2248152160000000E+01
  0.1784415450000000E+01
  0.5696265200000000E+00 2  0.1777985340000000E+01  0.1958597600000000E+00
 -0.2317443900000000E+00
  0.2381265000000000E+00 1 -0.1624868022000000E+02
         # Potential name:  GTH-PBE-Q13  for symbol:  GA
         # Potential read from the potential filename: GTH_POTENTIALS
       &END POTENTIAL
     &END KIND
     &TOPOLOGY
       NUMBER_OF_ATOMS  200
       MULTIPLE_UNIT_CELL  1 1 1
     &END TOPOLOGY
   &END SUBSYS
 &END FORCE_EVAL
