 # Version information for this restart file 
 # current date 2019-07-03 09:32:04.508
 # current working dir /lustre04/scratch/rzk/rzk/GaN-carbene/443-adatoms-both-2x2/02-Methanol/03-H-NSur
 # Program compiled at                              Sun Apr  7 00:48:11 EDT 2019
 # Program compiled on                          beluga2.int.ets1.calculquebec.ca
 # Program compiled for                        Beluga-Linux-x86-64-intel-openmpi
 # Source code revision number                                         svn:18619
 &GLOBAL
   PRINT_LEVEL  MEDIUM
   PROJECT_NAME TEST
   RUN_TYPE  GEO_OPT
 &END GLOBAL
 &MOTION
   &GEO_OPT
     MAX_ITER  500
     STEP_START_VAL  122
   &END GEO_OPT
 &END MOTION
 &FORCE_EVAL
   METHOD  QS
   STRESS_TENSOR  ANALYTICAL
   &DFT
     BASIS_SET_FILE_NAME BASIS_MOLOPT
     POTENTIAL_FILE_NAME GTH_POTENTIALS
     UKS  T
     SURFACE_DIPOLE_CORRECTION  T
     SURF_DIP_DIR  Z
     &SCF
       MAX_SCF  80
       EPS_SCF     5.0000000000000004E-06
       &OT  T
         PRECONDITIONER  FULL_ALL
       &END OT
       &OUTER_SCF  T
         OPTIMIZER  NONE
         EPS_SCF     5.0000000000000004E-06
         MAX_SCF  4
       &END OUTER_SCF
       &PRINT
         &RESTART  OFF
           BACKUP_COPIES  1
           &EACH
             JUST_ENERGY  0
             QS_SCF  0
             MD  20
           &END EACH
         &END RESTART
       &END PRINT
     &END SCF
     &QS
       EPS_DEFAULT     1.0000000000000000E-14
       METHOD  GPW
     &END QS
     &MGRID
       NGRIDS  5
       CUTOFF     1.2000000000000000E+03
     &END MGRID
     &XC
       DENSITY_CUTOFF     1.0000000000000000E-10
       GRADIENT_CUTOFF     1.0000000000000000E-10
       TAU_CUTOFF     1.0000000000000000E-10
       &XC_FUNCTIONAL  NO_SHORTCUT
         &PBE  T
         &END PBE
       &END XC_FUNCTIONAL
       &VDW_POTENTIAL
         POTENTIAL_TYPE  PAIR_POTENTIAL
         &PAIR_POTENTIAL
           R_CUTOFF     1.0000000000000004E+01
           TYPE  DFTD3
           PARAMETER_FILE_NAME dftd3.dat
           REFERENCE_FUNCTIONAL PBE
           EPS_CN     9.9999999999999995E-07
           CALCULATE_C9_TERM  T
           REFERENCE_C9_TERM  T
           LONG_RANGE_CORRECTION  F
           VERBOSE_OUTPUT  F
         &END PAIR_POTENTIAL
       &END VDW_POTENTIAL
     &END XC
   &END DFT
   &SUBSYS
     &CELL
       A     1.2864472766435110E+01    0.0000000000000000E+00    0.0000000000000000E+00
       B    -6.4322363581020028E+00    1.1140960178524473E+01    0.0000000000000000E+00
       C     0.0000000000000000E+00    0.0000000000000000E+00    3.2000000000000000E+01
       MULTIPLE_UNIT_CELL  1 1 1
       &CELL_REF
         A     1.2982353780853531E+01    0.0000000000000000E+00    0.0000000000000000E+00
         B    -6.4911768904267628E+00    1.1243048175136114E+01    0.0000000000000000E+00
         C     0.0000000000000000E+00    0.0000000000000000E+00    3.2000000000000000E+01
         MULTIPLE_UNIT_CELL  1 1 1
       &END CELL_REF
     &END CELL
     &COORD
N    6.8740220347194611E-02    1.9400235352561599E+00    2.5016492072257428E+00
Ga    2.4355721603177921E-02   -3.1241580011045954E-02    2.8205959748995428E+00
N    6.7079054495073231E-02   -3.9071483250746740E-02    5.0107854781032541E+00
Ga    6.7721528596390412E-02    1.7928577107850403E+00    5.7746867232209720E+00
N    6.7374195874002257E-02    1.8100624234630212E+00    7.7830133884898132E+00
Ga    6.4443362965383735E-02   -3.4269982292904996E-02    8.4332961004118001E+00
N    6.6396614905283716E-02   -3.6791609840522425E-02    1.0411346910904781E+01
Ga    6.5716829595241985E-02    1.8010000999526503E+00    1.1060243413115604E+01
N    6.5835233195545143E-02    1.7798641810332270E+00    1.3061168074842028E+01
Ga    6.5434257933367213E-02   -4.9330763136688077E-02    1.3854544264463909E+01
N    6.5514746277898703E-02   -5.1655040922891894E-02    1.6062303200046347E+01
Ga    6.5760955177701447E-02    1.9498001547843451E+00    1.6428045646444676E+01
Ga    6.1014413544434896E-02    3.6444963904081451E+00    1.2901966064339265E+00
N   -1.4372873097726497E+00    4.5563860854471940E+00    2.5066720107115614E+00
Ga   -1.6133594152227391E+00    2.7013178304857433E+00    3.2473065049230199E+00
N   -1.5396067638745514E+00    2.7536618093448224E+00    5.2331889866516148E+00
Ga   -1.5664411494210746E+00    4.6162918263471440E+00    5.7905090962432828E+00
N   -1.5492029610308784E+00    4.6130082681638598E+00    7.7893066046215376E+00
Ga   -1.5302910513256205E+00    2.7525934446987597E+00    8.4243509399382859E+00
N   -1.5302358948038761E+00    2.7545567389715728E+00    1.0424143673743540E+01
Ga   -1.5580775661153579E+00    4.6116508773046547E+00    1.1063705740272416E+01
N   -1.5759214406797455E+00    4.6227241729434105E+00    1.3063324062372596E+01
Ga   -1.5313649801359295E+00    2.7524047466830890E+00    1.3607439667545062E+01
N   -1.5490115414646384E+00    2.7426406334339974E+00    1.5585346094968244E+01
Ga   -1.4270329459734212E+00    4.5364785827602496E+00    1.6428404071431768E+01
N    6.6359939256107559E-02    3.6739368043768845E+00    1.7548036871159589E+01
N   -3.1391418219959939E+00    7.5181311959959345E+00    2.5255811215186603E+00
Ga   -3.1348339553855560E+00    5.5194150633526560E+00    2.8615960197385157E+00
N   -3.1510451096859593E+00    5.5392732882381051E+00    5.0222030340431134E+00
Ga   -3.1559478906954324E+00    7.3579319232268352E+00    5.8082672473390549E+00
N   -3.1480199052721676E+00    7.3811355249340052E+00    7.7978931606615323E+00
Ga   -3.1482512327535703E+00    5.5321498138890632E+00    8.4411895702035480E+00
N   -3.1491947556555475E+00    5.5331576069417228E+00    1.0415317018246004E+01
Ga   -3.1516569177020579E+00    7.3734687251627173E+00    1.1064700754198157E+01
N   -3.1510118022079907E+00    7.3536468484254680E+00    1.3056807954125311E+01
Ga   -3.1599366310561567E+00    5.5373013383905576E+00    1.3856359570723965E+01
N   -3.1615492528291975E+00    5.5373932799783976E+00    1.6063273712178329E+01
Ga   -3.1526304257732525E+00    7.5935691233223546E+00    1.6489421613122445E+01
Ga   -3.1606905820277427E+00    9.2582217624337755E+00    1.5111991075179712E+00
N   -4.6510564216743635E+00    1.0117386094717045E+01    2.5159740724341031E+00
Ga   -4.8709232874419035E+00    8.2673108986652313E+00    3.2894409427050486E+00
N   -4.7539915506000154E+00    8.3210595832942378E+00    5.2498700984263653E+00
Ga   -4.7891998691657962E+00    1.0195845228655561E+01    5.7942270626354162E+00
N   -4.7665061655934009E+00    1.0182139907729610E+01    7.7919259988817080E+00
Ga   -4.7505198554745061E+00    8.3265750526819318E+00    8.4322092825302128E+00
N   -4.7470748859742624E+00    8.3248836030897291E+00    1.0425167006907687E+01
Ga   -4.7730721151307183E+00    1.0183777972738984E+01    1.1061481522428128E+01
N   -4.7892172377346096E+00    1.0191646289454129E+01    1.3054748175494030E+01
Ga   -4.7485701933986926E+00    8.3237527447227944E+00    1.3616281333855222E+01
N   -4.7756003573673791E+00    8.3069461675373564E+00    1.5574449089341893E+01
Ga   -4.5824007748431157E+00    1.0069660293392150E+01    1.6488805018485095E+01
N   -3.1423653797281736E+00    9.2504805168865012E+00    1.7632765332378376E+01
N    3.2799052097306793E+00    1.8272098582408016E+00    2.6030968433922150E+00
Ga    3.2757291431341180E+00    9.2886150839393611E-02    3.2859627819211297E+00
N    3.2842809156318458E+00   -3.6877699571466874E-02    5.2462041803427057E+00
Ga    3.2740395557809396E+00    1.8265802222488958E+00    5.8619612529543836E+00
N    3.2812427097468704E+00    1.8204187774440372E+00    7.8394553991096023E+00
Ga    3.2807739184342855E+00   -4.5890721447432767E-02    8.4309048235907635E+00
N    3.2828989055189099E+00   -4.9891192498425427E-02    1.0425476437726585E+01
Ga    3.2815798674884586E+00    1.8190866895482130E+00    1.1019515109129662E+01
N    3.2793854256582819E+00    1.8195818316526975E+00    1.2993640578076517E+01
Ga    3.2807411747643433E+00   -5.1853738895370670E-02    1.3618145950974290E+01
N    3.2752869251961778E+00   -1.6077365627085831E-02    1.5577350369963137E+01
Ga    3.2838058831322390E+00    1.8174230369742050E+00    1.5858358380465107E+01
N    1.5799147047633626E+00    4.5615612798985685E+00    2.4943870006878122E+00
Ga    1.7486938807653791E+00    2.7122370418837578E+00    3.2392610462542160E+00
N    1.6757258612706145E+00    2.7531766787478822E+00    5.2268553108540292E+00
Ga    1.7063355508041307E+00    4.6177360968084988E+00    5.7888273966274806E+00
N    1.6823486154584562E+00    4.6116554265138658E+00    7.7886292940805264E+00
Ga    1.6624660032566780E+00    2.7531780781811834E+00    8.4258514236056516E+00
N    1.6625651849443615E+00    2.7541533472998379E+00    1.0424641083284165E+01
Ga    1.6903288135208050E+00    4.6120430223911955E+00    1.1063305431329058E+01
N    1.7075361506089235E+00    4.6226724208225178E+00    1.3063016672340002E+01
Ga    1.6627786432045586E+00    2.7525248508949098E+00    1.3608007030429617E+01
N    1.6807246505669000E+00    2.7425986261334958E+00    1.5585804539438557E+01
Ga    1.5594138874783199E+00    4.5369732268605567E+00    1.6428218601109339E+01
N    7.8763561952968741E-02    7.3920031012207428E+00    2.6974341779063984E+00
Ga    7.5382777509438448E-02    5.5367323400065853E+00    3.2917539042836297E+00
N    6.8311835650391783E-02    5.5492380993156720E+00    5.2390460567530068E+00
Ga    7.8126442133755677E-02    7.3869377669450476E+00    5.8975456160551039E+00
N    6.6650171047007531E-02    7.3898069244955744E+00    7.8583579577211573E+00
Ga    6.6929063971502861E-02    5.5182417528595433E+00    8.4374359620300332E+00
N    6.5883789511330254E-02    5.5192614621974583E+00    1.0430969135794729E+01
Ga    6.6106345092898769E-02    7.3899789247901833E+00    1.1023591226627705E+01
N    6.5488635553483429E-02    7.3863223235288595E+00    1.2996483492346819E+01
Ga    6.5809888959917323E-02    5.5189968260214295E+00    1.3609003874329252E+01
N    6.5813885533721792E-02    5.5395443614416617E+00    1.5586468677542449E+01
Ga    6.6320877990546409E-02    7.3906131305756251E+00    1.5858216050962939E+01
N   -1.6403624247702848E+00    1.0109367557149161E+01    2.5237296431046032E+00
Ga   -1.4969374105797904E+00    8.2984653064139664E+00    3.3403076496204962E+00
N   -1.5289543289615131E+00    8.3136142558057990E+00    5.2637644102092453E+00
Ga   -1.5121005800181984E+00    1.0201955000688711E+01    5.8035459030272269E+00
N   -1.5315424666978121E+00    1.0180992360323634E+01    7.7945231584724608E+00
Ga   -1.5521326057046319E+00    8.3264481597419184E+00    8.4413187530488365E+00
N   -1.5529994746291700E+00    8.3256371752795761E+00    1.0431277689249805E+01
Ga   -1.5273906421129200E+00    1.0185379871456522E+01    1.1069238602775563E+01
N   -1.5105005722092495E+00    1.0193082669723340E+01    1.3062067195829373E+01
Ga   -1.5548840896902469E+00    8.3241040137780473E+00    1.3619070463224098E+01
N   -1.5259507590540562E+00    8.2999298905402270E+00    1.5578114182294049E+01
Ga   -1.7070562798880560E+00    1.0078809630481322E+01    1.6488338925383029E+01
N    6.5024595142601767E+00    1.9448291051862103E+00    2.5323606392579605E+00
Ga    6.5459070655278984E+00   -4.8317518551911499E-02    2.8416142776065394E+00
N    6.4995553942635276E+00   -3.7414797443294061E-02    5.0130679126454876E+00
Ga    6.5001043397964757E+00    1.7920824459512095E+00    5.7944938019579491E+00
N    6.4982788514878056E+00    1.8073389499949486E+00    7.7919169398326860E+00
Ga    6.5004355106040697E+00   -3.6342233818174544E-02    8.4434122338269120E+00
N    6.4976213923285711E+00   -3.8111659028622111E-02    1.0416435227708977E+01
Ga    6.4981818317076883E+00    1.8017177900050416E+00    1.1065977344695364E+01
N    6.4980111119614632E+00    1.7812774843088333E+00    1.3060367786861839E+01
Ga    6.4982146503125842E+00   -3.8414125421067466E-02    1.3874464804155952E+01
N    6.4986345676717479E+00   -3.8343749879019472E-02    1.6065274881842718E+01
Ga    6.4985411419783974E+00    2.0078839707709544E+00    1.6487294850821478E+01
Ga    6.5062260230539311E+00    3.6799494195673517E+00    1.5404687249417901E+00
N    5.0016587654502889E+00    4.5475142513723137E+00    2.5284404751052225E+00
Ga    4.7828274690113997E+00    2.6934065258381414E+00    3.2915576448922939E+00
N    4.8897241335410122E+00    2.7491460418167377E+00    5.2516078202072816E+00
Ga    4.8649546417812033E+00    4.6225256252375866E+00    5.7985080290699811E+00
N    4.8808324443595810E+00    4.6105895305390359E+00    7.7950339921850595E+00
Ga    4.8993346610158373E+00    2.7527894975116012E+00    8.4298065670973870E+00
N    4.9006618737702974E+00    2.7523722380862075E+00    1.0425097116572353E+01
Ga    4.8761333610584794E+00    4.6121156080981347E+00    1.1060751748936930E+01
N    4.8595093959939906E+00    4.6215877913129111E+00    1.3054528562926308E+01
Ga    4.9013335915619569E+00    2.7539281358250562E+00    1.3616789580363477E+01
N    4.8674427561924505E+00    2.7408769949821448E+00    1.5576344498589295E+01
Ga    5.0689397017666691E+00    4.5025051690767883E+00    1.6488092454930825E+01
N    6.4983987741635376E+00    3.6647122760822559E+00    1.7628900869826300E+01
N    3.2796130051805936E+00    7.5304469339453162E+00    2.4840652986416978E+00
N    3.2867299550176887E+00    5.5380388038111814E+00    5.0225883244689831E+00
Ga    3.2901948299459782E+00    7.3633414250697786E+00    5.7977594368257588E+00
N    3.2806699372659001E+00    7.3806011815373429E+00    7.7953840006077835E+00
Ga    3.2812763676073406E+00    5.5340735278753650E+00    8.4385336544720673E+00
N    3.2811319197358997E+00    5.5325801652665580E+00    1.0414120338062379E+01
Ga    3.2834578389044435E+00    7.3734265409538278E+00    1.1062526828813519E+01
N    3.2825531663779759E+00    7.3533248095947048E+00    1.3055316860516502E+01
Ga    3.2915613867648070E+00    5.5375690606666028E+00    1.3856111389653098E+01
N    3.2935817078050293E+00    5.5378635342134821E+00    1.6062854989653967E+01
Ga    3.2844637347291097E+00    7.5949247713109109E+00    1.6489384034710927E+01
Ga    3.3228997162972957E+00    9.2840610773744388E+00    1.2993163388857818E+00
N    1.7990373254332488E+00    1.0104467851247605E+01    2.4934695141062595E+00
Ga    1.6903862614263616E+00    8.3226618915062005E+00    3.3021090303318554E+00
N    1.6634118030835685E+00    8.3126462263175167E+00    5.2496671527165724E+00
Ga    1.6556058924755963E+00    1.0195201229202446E+01    5.7950340195303456E+00
N    1.6629526868168114E+00    1.0180184473294828E+01    7.7929738585767723E+00
Ga    1.6873525201796544E+00    8.3272391491399400E+00    8.4392895269804455E+00
N    1.6842721209506097E+00    8.3253970509592552E+00    1.0430914933279485E+01
Ga    1.6597090270860961E+00    1.0185353544073445E+01    1.1067485003400293E+01
N    1.6417052029110601E+00    1.0193244070022867E+01    1.3060950625072445E+01
Ga    1.6865609272858226E+00    8.3241739218807780E+00    1.3617888405029294E+01
N    1.6577120998150259E+00    8.3001327743241706E+00    1.5576616479904740E+01
Ga    1.8405419638254341E+00    1.0078092841379410E+01    1.6488503412494172E+01
N    3.2745106206500076E+00    9.2503376978540217E+00    1.7633380264339589E+01
N    9.7246195895430425E+00    1.8128608993152395E+00    2.6205746419901015E+00
Ga    9.7232729271025420E+00    4.6722776677001011E-02    3.2618961406229658E+00
N    9.7142504062794917E+00   -3.4126571995819095E-02    5.2463244640417317E+00
Ga    9.7254446511405011E+00    1.8170915112693435E+00    5.8588322654546801E+00
N    9.7164158231886866E+00    1.8215481971366498E+00    7.8404231868087244E+00
Ga    9.7163459699335508E+00   -4.6689036997134115E-02    8.4253752652843890E+00
N    9.7132373543552077E+00   -4.9820398613714921E-02    1.0423472214904541E+01
Ga    9.7145206213734525E+00    1.8186472944961243E+00    1.1017595865895666E+01
N    9.7167358535942689E+00    1.8198322092548376E+00    1.2992583413317703E+01
Ga    9.7153027120938802E+00   -5.1881452029836912E-02    1.3616457458328503E+01
N    9.7209261179698672E+00   -1.6071018846195172E-02    1.5575355593848675E+01
Ga    9.7125933694216950E+00    1.8168195786212900E+00    1.5857527456541275E+01
N    8.0023961771148926E+00    4.5478484867782489E+00    2.5368265068110079E+00
Ga    8.2247711630619502E+00    2.6838260088477166E+00    3.2959646343315185E+00
N    8.1095781752623530E+00    2.7497909099161562E+00    5.2552697676519706E+00
Ga    8.1308661644673297E+00    4.6204188248286213E+00    5.7998123465481823E+00
N    8.1171398461944797E+00    4.6115470241353655E+00    7.7956145659663783E+00
Ga    8.0990877790972036E+00    2.7521727685948010E+00    8.4286056577437041E+00
N    8.0950049883987170E+00    2.7529660290669686E+00    1.0424747567252217E+01
Ga    8.1198646387351197E+00    4.6119504473449018E+00    1.1061377636369041E+01
N    8.1366225523191407E+00    4.6216907301782983E+00    1.3054951333731012E+01
Ga    8.0950047290595659E+00    2.7538028149111056E+00    1.3616208148505381E+01
N    8.1292826028828618E+00    2.7409007719799305E+00    1.5575777703839572E+01
Ga    7.9277279251795125E+00    4.5023360566590975E+00    1.6488143558265975E+01
N    6.4888714676864199E+00    7.3993311627609906E+00    2.6154326042500435E+00
Ga    6.4946798201466853E+00    5.6624392931093173E+00    3.2967808043666436E+00
N    6.4998198045204036E+00    5.5375719145921005E+00    5.2560391600677860E+00
Ga    6.4910772808490602E+00    7.3982473006995084E+00    5.8676554875906488E+00
N    6.4995963146956255E+00    7.3914318770605165E+00    7.8439635038174016E+00
Ga    6.4985490460819104E+00    5.5240296016006267E+00    8.4308351954240131E+00
N    6.4982973115800649E+00    5.5206775194690323E+00    1.0424587381169934E+01
Ga    6.4975982615147538E+00    7.3902593646699124E+00    1.1019274730227858E+01
N    6.4982350177974197E+00    7.3890512273647611E+00    1.2990055467376630E+01
Ga    6.4980167221310587E+00    5.5202884769242715E+00    1.3614988052184264E+01
N    6.4983245589393199E+00    5.5512248017511494E+00    1.5573280425755229E+01
Ga    6.4975468621271846E+00    7.3882905050465109E+00    1.5853556128497823E+01
N    4.7676376001129963E+00    1.0106151506102114E+01    2.4944532708364675E+00
Ga    4.9541264786577202E+00    8.2839485628366365E+00    3.2564725038167683E+00
N    4.8913518652696988E+00    8.3182978670359464E+00    5.2433389863969415E+00
Ga    4.9143504756957430E+00    1.0189953621479022E+01    5.7849222436310477E+00
N    4.9006459865503649E+00    1.0181810139662620E+01    7.7904189081369415E+00
Ga    4.8814154696337058E+00    8.3271691808275268E+00    8.4281465939356330E+00
N    4.8793319944855771E+00    8.3245430941758389E+00    1.0423612656844373E+01
Ga    4.9041049984280445E+00    1.0183644124234347E+01    1.1059181912609079E+01
N    4.9209932219007406E+00    1.0191741596334625E+01    1.3053229340621288E+01
Ga    4.8798380986131340E+00    8.3239054887238169E+00    1.3615044805566257E+01
N    4.9072479706069965E+00    8.3071376067189355E+00    1.5572793474420394E+01
Ga    4.7129447391493882E+00    1.0069111877461538E+01    1.6488941916747738E+01
Ga    3.2761277550092238E+00    5.5678112239028765E+00    2.8513830529039028E+00
O    1.3335033037562766E-01    7.7050027919812480E+00   -2.8112689514050843E-01
H    5.0350127144091858E-02    7.4231749368311153E+00    1.6636021334361142E+00
C    1.2165399832813246E+00    7.3509977135990816E+00   -7.2723719950712939E-01
H    3.2580290990919964E+00    9.2057690273269923E+00   -2.5111770372037995E-01
H    1.9489109124556998E+00    6.7943162423000993E+00   -1.0460278010445001E-01
H    1.5085105791492786E+00    7.5694897418666542E+00   -1.7745107176954922E+00
     &END COORD
     &KIND C
       BASIS_SET DZVP-MOLOPT-SR-GTH-q4
       POTENTIAL GTH-PBE-q4
       &POTENTIAL
 2 2
  0.3384712400000000E+00 2 -0.8803673979999999E+01  0.1339210850000000E+01
 2
  0.3025757500000000E+00 1  0.9622486650000001E+01
  0.2915069400000000E+00 0
         # Potential name:  GTH-PBE-Q4  for symbol:  C
         # Potential read from the potential filename: GTH_POTENTIALS
       &END POTENTIAL
     &END KIND
     &KIND O
       BASIS_SET DZVP-MOLOPT-SR-GTH-q6
       POTENTIAL GTH-PBE-q6
       &POTENTIAL
 2 4
  0.2445543000000000E+00 2 -0.1666721480000000E+02  0.2487311320000000E+01
 2
  0.2209559200000000E+00 1  0.1833745811000000E+02
  0.2113324700000000E+00 0
         # Potential name:  GTH-PBE-Q6  for symbol:  O
         # Potential read from the potential filename: GTH_POTENTIALS
       &END POTENTIAL
     &END KIND
     &KIND H
       BASIS_SET DZVP-MOLOPT-SR-GTH-q1
       POTENTIAL GTH-PBE-q1
       &POTENTIAL
 1
  0.2000000000000000E+00 2 -0.4178900440000000E+01  0.7244633100000000E+00
 0
         # Potential name:  GTH-PBE-Q1  for symbol:  H
         # Potential read from the potential filename: GTH_POTENTIALS
       &END POTENTIAL
     &END KIND
     &KIND N
       BASIS_SET DZVP-MOLOPT-SR-GTH
       POTENTIAL GTH-PBE-q5
       &POTENTIAL
 2 3
  0.2837905100000000E+00 2 -0.1241522559000000E+02  0.1868095920000000E+01
 2
  0.2554050000000000E+00 1  0.1363026257000000E+02
  0.2454945300000000E+00 0
         # Potential name:  GTH-PBE-Q5  for symbol:  N
         # Potential read from the potential filename: GTH_POTENTIALS
       &END POTENTIAL
     &END KIND
     &KIND Ga
       BASIS_SET DZVP-MOLOPT-SR-GTH
       POTENTIAL GTH-PBE-q13
       &POTENTIAL
 2 1 10
  0.4900000000000000E+00 0
 3
  0.4167772300000000E+00 3  0.1047568975000000E+02 -0.4921768140000000E+01  0.8707055900000000E+00
  0.7770178090000000E+01 -0.2248152160000000E+01
  0.1784415450000000E+01
  0.5696265200000000E+00 2  0.1777985340000000E+01  0.1958597600000000E+00
 -0.2317443900000000E+00
  0.2381265000000000E+00 1 -0.1624868022000000E+02
         # Potential name:  GTH-PBE-Q13  for symbol:  GA
         # Potential read from the potential filename: GTH_POTENTIALS
       &END POTENTIAL
     &END KIND
     &TOPOLOGY
       NUMBER_OF_ATOMS  206
       MULTIPLE_UNIT_CELL  1 1 1
     &END TOPOLOGY
   &END SUBSYS
 &END FORCE_EVAL
