 # Version information for this restart file 
 # current date 2019-05-28 02:47:09.010
 # current working dir /lustre03/project/6004141/rzk/GaN-carbene/334-native/08-2Methanol-Htransfer/02-NH-constraint/1.24
 # Program compiled at                              Sun Apr  7 00:48:11 EDT 2019
 # Program compiled on                          beluga2.int.ets1.calculquebec.ca
 # Program compiled for                        Beluga-Linux-x86-64-intel-openmpi
 # Source code revision number                                         svn:18619
 &GLOBAL
   PRINT_LEVEL  MEDIUM
   PROJECT_NAME TEST
   RUN_TYPE  GEO_OPT
 &END GLOBAL
 &MOTION
   &GEO_OPT
     MAX_ITER  500
     STEP_START_VAL  141
   &END GEO_OPT
   &CONSTRAINT
     &COLLECTIVE
       COLVAR  1
       INTERMOLECULAR  T
       TARGET     2.3432604047781971E+00
       &RESTRAINT
         K     1.0000000000000001E-01
       &END RESTRAINT
     &END COLLECTIVE
     &COLVAR_RESTART
           2.3432604047781971E+00
     &END COLVAR_RESTART
   &END CONSTRAINT
 &END MOTION
 &FORCE_EVAL
   METHOD  QS
   STRESS_TENSOR  ANALYTICAL
   &DFT
     BASIS_SET_FILE_NAME BASIS_MOLOPT
     POTENTIAL_FILE_NAME GTH_POTENTIALS
     &SCF
       MAX_SCF  100
       EPS_SCF     5.0000000000000004E-06
       &OT  T
         PRECONDITIONER  FULL_ALL
       &END OT
       &OUTER_SCF  T
         OPTIMIZER  NONE
         EPS_SCF     5.0000000000000004E-06
         MAX_SCF  4
       &END OUTER_SCF
       &PRINT
         &RESTART  OFF
           BACKUP_COPIES  1
           &EACH
             JUST_ENERGY  0
             QS_SCF  0
             MD  20
           &END EACH
         &END RESTART
       &END PRINT
     &END SCF
     &QS
       EPS_DEFAULT     1.0000000000000000E-14
       ALMO_SCF  F
       METHOD  GPW
     &END QS
     &MGRID
       NGRIDS  5
       CUTOFF     1.2000000000000000E+03
     &END MGRID
     &XC
       DENSITY_CUTOFF     1.0000000000000000E-10
       GRADIENT_CUTOFF     1.0000000000000000E-10
       TAU_CUTOFF     1.0000000000000000E-10
       &XC_FUNCTIONAL  NO_SHORTCUT
         &PBE  T
         &END PBE
       &END XC_FUNCTIONAL
       &VDW_POTENTIAL
         POTENTIAL_TYPE  PAIR_POTENTIAL
         &PAIR_POTENTIAL
           R_CUTOFF     1.0000000000000005E+01
           TYPE  DFTD3
           PARAMETER_FILE_NAME dftd3.dat
           REFERENCE_FUNCTIONAL PBE
           EPS_CN     9.9999999999999995E-07
           CALCULATE_C9_TERM  T
           REFERENCE_C9_TERM  T
           LONG_RANGE_CORRECTION  F
           VERBOSE_OUTPUT  F
         &END PAIR_POTENTIAL
       &END VDW_POTENTIAL
     &END XC
   &END DFT
   &SUBSYS
     &CELL
       A     9.7367653356401487E+00    0.0000000000000000E+00    0.0000000000000000E+00
       B    -4.8591341382960209E+00    8.4162672083210595E+00    0.0000000000000000E+00
       C     0.0000000000000000E+00    0.0000000000000000E+00    3.0744000000000000E+01
       MULTIPLE_UNIT_CELL  1 1 1
       &CELL_REF
         A     9.5580000000000052E+00    0.0000000000000000E+00    0.0000000000000000E+00
         B    -4.7790000000000026E+00    8.2774708093716640E+00    0.0000000000000000E+00
         C     0.0000000000000000E+00    0.0000000000000000E+00    3.0744000000000000E+01
         MULTIPLE_UNIT_CELL  1 1 1
       &END CELL_REF
     &END CELL
     &COORD
Ga   -3.2981898612750304E-02   -1.9034825862172370E-02   -5.8862110331377004E-01
N   -3.0254158996892076E-02    1.8552476571700762E+00    5.6535339607001012E-01
Ga   -3.0901219585819744E-02    1.8216980561245320E+00    2.5931161110114047E+00
N   -3.3473892356201913E-02   -2.2047782423156366E-02    3.2261434988010849E+00
Ga   -3.2847287668902991E-02   -2.1228369564690000E-02    5.2149552831266472E+00
N   -2.9885578737748695E-02    1.8530436375144059E+00    5.8046186993358866E+00
Ga   -3.0111550074223399E-02    1.8514642458502442E+00    7.8018073400642249E+00
N   -3.4195131109384484E-02   -2.2342444648766197E-02    8.4043766666428183E+00
Ga   -3.4696848574037036E-02   -2.2364236915262393E-02    1.0399769401692270E+01
N   -3.0349612685305921E-02    1.8496673045490408E+00    1.0999490436870921E+01
Ga   -3.1948476435695913E-02    1.8438722215792831E+00    1.2988334590190785E+01
N   -4.2964978894503375E-02   -1.2663622496209906E-02    1.3636697718835414E+01
Ga   -3.4779012925986744E-02   -1.8637169274693100E-02    1.5654186674206183E+01
N   -1.7094181080887817E-02    1.8750915455304185E+00    1.6248735208125833E+01
Ga   -2.6442375153424643E-03    1.8564214606237033E+00    1.8253573531671165E+01
N   -1.7126898874615111E-02    2.4822412869906506E-02    1.8696879634953824E+01
Ga   -1.6525728527148500E+00    2.7851485547569048E+00    2.8034095956045962E-01
N   -1.6547720766049046E+00    4.6545203199935656E+00    5.6482029187515370E-01
Ga   -1.6260552140047673E+00    4.6691886495362063E+00    2.5931111514863634E+00
N   -1.6532494750508540E+00    2.7835864967748538E+00    3.1866030073838729E+00
Ga   -1.6525834582776253E+00    2.7842559656607753E+00    5.1957235628026650E+00
N   -1.6524644781245510E+00    4.6543286227083485E+00    5.8052078660300381E+00
Ga   -1.6524041805856240E+00    4.6557162921186430E+00    7.8025297295674569E+00
N   -1.6533007770940569E+00    2.7841733687926133E+00    8.4060020987621993E+00
Ga   -1.6531564527941629E+00    2.7855154116995138E+00    1.0399354403887747E+01
N   -1.6497714094564433E+00    4.6587419556995791E+00    1.1000185978151981E+01
Ga   -1.6518495937203950E+00    4.6606384431786827E+00    1.2989125561158756E+01
N   -1.6427799137726096E+00    2.7880728718591055E+00    1.3594749202296789E+01
Ga   -1.6401877583526052E+00    2.7883159075117487E+00    1.5579300555692539E+01
N   -1.6372715115669607E+00    4.6567386087693050E+00    1.6179256964156298E+01
Ga   -1.6909782473902339E+00    4.7054388548553412E+00    1.8158488668447863E+01
N   -1.6484336812065052E+00    2.8234495916477478E+00    1.8777625356920872E+01
Ga   -3.2730960986665050E+00    5.5905629093602638E+00    2.7930032682599981E-01
N   -3.2660482648758880E+00    7.4603959276566094E+00    5.6355068063369584E-01
Ga   -3.2944166389247602E+00    7.4746036573373233E+00    2.5923223161658897E+00
N   -3.2729213057746778E+00    5.5890023505610804E+00    3.1858484153601978E+00
Ga   -3.2721373695017348E+00    5.5892432443200697E+00    5.1949392602195976E+00
N   -3.2667780971682934E+00    7.4597405803328050E+00    5.8041756821501274E+00
Ga   -3.2687307359683762E+00    7.4605789534377474E+00    7.8008363747697826E+00
N   -3.2731057172063909E+00    5.5912137551662981E+00    8.4089323581335638E+00
Ga   -3.2737641561058379E+00    5.5953040369018403E+00    1.0403663835351617E+01
N   -3.2741604118029026E+00    7.4650767832682732E+00    1.1017292431297147E+01
Ga   -3.2781129909114655E+00    7.4670413197734771E+00    1.3018303456023629E+01
N   -3.2724754018110613E+00    5.5865252027560546E+00    1.3599884830369204E+01
Ga   -3.2767605415981778E+00    5.5983488506951478E+00    1.5599645924344644E+01
N   -3.2880170545618150E+00    7.4464843915284895E+00    1.6202721127831623E+01
Ga   -3.2810585101309320E+00    7.4813590729854154E+00    1.8287971420032893E+01
N   -3.2685074697002898E+00    5.6092079705999156E+00    1.8663260574893375E+01
Ga    3.2128784429697843E+00   -2.0799140620989330E-02    2.7866933902118080E-01
N    3.2111717967805276E+00    1.8492393372465326E+00    5.6253835927284834E-01
Ga    3.2394563276908812E+00    1.8636181541349002E+00    2.5922796203680845E+00
N    3.2122588128647034E+00   -2.2134833927021112E-02    3.1852261513112792E+00
Ga    3.2129729720709483E+00   -2.1727466018436517E-02    5.1942270139048867E+00
N    3.2133207971407702E+00    1.8482203877525432E+00    5.8046619459743027E+00
Ga    3.2138842861559160E+00    1.8486957947919329E+00    7.8022951445586273E+00
N    3.2109696517325679E+00   -2.1564166007327946E-02    8.4106840758272909E+00
Ga    3.2089096063020839E+00   -1.8793384055477223E-02    1.0406558538424116E+01
N    3.2158234677199036E+00    1.8528430118890749E+00    1.1007939198493469E+01
Ga    3.2169977717465645E+00    1.8481769226933025E+00    1.3003686280128106E+01
N    3.2072333764600272E+00   -2.0066889623431301E-02    1.3614591587725972E+01
Ga    3.1925707270227037E+00   -2.2959866576789049E-02    1.5622740091435245E+01
N    3.2060651915658225E+00    1.8677766276497942E+00    1.6158948723055374E+01
Ga    3.2526755377040137E+00    1.8254637245661502E+00    1.8153915194058811E+01
N    3.2086256657832655E+00   -7.0746451713986904E-03    1.8621846320978722E+01
Ga    1.5919672681869104E+00    2.7856959350811219E+00    2.7978589531871556E-01
N    1.5992287402970491E+00    4.6552424780351211E+00    5.6449848678590908E-01
Ga    1.5707262808402118E+00    4.6690210253434481E+00    2.5930739052229224E+00
N    1.5928265895862219E+00    2.7831668614021745E+00    3.1859027489454821E+00
Ga    1.5932596551240352E+00    2.7837264812522964E+00    5.1948386341163681E+00
N    1.5985118702199572E+00    4.6538895213476845E+00    5.8043906056837535E+00
Ga    1.5972966214220898E+00    4.6548597206128290E+00    7.8016824258617987E+00
N    1.5931428184230125E+00    2.7840955563811969E+00    8.4067237759887306E+00
Ga    1.5941539080735501E+00    2.7855980904283517E+00    1.0400602017113439E+01
N    1.5955011692153538E+00    4.6595568465173356E+00    1.1000464984111499E+01
Ga    1.5974826481791828E+00    4.6607947526226239E+00    1.2988699815644773E+01
N    1.5853796839878815E+00    2.7871020242051889E+00    1.3585748002053753E+01
Ga    1.5885063073441201E+00    2.7895739153219781E+00    1.5565920975101585E+01
N    1.5743674698563619E+00    4.6570817613397999E+00    1.6173242183958067E+01
Ga    1.5894953055095697E+00    4.7063818472518122E+00    1.8153866685737231E+01
N    1.6505123797620656E+00    2.8233490158898964E+00    1.8828672560371089E+01
Ga   -2.8108113833361363E-02    5.5909206301059458E+00   -5.9008128594962705E-01
N   -2.3897001357246223E-02    7.4655378797043701E+00    5.6365950985406266E-01
Ga   -2.4486920909926001E-02    7.4315694492594044E+00    2.5921854503591453E+00
N   -2.7336992107116206E-02    5.5885072185791120E+00    3.2269643731843112E+00
Ga   -2.6793513179246536E-02    5.5890272795787466E+00    5.2163103160809010E+00
N   -2.3991749046178828E-02    7.4640435425145615E+00    5.8053672774499390E+00
Ga   -2.5128550228604444E-02    7.4640102350753228E+00    7.8027549312514903E+00
N   -2.7045994706817598E-02    5.5907444280965981E+00    8.4039592606017344E+00
Ga   -2.7305790073778508E-02    5.5953496888733163E+00    1.0398496286839105E+01
N   -2.4329596520277056E-02    7.4664444722398411E+00    1.1008860095992290E+01
Ga   -2.6175106378514525E-02    7.4742944122267483E+00    1.3003470682179852E+01
N   -2.7062190131387026E-02    5.5979173047288837E+00    1.3591607461937437E+01
Ga   -3.1471667731822056E-02    5.5972763714399463E+00    1.5570500409697443E+01
N   -2.8817802231577407E-02    7.4669108186767010E+00    1.6206676469195624E+01
Ga   -2.1778637009578904E-02    7.5209265850706215E+00    1.8239144397294552E+01
N   -5.4185622192281013E-02    5.6177285151952336E+00    1.8733986963428265E+01
Ga    6.4575009984801390E+00   -1.9966882637456006E-02    2.7925458988227864E-01
N    6.4645235552383129E+00    1.8497993445108598E+00    5.6414290544380208E-01
Ga    6.4362506804921962E+00    1.8638676436599284E+00    2.5934055449916582E+00
N    6.4573931677608050E+00   -2.2217395506868177E-02    3.1856208102852355E+00
Ga    6.4579702351578998E+00   -2.1519108072565102E-02    5.1944189664608063E+00
N    6.4636103583066653E+00    1.8481046322507373E+00    5.8045360648868281E+00
Ga    6.4616836568125064E+00    1.8488371464128903E+00    7.8018305394980416E+00
N    6.4584935801566079E+00   -2.1530790487246848E-02    8.4097903572947228E+00
Ga    6.4598610034661661E+00   -1.9069104343107803E-02    1.0404688252285213E+01
N    6.4632380630975019E+00    1.8517486948684372E+00    1.1010687951979179E+01
Ga    6.4634506014856239E+00    1.8471132345218024E+00    1.3007481542106316E+01
N    6.4572982567655526E+00   -2.0849818689307124E-02    1.3627235069848144E+01
Ga    6.4678734976361829E+00   -1.3794099701694812E-02    1.5638321843009088E+01
N    6.4839107984554527E+00    1.8727326375415909E+00    1.6187054894165122E+01
Ga    6.4227953995144809E+00    1.8594332508742277E+00    1.8206223978132726E+01
N    6.4615462834288264E+00    7.1326804232400426E-03    1.8638490198177319E+01
Ga    4.8394619228039542E+00    2.7860564310062244E+00   -5.8784602887464299E-01
N    4.8412711639985764E+00    4.6602321245157627E+00    5.6359994475063080E-01
Ga    4.8412140930058767E+00    4.6264821799295524E+00    2.5925871727200680E+00
N    4.8379334685551312E+00    2.7833615773730211E+00    3.2264063095451458E+00
Ga    4.8388928817001178E+00    2.7840799662480364E+00    5.2158700654317158E+00
N    4.8419489518996262E+00    4.6582627500246732E+00    5.8055282326868074E+00
Ga    4.8412681726947238E+00    4.6572392740092710E+00    7.8032746196804883E+00
N    4.8385144859403049E+00    2.7833594009075608E+00    8.4060114591654322E+00
Ga    4.8398613485917874E+00    2.7846730984650763E+00    1.0403001859244366E+01
N    4.8404896114311668E+00    4.6582284208824687E+00    1.1003083457400498E+01
Ga    4.8414875302452698E+00    4.6538680790456119E+00    1.2995713993165870E+01
N    4.8410954154251824E+00    2.7849447861473835E+00    1.3596752452376768E+01
Ga    4.8470343824409365E+00    2.7912305711219156E+00    1.5594089816668509E+01
N    4.8489435705486921E+00    4.6567474703359313E+00    1.6197614445322156E+01
Ga    4.8774702017258962E+00    4.6534664845286926E+00    1.8270382112253529E+01
N    4.8198195414592329E+00    2.7921755079300730E+00    1.8687747840489919E+01
Ga    3.2185568253477084E+00    5.5902385029764563E+00    2.8012253752956701E-01
N    3.2169774574236265E+00    7.4599922642841747E+00    5.6409361581991169E-01
Ga    3.2453345617739719E+00    7.4745611035723352E+00    2.5929155439314915E+00
N    3.2187979188517359E+00    5.5885750275308315E+00    3.1857900176556608E+00
Ga    3.2194658597008443E+00    5.5889914278764792E+00    5.1949033120203678E+00
N    3.2189739305430334E+00    7.4595909980161288E+00    5.8034911441208834E+00
Ga    3.2192080017717948E+00    7.4602876207866418E+00    7.7999487337103854E+00
N    3.2183556536949922E+00    5.5908800537331373E+00    8.4069433640698623E+00
Ga    3.2195199791420754E+00    5.5943423346071643E+00    1.0400849127041374E+01
N    3.2217867072258697E+00    7.4630495814940900E+00    1.1016751795633628E+01
Ga    3.2203179149444625E+00    7.4650431852162704E+00    1.3015640642432569E+01
N    3.2188563928075600E+00    5.5858583710479035E+00    1.3609645715306566E+01
Ga    3.2188472043852272E+00    5.5875397736726571E+00    1.5608157436729087E+01
N    3.2176162474645338E+00    7.4337771357498656E+00    1.6237724726662261E+01
Ga    3.2407934098026576E+00    7.5205334390839340E+00    1.8333931843296352E+01
N    3.2225408911779958E+00    5.6004230631855032E+00    1.8602395318822285E+01
O    1.9359483155516879E+00    4.5138280659739198E+00    2.0460618239753799E+01
H    2.5639003553063665E-02    5.5556754887949351E+00    1.9756170273201114E+01
C    1.9817614443350069E+00    3.1591850396900516E+00    2.0237998541688182E+01
H   -1.6909178271220429E+00    2.8415611510921073E+00    1.9886003370682374E+01
H    2.9874967348538561E+00    2.7340369952301864E+00    2.0485961014428646E+01
H    1.2800727441820283E+00    2.6641659011828822E+00    2.0947067034733710E+01
O    4.4133350469330903E+00    5.5059081059155490E+00    2.1334267608980721E+01
H    3.5160554670353581E+00    5.2049803177601328E+00    2.1040069570438508E+01
C    5.1316665345837871E+00    4.3733896101027856E+00    2.1814954542876446E+01
H    5.3704361703589019E+00    3.6578137679420650E+00    2.1004246756275805E+01
H    6.0666020887229948E+00    4.7371876420352468E+00    2.2259494539758194E+01
H    4.5630331170061993E+00    3.8253615727455910E+00    2.2584752997748996E+01
     &END COORD
     &KIND C
       BASIS_SET DZVP-MOLOPT-SR-GTH-q4
       POTENTIAL GTH-PBE-q4
       &POTENTIAL
 2 2
  0.3384712400000000E+00 2 -0.8803673979999999E+01  0.1339210850000000E+01
 2
  0.3025757500000000E+00 1  0.9622486650000001E+01
  0.2915069400000000E+00 0
         # Potential name:  GTH-PBE-Q4  for symbol:  C
         # Potential read from the potential filename: GTH_POTENTIALS
       &END POTENTIAL
     &END KIND
     &KIND O
       BASIS_SET DZVP-MOLOPT-SR-GTH-q6
       POTENTIAL GTH-PBE-q6
       &POTENTIAL
 2 4
  0.2445543000000000E+00 2 -0.1666721480000000E+02  0.2487311320000000E+01
 2
  0.2209559200000000E+00 1  0.1833745811000000E+02
  0.2113324700000000E+00 0
         # Potential name:  GTH-PBE-Q6  for symbol:  O
         # Potential read from the potential filename: GTH_POTENTIALS
       &END POTENTIAL
     &END KIND
     &KIND H
       BASIS_SET DZVP-MOLOPT-SR-GTH-q1
       POTENTIAL GTH-PBE-q1
       &POTENTIAL
 1
  0.2000000000000000E+00 2 -0.4178900440000000E+01  0.7244633100000000E+00
 0
         # Potential name:  GTH-PBE-Q1  for symbol:  H
         # Potential read from the potential filename: GTH_POTENTIALS
       &END POTENTIAL
     &END KIND
     &KIND N
       BASIS_SET DZVP-MOLOPT-SR-GTH-q5
       POTENTIAL GTH-PBE-q5
       &POTENTIAL
 2 3
  0.2837905100000000E+00 2 -0.1241522559000000E+02  0.1868095920000000E+01
 2
  0.2554050000000000E+00 1  0.1363026257000000E+02
  0.2454945300000000E+00 0
         # Potential name:  GTH-PBE-Q5  for symbol:  N
         # Potential read from the potential filename: GTH_POTENTIALS
       &END POTENTIAL
     &END KIND
     &KIND Ga
       BASIS_SET DZVP-MOLOPT-SR-GTH-q13
       POTENTIAL GTH-PBE-q13
       &POTENTIAL
 2 1 10
  0.4900000000000000E+00 0
 3
  0.4167772300000000E+00 3  0.1047568975000000E+02 -0.4921768140000000E+01  0.8707055900000000E+00
  0.7770178090000000E+01 -0.2248152160000000E+01
  0.1784415450000000E+01
  0.5696265200000000E+00 2  0.1777985340000000E+01  0.1958597600000000E+00
 -0.2317443900000000E+00
  0.2381265000000000E+00 1 -0.1624868022000000E+02
         # Potential name:  GTH-PBE-Q13  for symbol:  GA
         # Potential read from the potential filename: GTH_POTENTIALS
       &END POTENTIAL
     &END KIND
     &TOPOLOGY
       COORD_FILE_NAME ../start-first.xyz
       COORD_FILE_FORMAT  XYZ
       NUMBER_OF_ATOMS  156
       MULTIPLE_UNIT_CELL  1 1 1
     &END TOPOLOGY
     &COLVAR
       &DISTANCE
         ATOMS  32 148
       &END DISTANCE
       &PRINT
       &END PRINT
     &END COLVAR
   &END SUBSYS
 &END FORCE_EVAL
