 # Version information for this restart file 
 # current date 2019-05-28 02:47:52.832
 # current working dir /lustre03/project/6004141/rzk/GaN-carbene/334-native/08-2Methanol-Htransfer/02-NH-constraint/1.24
 # Program compiled at                              Sun Apr  7 00:48:11 EDT 2019
 # Program compiled on                          beluga2.int.ets1.calculquebec.ca
 # Program compiled for                        Beluga-Linux-x86-64-intel-openmpi
 # Source code revision number                                         svn:18619
 &GLOBAL
   PRINT_LEVEL  MEDIUM
   PROJECT_NAME TEST
   RUN_TYPE  GEO_OPT
 &END GLOBAL
 &MOTION
   &GEO_OPT
     MAX_ITER  500
     STEP_START_VAL  142
   &END GEO_OPT
   &CONSTRAINT
     &COLLECTIVE
       COLVAR  1
       INTERMOLECULAR  T
       TARGET     2.3432604047781971E+00
       &RESTRAINT
         K     1.0000000000000001E-01
       &END RESTRAINT
     &END COLLECTIVE
     &COLVAR_RESTART
           2.3432604047781971E+00
     &END COLVAR_RESTART
   &END CONSTRAINT
 &END MOTION
 &FORCE_EVAL
   METHOD  QS
   STRESS_TENSOR  ANALYTICAL
   &DFT
     BASIS_SET_FILE_NAME BASIS_MOLOPT
     POTENTIAL_FILE_NAME GTH_POTENTIALS
     &SCF
       MAX_SCF  100
       EPS_SCF     5.0000000000000004E-06
       &OT  T
         PRECONDITIONER  FULL_ALL
       &END OT
       &OUTER_SCF  T
         OPTIMIZER  NONE
         EPS_SCF     5.0000000000000004E-06
         MAX_SCF  4
       &END OUTER_SCF
       &PRINT
         &RESTART  OFF
           BACKUP_COPIES  1
           &EACH
             JUST_ENERGY  0
             QS_SCF  0
             MD  20
           &END EACH
         &END RESTART
       &END PRINT
     &END SCF
     &QS
       EPS_DEFAULT     1.0000000000000000E-14
       ALMO_SCF  F
       METHOD  GPW
     &END QS
     &MGRID
       NGRIDS  5
       CUTOFF     1.2000000000000000E+03
     &END MGRID
     &XC
       DENSITY_CUTOFF     1.0000000000000000E-10
       GRADIENT_CUTOFF     1.0000000000000000E-10
       TAU_CUTOFF     1.0000000000000000E-10
       &XC_FUNCTIONAL  NO_SHORTCUT
         &PBE  T
         &END PBE
       &END XC_FUNCTIONAL
       &VDW_POTENTIAL
         POTENTIAL_TYPE  PAIR_POTENTIAL
         &PAIR_POTENTIAL
           R_CUTOFF     1.0000000000000005E+01
           TYPE  DFTD3
           PARAMETER_FILE_NAME dftd3.dat
           REFERENCE_FUNCTIONAL PBE
           EPS_CN     9.9999999999999995E-07
           CALCULATE_C9_TERM  T
           REFERENCE_C9_TERM  T
           LONG_RANGE_CORRECTION  F
           VERBOSE_OUTPUT  F
         &END PAIR_POTENTIAL
       &END VDW_POTENTIAL
     &END XC
   &END DFT
   &SUBSYS
     &CELL
       A     9.7367653356401487E+00    0.0000000000000000E+00    0.0000000000000000E+00
       B    -4.8591341382960209E+00    8.4162672083210595E+00    0.0000000000000000E+00
       C     0.0000000000000000E+00    0.0000000000000000E+00    3.0744000000000000E+01
       MULTIPLE_UNIT_CELL  1 1 1
       &CELL_REF
         A     9.5580000000000052E+00    0.0000000000000000E+00    0.0000000000000000E+00
         B    -4.7790000000000026E+00    8.2774708093716640E+00    0.0000000000000000E+00
         C     0.0000000000000000E+00    0.0000000000000000E+00    3.0744000000000000E+01
         MULTIPLE_UNIT_CELL  1 1 1
       &END CELL_REF
     &END CELL
     &COORD
Ga   -3.2984943717583461E-02   -1.9278362766945337E-02   -5.9034305980993851E-01
N   -3.0470345992381680E-02    1.8554185417490707E+00    5.6351901900520263E-01
Ga   -3.0793205398721258E-02    1.8221435087802562E+00    2.5916227007978230E+00
N   -3.3350311158999744E-02   -2.1622165303007850E-02    3.2250049943563650E+00
Ga   -3.3525789113190818E-02   -2.1293990637571911E-02    5.2139212765154896E+00
N   -3.0582236614325294E-02    1.8528315635739387E+00    5.8043044236956147E+00
Ga   -3.1111051923713405E-02    1.8508468679340957E+00    7.8017370332903022E+00
N   -3.5186186989243688E-02   -2.2968577346017687E-02    8.4042490094261151E+00
Ga   -3.5466761947541593E-02   -2.3398381615903508E-02    1.0400094329352084E+01
N   -3.0796685441182654E-02    1.8486409585542831E+00    1.0999970302336418E+01
Ga   -3.1682242037270547E-02    1.8425268000433637E+00    1.2989354730246248E+01
N   -4.3180906856936131E-02   -1.4304632331837753E-02    1.3636844943672067E+01
Ga   -3.4507397673527861E-02   -1.9539150562142751E-02    1.5654575988555111E+01
N   -1.6539328175351548E-02    1.8745050781849326E+00    1.6249916473728181E+01
Ga   -1.8115650829831076E-03    1.8570353894004410E+00    1.8254973779929305E+01
N   -1.5954308960920906E-02    2.5717185484770574E-02    1.8698530085407956E+01
Ga   -1.6527236705943129E+00    2.7854678574289298E+00    2.7889971131299846E-01
N   -1.6546167567251371E+00    4.6548145003537407E+00    5.6351778792087404E-01
Ga   -1.6261685647073514E+00    4.6697168634994259E+00    2.5922245765071925E+00
N   -1.6529556232339735E+00    2.7840161566197814E+00    3.1858941183501956E+00
Ga   -1.6528667689289760E+00    2.7842942067381080E+00    5.1950335637381020E+00
N   -1.6529601180542515E+00    4.6543507303299814E+00    5.8047164541533212E+00
Ga   -1.6531861205686811E+00    4.6550997574805981E+00    7.8022373617981753E+00
N   -1.6542031624519939E+00    2.7837430644540802E+00    8.4062069941214688E+00
Ga   -1.6538784460645763E+00    2.7845515017014990E+00    1.0400006874084978E+01
N   -1.6504389372777526E+00    4.6577463403509647E+00    1.1000595423593913E+01
Ga   -1.6517165296983753E+00    4.6591541794838065E+00    1.2990050349463564E+01
N   -1.6424891674724766E+00    2.7865464218806051E+00    1.3595288397091437E+01
Ga   -1.6397729344703666E+00    2.7877193730815479E+00    1.5580156719457346E+01
N   -1.6363446245728217E+00    4.6566659413228191E+00    1.6179702964203514E+01
Ga   -1.6892021725184623E+00    4.7064154964856888E+00    1.8159319083441879E+01
N   -1.6471956890869792E+00    2.8250321938235254E+00    1.8778567456745055E+01
Ga   -3.2730300401399313E+00    5.5907010991732173E+00    2.7772576531507503E-01
N   -3.2658132921628629E+00    7.4605275140259852E+00    5.6240358976933935E-01
Ga   -3.2943099019445321E+00    7.4747948358556746E+00    2.5911893908956771E+00
N   -3.2729714641426737E+00    5.5894906668149176E+00    3.1855020134789713E+00
Ga   -3.2728330551673821E+00    5.5893114280941063E+00    5.1946158329648409E+00
N   -3.2676864878722998E+00    7.4598387604368339E+00    5.8037990911054163E+00
Ga   -3.2698345979481669E+00    7.4602473787339996E+00    7.8007188222942307E+00
N   -3.2741360178428747E+00    5.5904732508763155E+00    8.4082843448561952E+00
Ga   -3.2744482420851897E+00    5.5940295625500562E+00    1.0403468340061863E+01
N   -3.2747663304314529E+00    7.4635028024767154E+00    1.1017303018074362E+01
Ga   -3.2781087895207235E+00    7.4652237040725229E+00    1.3018653454075631E+01
N   -3.2719883623968373E+00    5.5852458877253257E+00    1.3600915749016883E+01
Ga   -3.2753684174690112E+00    5.5980718524620601E+00    1.5600258107259274E+01
N   -3.2879886732444197E+00    7.4465311269605472E+00    1.6203219770784145E+01
Ga   -3.2801624760699180E+00    7.4818111271392747E+00    1.8288028551614985E+01
N   -3.2676175887551309E+00    5.6100928230119038E+00    1.8661723329524737E+01
Ga    3.2129090865424748E+00   -2.0570013002670036E-02    2.7784619379777142E-01
N    3.2109342479706164E+00    1.8494299017365510E+00    5.6205354041304434E-01
Ga    3.2394429182893663E+00    1.8641855356071797E+00    2.5914737269197397E+00
N    3.2122362126178228E+00   -2.1602138535369707E-02    3.1846129026516339E+00
Ga    3.2120711142287588E+00   -2.1455751689868345E-02    5.1936406920017761E+00
N    3.2125952696029336E+00    1.8483100345940542E+00    5.8046471214289088E+00
Ga    3.2126484884623276E+00    1.8483122834325745E+00    7.8023363925371383E+00
N    3.2096840089424927E+00   -2.2097422007680410E-02    8.4106879299442969E+00
Ga    3.2081619729468343E+00   -2.0076436825722240E-02    1.0406899718036618E+01
N    3.2149135126486867E+00    1.8518143773461959E+00    1.1008120238201172E+01
Ga    3.2169648937209119E+00    1.8466028729275303E+00    1.3004523306425776E+01
N    3.2074416157667986E+00   -2.1711820277603874E-02    1.3615606838529040E+01
Ga    3.1932454807226796E+00   -2.3525096440029675E-02    1.5624135157787007E+01
N    3.2066719292280581E+00    1.8667757420775326E+00    1.6158978736554488E+01
Ga    3.2530696979623785E+00    1.8257020192479760E+00    1.8154109850775750E+01
N    3.2098912285524088E+00   -6.9183010269636648E-03    1.8622210085927687E+01
Ga    1.5918071520417625E+00    2.7858741849734918E+00    2.7826141168990243E-01
N    1.5990718680297882E+00    4.6556165719997740E+00    5.6287517388360442E-01
Ga    1.5707213200218049E+00    4.6696578105219375E+00    2.5918788278758238E+00
N    1.5927293857873439E+00    2.7837825905919411E+00    3.1851433227969754E+00
Ga    1.5924687814457008E+00    2.7838804754804247E+00    5.1943398203281959E+00
N    1.5975793470205828E+00    4.6540998892467389E+00    5.8040223407254548E+00
Ga    1.5960589473421867E+00    4.6545996455655629E+00    7.8014458074290518E+00
N    1.5918105129045819E+00    2.7838163020218012E+00    8.4065503459231135E+00
Ga    1.5933639030795781E+00    2.7846752653626985E+00    1.0400679044129138E+01
N    1.5947447207962786E+00    4.6583654570366200E+00    1.1001113245130979E+01
Ga    1.5975530515053959E+00    4.6590779867720551E+00    1.2989957075377223E+01
N    1.5858293164173445E+00    2.7856630628667309E+00    1.3586974091836476E+01
Ga    1.5890437832026862E+00    2.7890918277896777E+00    1.5567543125155014E+01
N    1.5747323592848133E+00    4.6565726261623119E+00    1.6174023992218977E+01
Ga    1.5900420880770916E+00    4.7068769525775016E+00    1.8154622059623108E+01
N    1.6516454849408184E+00    2.8242063967429676E+00    1.8828826064998260E+01
Ga   -2.7990002597593724E-02    5.5913409061947927E+00   -5.9095517371596218E-01
N   -2.3840251311601324E-02    7.4658445777513460E+00    5.6258592997168722E-01
Ga   -2.4455087387676117E-02    7.4322986731399068E+00    2.5912559415164647E+00
N   -2.7368719363056262E-02    5.5892190541512798E+00    3.2260863516776737E+00
Ga   -2.7529936954112644E-02    5.5895226044664472E+00    5.2153114790116044E+00
N   -2.4740819816959105E-02    7.4644125014909113E+00    5.8048926106038410E+00
Ga   -2.6237898377623321E-02    7.4638322381271145E+00    7.8024571288008699E+00
N   -2.8179741725870764E-02    5.5904524560480375E+00    8.4038930357375961E+00
Ga   -2.8014206129676963E-02    5.5942385266644896E+00    1.0398865885828204E+01
N   -2.5037227288557142E-02    7.4650921572778550E+00    1.1009613289274531E+01
Ga   -2.6068877323930800E-02    7.4726778591182486E+00    1.3004493358161275E+01
N   -2.6719173874592436E-02    5.5962899495336718E+00    1.3592684503244774E+01
Ga   -3.0630822809221324E-02    5.5968987508517358E+00    1.5571509827654653E+01
N   -2.8421458776025987E-02    7.4661589874886714E+00    1.6208487787627003E+01
Ga   -2.0066134689975153E-02    7.5214219493275225E+00    1.8240934510599331E+01
N   -5.2877321032457902E-02    5.6188027529542373E+00    1.8735718415680832E+01
Ga    6.4577149325268888E+00   -1.9810857776230990E-02    2.7826336542569508E-01
N    6.4648684976643889E+00    1.8499155610555402E+00    5.6385302864817388E-01
Ga    6.4365220729152925E+00    1.8644487858629015E+00    2.5925935749272040E+00
N    6.4575905777358491E+00   -2.1716350817578455E-02    3.1848173786667915E+00
Ga    6.4573624384473476E+00   -2.1213493047002277E-02    5.1935542391472200E+00
N    6.4632085709267226E+00    1.8483691119388390E+00    5.8043502225847092E+00
Ga    6.4608566951335096E+00    1.8484504647701134E+00    7.8018181660184460E+00
N    6.4573060810207421E+00   -2.1891752224937083E-02    8.4097057017604797E+00
Ga    6.4591183552614719E+00   -2.0179703423250366E-02    1.0405074375337044E+01
N    6.4623998855684652E+00    1.8505909485621064E+00    1.1011072766431582E+01
Ga    6.4633926451042356E+00    1.8456623408011505E+00    1.3008299704621697E+01
N    6.4572045372273381E+00   -2.2289880970408196E-02    1.3627959374261236E+01
Ga    6.4681342541586409E+00   -1.4408128261606975E-02    1.5639998320119007E+01
N    6.4847411858509050E+00    1.8721655964758221E+00    1.6188200676135420E+01
Ga    6.4244503523523004E+00    1.8601228231445210E+00    1.8207282656948479E+01
N    6.4629081215601802E+00    8.2637666003523361E-03    1.8642065861871988E+01
Ga    4.8395036307887871E+00    2.7860284193918745E+00   -5.8825292651485328E-01
N    4.8413664726826022E+00    4.6604083472623579E+00    5.6309515938305166E-01
Ga    4.8411553939093945E+00    4.6271447273495250E+00    2.5920077381360263E+00
N    4.8379476801132322E+00    2.7836858080477067E+00    3.2260057084128078E+00
Ga    4.8382356038090624E+00    2.7841215347743509E+00    5.2154019783422303E+00
N    4.8408413131922066E+00    4.6583673740552634E+00    5.8049332692916868E+00
Ga    4.8398997672414064E+00    4.6567208560007689E+00    7.8028013100624012E+00
N    4.8375402041429236E+00    2.7830820266614134E+00    8.4058862319757353E+00
Ga    4.8392623556726537E+00    2.7836287291171140E+00    1.0403222211832377E+01
N    4.8401621178146650E+00    4.6570099860762566E+00    1.1004220741619372E+01
Ga    4.8416690631514454E+00    4.6524969684973669E+00    1.2996936140343697E+01
N    4.8413108539589178E+00    2.7833574840610815E+00    1.3597165979515186E+01
Ga    4.8475464489355433E+00    2.7898565727165914E+00    1.5594241296516795E+01
N    4.8494356200318673E+00    4.6560075613345600E+00    1.6195717061289724E+01
Ga    4.8782536664158975E+00    4.6538100919790768E+00    1.8266986360616489E+01
N    4.8205779321954090E+00    2.7933376725662513E+00    1.8686559094027253E+01
Ga    3.2187471838071140E+00    5.5902203492951372E+00    2.7819693205516827E-01
N    3.2171254572425005E+00    7.4598778513878994E+00    5.6270003195487484E-01
Ga    3.2455174445751158E+00    7.4747842698446041E+00    2.5915032946889771E+00
N    3.2184726370114349E+00    5.5891272947452668E+00    3.1851618485683089E+00
Ga    3.2184501842616515E+00    5.5891488022902172E+00    5.1942166581488163E+00
N    3.2180395797181767E+00    7.4596839962804777E+00    5.8029951364967447E+00
Ga    3.2181229901602921E+00    7.4599106468130971E+00    7.7998286396651837E+00
N    3.2174223774665633E+00    5.5902102606634534E+00    8.4069660788935163E+00
Ga    3.2189151064928834E+00    5.5931939086852500E+00    1.0401381736471132E+01
N    3.2212097545827607E+00    7.4619864879770459E+00    1.1016943597435734E+01
Ga    3.2199339664543829E+00    7.4638034764484695E+00    1.3016274168797201E+01
N    3.2185957968584713E+00    5.5848524340291830E+00    1.3610110692278045E+01
Ga    3.2187158489754371E+00    5.5874783175554059E+00    1.5609101411137898E+01
N    3.2177705366804408E+00    7.4334759631205918E+00    1.6238957782946361E+01
Ga    3.2402578818119387E+00    7.5220223927842129E+00    1.8336449543314998E+01
N    3.2233027496672291E+00    5.6015414485321502E+00    1.8601940204875532E+01
O    1.9379063695635315E+00    4.5130446647085707E+00    2.0462082755811409E+01
H    2.6709652789381165E-02    5.5561934124413037E+00    1.9757799127375446E+01
C    1.9844178587285952E+00    3.1588790612105191E+00    2.0238298197941496E+01
H   -1.6898139548583844E+00    2.8446544673057854E+00    1.9886912471765879E+01
H    2.9907195952393684E+00    2.7335753198610693E+00    2.0484336863044238E+01
H    1.2843279132790912E+00    2.6619792079270952E+00    2.0947354271944644E+01
O    4.4128641108145494E+00    5.5097321040211762E+00    2.1331412701950857E+01
H    3.5160552085722738E+00    5.2083326288628324E+00    2.1037064424145871E+01
C    5.1301075941449170E+00    4.3764777564886019E+00    2.1811418207057706E+01
H    5.3664921190519506E+00    3.6601768623303443E+00    2.1000200285280975E+01
H    6.0672191513626661E+00    4.7388954376581713E+00    2.2252880903922250E+01
H    4.5624860390652264E+00    3.8279632768370160E+00    2.2580941026272551E+01
     &END COORD
     &KIND C
       BASIS_SET DZVP-MOLOPT-SR-GTH-q4
       POTENTIAL GTH-PBE-q4
       &POTENTIAL
 2 2
  0.3384712400000000E+00 2 -0.8803673979999999E+01  0.1339210850000000E+01
 2
  0.3025757500000000E+00 1  0.9622486650000001E+01
  0.2915069400000000E+00 0
         # Potential name:  GTH-PBE-Q4  for symbol:  C
         # Potential read from the potential filename: GTH_POTENTIALS
       &END POTENTIAL
     &END KIND
     &KIND O
       BASIS_SET DZVP-MOLOPT-SR-GTH-q6
       POTENTIAL GTH-PBE-q6
       &POTENTIAL
 2 4
  0.2445543000000000E+00 2 -0.1666721480000000E+02  0.2487311320000000E+01
 2
  0.2209559200000000E+00 1  0.1833745811000000E+02
  0.2113324700000000E+00 0
         # Potential name:  GTH-PBE-Q6  for symbol:  O
         # Potential read from the potential filename: GTH_POTENTIALS
       &END POTENTIAL
     &END KIND
     &KIND H
       BASIS_SET DZVP-MOLOPT-SR-GTH-q1
       POTENTIAL GTH-PBE-q1
       &POTENTIAL
 1
  0.2000000000000000E+00 2 -0.4178900440000000E+01  0.7244633100000000E+00
 0
         # Potential name:  GTH-PBE-Q1  for symbol:  H
         # Potential read from the potential filename: GTH_POTENTIALS
       &END POTENTIAL
     &END KIND
     &KIND N
       BASIS_SET DZVP-MOLOPT-SR-GTH-q5
       POTENTIAL GTH-PBE-q5
       &POTENTIAL
 2 3
  0.2837905100000000E+00 2 -0.1241522559000000E+02  0.1868095920000000E+01
 2
  0.2554050000000000E+00 1  0.1363026257000000E+02
  0.2454945300000000E+00 0
         # Potential name:  GTH-PBE-Q5  for symbol:  N
         # Potential read from the potential filename: GTH_POTENTIALS
       &END POTENTIAL
     &END KIND
     &KIND Ga
       BASIS_SET DZVP-MOLOPT-SR-GTH-q13
       POTENTIAL GTH-PBE-q13
       &POTENTIAL
 2 1 10
  0.4900000000000000E+00 0
 3
  0.4167772300000000E+00 3  0.1047568975000000E+02 -0.4921768140000000E+01  0.8707055900000000E+00
  0.7770178090000000E+01 -0.2248152160000000E+01
  0.1784415450000000E+01
  0.5696265200000000E+00 2  0.1777985340000000E+01  0.1958597600000000E+00
 -0.2317443900000000E+00
  0.2381265000000000E+00 1 -0.1624868022000000E+02
         # Potential name:  GTH-PBE-Q13  for symbol:  GA
         # Potential read from the potential filename: GTH_POTENTIALS
       &END POTENTIAL
     &END KIND
     &TOPOLOGY
       COORD_FILE_NAME ../start-first.xyz
       COORD_FILE_FORMAT  XYZ
       NUMBER_OF_ATOMS  156
       MULTIPLE_UNIT_CELL  1 1 1
     &END TOPOLOGY
     &COLVAR
       &DISTANCE
         ATOMS  32 148
       &END DISTANCE
       &PRINT
       &END PRINT
     &END COLVAR
   &END SUBSYS
 &END FORCE_EVAL
