 # Version information for this restart file 
 # current date 2019-05-28 02:48:42.297
 # current working dir /lustre03/project/6004141/rzk/GaN-carbene/334-native/08-2Methanol-Htransfer/02-NH-constraint/1.24
 # Program compiled at                              Sun Apr  7 00:48:11 EDT 2019
 # Program compiled on                          beluga2.int.ets1.calculquebec.ca
 # Program compiled for                        Beluga-Linux-x86-64-intel-openmpi
 # Source code revision number                                         svn:18619
 &GLOBAL
   PRINT_LEVEL  MEDIUM
   PROJECT_NAME TEST
   RUN_TYPE  GEO_OPT
 &END GLOBAL
 &MOTION
   &GEO_OPT
     MAX_ITER  500
     STEP_START_VAL  143
   &END GEO_OPT
   &CONSTRAINT
     &COLLECTIVE
       COLVAR  1
       INTERMOLECULAR  T
       TARGET     2.3432604047781971E+00
       &RESTRAINT
         K     1.0000000000000001E-01
       &END RESTRAINT
     &END COLLECTIVE
     &COLVAR_RESTART
           2.3432604047781971E+00
     &END COLVAR_RESTART
   &END CONSTRAINT
 &END MOTION
 &FORCE_EVAL
   METHOD  QS
   STRESS_TENSOR  ANALYTICAL
   &DFT
     BASIS_SET_FILE_NAME BASIS_MOLOPT
     POTENTIAL_FILE_NAME GTH_POTENTIALS
     &SCF
       MAX_SCF  100
       EPS_SCF     5.0000000000000004E-06
       &OT  T
         PRECONDITIONER  FULL_ALL
       &END OT
       &OUTER_SCF  T
         OPTIMIZER  NONE
         EPS_SCF     5.0000000000000004E-06
         MAX_SCF  4
       &END OUTER_SCF
       &PRINT
         &RESTART  OFF
           BACKUP_COPIES  1
           &EACH
             JUST_ENERGY  0
             QS_SCF  0
             MD  20
           &END EACH
         &END RESTART
       &END PRINT
     &END SCF
     &QS
       EPS_DEFAULT     1.0000000000000000E-14
       ALMO_SCF  F
       METHOD  GPW
     &END QS
     &MGRID
       NGRIDS  5
       CUTOFF     1.2000000000000000E+03
     &END MGRID
     &XC
       DENSITY_CUTOFF     1.0000000000000000E-10
       GRADIENT_CUTOFF     1.0000000000000000E-10
       TAU_CUTOFF     1.0000000000000000E-10
       &XC_FUNCTIONAL  NO_SHORTCUT
         &PBE  T
         &END PBE
       &END XC_FUNCTIONAL
       &VDW_POTENTIAL
         POTENTIAL_TYPE  PAIR_POTENTIAL
         &PAIR_POTENTIAL
           R_CUTOFF     1.0000000000000005E+01
           TYPE  DFTD3
           PARAMETER_FILE_NAME dftd3.dat
           REFERENCE_FUNCTIONAL PBE
           EPS_CN     9.9999999999999995E-07
           CALCULATE_C9_TERM  T
           REFERENCE_C9_TERM  T
           LONG_RANGE_CORRECTION  F
           VERBOSE_OUTPUT  F
         &END PAIR_POTENTIAL
       &END VDW_POTENTIAL
     &END XC
   &END DFT
   &SUBSYS
     &CELL
       A     9.7367653356401487E+00    0.0000000000000000E+00    0.0000000000000000E+00
       B    -4.8591341382960209E+00    8.4162672083210595E+00    0.0000000000000000E+00
       C     0.0000000000000000E+00    0.0000000000000000E+00    3.0744000000000000E+01
       MULTIPLE_UNIT_CELL  1 1 1
       &CELL_REF
         A     9.5580000000000052E+00    0.0000000000000000E+00    0.0000000000000000E+00
         B    -4.7790000000000026E+00    8.2774708093716640E+00    0.0000000000000000E+00
         C     0.0000000000000000E+00    0.0000000000000000E+00    3.0744000000000000E+01
         MULTIPLE_UNIT_CELL  1 1 1
       &END CELL_REF
     &END CELL
     &COORD
Ga   -3.2790875470785838E-02   -1.9590807894155481E-02   -5.9050031179543960E-01
N   -3.0344050958810740E-02    1.8552446627726442E+00    5.6311438099651501E-01
Ga   -3.0773833348738688E-02    1.8222004744475746E+00    2.5914941338243787E+00
N   -3.3376440891914889E-02   -2.1607442344874685E-02    3.2246537212069937E+00
Ga   -3.3577116897195884E-02   -2.1261762140426573E-02    5.2136203808786821E+00
N   -3.0658371025936264E-02    1.8528299565907320E+00    5.8039756095932260E+00
Ga   -3.1220399928842887E-02    1.8508168280325938E+00    7.8015395927856952E+00
N   -3.5084822633795643E-02   -2.2985871565857314E-02    8.4041564589054687E+00
Ga   -3.5373865511170249E-02   -2.3561731474235025E-02    1.0400050058503302E+01
N   -3.0882488581346724E-02    1.8484252449244023E+00    1.1000053036071398E+01
Ga   -3.1739706261906607E-02    1.8424037614233038E+00    1.2989246135817659E+01
N   -4.3149076623900023E-02   -1.4402724369486319E-02    1.3637064830830342E+01
Ga   -3.4684364438606778E-02   -1.9409437746855045E-02    1.5654751281574164E+01
N   -1.6682050195388268E-02    1.8745499416032700E+00    1.6250611114235443E+01
Ga   -1.5783772157940289E-03    1.8572983194316122E+00    1.8255639095688892E+01
N   -1.5635421858235823E-02    2.6050796372274941E-02    1.8699068088629161E+01
Ga   -1.6525263219106807E+00    2.7853092196761438E+00    2.7854762095632773E-01
N   -1.6545506882371694E+00    4.6545815730437816E+00    5.6329789755993642E-01
Ga   -1.6261893615582224E+00    4.6696978100765456E+00    2.5920393967547475E+00
N   -1.6530016585264395E+00    2.7840116449555956E+00    3.1856214354023269E+00
Ga   -1.6529011078200773E+00    2.7843555975730383E+00    5.1948099893135131E+00
N   -1.6529948436025701E+00    4.6543760566972319E+00    5.8044800753978043E+00
Ga   -1.6532250474241377E+00    4.6550076638113529E+00    7.8021232521004151E+00
N   -1.6542327717574321E+00    2.7836385394303251E+00    8.4062127927239025E+00
Ga   -1.6540139324053305E+00    2.7842681844033881E+00    1.0400132714352578E+01
N   -1.6504572649665405E+00    4.6574191464168120E+00    1.1000584091300764E+01
Ga   -1.6517387252044369E+00    4.6590917496504645E+00    1.2989931633279856E+01
N   -1.6425251817812143E+00    2.7865652150103779E+00    1.3595342258203424E+01
Ga   -1.6399209111082602E+00    2.7879261889175941E+00    1.5580020052351969E+01
N   -1.6365089852534958E+00    4.6567615080231484E+00    1.6180145038913363E+01
Ga   -1.6892037395982640E+00    4.7066222933300361E+00    1.8159662432208112E+01
N   -1.6471668678548850E+00    2.8254300569976016E+00    1.8778692875322850E+01
Ga   -3.2728222207828099E+00    5.5904842243051682E+00    2.7762387233293340E-01
N   -3.2656173337183483E+00    7.4602524511980182E+00    5.6225726672873588E-01
Ga   -3.2942672074995527E+00    7.4747550920108576E+00    2.5910862603193463E+00
N   -3.2729687391693258E+00    5.5894866538274055E+00    3.1853236044627034E+00
Ga   -3.2728400298019791E+00    5.5893493043063334E+00    5.1944615874323334E+00
N   -3.2677130696405770E+00    7.4598526168639596E+00    5.8034067477533471E+00
Ga   -3.2698046095113478E+00    7.4601350667380864E+00    7.8005284742884768E+00
N   -3.2742164280409751E+00    5.5903173921003555E+00    8.4081681551263472E+00
Ga   -3.2746019218359659E+00    5.5936600009149009E+00    1.0403487732190769E+01
N   -3.2746494605927960E+00    7.4632814737074016E+00    1.1017232378330087E+01
Ga   -3.2781350586677194E+00    7.4650867115495485E+00    1.3018377714535664E+01
N   -3.2720714251607750E+00    5.5852359789499681E+00    1.3600889585234901E+01
Ga   -3.2752463919732873E+00    5.5980973369627787E+00    1.5600141159924668E+01
N   -3.2882479984351249E+00    7.4464467970394264E+00    1.6203958920226029E+01
Ga   -3.2798422601891373E+00    7.4820537094447150E+00    1.8289048159710728E+01
N   -3.2674706335242956E+00    5.6104073253067650E+00    1.8662101259317616E+01
Ga    3.2129705138228291E+00   -2.0768877885403759E-02    2.7775404506346030E-01
N    3.2109048881411559E+00    1.8491787488242348E+00    5.6205129160783918E-01
Ga    3.2393512845904979E+00    1.8642336318952062E+00    2.5913326637501441E+00
N    3.2122280203975544E+00   -2.1486766596413031E-02    3.1844351790160239E+00
Ga    3.2120350074602331E+00   -2.1297882344332549E-02    5.1935233960869889E+00
N    3.2125327079504840E+00    1.8484430976871209E+00    5.8045216859694460E+00
Ga    3.2126352572779786E+00    1.8482820158806748E+00    7.8022838846697553E+00
N    3.2097379624183677E+00   -2.2203478403421888E-02    8.4106019593859251E+00
Ga    3.2082992792152756E+00   -2.0462854571020601E-02    1.0406936465508728E+01
N    3.2146886454351948E+00    1.8514002256049857E+00    1.1008221124123608E+01
Ga    3.2167985234563452E+00    1.8463046376607837E+00    1.3004726999253339E+01
N    3.2073344614386219E+00   -2.2060006039561032E-02    1.3616313901701012E+01
Ga    3.1931716858718295E+00   -2.3546333943625788E-02    1.5624971969031037E+01
N    3.2066736619960885E+00    1.8668414389316372E+00    1.6159523372513444E+01
Ga    3.2534495248969320E+00    1.8262660443407919E+00    1.8154739881748839E+01
N    3.2103692999207545E+00   -6.4462240046269841E-03    1.8622743982827366E+01
Ga    1.5919243944899601E+00    2.7856219681503411E+00    2.7815758104632393E-01
N    1.5992099724116715E+00    4.6552980462536162E+00    5.6265827287188164E-01
Ga    1.5706440497056819E+00    4.6697190359132792E+00    2.5916766341362694E+00
N    1.5926384982022930E+00    2.7838828607882351E+00    3.1850122409662043E+00
Ga    1.5923635194800987E+00    2.7840481366855330E+00    5.1943660575994794E+00
N    1.5975272673724554E+00    4.6542833503691892E+00    5.8038707184044771E+00
Ga    1.5960341778359182E+00    4.6546559141341817E+00    7.8013262768675364E+00
N    1.5917095414443443E+00    2.7838162418956078E+00    8.4065355855539607E+00
Ga    1.5931900945316924E+00    2.7844066318148237E+00    1.0400802939643551E+01
N    1.5946722722051345E+00    4.6580585890886699E+00    1.1001144018143261E+01
Ga    1.5974699295701313E+00    4.6588649906584099E+00    1.2990123753183756E+01
N    1.5858041534726985E+00    2.7854115169074856E+00    1.3587286843317866E+01
Ga    1.5888764224859702E+00    2.7890533666030937E+00    1.5567856560682676E+01
N    1.5747584830734500E+00    4.6564559450758507E+00    1.6174337725129199E+01
Ga    1.5906940469311257E+00    4.7069442031919442E+00    1.8154936609981444E+01
N    1.6521377539153208E+00    2.8244421472225762E+00    1.8829512808121230E+01
Ga   -2.7798368266742857E-02    5.5907994855604493E+00   -5.9136940025217133E-01
N   -2.3781421796269103E-02    7.4657218669864713E+00    5.6233271845243682E-01
Ga   -2.4522345848521244E-02    7.4324225482463326E+00    2.5910604249617091E+00
N   -2.7420132229582710E-02    5.5893819011930637E+00    3.2258401192428687E+00
Ga   -2.7594423671243883E-02    5.5897430148606038E+00    5.2150817727637317E+00
N   -2.4753102837679748E-02    7.4646176401803217E+00    5.8045974931355895E+00
Ga   -2.6144243948343613E-02    7.4638055185979297E+00    7.8022148139879040E+00
N   -2.8195055307970795E-02    5.5904214746322545E+00    8.4038666587754314E+00
Ga   -2.7950980160160264E-02    5.5939139989776807E+00    1.0399093195259489E+01
N   -2.5043651540043455E-02    7.4647761558865149E+00    1.1009805925909040E+01
Ga   -2.6125771981407146E-02    7.4725793317084790E+00    1.3004919718516076E+01
N   -2.6780145172936341E-02    5.5961064892632582E+00    1.3593028629503022E+01
Ga   -3.0666108872068575E-02    5.5970533886629275E+00    1.5571636215155698E+01
N   -2.8267376403106011E-02    7.4659247866426464E+00    1.6209056547865963E+01
Ga   -1.9814715522606916E-02    7.5215391869311317E+00    1.8241248874505825E+01
N   -5.2754212698498865E-02    5.6189145260451285E+00    1.8736290996512892E+01
Ga    6.4577570708807857E+00   -2.0026602377292643E-02    2.7817495715772161E-01
N    6.4651420129170711E+00    1.8497055441161576E+00    5.6351726239387478E-01
Ga    6.4365219930526587E+00    1.8645359236194377E+00    2.5922284741065211E+00
N    6.4576171885014295E+00   -2.1581222768180534E-02    3.1844951421441707E+00
Ga    6.4573947299191730E+00   -2.1092009002264940E-02    5.1933470732003721E+00
N    6.4631671058114728E+00    1.8485382320329020E+00    5.8041352136348303E+00
Ga    6.4607869657024111E+00    1.8483981788630282E+00    7.8016606639643431E+00
N    6.4572796622910857E+00   -2.2006611687108390E-02    8.4096636090389314E+00
Ga    6.4590518469567861E+00   -2.0368229875505069E-02    1.0405241652737041E+01
N    6.4622845671520182E+00    1.8502691390850545E+00    1.1010973453714424E+01
Ga    6.4632873262981985E+00    1.8454016331214296E+00    1.3008271492094480E+01
N    6.4571963931629055E+00   -2.2464835705912917E-02    1.3627956611714845E+01
Ga    6.4681385624507000E+00   -1.4702860299129658E-02    1.5639896027746589E+01
N    6.4849945597985172E+00    1.8720633265994227E+00    1.6187941659465920E+01
Ga    6.4249720470992280E+00    1.8603842192253048E+00    1.8206749821956485E+01
N    6.4635599502362240E+00    8.6534668285593672E-03    1.8641813426292615E+01
Ga    4.8395791686074414E+00    2.7858419981986757E+00   -5.8867034471814417E-01
N    4.8415416504598001E+00    4.6602785382957954E+00    5.6297824096567273E-01
Ga    4.8411305045297182E+00    4.6272344262908902E+00    2.5918939619655927E+00
N    4.8379247890775474E+00    2.7836809653560954E+00    3.2257460593215472E+00
Ga    4.8381904636102444E+00    2.7841250280744356E+00    5.2150726876783109E+00
N    4.8407216132950124E+00    4.6584496999733345E+00    5.8045602738128954E+00
Ga    4.8398165081954012E+00    4.6565683020114550E+00    7.8024843187974513E+00
N    4.8374691816873483E+00    2.7830596051700049E+00    8.4060328390738128E+00
Ga    4.8390981989365507E+00    2.7834768185489795E+00    1.0403461961670969E+01
N    4.8400122085343042E+00    4.6567290368179624E+00    1.1004546430872022E+01
Ga    4.8414403578742338E+00    4.6523184132837514E+00    1.2997255368830304E+01
N    4.8412205977686682E+00    2.7829427041747179E+00    1.3597050446971194E+01
Ga    4.8475614268483858E+00    2.7896422444512905E+00    1.5594085567790446E+01
N    4.8494557711383806E+00    4.6558243128718013E+00    1.6195383962894208E+01
Ga    4.8784552395856124E+00    4.6542052792337998E+00    1.8266395692588929E+01
N    4.8214211979419659E+00    2.7940325893154334E+00    1.8686605708887242E+01
Ga    3.2188627014571787E+00    5.5899287218053795E+00    2.7800711306055104E-01
N    3.2171035342246568E+00    7.4596133154134705E+00    5.6230890209206452E-01
Ga    3.2454992733961179E+00    7.4748251739383669E+00    2.5912127314351046E+00
N    3.2183784426380377E+00    5.5892584542237795E+00    3.1848684752686962E+00
Ga    3.2183300944637163E+00    5.5892830368489363E+00    5.1939907315126987E+00
N    3.2180286923586365E+00    7.4597697635496294E+00    5.8027781640070524E+00
Ga    3.2182299437438768E+00    7.4598472416234358E+00    7.7996930881985760E+00
N    3.2174680615324638E+00    5.5900629978669327E+00    8.4071111401809411E+00
Ga    3.2188600781690671E+00    5.5928267240744987E+00    1.0401583311964673E+01
N    3.2212465103311727E+00    7.4617859186790181E+00    1.1016901332186974E+01
Ga    3.2198018170845670E+00    7.4636113331677523E+00    1.3016278866045646E+01
N    3.2183352655683017E+00    5.5848144318148814E+00    1.3610254826075630E+01
Ga    3.2187215394472162E+00    5.5872292635189176E+00    1.5609103847958822E+01
N    3.2177035488243493E+00    7.4333702125905354E+00    1.6239225221297758E+01
Ga    3.2405457046681216E+00    7.5220800253697258E+00    1.8336385529180426E+01
N    3.2236247775125233E+00    5.6019123177580399E+00    1.8601720847535461E+01
O    1.9373598763201172E+00    4.5130446469066650E+00    2.0463126785315332E+01
H    2.6644377696403071E-02    5.5561387888537617E+00    1.9758379301931779E+01
C    1.9837457061379038E+00    3.1589022714152053E+00    2.0239156092254763E+01
H   -1.6911005323440567E+00    2.8449966992714568E+00    1.9886948988545104E+01
H    2.9898581508346358E+00    2.7336698328750266E+00    2.0485437592328342E+01
H    1.2833093309997967E+00    2.6621498680156743E+00    2.0947816891641480E+01
O    4.4124420247498515E+00    5.5098194141508614E+00    2.1330716439646501E+01
H    3.5156020584786907E+00    5.2082301684687993E+00    2.1036779956223992E+01
C    5.1304138892380413E+00    4.3768615183459536E+00    2.1810890556390110E+01
H    5.3666900199945058E+00    3.6603885650127101E+00    2.0999566226300189E+01
H    6.0676260306890484E+00    4.7397132615119117E+00    2.2251490195868165E+01
H    4.5634238636823188E+00    3.8280223310945773E+00    2.2581134541561269E+01
     &END COORD
     &KIND C
       BASIS_SET DZVP-MOLOPT-SR-GTH-q4
       POTENTIAL GTH-PBE-q4
       &POTENTIAL
 2 2
  0.3384712400000000E+00 2 -0.8803673979999999E+01  0.1339210850000000E+01
 2
  0.3025757500000000E+00 1  0.9622486650000001E+01
  0.2915069400000000E+00 0
         # Potential name:  GTH-PBE-Q4  for symbol:  C
         # Potential read from the potential filename: GTH_POTENTIALS
       &END POTENTIAL
     &END KIND
     &KIND O
       BASIS_SET DZVP-MOLOPT-SR-GTH-q6
       POTENTIAL GTH-PBE-q6
       &POTENTIAL
 2 4
  0.2445543000000000E+00 2 -0.1666721480000000E+02  0.2487311320000000E+01
 2
  0.2209559200000000E+00 1  0.1833745811000000E+02
  0.2113324700000000E+00 0
         # Potential name:  GTH-PBE-Q6  for symbol:  O
         # Potential read from the potential filename: GTH_POTENTIALS
       &END POTENTIAL
     &END KIND
     &KIND H
       BASIS_SET DZVP-MOLOPT-SR-GTH-q1
       POTENTIAL GTH-PBE-q1
       &POTENTIAL
 1
  0.2000000000000000E+00 2 -0.4178900440000000E+01  0.7244633100000000E+00
 0
         # Potential name:  GTH-PBE-Q1  for symbol:  H
         # Potential read from the potential filename: GTH_POTENTIALS
       &END POTENTIAL
     &END KIND
     &KIND N
       BASIS_SET DZVP-MOLOPT-SR-GTH-q5
       POTENTIAL GTH-PBE-q5
       &POTENTIAL
 2 3
  0.2837905100000000E+00 2 -0.1241522559000000E+02  0.1868095920000000E+01
 2
  0.2554050000000000E+00 1  0.1363026257000000E+02
  0.2454945300000000E+00 0
         # Potential name:  GTH-PBE-Q5  for symbol:  N
         # Potential read from the potential filename: GTH_POTENTIALS
       &END POTENTIAL
     &END KIND
     &KIND Ga
       BASIS_SET DZVP-MOLOPT-SR-GTH-q13
       POTENTIAL GTH-PBE-q13
       &POTENTIAL
 2 1 10
  0.4900000000000000E+00 0
 3
  0.4167772300000000E+00 3  0.1047568975000000E+02 -0.4921768140000000E+01  0.8707055900000000E+00
  0.7770178090000000E+01 -0.2248152160000000E+01
  0.1784415450000000E+01
  0.5696265200000000E+00 2  0.1777985340000000E+01  0.1958597600000000E+00
 -0.2317443900000000E+00
  0.2381265000000000E+00 1 -0.1624868022000000E+02
         # Potential name:  GTH-PBE-Q13  for symbol:  GA
         # Potential read from the potential filename: GTH_POTENTIALS
       &END POTENTIAL
     &END KIND
     &TOPOLOGY
       COORD_FILE_NAME ../start-first.xyz
       COORD_FILE_FORMAT  XYZ
       NUMBER_OF_ATOMS  156
       MULTIPLE_UNIT_CELL  1 1 1
     &END TOPOLOGY
     &COLVAR
       &DISTANCE
         ATOMS  32 148
       &END DISTANCE
       &PRINT
       &END PRINT
     &END COLVAR
   &END SUBSYS
 &END FORCE_EVAL
