 # Version information for this restart file 
 # current date 2019-05-28 08:33:29.143
 # current working dir /lustre03/project/6004141/rzk/GaN-carbene/334-native/08-2Methanol-Htransfer/03-CO-constraint/2.34
 # Program compiled at                              Sun Apr  7 00:48:11 EDT 2019
 # Program compiled on                          beluga2.int.ets1.calculquebec.ca
 # Program compiled for                        Beluga-Linux-x86-64-intel-openmpi
 # Source code revision number                                         svn:18619
 &GLOBAL
   PRINT_LEVEL  MEDIUM
   PROJECT_NAME TEST
   RUN_TYPE  GEO_OPT
 &END GLOBAL
 &MOTION
   &GEO_OPT
     MAX_ITER  500
     STEP_START_VAL  228
   &END GEO_OPT
   &CONSTRAINT
     &COLLECTIVE
       COLVAR  1
       INTERMOLECULAR  T
       TARGET     4.4219591509524045E+00
       &RESTRAINT
         K     1.0000000000000001E-01
       &END RESTRAINT
     &END COLLECTIVE
     &COLVAR_RESTART
           4.4219591509524045E+00
     &END COLVAR_RESTART
   &END CONSTRAINT
 &END MOTION
 &FORCE_EVAL
   METHOD  QS
   STRESS_TENSOR  ANALYTICAL
   &DFT
     BASIS_SET_FILE_NAME BASIS_MOLOPT
     POTENTIAL_FILE_NAME GTH_POTENTIALS
     &SCF
       MAX_SCF  100
       EPS_SCF     5.0000000000000004E-06
       &OT  T
         PRECONDITIONER  FULL_ALL
       &END OT
       &OUTER_SCF  T
         OPTIMIZER  NONE
         EPS_SCF     5.0000000000000004E-06
         MAX_SCF  4
       &END OUTER_SCF
       &PRINT
         &RESTART  OFF
           BACKUP_COPIES  1
           &EACH
             JUST_ENERGY  0
             QS_SCF  0
             MD  20
           &END EACH
         &END RESTART
       &END PRINT
     &END SCF
     &QS
       EPS_DEFAULT     1.0000000000000000E-14
       ALMO_SCF  F
       METHOD  GPW
     &END QS
     &MGRID
       NGRIDS  5
       CUTOFF     1.2000000000000000E+03
     &END MGRID
     &XC
       DENSITY_CUTOFF     1.0000000000000000E-10
       GRADIENT_CUTOFF     1.0000000000000000E-10
       TAU_CUTOFF     1.0000000000000000E-10
       &XC_FUNCTIONAL  NO_SHORTCUT
         &PBE  T
         &END PBE
       &END XC_FUNCTIONAL
       &VDW_POTENTIAL
         POTENTIAL_TYPE  PAIR_POTENTIAL
         &PAIR_POTENTIAL
           R_CUTOFF     1.0000000000000005E+01
           TYPE  DFTD3
           PARAMETER_FILE_NAME dftd3.dat
           REFERENCE_FUNCTIONAL PBE
           EPS_CN     9.9999999999999995E-07
           CALCULATE_C9_TERM  T
           REFERENCE_C9_TERM  T
           LONG_RANGE_CORRECTION  F
           VERBOSE_OUTPUT  F
         &END PAIR_POTENTIAL
       &END VDW_POTENTIAL
     &END XC
   &END DFT
   &SUBSYS
     &CELL
       A     9.7367653356401487E+00    0.0000000000000000E+00    0.0000000000000000E+00
       B    -4.8591341382960209E+00    8.4162672083210595E+00    0.0000000000000000E+00
       C     0.0000000000000000E+00    0.0000000000000000E+00    3.0744000000000000E+01
       MULTIPLE_UNIT_CELL  1 1 1
       &CELL_REF
         A     9.5580000000000052E+00    0.0000000000000000E+00    0.0000000000000000E+00
         B    -4.7790000000000026E+00    8.2774708093716640E+00    0.0000000000000000E+00
         C     0.0000000000000000E+00    0.0000000000000000E+00    3.0744000000000000E+01
         MULTIPLE_UNIT_CELL  1 1 1
       &END CELL_REF
     &END CELL
     &COORD
Ga    7.4794375769298246E-02   -2.1636975937915488E-02   -5.4433128587674573E-01
N    7.7783487285845138E-02    1.8534298966609477E+00    6.1274489663960574E-01
Ga    7.7172759311507438E-02    1.8208693666730333E+00    2.6399858084670513E+00
N    7.4080705667889241E-02   -2.3297943646653035E-02    3.2739167250808707E+00
Ga    7.4262952284805894E-02   -2.2443227331818243E-02    5.2617517864818923E+00
N    7.7302440506711007E-02    1.8512052503753744E+00    5.8558001288638790E+00
Ga    7.7037763933447009E-02    1.8497107203644201E+00    7.8522379414275685E+00
N    7.5073580942912235E-02   -2.3978227616783528E-02    8.4587320938054731E+00
Ga    7.6702787803176117E-02   -2.3505150999972291E-02    1.0453734594494145E+01
N    7.7457436580668698E-02    1.8468926215250905E+00    1.1062709074457889E+01
Ga    7.5742380561671013E-02    1.8457856817307612E+00    1.3059907877977770E+01
N    7.5508436640920246E-02   -1.9454667309297721E-02    1.3693932320841260E+01
Ga    1.0477620636908801E-01   -3.7369421926373011E-03    1.5719710825548702E+01
N    9.5527028534934583E-02    1.8722363514775668E+00    1.6287903589786804E+01
Ga    5.4534654122116388E-02    1.9062646895241384E+00    1.8432971982510651E+01
N    9.6049393011398129E-02    3.6813906233532374E-02    1.8904371286325105E+01
Ga   -1.5444586702293654E+00    2.7822380513305887E+00    3.2580620803492960E-01
N   -1.5473664751852219E+00    4.6513691432244704E+00    6.1236472578451395E-01
Ga   -1.5182521344828546E+00    4.6672891438826101E+00    2.6395830220636367E+00
N   -1.5454545830160498E+00    2.7821194252017256E+00    3.2360071915090169E+00
Ga   -1.5449791985083965E+00    2.7826370473465820E+00    5.2438848988636160E+00
N   -1.5449042905253507E+00    4.6529758069785876E+00    5.8554301287183712E+00
Ga   -1.5441549354599400E+00    4.6532558017509489E+00    7.8514572598240759E+00
N   -1.5448504953470366E+00    2.7831917713249439E+00    8.4606076822351568E+00
Ga   -1.5431403910516726E+00    2.7840833595272341E+00    1.0454148115074091E+01
N   -1.5472831689106901E+00    4.6593533381979775E+00    1.1061550827426059E+01
Ga   -1.5457590938825989E+00    4.6536123353994228E+00    1.3051608104592393E+01
N   -1.5330517025323214E+00    2.7971526233998625E+00    1.3660859083741400E+01
Ga   -1.4998748264655002E+00    2.8136171075364089E+00    1.5670150125435040E+01
N   -1.5287526332623933E+00    4.6937865325129566E+00    1.6303064461063425E+01
Ga   -1.4946442194868792E+00    4.7351589858731602E+00    1.8364499171875259E+01
N   -1.5504683408191424E+00    2.8981388679272109E+00    1.8835386008924871E+01
Ga   -3.1651773393344147E+00    5.5881054370391317E+00    3.2644922863134801E-01
N   -3.1573519202607678E+00    7.4575499613360643E+00    6.1202013497475749E-01
Ga   -3.1863198193668323E+00    7.4731693545620681E+00    2.6394919959327097E+00
N   -3.1650628476137879E+00    5.5874411700617070E+00    3.2349297778675727E+00
Ga   -3.1648095193713939E+00    5.5875631526128178E+00    5.2423610506838827E+00
N   -3.1600913913811461E+00    7.4580041202709015E+00    5.8534071857996164E+00
Ga   -3.1618929309278108E+00    7.4582967927135426E+00    7.8484181196061780E+00
N   -3.1667816883043645E+00    5.5879337896269190E+00    8.4584853949728469E+00
Ga   -3.1664967877995203E+00    5.5909883541007952E+00    1.0449005325973333E+01
N   -3.1646702132609761E+00    7.4551031106050960E+00    1.1076591427601551E+01
Ga   -3.1707350745156129E+00    7.4634405180932974E+00    1.3075762870438842E+01
N   -3.1814037962174901E+00    5.5758216242427325E+00    1.3707981792560105E+01
Ga   -3.0749870981788932E+00    5.6579748030263382E+00    1.5688743174155155E+01
N   -3.1714120401806012E+00    7.4479923896433089E+00    1.6344818318599728E+01
Ga   -3.1317657114176178E+00    7.5447837307205967E+00    1.8505031074869144E+01
N   -2.8027954967374793E+00    5.8085611826039978E+00    1.9231946664429056E+01
Ga    3.3205108103598744E+00   -2.3237225810132926E-02    3.2570214825632560E-01
N    3.3176221928837974E+00    1.8461692866937365E+00    6.1182764190169470E-01
Ga    3.3464963889628332E+00    1.8621462717948056E+00    2.6393710618255111E+00
N    3.3200907729489590E+00   -2.3279667663828017E-02    3.2354186572626138E+00
Ga    3.3203558568611573E+00   -2.2766348281747305E-02    5.2432988929969451E+00
N    3.3204726464061607E+00    1.8470417636599354E+00    5.8568139833300377E+00
Ga    3.3208925960920310E+00    1.8464458768162739E+00    7.8537061647034951E+00
N    3.3175331214814521E+00   -2.5486082821631961E-02    8.4606995932252165E+00
Ga    3.3165152865120242E+00   -2.7519301249665572E-02    1.0454173947938255E+01
N    3.3213299653790394E+00    1.8451895730513355E+00    1.1054323842633094E+01
Ga    3.3133536827620733E+00    1.8329277023529518E+00    1.3042552173344349E+01
N    3.3138355179364600E+00   -2.7850756823865123E-02    1.3681391432510177E+01
Ga    3.3147564241257386E+00   -4.8923511557201482E-02    1.5706542903058031E+01
N    3.3228260557825298E+00    1.8605833486711358E+00    1.6228166362078401E+01
Ga    3.0855876839520047E+00    1.7720650757701599E+00    1.8201317407053072E+01
N    3.3776244820152126E+00    7.0675856824087238E-02    1.8808813902853210E+01
Ga    1.6997840487078468E+00    2.7829581901516534E+00    3.2607708285608861E-01
N    1.7079371811869557E+00    4.6519640314264903E+00    6.1308109774636088E-01
Ga    1.6787097016152364E+00    4.6673995459589177E+00    2.6402445867315634E+00
N    1.7003544597578697E+00    2.7820273011224628E+00    3.2362640227807824E+00
Ga    1.7003644859526155E+00    2.7824961140619791E+00    5.2441613902886788E+00
N    1.7052574955784519E+00    4.6528562335663164E+00    5.8553993231891921E+00
Ga    1.7032371692357302E+00    4.6529903003021147E+00    7.8514240668685611E+00
N    1.6996361392125874E+00    2.7827464370640880E+00    8.4602216907551231E+00
Ga    1.6986016990626029E+00    2.7823474414334211E+00    1.0453334723230441E+01
N    1.7054060022049451E+00    4.6581562594215695E+00    1.1057324177804713E+01
Ga    1.7023388275764355E+00    4.6572256898472943E+00    1.3043810499335732E+01
N    1.7033723282936075E+00    2.7883956541887680E+00    1.3639300339429710E+01
Ga    1.6878185981117715E+00    2.7730678932838253E+00    1.5620730045388342E+01
N    1.6942648297815679E+00    4.6735844600174836E+00    1.6218841905105471E+01
Ga    1.5094446153120380E+00    4.5107857732718291E+00    1.8140171528710024E+01
N    1.7218488325888346E+00    2.8470854625653015E+00    1.8895972685609205E+01
Ga    8.1200204244595231E-02    5.5866834955263531E+00   -5.4438320218127756E-01
N    8.3740028362318947E-02    7.4636521708145684E+00    6.1169454214752128E-01
Ga    8.3270648499460490E-02    7.4308913447034817E+00    2.6392895314509026E+00
N    8.0298421504166245E-02    5.5874950575990043E+00    3.2749020810169833E+00
Ga    8.0544497109114738E-02    5.5880646294346183E+00    5.2631162208404403E+00
N    8.3550170189861966E-02    7.4623969125937002E+00    5.8562106490680312E+00
Ga    8.3194869250204861E-02    7.4612351939660284E+00    7.8528314914325925E+00
N    7.9762292033202856E-02    5.5878275081126398E+00    8.4588399037620299E+00
Ga    7.8887189716099496E-02    5.5927858531789649E+00    1.0453683319634845E+01
N    8.2706001039260804E-02    7.4632946940526024E+00    1.1061256720902028E+01
Ga    8.1311240027895582E-02    7.4706059200694437E+00    1.3056260169202192E+01
N    7.8940289439884653E-02    5.5917896437219738E+00    1.3644685310881904E+01
Ga    6.4248457612108900E-02    5.6377921260452712E+00    1.5628323021531479E+01
N    9.8020915757493179E-02    7.4696226953770681E+00    1.6249567528046491E+01
Ga    1.1810607550038822E-01    7.6191865032592254E+00    1.8309958520122009E+01
N    2.2673735128862901E-01    5.7041997144462870E+00    1.8839551782486282E+01
Ga    6.5651208848851450E+00   -2.2801373205226218E-02    3.2553256488929200E-01
N    6.5734598107811042E+00    1.8466967796744220E+00    6.1177637483387803E-01
Ga    6.5443900182625985E+00    1.8622505253182127E+00    2.6393604566785758E+00
N    6.5653054767093186E+00   -2.3273264952709767E-02    3.2354715868287904E+00
Ga    6.5655691161316545E+00   -2.2748108627373285E-02    5.2434014361964936E+00
N    6.5710388152290369E+00    1.8472837518588519E+00    5.8563887544951045E+00
Ga    6.5701506987943104E+00    1.8469873007512341E+00    7.8531659558863796E+00
N    6.5662399509151266E+00   -2.3837662930708332E-02    8.4622359219216765E+00
Ga    6.5677926790962307E+00   -2.2738538516867683E-02    1.0457008025574950E+01
N    6.5730103038652654E+00    1.8497425218747636E+00    1.1061509449075885E+01
Ga    6.5908201288000674E+00    1.8468810786152920E+00    1.3055602436046057E+01
N    6.5739147977553563E+00   -2.6646748692358023E-02    1.3656200114018883E+01
Ga    6.5707750487687298E+00   -2.7099717487743501E-02    1.5661523558791437E+01
N    6.6029114399666069E+00    1.8613597160014361E+00    1.6171040541686263E+01
Ga    6.6761314911825034E+00    1.9786063773879536E+00    1.8170362890481098E+01
N    6.5406112646263832E+00    1.7360840324221391E-01    1.8772118699640050E+01
Ga    4.9460488906583802E+00    2.7834755590784566E+00   -5.4460664872875175E-01
N    4.9490881379773306E+00    4.6588396468142896E+00    6.1254578140499116E-01
Ga    4.9484031406689892E+00    4.6254816964088850E+00    2.6398446384146035E+00
N    4.9456665862685787E+00    2.7815856876153875E+00    3.2746213272447404E+00
Ga    4.9458754749183136E+00    2.7817351200294453E+00    5.2629530808563789E+00
N    4.9487022003243126E+00    4.6563558835279553E+00    5.8542254276081298E+00
Ga    4.9482182953685268E+00    4.6535935068948122E+00    7.8495072787517728E+00
N    4.9459175114364990E+00    2.7817704422227219E+00    8.4594979168551152E+00
Ga    4.9476958287463066E+00    2.7790906119507590E+00    1.0454068011337013E+01
N    4.9481078542975094E+00    4.6554133307700152E+00    1.1062093257234901E+01
Ga    4.9466424840926786E+00    4.6518404086221405E+00    1.3044692070921457E+01
N    4.9435187084757146E+00    2.7774041315298472E+00    1.3628876475784368E+01
Ga    4.9650214112558668E+00    2.6715593978298697E+00    1.5584188660058485E+01
N    4.8378730410773541E+00    4.5344966900912871E+00    1.6348042383471004E+01
Ga    5.6973444343337913E+00    4.7466825140209554E+00    1.9997548804837209E+01
N    5.1054365328656193E+00    3.5216058921238509E+00    1.8420204933223737E+01
Ga    3.3264568198745343E+00    5.5875149274058264E+00    3.2635962583698797E-01
N    3.3239181707134930E+00    7.4569143742316211E+00    6.1171688425086801E-01
Ga    3.3526102509250091E+00    7.4730098638692759E+00    2.6392508609558019E+00
N    3.3260012313981746E+00    5.5876332048359822E+00    3.2355493404743538E+00
Ga    3.3258749630274580E+00    5.5878976160371181E+00    5.2431999003075500E+00
N    3.3268449207846658E+00    7.4583971521192067E+00    5.8548943661858885E+00
Ga    3.3276068162781476E+00    7.4592670575227977E+00    7.8506905086758501E+00
N    3.3265414922261645E+00    5.5876160192658233E+00    8.4572969549087844E+00
Ga    3.3267735226563153E+00    5.5909326871930940E+00    1.0447179595255919E+01
N    3.3332540850133854E+00    7.4578156563609221E+00    1.1065222145625663E+01
Ga    3.3410037071662884E+00    7.4696938689502188E+00    1.3058484528193517E+01
N    3.3335439600431349E+00    5.5884082750524131E+00    1.3679286968784261E+01
Ga    3.2798349839238661E+00    5.6481247874474816E+00    1.5648558088559446E+01
N    3.3398882534229730E+00    7.4596540669684845E+00    1.6307984346425979E+01
Ga    3.3364965221313576E+00    7.8954133982446466E+00    1.8273359410074534E+01
N    4.6922656580712951E+00    4.5058812121806717E+00    1.7695867419278862E+01
O    6.1176701300718339E-01    5.2502178796631593E+00    2.1622683071231535E+01
H    2.8961846217591963E-01    5.6126416918560862E+00    1.9888631967980668E+01
C    7.2504062116651100E-02    3.1342129269322228E+00    2.1803573191018152E+01
H   -8.1722426857309860E-01    3.1796929640828013E+00    2.1171546375187994E+01
H    9.6614481126351659E-01    2.7074300891877012E+00    2.1347987789271791E+01
H   -3.6824774529471978E-02    3.1322496802620168E+00    2.2884673397183576E+01
O    4.8378016389745211E+00    4.3829641641806827E+00    2.1526418025000687E+01
H    1.5672693866061567E+00    5.0966736015725607E+00    2.1755577628374223E+01
C    4.0979023857819579E+00    3.1435529213512283E+00    2.1635593238723096E+01
H    3.2585884481711163E+00    3.1010676806160680E+00    2.0924175243551780E+01
H    4.7355132659394865E+00    2.2605419469357479E+00    2.1480082752833209E+01
H    3.7006259251993225E+00    3.1069036702687849E+00    2.2659638333092666E+01
     &END COORD
     &KIND C
       BASIS_SET DZVP-MOLOPT-SR-GTH-q4
       POTENTIAL GTH-PBE-q4
       &POTENTIAL
 2 2
  0.3384712400000000E+00 2 -0.8803673979999999E+01  0.1339210850000000E+01
 2
  0.3025757500000000E+00 1  0.9622486650000001E+01
  0.2915069400000000E+00 0
         # Potential name:  GTH-PBE-Q4  for symbol:  C
         # Potential read from the potential filename: GTH_POTENTIALS
       &END POTENTIAL
     &END KIND
     &KIND O
       BASIS_SET DZVP-MOLOPT-SR-GTH-q6
       POTENTIAL GTH-PBE-q6
       &POTENTIAL
 2 4
  0.2445543000000000E+00 2 -0.1666721480000000E+02  0.2487311320000000E+01
 2
  0.2209559200000000E+00 1  0.1833745811000000E+02
  0.2113324700000000E+00 0
         # Potential name:  GTH-PBE-Q6  for symbol:  O
         # Potential read from the potential filename: GTH_POTENTIALS
       &END POTENTIAL
     &END KIND
     &KIND H
       BASIS_SET DZVP-MOLOPT-SR-GTH-q1
       POTENTIAL GTH-PBE-q1
       &POTENTIAL
 1
  0.2000000000000000E+00 2 -0.4178900440000000E+01  0.7244633100000000E+00
 0
         # Potential name:  GTH-PBE-Q1  for symbol:  H
         # Potential read from the potential filename: GTH_POTENTIALS
       &END POTENTIAL
     &END KIND
     &KIND N
       BASIS_SET DZVP-MOLOPT-SR-GTH-q5
       POTENTIAL GTH-PBE-q5
       &POTENTIAL
 2 3
  0.2837905100000000E+00 2 -0.1241522559000000E+02  0.1868095920000000E+01
 2
  0.2554050000000000E+00 1  0.1363026257000000E+02
  0.2454945300000000E+00 0
         # Potential name:  GTH-PBE-Q5  for symbol:  N
         # Potential read from the potential filename: GTH_POTENTIALS
       &END POTENTIAL
     &END KIND
     &KIND Ga
       BASIS_SET DZVP-MOLOPT-SR-GTH-q13
       POTENTIAL GTH-PBE-q13
       &POTENTIAL
 2 1 10
  0.4900000000000000E+00 0
 3
  0.4167772300000000E+00 3  0.1047568975000000E+02 -0.4921768140000000E+01  0.8707055900000000E+00
  0.7770178090000000E+01 -0.2248152160000000E+01
  0.1784415450000000E+01
  0.5696265200000000E+00 2  0.1777985340000000E+01  0.1958597600000000E+00
 -0.2317443900000000E+00
  0.2381265000000000E+00 1 -0.1624868022000000E+02
         # Potential name:  GTH-PBE-Q13  for symbol:  GA
         # Potential read from the potential filename: GTH_POTENTIALS
       &END POTENTIAL
     &END KIND
     &TOPOLOGY
       COORD_FILE_NAME ../start-first.xyz
       COORD_FILE_FORMAT  XYZ
       NUMBER_OF_ATOMS  156
       MULTIPLE_UNIT_CELL  1 1 1
     &END TOPOLOGY
     &COLVAR
       &DISTANCE
         ATOMS  145 147
       &END DISTANCE
       &PRINT
       &END PRINT
     &END COLVAR
   &END SUBSYS
 &END FORCE_EVAL
