 # Version information for this restart file 
 # current date 2019-05-28 08:32:40.107
 # current working dir /lustre03/project/6004141/rzk/GaN-carbene/334-native/08-2Methanol-Htransfer/03-CO-constraint/2.34
 # Program compiled at                              Sun Apr  7 00:48:11 EDT 2019
 # Program compiled on                          beluga2.int.ets1.calculquebec.ca
 # Program compiled for                        Beluga-Linux-x86-64-intel-openmpi
 # Source code revision number                                         svn:18619
 &GLOBAL
   PRINT_LEVEL  MEDIUM
   PROJECT_NAME TEST
   RUN_TYPE  GEO_OPT
 &END GLOBAL
 &MOTION
   &GEO_OPT
     MAX_ITER  500
     STEP_START_VAL  227
   &END GEO_OPT
   &CONSTRAINT
     &COLLECTIVE
       COLVAR  1
       INTERMOLECULAR  T
       TARGET     4.4219591509524045E+00
       &RESTRAINT
         K     1.0000000000000001E-01
       &END RESTRAINT
     &END COLLECTIVE
     &COLVAR_RESTART
           4.4219591509524045E+00
     &END COLVAR_RESTART
   &END CONSTRAINT
 &END MOTION
 &FORCE_EVAL
   METHOD  QS
   STRESS_TENSOR  ANALYTICAL
   &DFT
     BASIS_SET_FILE_NAME BASIS_MOLOPT
     POTENTIAL_FILE_NAME GTH_POTENTIALS
     &SCF
       MAX_SCF  100
       EPS_SCF     5.0000000000000004E-06
       &OT  T
         PRECONDITIONER  FULL_ALL
       &END OT
       &OUTER_SCF  T
         OPTIMIZER  NONE
         EPS_SCF     5.0000000000000004E-06
         MAX_SCF  4
       &END OUTER_SCF
       &PRINT
         &RESTART  OFF
           BACKUP_COPIES  1
           &EACH
             JUST_ENERGY  0
             QS_SCF  0
             MD  20
           &END EACH
         &END RESTART
       &END PRINT
     &END SCF
     &QS
       EPS_DEFAULT     1.0000000000000000E-14
       ALMO_SCF  F
       METHOD  GPW
     &END QS
     &MGRID
       NGRIDS  5
       CUTOFF     1.2000000000000000E+03
     &END MGRID
     &XC
       DENSITY_CUTOFF     1.0000000000000000E-10
       GRADIENT_CUTOFF     1.0000000000000000E-10
       TAU_CUTOFF     1.0000000000000000E-10
       &XC_FUNCTIONAL  NO_SHORTCUT
         &PBE  T
         &END PBE
       &END XC_FUNCTIONAL
       &VDW_POTENTIAL
         POTENTIAL_TYPE  PAIR_POTENTIAL
         &PAIR_POTENTIAL
           R_CUTOFF     1.0000000000000005E+01
           TYPE  DFTD3
           PARAMETER_FILE_NAME dftd3.dat
           REFERENCE_FUNCTIONAL PBE
           EPS_CN     9.9999999999999995E-07
           CALCULATE_C9_TERM  T
           REFERENCE_C9_TERM  T
           LONG_RANGE_CORRECTION  F
           VERBOSE_OUTPUT  F
         &END PAIR_POTENTIAL
       &END VDW_POTENTIAL
     &END XC
   &END DFT
   &SUBSYS
     &CELL
       A     9.7367653356401487E+00    0.0000000000000000E+00    0.0000000000000000E+00
       B    -4.8591341382960209E+00    8.4162672083210595E+00    0.0000000000000000E+00
       C     0.0000000000000000E+00    0.0000000000000000E+00    3.0744000000000000E+01
       MULTIPLE_UNIT_CELL  1 1 1
       &CELL_REF
         A     9.5580000000000052E+00    0.0000000000000000E+00    0.0000000000000000E+00
         B    -4.7790000000000026E+00    8.2774708093716640E+00    0.0000000000000000E+00
         C     0.0000000000000000E+00    0.0000000000000000E+00    3.0744000000000000E+01
         MULTIPLE_UNIT_CELL  1 1 1
       &END CELL_REF
     &END CELL
     &COORD
Ga    7.4703551001638849E-02   -2.1779809249575458E-02   -5.4436735739344444E-01
N    7.7759750574521100E-02    1.8533472362527537E+00    6.1271281876686290E-01
Ga    7.7149386179553636E-02    1.8208023512902907E+00    2.6399084771752714E+00
N    7.4020242490079699E-02   -2.3365744278103198E-02    3.2738809954750696E+00
Ga    7.4260892059564390E-02   -2.2513001936436398E-02    5.2617755597294025E+00
N    7.7345376265300442E-02    1.8511272564291805E+00    5.8558058853523924E+00
Ga    7.7105968089135044E-02    1.8496607883719893E+00    7.8522938402058502E+00
N    7.5098576628957997E-02   -2.4000868185190555E-02    8.4588291593425033E+00
Ga    7.6698186674446181E-02   -2.3461380980777415E-02    1.0453874024545437E+01
N    7.7458920086784080E-02    1.8469468686226902E+00    1.1062837286571257E+01
Ga    7.5726779647290285E-02    1.8458839371881535E+00    1.3060086198249168E+01
N    7.5528267977683070E-02   -1.9379110240599948E-02    1.3693976222144180E+01
Ga    1.0484191780806491E-01   -3.7484910552212061E-03    1.5719598449840928E+01
N    9.5702851195821295E-02    1.8721934288110926E+00    1.6287971685129516E+01
Ga    5.4660855753086240E-02    1.9062801493122439E+00    1.8432961822212661E+01
N    9.5978079514198941E-02    3.6759864585592807E-02    1.8904451685912559E+01
Ga   -1.5444982152541107E+00    2.7821226756170407E+00    3.2570666626020506E-01
N   -1.5474745847768727E+00    4.6512725227400091E+00    6.1243803163722632E-01
Ga   -1.5182927247647851E+00    4.6672147396951527E+00    2.6395668728879511E+00
N   -1.5454918467133369E+00    2.7820316920265311E+00    3.2359211703628863E+00
Ga   -1.5449448354140152E+00    2.7825485156615608E+00    5.2438852142070056E+00
N   -1.5448853604808026E+00    4.6528939166126211E+00    5.8554304159286428E+00
Ga   -1.5441249245173037E+00    4.6532243991322835E+00    7.8515043176005657E+00
N   -1.5448036271617946E+00    2.7831547463602333E+00    8.4606715328615110E+00
Ga   -1.5431316616283617E+00    2.7841541440868496E+00    1.0454273345243211E+01
N   -1.5473234349355995E+00    4.6594368486508637E+00    1.1061699406432101E+01
Ga   -1.5457554752278448E+00    4.6537217791192376E+00    1.3051813218248606E+01
N   -1.5330093259682644E+00    2.7972928584938046E+00    1.3661088539785222E+01
Ga   -1.4997062029567914E+00    2.8137071451915312E+00    1.5670396478519656E+01
N   -1.5286765088840861E+00    4.6939064370850190E+00    1.6303112618712671E+01
Ga   -1.4945945263180309E+00    4.7353988143643608E+00    1.8364509975692968E+01
N   -1.5503507656449245E+00    2.8983556243897723E+00    1.8835252610811573E+01
Ga   -3.1652748394287924E+00    5.5880487093406987E+00    3.2644214045409570E-01
N   -3.1574174354260309E+00    7.4574834962092549E+00    6.1211368039495861E-01
Ga   -3.1863531622857124E+00    7.4731242781102996E+00    2.6395131066277409E+00
N   -3.1650922539329485E+00    5.5873972980967128E+00    3.2349049545002608E+00
Ga   -3.1648023441820996E+00    5.5875155569749344E+00    5.2424199871957784E+00
N   -3.1600780910925179E+00    7.4579592365162464E+00    5.8534574889894913E+00
Ga   -3.1618500087572268E+00    7.4582959369121795E+00    7.8485106833429787E+00
N   -3.1667471959742661E+00    5.5879263418337715E+00    8.4585701781327511E+00
Ga   -3.1665297970654813E+00    5.5910707217490341E+00    1.0449113543297502E+01
N   -3.1646660688803285E+00    7.4551736363605832E+00    1.1076731704525331E+01
Ga   -3.1706923678771894E+00    7.4635391101352653E+00    1.3075903618908642E+01
N   -3.1813635275606438E+00    5.5759479571650026E+00    1.3708085549388395E+01
Ga   -3.0748832800555905E+00    5.6580319438823032E+00    1.5688748052647858E+01
N   -3.1713804270852815E+00    7.4480266033446636E+00    1.6344760434336859E+01
Ga   -3.1318448897818629E+00    7.5445991029332422E+00    1.8505023728537797E+01
N   -2.8027699481686081E+00    5.8085020530884632E+00    1.9232084447628978E+01
Ga    3.3204087745144109E+00   -2.3314839512027858E-02    3.2561859625284995E-01
N    3.3175650855485208E+00    1.8460691179255657E+00    6.1170019279120003E-01
Ga    3.3464573624210900E+00    1.8620850581050816E+00    2.6392385524155384E+00
N    3.3200552904042664E+00   -2.3299622599536902E-02    3.2353671289786541E+00
Ga    3.3203676050171356E+00   -2.2807112270596716E-02    5.2433311024653895E+00
N    3.3205382745733192E+00    1.8470007641842214E+00    5.8568366883367426E+00
Ga    3.3209659535945564E+00    1.8464146100896430E+00    7.8537749335194302E+00
N    3.3175820801056819E+00   -2.5511017610129107E-02    8.4608249682915986E+00
Ga    3.3164991679894311E+00   -2.7475318816316704E-02    1.0454301029674342E+01
N    3.3213570672162200E+00    1.8452579875291093E+00    1.1054489705332355E+01
Ga    3.3134430357256499E+00    1.8330547765420402E+00    1.3042742666466424E+01
N    3.3138487594574748E+00   -2.7737236855138916E-02    1.3681537631351597E+01
Ga    3.3148158841410926E+00   -4.8833072396919669E-02    1.5706562392220640E+01
N    3.3229857581160558E+00    1.8607026143493908E+00    1.6228244216553044E+01
Ga    3.0857382718091442E+00    1.7721779853689426E+00    1.8201390456736370E+01
N    3.3775370604030863E+00    7.0626183126372935E-02    1.8808585180285430E+01
Ga    1.6997500917266468E+00    2.7828773003252008E+00    3.2598392415362831E-01
N    1.7078949076088439E+00    4.6518604585170440E+00    6.1310271772877756E-01
Ga    1.6786694991919193E+00    4.6673090766879843E+00    2.6401948908844122E+00
N    1.7003398053398473E+00    2.7819408148463345E+00    3.2361878611531170E+00
Ga    1.7004111161403332E+00    2.7824137889327067E+00    5.2441624252628358E+00
N    1.7052795451697280E+00    4.6527715899651012E+00    5.8554155705719841E+00
Ga    1.7032480754502792E+00    4.6529329266354882E+00    7.8514746122986825E+00
N    1.6997049784032199E+00    2.7826931513048390E+00    8.4603408420268416E+00
Ga    1.6986060277718689E+00    2.7823976469614200E+00    1.0453515937337986E+01
N    1.7053486378241263E+00    4.6582280991397891E+00    1.1057459690074628E+01
Ga    1.7023363514735086E+00    4.6573479352340144E+00    1.3044007760082286E+01
N    1.7034140667311879E+00    2.7884419872901969E+00    1.3639391987621241E+01
Ga    1.6879651775733440E+00    2.7730668919503851E+00    1.5620712579418797E+01
N    1.6943689026546649E+00    4.6735503710302790E+00    1.6218772222943393E+01
Ga    1.5095196404597861E+00    4.5107894847339569E+00    1.8140060008646220E+01
N    1.7219663688642022E+00    2.8471849653917678E+00    1.8896054435967635E+01
Ga    8.1106561856491705E-02    5.5866476570111656E+00   -5.4443758135516984E-01
N    8.3634393323856221E-02    7.4635977714990185E+00    6.1166766094292468E-01
Ga    8.3200188423306898E-02    7.4308611524417545E+00    2.6392447443056395E+00
N    8.0255578068725908E-02    5.5874435859212772E+00    3.2748470009951007E+00
Ga    8.0567704381978675E-02    5.5879880651535681E+00    5.2631412378411966E+00
N    8.3560902039537824E-02    7.4623256942343641E+00    5.8562319481525940E+00
Ga    8.3215796126603653E-02    7.4612211953354652E+00    7.8528729410020413E+00
N    7.9770374387405599E-02    5.5878100925196810E+00    8.4589483133232513E+00
Ga    7.8826927145839235E-02    5.5928404277692847E+00    1.0453778491086034E+01
N    8.2654268694056870E-02    7.4633545292005969E+00    1.1061360668874288E+01
Ga    8.1249596290456388E-02    7.4706824834919683E+00    1.3056358704915080E+01
N    7.8928480223388039E-02    5.5919124802751963E+00    1.3644868409489746E+01
Ga    6.4369290394996614E-02    5.6378692339779723E+00    1.5628352602516497E+01
N    9.8095750386181541E-02    7.4697731063692308E+00    1.6249474695097863E+01
Ga    1.1817057007792919E-01    7.6194016287540176E+00    1.8309928032064057E+01
N    2.2687830791720406E-01    5.7043973509525889E+00    1.8839233018018366E+01
Ga    6.5650407964283524E+00   -2.2930179225417197E-02    3.2540735259674314E-01
N    6.5734314781163317E+00    1.8465504983995586E+00    6.1162460761448623E-01
Ga    6.5443355911823620E+00    1.8621746108992632E+00    2.6392021209891832E+00
N    6.5652145823906611E+00   -2.3320837305359107E-02    3.2354116771165318E+00
Ga    6.5655724788841816E+00   -2.2798345264103612E-02    5.2434103401046510E+00
N    6.5710494715533976E+00    1.8472476563922542E+00    5.8563617256852991E+00
Ga    6.5702112810603879E+00    1.8469607331531024E+00    7.8531741361739513E+00
N    6.5662233764548965E+00   -2.3832676779509506E-02    8.4623175828496553E+00
Ga    6.5677414500394082E+00   -2.2671795384255265E-02    1.0457117480536787E+01
N    6.5729993089557466E+00    1.8498488140440490E+00    1.1061650377673672E+01
Ga    6.5908366870604498E+00    1.8471530846716377E+00    1.3055756900256030E+01
N    6.5738970685949543E+00   -2.6449191405288300E-02    1.3656257054172222E+01
Ga    6.5707865645366450E+00   -2.6979529603493941E-02    1.5661347675370191E+01
N    6.6029976418281278E+00    1.8614445438038885E+00    1.6171184389999322E+01
Ga    6.6760197608524523E+00    1.9788300330728028E+00    1.8170495367413835E+01
N    6.5405213878698243E+00    1.7387685443463893E-01    1.8772625618491990E+01
Ga    4.9459973411327098E+00    2.7833631052432768E+00   -5.4482023485194220E-01
N    4.9490194833394883E+00    4.6587814627742947E+00    6.1254433091530835E-01
Ga    4.9483453171612206E+00    4.6254433908270682E+00    2.6397922371217919E+00
N    4.9456286760753940E+00    2.7815286808867423E+00    3.2744770532079914E+00
Ga    4.9459080877279407E+00    2.7817062895004780E+00    5.2628830770887802E+00
N    4.9487169515645455E+00    4.6563136472688527E+00    5.8542343430181214E+00
Ga    4.9482570329428128E+00    4.6535933563822240E+00    7.8495451605995772E+00
N    4.9459966935567543E+00    2.7817732787997493E+00    8.4595799889307344E+00
Ga    4.9476936718722806E+00    2.7792009290389257E+00    1.0454168539700357E+01
N    4.9480463304519269E+00    4.6555323131715829E+00    1.1062239853478612E+01
Ga    4.9466522874314176E+00    4.6520514035232807E+00    1.3044859952920200E+01
N    4.9435639424969064E+00    2.7776157243283559E+00    1.3629114283069057E+01
Ga    4.9651526531151617E+00    2.6716755622171364E+00    1.5584355943334046E+01
N    4.8379823539103324E+00    4.5346248252515116E+00    1.6348125255125414E+01
Ga    5.6974601290615130E+00    4.7465085114581846E+00    1.9997615019087000E+01
N    5.1053750582975734E+00    3.5216585552302555E+00    1.8420261643502176E+01
Ga    3.3263868475977545E+00    5.5874112575491202E+00    3.2629307829009219E-01
N    3.3237952657507215E+00    7.4567864194406992E+00    6.1175654552136161E-01
Ga    3.3525055917947930E+00    7.4729448197761146E+00    2.6392369816063495E+00
N    3.3259300402595358E+00    5.5875710993957020E+00    3.2355017619354274E+00
Ga    3.3258850368576138E+00    5.5878466866451362E+00    5.2432170197167443E+00
N    3.3268484101833313E+00    7.4583496876153363E+00    5.8549336040339526E+00
Ga    3.3276111911884874E+00    7.4592585123625641E+00    7.8507460061391576E+00
N    3.3265551696156046E+00    5.5876027075266759E+00    8.4573635378100658E+00
Ga    3.3267014853632704E+00    5.5910102156230437E+00    1.0447231513041441E+01
N    3.3332072317147365E+00    7.4578837375485314E+00    1.1065295973711837E+01
Ga    3.3409847539572830E+00    7.4698085684915396E+00    1.3058550980233786E+01
N    3.3335478196171535E+00    5.5885775650123310E+00    1.3679440570686818E+01
Ga    3.2799038604848225E+00    5.6482150425844670E+00    1.5648686521312888E+01
N    3.3398259582800431E+00    7.4597890826387268E+00    1.6308021209533891E+01
Ga    3.3363387450777942E+00    7.8956384296402078E+00    1.8273303342623329E+01
N    4.6924632152556560E+00    4.5060135845405460E+00    1.7695929071710520E+01
O    6.1146412803343175E-01    5.2505567996035252E+00    2.1622718912368747E+01
H    2.8990073212618689E-01    5.6128088512372907E+00    1.9888380331297768E+01
C    7.2525005058116390E-02    3.1345420788070371E+00    2.1803626685255047E+01
H   -8.1783488501396384E-01    3.1799220971993827E+00    2.1172409398113341E+01
H    9.6570954504130246E-01    2.7077748806330528E+00    2.1347247879454077E+01
H   -3.5679259592020222E-02    3.1323238037956731E+00    2.2884805623329633E+01
O    4.8374779216442469E+00    4.3829735813617212E+00    2.1526297200284283E+01
H    1.5671688441534457E+00    5.0970304831690632E+00    2.1754979446679229E+01
C    4.0978261600720884E+00    3.1434509727993332E+00    2.1635772901675963E+01
H    3.2583134799266347E+00    3.1007105253670910E+00    2.0924604130825248E+01
H    4.7353235323109839E+00    2.2604792106321874E+00    2.1479881550487629E+01
H    3.7006941375362814E+00    3.1067458003135946E+00    2.2659924787004488E+01
     &END COORD
     &KIND C
       BASIS_SET DZVP-MOLOPT-SR-GTH-q4
       POTENTIAL GTH-PBE-q4
       &POTENTIAL
 2 2
  0.3384712400000000E+00 2 -0.8803673979999999E+01  0.1339210850000000E+01
 2
  0.3025757500000000E+00 1  0.9622486650000001E+01
  0.2915069400000000E+00 0
         # Potential name:  GTH-PBE-Q4  for symbol:  C
         # Potential read from the potential filename: GTH_POTENTIALS
       &END POTENTIAL
     &END KIND
     &KIND O
       BASIS_SET DZVP-MOLOPT-SR-GTH-q6
       POTENTIAL GTH-PBE-q6
       &POTENTIAL
 2 4
  0.2445543000000000E+00 2 -0.1666721480000000E+02  0.2487311320000000E+01
 2
  0.2209559200000000E+00 1  0.1833745811000000E+02
  0.2113324700000000E+00 0
         # Potential name:  GTH-PBE-Q6  for symbol:  O
         # Potential read from the potential filename: GTH_POTENTIALS
       &END POTENTIAL
     &END KIND
     &KIND H
       BASIS_SET DZVP-MOLOPT-SR-GTH-q1
       POTENTIAL GTH-PBE-q1
       &POTENTIAL
 1
  0.2000000000000000E+00 2 -0.4178900440000000E+01  0.7244633100000000E+00
 0
         # Potential name:  GTH-PBE-Q1  for symbol:  H
         # Potential read from the potential filename: GTH_POTENTIALS
       &END POTENTIAL
     &END KIND
     &KIND N
       BASIS_SET DZVP-MOLOPT-SR-GTH-q5
       POTENTIAL GTH-PBE-q5
       &POTENTIAL
 2 3
  0.2837905100000000E+00 2 -0.1241522559000000E+02  0.1868095920000000E+01
 2
  0.2554050000000000E+00 1  0.1363026257000000E+02
  0.2454945300000000E+00 0
         # Potential name:  GTH-PBE-Q5  for symbol:  N
         # Potential read from the potential filename: GTH_POTENTIALS
       &END POTENTIAL
     &END KIND
     &KIND Ga
       BASIS_SET DZVP-MOLOPT-SR-GTH-q13
       POTENTIAL GTH-PBE-q13
       &POTENTIAL
 2 1 10
  0.4900000000000000E+00 0
 3
  0.4167772300000000E+00 3  0.1047568975000000E+02 -0.4921768140000000E+01  0.8707055900000000E+00
  0.7770178090000000E+01 -0.2248152160000000E+01
  0.1784415450000000E+01
  0.5696265200000000E+00 2  0.1777985340000000E+01  0.1958597600000000E+00
 -0.2317443900000000E+00
  0.2381265000000000E+00 1 -0.1624868022000000E+02
         # Potential name:  GTH-PBE-Q13  for symbol:  GA
         # Potential read from the potential filename: GTH_POTENTIALS
       &END POTENTIAL
     &END KIND
     &TOPOLOGY
       COORD_FILE_NAME ../start-first.xyz
       COORD_FILE_FORMAT  XYZ
       NUMBER_OF_ATOMS  156
       MULTIPLE_UNIT_CELL  1 1 1
     &END TOPOLOGY
     &COLVAR
       &DISTANCE
         ATOMS  145 147
       &END DISTANCE
       &PRINT
       &END PRINT
     &END COLVAR
   &END SUBSYS
 &END FORCE_EVAL
