 # Version information for this restart file 
 # current date 2019-05-28 08:31:42.887
 # current working dir /lustre03/project/6004141/rzk/GaN-carbene/334-native/08-2Methanol-Htransfer/03-CO-constraint/2.34
 # Program compiled at                              Sun Apr  7 00:48:11 EDT 2019
 # Program compiled on                          beluga2.int.ets1.calculquebec.ca
 # Program compiled for                        Beluga-Linux-x86-64-intel-openmpi
 # Source code revision number                                         svn:18619
 &GLOBAL
   PRINT_LEVEL  MEDIUM
   PROJECT_NAME TEST
   RUN_TYPE  GEO_OPT
 &END GLOBAL
 &MOTION
   &GEO_OPT
     MAX_ITER  500
     STEP_START_VAL  226
   &END GEO_OPT
   &CONSTRAINT
     &COLLECTIVE
       COLVAR  1
       INTERMOLECULAR  T
       TARGET     4.4219591509524045E+00
       &RESTRAINT
         K     1.0000000000000001E-01
       &END RESTRAINT
     &END COLLECTIVE
     &COLVAR_RESTART
           4.4219591509524045E+00
     &END COLVAR_RESTART
   &END CONSTRAINT
 &END MOTION
 &FORCE_EVAL
   METHOD  QS
   STRESS_TENSOR  ANALYTICAL
   &DFT
     BASIS_SET_FILE_NAME BASIS_MOLOPT
     POTENTIAL_FILE_NAME GTH_POTENTIALS
     &SCF
       MAX_SCF  100
       EPS_SCF     5.0000000000000004E-06
       &OT  T
         PRECONDITIONER  FULL_ALL
       &END OT
       &OUTER_SCF  T
         OPTIMIZER  NONE
         EPS_SCF     5.0000000000000004E-06
         MAX_SCF  4
       &END OUTER_SCF
       &PRINT
         &RESTART  OFF
           BACKUP_COPIES  1
           &EACH
             JUST_ENERGY  0
             QS_SCF  0
             MD  20
           &END EACH
         &END RESTART
       &END PRINT
     &END SCF
     &QS
       EPS_DEFAULT     1.0000000000000000E-14
       ALMO_SCF  F
       METHOD  GPW
     &END QS
     &MGRID
       NGRIDS  5
       CUTOFF     1.2000000000000000E+03
     &END MGRID
     &XC
       DENSITY_CUTOFF     1.0000000000000000E-10
       GRADIENT_CUTOFF     1.0000000000000000E-10
       TAU_CUTOFF     1.0000000000000000E-10
       &XC_FUNCTIONAL  NO_SHORTCUT
         &PBE  T
         &END PBE
       &END XC_FUNCTIONAL
       &VDW_POTENTIAL
         POTENTIAL_TYPE  PAIR_POTENTIAL
         &PAIR_POTENTIAL
           R_CUTOFF     1.0000000000000005E+01
           TYPE  DFTD3
           PARAMETER_FILE_NAME dftd3.dat
           REFERENCE_FUNCTIONAL PBE
           EPS_CN     9.9999999999999995E-07
           CALCULATE_C9_TERM  T
           REFERENCE_C9_TERM  T
           LONG_RANGE_CORRECTION  F
           VERBOSE_OUTPUT  F
         &END PAIR_POTENTIAL
       &END VDW_POTENTIAL
     &END XC
   &END DFT
   &SUBSYS
     &CELL
       A     9.7367653356401487E+00    0.0000000000000000E+00    0.0000000000000000E+00
       B    -4.8591341382960209E+00    8.4162672083210595E+00    0.0000000000000000E+00
       C     0.0000000000000000E+00    0.0000000000000000E+00    3.0744000000000000E+01
       MULTIPLE_UNIT_CELL  1 1 1
       &CELL_REF
         A     9.5580000000000052E+00    0.0000000000000000E+00    0.0000000000000000E+00
         B    -4.7790000000000026E+00    8.2774708093716640E+00    0.0000000000000000E+00
         C     0.0000000000000000E+00    0.0000000000000000E+00    3.0744000000000000E+01
         MULTIPLE_UNIT_CELL  1 1 1
       &END CELL_REF
     &END CELL
     &COORD
Ga    7.3902570994353795E-02   -2.1281970232861259E-02   -5.4475700055046039E-01
N    7.7295648471822992E-02    1.8542069253276952E+00    6.1201178919366794E-01
Ga    7.6816915293427546E-02    1.8213665072568634E+00    2.6389287602335894E+00
N    7.3699471113901793E-02   -2.2871156863108463E-02    3.2731124411623380E+00
Ga    7.4264722906523722E-02   -2.2329943803236656E-02    5.2611323289004703E+00
N    7.7454641962441992E-02    1.8512721272068955E+00    5.8552893477904711E+00
Ga    7.7399310156823747E-02    1.8497195696105808E+00    7.8519920283573468E+00
N    7.5185400721454937E-02   -2.3852296712029156E-02    8.4584952770107567E+00
Ga    7.6803783698406763E-02   -2.3257428473313999E-02    1.0453676344337179E+01
N    7.7560389563057219E-02    1.8470946932834515E+00    1.1062660672848873E+01
Ga    7.5932611810784867E-02    1.8457806542524344E+00    1.3060165935584408E+01
N    7.5804578928237012E-02   -1.9658445619773063E-02    1.3693852728884854E+01
Ga    1.0532975072966731E-01   -4.8971319158756304E-03    1.5719163828182625E+01
N    9.6703683963829667E-02    1.8710157909679728E+00    1.6287891994053631E+01
Ga    5.5655688855093775E-02    1.9047197344165274E+00    1.8433015455039101E+01
N    9.6167894117221459E-02    3.4975724945235050E-02    1.8903872534057573E+01
Ga   -1.5449847532117478E+00    2.7828335129489190E+00    3.2490138254779688E-01
N   -1.5483379666611412E+00    4.6519111975101737E+00    6.1220485331459185E-01
Ga   -1.5187257738828563E+00    4.6677121709956912E+00    2.6389120907211172E+00
N   -1.5457713419202392E+00    2.7824896207811189E+00    3.2351028181853949E+00
Ga   -1.5448417727649590E+00    2.7827577159212376E+00    5.2433030287525959E+00
N   -1.5448581193493558E+00    4.6530799372715954E+00    5.8549911812724016E+00
Ga   -1.5440218810195903E+00    4.6534178424553305E+00    7.8512385733631973E+00
N   -1.5445703225063667E+00    2.7833215386262844E+00    8.4602624446382109E+00
Ga   -1.5429216546895230E+00    2.7844668198757354E+00    1.0454077945559987E+01
N   -1.5473612143881117E+00    4.6597318475060616E+00    1.1061657423472415E+01
Ga   -1.5456866146364630E+00    4.6535702570182895E+00    1.3052025973068236E+01
N   -1.5326528795825116E+00    2.7971779910677244E+00    1.3661530095091932E+01
Ga   -1.4988793137803791E+00    2.8128639472734887E+00    1.5670983885241114E+01
N   -1.5281801360752647E+00    4.6930897385088022E+00    1.6302941491503709E+01
Ga   -1.4936098303757301E+00    4.7342527269223167E+00    1.8364076680341636E+01
N   -1.5493436330343089E+00    2.8973111521940411E+00    1.8834908038770806E+01
Ga   -3.1659294137964453E+00    5.5889182915120417E+00    3.2603058002800206E-01
N   -3.1579604142195450E+00    7.4582129841732741E+00    6.1185759430627151E-01
Ga   -3.1866009704026608E+00    7.4736169861317769E+00    2.6389488886987476E+00
N   -3.1653650574142995E+00    5.5879529088302879E+00    3.2343484113794703E+00
Ga   -3.1648094636059372E+00    5.5877593694293521E+00    5.2420294973016412E+00
N   -3.1600652402926577E+00    7.4581784575477101E+00    5.8531056935864489E+00
Ga   -3.1617184901352435E+00    7.4585254645976358E+00    7.8483542853007311E+00
N   -3.1666602493725220E+00    5.5881188490670262E+00    8.4582097134922236E+00
Ga   -3.1665380615646059E+00    5.5912936351439839E+00    1.0448812438475830E+01
N   -3.1645783377593735E+00    7.4553425478333990E+00    1.1076576817238884E+01
Ga   -3.1703471849110159E+00    7.4633590428132042E+00    1.3075834329950776E+01
N   -3.1811677444036075E+00    5.5758734579285552E+00    1.3708097255914451E+01
Ga   -3.0752999054070771E+00    5.6564373071578045E+00    1.5688932681729604E+01
N   -3.1707604656923598E+00    7.4468643168715882E+00    1.6344138087957138E+01
Ga   -3.1318810235930203E+00    7.5421103141979211E+00    1.8503739039887062E+01
N   -2.8021321103455601E+00    5.8065279483440380E+00    1.9232490141109043E+01
Ga    3.3196474282274124E+00   -2.2615731297291893E-02    3.2479730380990418E-01
N    3.3168862552899507E+00    1.8466926509836581E+00    6.1069021314529981E-01
Ga    3.3460905479034131E+00    1.8625783840483459E+00    2.6381309370611148E+00
N    3.3197425113772328E+00   -2.2683486544413795E-02    3.2346195270771614E+00
Ga    3.3203682549252322E+00   -2.2575624701811167E-02    5.2428561882171465E+00
N    3.3207196287165401E+00    1.8472285524958316E+00    5.8563617277742930E+00
Ga    3.3212003608467033E+00    1.8465570769515425E+00    7.8535259395202006E+00
N    3.3177324589123529E+00   -2.5371417334121359E-02    8.4606238063928032E+00
Ga    3.3165346120026920E+00   -2.7280253237775054E-02    1.0454136358998824E+01
N    3.3216056452772387E+00    1.8455279426397555E+00    1.1054410500059895E+01
Ga    3.3140061817554654E+00    1.8331393084782914E+00    1.3042710209752228E+01
N    3.3140587588808561E+00   -2.7774414097961764E-02    1.3681377193906577E+01
Ga    3.3153820929682736E+00   -4.9707934367837846E-02    1.5705664421490640E+01
N    3.3239271641720056E+00    1.8598200123907935E+00    1.6228143285271170E+01
Ga    3.0856732687602100E+00    1.7699237734748168E+00    1.8200773934767692E+01
N    3.3776177876315070E+00    6.8226198408048458E-02    1.8807551070018363E+01
Ga    1.6992078527627839E+00    2.7836876936798363E+00    3.2514886779430013E-01
N    1.7074169750249704E+00    4.6525294344063663E+00    6.1260905492128359E-01
Ga    1.6782698591375880E+00    4.6677801757695567E+00    2.6393876530727662E+00
N    1.7000885892784805E+00    2.7823771800990125E+00    3.2353640612814392E+00
Ga    1.7005164219287192E+00    2.7826012170030983E+00    5.2436370522147584E+00
N    1.7052154794195691E+00    4.6529359809821074E+00    5.8549902086330725E+00
Ga    1.7032235057829874E+00    4.6529630072777142E+00    7.8512140110987430E+00
N    1.6999503371945772E+00    2.7827373143557050E+00    8.4601143052284868E+00
Ga    1.6986888506899045E+00    2.7825684283493346E+00    1.0453469774672918E+01
N    1.7052459752345335E+00    4.6584413935137441E+00    1.1057267290154504E+01
Ga    1.7025571969214350E+00    4.6571387060310112E+00    1.3043970466440683E+01
N    1.7037868757310541E+00    2.7880520509567095E+00    1.3639164651711807E+01
Ga    1.6888932675587247E+00    2.7720187299303323E+00    1.5620136599384454E+01
N    1.6951486245171599E+00    4.6721629189454372E+00    1.6217998831618697E+01
Ga    1.5105886505201176E+00    4.5089206410503717E+00    1.8139010236972556E+01
N    1.7229400141163866E+00    2.8457262647373414E+00    1.8895723725205148E+01
Ga    8.0128303594294695E-02    5.5874724175973380E+00   -5.4495535003004969E-01
N    8.2890641801725187E-02    7.4645210867073093E+00    6.1103470500878809E-01
Ga    8.2669886005264426E-02    7.4313995929508305E+00    2.6383972413624268E+00
N    7.9848079787223483E-02    5.5879386920366381E+00    3.2740482167542102E+00
Ga    8.0537894166022916E-02    5.5881862653719798E+00    5.2625210765868662E+00
N    8.3549118033544700E-02    7.4624775296009975E+00    5.8557711493332025E+00
Ga    8.3252602484409924E-02    7.4614446640380576E+00    7.8525094082241269E+00
N    7.9803904101355183E-02    5.5880397196675089E+00    8.4587155167587529E+00
Ga    7.8678414362600063E-02    5.5930229646010883E+00    1.0453504201072267E+01
N    8.2646517977529269E-02    7.4635460762904682E+00    1.1061163418104620E+01
Ga    8.1297181575902752E-02    7.4706571790405709E+00    1.3056210980820037E+01
N    7.9103874723235199E-02    5.5918364019389477E+00    1.3644972564488551E+01
Ga    6.5095870451710613E-02    5.6368416745740646E+00    1.5628165701545647E+01
N    9.8716816706896388E-02    7.4690995032056664E+00    1.6248263494466457E+01
Ga    1.1873385320842432E-01    7.6183396592828387E+00    1.8308396920576758E+01
N    2.2791600056286826E-01    5.7031643403569152E+00    1.8837240254236633E+01
Ga    6.5643759799283101E+00   -2.2361125938789198E-02    3.2457414171854432E-01
N    6.5731024636480848E+00    1.8470276411623296E+00    6.1063940351809243E-01
Ga    6.5440368792563595E+00    1.8627122570891634E+00    2.6381230099724506E+00
N    6.5646797814128846E+00   -2.2794565448826236E-02    3.2345850794358131E+00
Ga    6.5654863921351208E+00   -2.2558183226411024E-02    5.2428427410396949E+00
N    6.5710796259886557E+00    1.8475419831339219E+00    5.8557064447872129E+00
Ga    6.5704455201808534E+00    1.8471791693083068E+00    7.8527346060442147E+00
N    6.5661995433125560E+00   -2.3563151309912753E-02    8.4619829466538796E+00
Ga    6.5677370501846850E+00   -2.2337383763861431E-02    1.0456946696855317E+01
N    6.5731251972115743E+00    1.8503088930329674E+00    1.1061537451658575E+01
Ga    6.5910533614400144E+00    1.8477774289819300E+00    1.3055693721016862E+01
N    6.5741153186764354E+00   -2.6117583508991720E-02    1.3655952033389759E+01
Ga    6.5712054083533324E+00   -2.7490333644522837E-02    1.5660289659485594E+01
N    6.6034577667658603E+00    1.8607288049085109E+00    1.6171565913960233E+01
Ga    6.6765673134681807E+00    1.9778920310158665E+00    1.8170512027855871E+01
N    6.5403994129315475E+00    1.7310289340778898E-01    1.8773848563196886E+01
Ga    4.9455759517133133E+00    2.7843193144480125E+00   -5.4603521686629386E-01
N    4.9484281563593697E+00    4.6598169950825845E+00    6.1209210464161146E-01
Ga    4.9480049352130351E+00    4.6261699287935727E+00    2.6390519017990841E+00
N    4.9452887239184813E+00    2.7820774816393743E+00    3.2733442004683466E+00
Ga    4.9459514722064490E+00    2.7820301520706745E+00    5.2619929347738044E+00
N    4.9487182094928039E+00    4.6565733865862580E+00    5.8537591999726182E+00
Ga    4.9483673842014690E+00    4.6537938504711152E+00    7.8491940001967313E+00
N    4.9462610434153538E+00    2.7820034478352156E+00    8.4592071236218480E+00
Ga    4.9478328144293542E+00    2.7796499006872679E+00    1.0453810082705530E+01
N    4.9479881177510245E+00    4.6559258790803240E+00    1.1062072129619043E+01
Ga    4.9468400813770970E+00    4.6522261870796928E+00    1.3044762175376283E+01
N    4.9439356029602903E+00    2.7778885354915133E+00    1.3629587937738240E+01
Ga    4.9658217865919276E+00    2.6712347125621965E+00    1.5584661137585565E+01
N    4.8389786569004745E+00    4.5345890026816678E+00    1.6347451230518821E+01
Ga    5.6993312530749476E+00    4.7440822373934681E+00    1.9999506172680860E+01
N    5.1054970355801021E+00    3.5226976687888603E+00    1.8420170421250248E+01
Ga    3.3257417497097457E+00    5.5881343362135327E+00    3.2563039742258132E-01
N    3.3229091673917441E+00    7.4573275070680305E+00    6.1141352439285968E-01
Ga    3.3519705379222842E+00    7.4734758282654301E+00    2.6385487747400473E+00
N    3.3254721851706517E+00    5.5880777737243950E+00    3.2348164161922650E+00
Ga    3.3258120027251259E+00    5.5880716644140485E+00    5.2427458427897422E+00
N    3.3268174892337150E+00    7.4586142743557220E+00    5.8544854778078221E+00
Ga    3.3276795874286127E+00    7.4594714380848632E+00    7.8504363656227278E+00
N    3.3265831352778563E+00    5.5877693291290775E+00    8.4569505735581156E+00
Ga    3.3265703395358281E+00    5.5912301270611202E+00    1.0446790705265069E+01
N    3.3332273154234375E+00    7.4580936061633576E+00    1.1064926242706450E+01
Ga    3.3410869870273134E+00    7.4698469740882620E+00    1.3058192067412726E+01
N    3.3337107693807106E+00    5.5887180503998293E+00    1.3679213374171319E+01
Ga    3.2802714123302525E+00    5.6473908210500072E+00    1.5648405959513196E+01
N    3.3398055472873973E+00    7.4590911453426259E+00    1.6307553491259448E+01
Ga    3.3361349687303332E+00    7.8950294001566030E+00    1.8272666387765295E+01
N    4.6921348725950960E+00    4.5061142686916469E+00    1.7695472078843295E+01
O    6.0917750031236939E-01    5.2469421079468184E+00    2.1622994835682988E+01
H    2.9064057689397554E-01    5.6115882544988427E+00    1.9886368623539980E+01
C    7.3550858784279263E-02    3.1302590435767823E+00    2.1805340511507183E+01
H   -8.1229042950129171E-01    3.1702048903052038E+00    2.1166313370426543E+01
H    9.7135404752280130E-01    2.7029883597456479E+00    2.1358314370371502E+01
H   -4.2849742641800373E-02    3.1318029914081360E+00    2.2885862325960552E+01
O    4.8388025283402589E+00    4.3781495125351801E+00    2.1527411175977576E+01
H    1.5655171880751990E+00    5.0949036001193040E+00    2.1753236924193988E+01
C    4.0967031440957422E+00    3.1396694062500963E+00    2.1634336621465014E+01
H    3.2587077846307086E+00    3.0987801768081265E+00    2.0921391703378148E+01
H    4.7323958845829326E+00    2.2556950943718772E+00    2.1478628881052828E+01
H    3.6968213420306548E+00    3.1026059401896515E+00    2.2657612367421901E+01
     &END COORD
     &KIND C
       BASIS_SET DZVP-MOLOPT-SR-GTH-q4
       POTENTIAL GTH-PBE-q4
       &POTENTIAL
 2 2
  0.3384712400000000E+00 2 -0.8803673979999999E+01  0.1339210850000000E+01
 2
  0.3025757500000000E+00 1  0.9622486650000001E+01
  0.2915069400000000E+00 0
         # Potential name:  GTH-PBE-Q4  for symbol:  C
         # Potential read from the potential filename: GTH_POTENTIALS
       &END POTENTIAL
     &END KIND
     &KIND O
       BASIS_SET DZVP-MOLOPT-SR-GTH-q6
       POTENTIAL GTH-PBE-q6
       &POTENTIAL
 2 4
  0.2445543000000000E+00 2 -0.1666721480000000E+02  0.2487311320000000E+01
 2
  0.2209559200000000E+00 1  0.1833745811000000E+02
  0.2113324700000000E+00 0
         # Potential name:  GTH-PBE-Q6  for symbol:  O
         # Potential read from the potential filename: GTH_POTENTIALS
       &END POTENTIAL
     &END KIND
     &KIND H
       BASIS_SET DZVP-MOLOPT-SR-GTH-q1
       POTENTIAL GTH-PBE-q1
       &POTENTIAL
 1
  0.2000000000000000E+00 2 -0.4178900440000000E+01  0.7244633100000000E+00
 0
         # Potential name:  GTH-PBE-Q1  for symbol:  H
         # Potential read from the potential filename: GTH_POTENTIALS
       &END POTENTIAL
     &END KIND
     &KIND N
       BASIS_SET DZVP-MOLOPT-SR-GTH-q5
       POTENTIAL GTH-PBE-q5
       &POTENTIAL
 2 3
  0.2837905100000000E+00 2 -0.1241522559000000E+02  0.1868095920000000E+01
 2
  0.2554050000000000E+00 1  0.1363026257000000E+02
  0.2454945300000000E+00 0
         # Potential name:  GTH-PBE-Q5  for symbol:  N
         # Potential read from the potential filename: GTH_POTENTIALS
       &END POTENTIAL
     &END KIND
     &KIND Ga
       BASIS_SET DZVP-MOLOPT-SR-GTH-q13
       POTENTIAL GTH-PBE-q13
       &POTENTIAL
 2 1 10
  0.4900000000000000E+00 0
 3
  0.4167772300000000E+00 3  0.1047568975000000E+02 -0.4921768140000000E+01  0.8707055900000000E+00
  0.7770178090000000E+01 -0.2248152160000000E+01
  0.1784415450000000E+01
  0.5696265200000000E+00 2  0.1777985340000000E+01  0.1958597600000000E+00
 -0.2317443900000000E+00
  0.2381265000000000E+00 1 -0.1624868022000000E+02
         # Potential name:  GTH-PBE-Q13  for symbol:  GA
         # Potential read from the potential filename: GTH_POTENTIALS
       &END POTENTIAL
     &END KIND
     &TOPOLOGY
       COORD_FILE_NAME ../start-first.xyz
       COORD_FILE_FORMAT  XYZ
       NUMBER_OF_ATOMS  156
       MULTIPLE_UNIT_CELL  1 1 1
     &END TOPOLOGY
     &COLVAR
       &DISTANCE
         ATOMS  145 147
       &END DISTANCE
       &PRINT
       &END PRINT
     &END COLVAR
   &END SUBSYS
 &END FORCE_EVAL
