 # Version information for this restart file 
 # current date 2019-05-28 00:15:38.346
 # current working dir /lustre03/project/6004141/rzk/GaN-carbene/334-native/08-2Methanol-Htransfer/03-CO-constraint/1.54
 # Program compiled at                              Sun Apr  7 00:48:11 EDT 2019
 # Program compiled on                          beluga2.int.ets1.calculquebec.ca
 # Program compiled for                        Beluga-Linux-x86-64-intel-openmpi
 # Source code revision number                                         svn:18619
 &GLOBAL
   PRINT_LEVEL  MEDIUM
   PROJECT_NAME TEST
   RUN_TYPE  GEO_OPT
 &END GLOBAL
 &MOTION
   &GEO_OPT
     MAX_ITER  500
     STEP_START_VAL  125
   &END GEO_OPT
   &CONSTRAINT
     &COLLECTIVE
       COLVAR  1
       INTERMOLECULAR  T
       TARGET     2.9101782446438902E+00
       &RESTRAINT
         K     1.0000000000000001E-01
       &END RESTRAINT
     &END COLLECTIVE
     &COLVAR_RESTART
           2.9101782446438902E+00
     &END COLVAR_RESTART
   &END CONSTRAINT
 &END MOTION
 &FORCE_EVAL
   METHOD  QS
   STRESS_TENSOR  ANALYTICAL
   &DFT
     BASIS_SET_FILE_NAME BASIS_MOLOPT
     POTENTIAL_FILE_NAME GTH_POTENTIALS
     &SCF
       MAX_SCF  100
       EPS_SCF     5.0000000000000004E-06
       &OT  T
         PRECONDITIONER  FULL_ALL
       &END OT
       &OUTER_SCF  T
         OPTIMIZER  NONE
         EPS_SCF     5.0000000000000004E-06
         MAX_SCF  4
       &END OUTER_SCF
       &PRINT
         &RESTART  OFF
           BACKUP_COPIES  1
           &EACH
             JUST_ENERGY  0
             QS_SCF  0
             MD  20
           &END EACH
         &END RESTART
       &END PRINT
     &END SCF
     &QS
       EPS_DEFAULT     1.0000000000000000E-14
       ALMO_SCF  F
       METHOD  GPW
     &END QS
     &MGRID
       NGRIDS  5
       CUTOFF     1.2000000000000000E+03
     &END MGRID
     &XC
       DENSITY_CUTOFF     1.0000000000000000E-10
       GRADIENT_CUTOFF     1.0000000000000000E-10
       TAU_CUTOFF     1.0000000000000000E-10
       &XC_FUNCTIONAL  NO_SHORTCUT
         &PBE  T
         &END PBE
       &END XC_FUNCTIONAL
       &VDW_POTENTIAL
         POTENTIAL_TYPE  PAIR_POTENTIAL
         &PAIR_POTENTIAL
           R_CUTOFF     1.0000000000000005E+01
           TYPE  DFTD3
           PARAMETER_FILE_NAME dftd3.dat
           REFERENCE_FUNCTIONAL PBE
           EPS_CN     9.9999999999999995E-07
           CALCULATE_C9_TERM  T
           REFERENCE_C9_TERM  T
           LONG_RANGE_CORRECTION  F
           VERBOSE_OUTPUT  F
         &END PAIR_POTENTIAL
       &END VDW_POTENTIAL
     &END XC
   &END DFT
   &SUBSYS
     &CELL
       A     9.7367653356401487E+00    0.0000000000000000E+00    0.0000000000000000E+00
       B    -4.8591341382960209E+00    8.4162672083210595E+00    0.0000000000000000E+00
       C     0.0000000000000000E+00    0.0000000000000000E+00    3.0744000000000000E+01
       MULTIPLE_UNIT_CELL  1 1 1
       &CELL_REF
         A     9.5580000000000052E+00    0.0000000000000000E+00    0.0000000000000000E+00
         B    -4.7790000000000026E+00    8.2774708093716640E+00    0.0000000000000000E+00
         C     0.0000000000000000E+00    0.0000000000000000E+00    3.0744000000000000E+01
         MULTIPLE_UNIT_CELL  1 1 1
       &END CELL_REF
     &END CELL
     &COORD
Ga    1.9709526328967153E-03   -2.6125888545321885E-02   -5.3892760733162526E-01
N    4.8758495006799053E-03    1.8481952020383547E+00    6.0292708780159154E-01
Ga    4.4522137574036459E-03    1.8169962244708249E+00    2.6344692649558437E+00
N    1.3858250421222012E-03   -2.6532221059395119E-02    3.2654016897227520E+00
Ga    1.8821549416655542E-03   -2.5950612066355190E-02    5.2559139687451468E+00
N    4.9470375847869867E-03    1.8486271331182853E+00    5.8437777562605886E+00
Ga    6.0122407415791898E-03    1.8455296632913509E+00    7.8433698997089198E+00
N    5.0272395306730326E-03   -2.7284305921137425E-02    8.4442669822864609E+00
Ga    7.0938046003200658E-03   -2.8251086177482676E-02    1.0442379846730415E+01
N    5.4657590117465678E-03    1.8441974132116643E+00    1.1044348304006604E+01
Ga    1.2266488424087708E-02    1.8400358808822139E+00    1.3038448631996188E+01
N    2.0536338277943118E-02   -3.2646949946448803E-02    1.3632200151492667E+01
Ga    3.8870015147275984E-02   -5.4589074454996153E-02    1.5625455088852021E+01
N    3.5436756371272859E-02    1.8266609356947823E+00    1.6201279150037585E+01
Ga    5.8480331608859369E-02    1.8077667764563674E+00    1.8254985664862659E+01
N    4.9138457226270610E-02   -6.4815226892011787E-02    1.8657830673821298E+01
Ga   -1.6182493180976452E+00    2.7786663290843974E+00    3.2079280765438717E-01
N   -1.6186035439984336E+00    4.6490006931998513E+00    6.0288807559081103E-01
Ga   -1.5910986870638475E+00    4.6645344798217581E+00    2.6341693945619751E+00
N   -1.6179764132731187E+00    2.7789731044498698E+00    3.2245425788623616E+00
Ga   -1.6174834623790488E+00    2.7795440138635983E+00    5.2359207715199343E+00
N   -1.6172472200098713E+00    4.6494453361272496E+00    5.8423877774210267E+00
Ga   -1.6163475584010176E+00    4.6489435710337679E+00    7.8409375377304595E+00
N   -1.6167331477807017E+00    2.7787495859831624E+00    8.4474453244070009E+00
Ga   -1.6173207826547722E+00    2.7797052775195397E+00    1.0443546288150024E+01
N   -1.6184060810420078E+00    4.6498608038489291E+00    1.1051671635515643E+01
Ga   -1.6228939879572180E+00    4.6477283715018327E+00    1.3049728685112106E+01
N   -1.6047054830199596E+00    2.7787781906584632E+00    1.3665728495892695E+01
Ga   -1.5991282159330407E+00    2.7905571794612487E+00    1.5675304317703381E+01
N   -1.5904961504969173E+00    4.6557392022440576E+00    1.6307629814741027E+01
Ga   -1.4893294128164554E+00    4.6464775477898712E+00    1.8388449113813937E+01
N   -1.5358594548543167E+00    2.7465845707609557E+00    1.8699984192809449E+01
Ga   -3.2385190399262167E+00    5.5841318271113298E+00    3.2091027690304641E-01
N   -3.2314338994468188E+00    7.4547730402739649E+00    6.0289510977209859E-01
Ga   -3.2594131514263114E+00    7.4699783659304773E+00    2.6343697562851216E+00
N   -3.2378103290955487E+00    5.5844197494318308E+00    3.2246482043233025E+00
Ga   -3.2376286783912884E+00    5.5845421346511523E+00    5.2361311195088192E+00
N   -3.2316276193922659E+00    7.4550430928603264E+00    5.8416825589826633E+00
Ga   -3.2326542124857967E+00    7.4545676610626446E+00    7.8402093022379109E+00
N   -3.2370314849033441E+00    5.5838655526300984E+00    8.4439122611949529E+00
Ga   -3.2373593798998259E+00    5.5815939839194320E+00    1.0438638098725068E+01
N   -3.2287087613405929E+00    7.4501862923535445E+00    1.1049389524116156E+01
Ga   -3.2208155715394029E+00    7.4425737487665060E+00    1.3047584114683378E+01
N   -3.2410573146853858E+00    5.5756877384395365E+00    1.3688911134562883E+01
Ga   -3.2216235315262534E+00    5.5705735160057719E+00    1.5726545715633105E+01
N   -3.1989422536364636E+00    7.4353851373328661E+00    1.6283749181888904E+01
Ga   -3.1802002257495867E+00    7.3963660688790043E+00    1.8346412058526237E+01
N   -3.1275057889487092E+00    5.5386706183200687E+00    1.8880485750611765E+01
Ga    3.2481418069492474E+00   -2.6169601648358441E-02    3.2111890695810524E-01
N    3.2463138670257701E+00    1.8433987481464402E+00    6.0370775846185731E-01
Ga    3.2745705821663198E+00    1.8595344220355283E+00    2.6338826819665346E+00
N    3.2473812385425416E+00   -2.6395282011794023E-02    3.2244698139145367E+00
Ga    3.2484489897263811E+00   -2.5601991746097043E-02    5.2360373033825454E+00
N    3.2487825917389204E+00    1.8444281877550246E+00    5.8428176912690679E+00
Ga    3.2499628524950603E+00    1.8438094536522991E+00    7.8416488787509344E+00
N    3.2472548049245011E+00   -2.7005064102527388E-02    8.4435877683760676E+00
Ga    3.2492575274045308E+00   -2.8249342777254775E-02    1.0437838512367309E+01
N    3.2559501655148781E+00    1.8415425362161584E+00    1.1045922875060890E+01
Ga    3.2632490820236497E+00    1.8339504464148844E+00    1.3042501965078291E+01
N    3.2530855127694847E+00   -3.3634564622506490E-02    1.3664676554142439E+01
Ga    3.2642191060558647E+00   -3.9545188059667134E-02    1.5675753551141023E+01
N    3.2894033204819189E+00    1.8267480964750111E+00    1.6257201992346619E+01
Ga    3.3416955774795043E+00    1.8197904552746482E+00    1.8295848278105677E+01
N    3.3117154883173630E+00   -6.9497633907331047E-02    1.8745598805862432E+01
Ga    1.6278225928420751E+00    2.7792528982686937E+00    3.2090962777307885E-01
N    1.6335942109448154E+00    4.6496235789406386E+00    6.0327710552680969E-01
Ga    1.6061839723530325E+00    4.6647103113240238E+00    2.6345331441960469E+00
N    1.6274324637421249E+00    2.7790851231323361E+00    3.2253569254802597E+00
Ga    1.6284449712571649E+00    2.7799944381833881E+00    5.2372020152132164E+00
N    1.6335194224615261E+00    4.6497854914393182E+00    5.8451588350702872E+00
Ga    1.6328278338759663E+00    4.6492448671205784E+00    7.8456857815502650E+00
N    1.6293451301542181E+00    2.7768587834719392E+00    8.4457456089578145E+00
Ga    1.6306987146531475E+00    2.7753338788863720E+00    1.0441582713000832E+01
N    1.6262122641457333E+00    4.6467100997757429E+00    1.1036055001394494E+01
Ga    1.6219850710578856E+00    4.6461481842938577E+00    1.3029624829188471E+01
N    1.6383551441671265E+00    2.7675027372568266E+00    1.3633311029364096E+01
Ga    1.6670888684396101E+00    2.7571334363836355E+00    1.5624739111022848E+01
N    1.6217489116628454E+00    4.6378443556307110E+00    1.6126447484058637E+01
Ga    1.6992934263339949E+00    4.6000229924512110E+00    1.8105474521127231E+01
N    1.6935516921972626E+00    2.7503172429087375E+00    1.8602490181753936E+01
Ga    8.1024446956903147E-03    5.5844931117117209E+00   -5.4312096808413546E-01
N    1.1179032725374854E-02    7.4584804348334366E+00    6.0311271789735899E-01
Ga    1.0894486154557707E-02    7.4277930398125234E+00    2.6344750585788956E+00
N    7.7754267526698164E-03    5.5842604614999196E+00    3.2657957497930430E+00
Ga    8.8158871171804785E-03    5.5849394988128580E+00    5.2563210925132786E+00
N    1.1656891556632560E-02    7.4596040695738655E+00    5.8435649109251004E+00
Ga    1.1782468285411908E-02    7.4575649843137555E+00    7.8430549817173754E+00
N    6.6877386685060530E-03    5.5837322291327078E+00    8.4424051672575224E+00
Ga    4.9710121546345928E-03    5.5827393485882331E+00    1.0439587083532594E+01
N    1.2130731148661299E-02    7.4561075057835176E+00    1.1038156860667693E+01
Ga    1.1136614360991512E-02    7.4587395401094696E+00    1.3030223387390638E+01
N   -1.1891009374026839E-03    5.5880870659240554E+00    1.3627678547728202E+01
Ga   -7.5730764175460240E-04    5.5765075896162140E+00    1.5622266402588783E+01
N    4.0700992218496136E-02    7.4429831090656853E+00    1.6256778621047161E+01
Ga    6.7851153519385018E-02    7.3982271684628991E+00    1.8345232476525382E+01
N    1.8484455812535805E-01    5.5393137728656230E+00    1.8879922343273321E+01
Ga    6.4921058543457031E+00   -2.5523359326564236E-02    3.2056951937057748E-01
N    6.4991241474758557E+00    1.8439620457029722E+00    6.0362197836856224E-01
Ga    6.4708715215183519E+00    1.8595344537204685E+00    2.6337523626350250E+00
N    6.4929603975159464E+00   -2.6198488470958126E-02    3.2253595384719715E+00
Ga    6.4939316609552540E+00   -2.5425498993011952E-02    5.2373221595302679E+00
N    6.4989203204353965E+00    1.8450345360963232E+00    5.8432573209932430E+00
Ga    6.4980418916499092E+00    1.8449369398036757E+00    7.8421316324254704E+00
N    6.4933676992280374E+00   -2.4715348230679338E-02    8.4461461989097444E+00
Ga    6.4945559823504162E+00   -2.1469410273478685E-02    1.0442558473438552E+01
N    6.4972467708252841E+00    1.8500072459069627E+00    1.1052473434574905E+01
Ga    6.5007540446957259E+00    1.8547386685905232E+00    1.3051625339133855E+01
N    6.4889002699375178E+00   -1.8718643221542725E-02    1.3626908404613713E+01
Ga    6.5043648226325637E+00   -1.4325641021766762E-02    1.5627189430567409E+01
N    6.5134921677339115E+00    1.8523108599145381E+00    1.6242166995976419E+01
Ga    6.5793938850793117E+00    1.8181172584241494E+00    1.8293258639877227E+01
N    6.5787046081257294E+00   -8.5346908126209722E-02    1.8659502778036661E+01
Ga    4.8735023720107300E+00    2.7799836853887752E+00   -5.5066193234418814E-01
N    4.8762484489082407E+00    4.6539260017593307E+00    6.0408014949361644E-01
Ga    4.8757079416424718E+00    4.6222036642592386E+00    2.6340879672299589E+00
N    4.8730712139255425E+00    2.7790814954845571E+00    3.2657810650938064E+00
Ga    4.8738952291010005E+00    2.7801303022631307E+00    5.2556612438888530E+00
N    4.8762921449386321E+00    4.6541154303546950E+00    5.8437045906689873E+00
Ga    4.8753039807898695E+00    4.6524172119058065E+00    7.8431787433865274E+00
N    4.8740883433871467E+00    2.7788905570214553E+00    8.4436530612331016E+00
Ga    4.8763395481940108E+00    2.7807270763756553E+00    1.0441266614852921E+01
N    4.8800120885309139E+00    4.6501244547851277E+00    1.1048435727302333E+01
Ga    4.8786940933415162E+00    4.6509341422068928E+00    1.3048839424982654E+01
N    4.8735582801790285E+00    2.7828579770251767E+00    1.3663169233688393E+01
Ga    4.8777448391383187E+00    2.7764389369186859E+00    1.5684027767119428E+01
N    4.8381055057318214E+00    4.6674693569923109E+00    1.6148533908088066E+01
Ga    4.9706982982488661E+00    4.5986090090838481E+00    1.9105714015766097E+01
N    4.9611891057852935E+00    2.7125365527242105E+00    1.8827961362080622E+01
Ga    3.2542603896975528E+00    5.5837464966208064E+00    3.2071815556356026E-01
N    3.2523985272273119E+00    7.4542932364842844E+00    6.0270219967151950E-01
Ga    3.2802623125397634E+00    7.4699710659018370E+00    2.6342619152822087E+00
N    3.2533071972084886E+00    5.5847613121449777E+00    3.2256182460378833E+00
Ga    3.2538655544900990E+00    5.5852772644113902E+00    5.2376349780306439E+00
N    3.2545769665135196E+00    7.4554056909378987E+00    5.8454390384688981E+00
Ga    3.2562737940878961E+00    7.4550300623769843E+00    7.8462070480573383E+00
N    3.2541296896162337E+00    5.5840916695184006E+00    8.4494323523116801E+00
Ga    3.2546336585442810E+00    5.5841409171642313E+00    1.0448750175914208E+01
N    3.2582992765402254E+00    7.4611225591908248E+00    1.1037387227328454E+01
Ga    3.2575993925269389E+00    7.4647555359631834E+00    1.3032129468660326E+01
N    3.2432091192175818E+00    5.5876109911675504E+00    1.3591325899228124E+01
Ga    3.2418891375844838E+00    5.5965761391234965E+00    1.5585263433299044E+01
N    3.2732421033131431E+00    7.4673177777164339E+00    1.6131019889560424E+01
Ga    3.3347799723966087E+00    7.4381824582447953E+00    1.8135627651812662E+01
N    3.4453439490724498E+00    5.4841088294113591E+00    1.8322237616394020E+01
O    1.5995446803773130E+00    5.0939905355438331E+00    2.1227386328956442E+01
H    1.0171568570748193E+00    5.3789585263668309E+00    2.0436546684305995E+01
C    1.0189301323430033E+00    3.8019515075621060E+00    2.1680413481499073E+01
H    1.2596539789230543E+00    3.0058023107217706E+00    2.0956239764797154E+01
H    1.4588450000312856E+00    3.5765707434446861E+00    2.2657938706950802E+01
H   -7.0111414396745134E-02    3.8990328883995873E+00    2.1769574124571424E+01
O    4.2190702583873225E+00    4.8327592383434155E+00    2.1036278587210532E+01
H    3.1968841143759921E+00    4.9550002119685450E+00    2.1044853156295133E+01
C    4.5985704583122544E+00    3.8500348276250289E+00    2.2033228297067176E+01
H    4.2829920890724420E+00    2.8410072901605230E+00    2.1734158928797900E+01
H    5.6909543469003872E+00    3.8757674797275468E+00    2.2119344834759193E+01
H    4.1498964194374093E+00    4.1242582659466498E+00    2.2996093577429267E+01
     &END COORD
     &KIND C
       BASIS_SET DZVP-MOLOPT-SR-GTH-q4
       POTENTIAL GTH-PBE-q4
       &POTENTIAL
 2 2
  0.3384712400000000E+00 2 -0.8803673979999999E+01  0.1339210850000000E+01
 2
  0.3025757500000000E+00 1  0.9622486650000001E+01
  0.2915069400000000E+00 0
         # Potential name:  GTH-PBE-Q4  for symbol:  C
         # Potential read from the potential filename: GTH_POTENTIALS
       &END POTENTIAL
     &END KIND
     &KIND O
       BASIS_SET DZVP-MOLOPT-SR-GTH-q6
       POTENTIAL GTH-PBE-q6
       &POTENTIAL
 2 4
  0.2445543000000000E+00 2 -0.1666721480000000E+02  0.2487311320000000E+01
 2
  0.2209559200000000E+00 1  0.1833745811000000E+02
  0.2113324700000000E+00 0
         # Potential name:  GTH-PBE-Q6  for symbol:  O
         # Potential read from the potential filename: GTH_POTENTIALS
       &END POTENTIAL
     &END KIND
     &KIND H
       BASIS_SET DZVP-MOLOPT-SR-GTH-q1
       POTENTIAL GTH-PBE-q1
       &POTENTIAL
 1
  0.2000000000000000E+00 2 -0.4178900440000000E+01  0.7244633100000000E+00
 0
         # Potential name:  GTH-PBE-Q1  for symbol:  H
         # Potential read from the potential filename: GTH_POTENTIALS
       &END POTENTIAL
     &END KIND
     &KIND N
       BASIS_SET DZVP-MOLOPT-SR-GTH-q5
       POTENTIAL GTH-PBE-q5
       &POTENTIAL
 2 3
  0.2837905100000000E+00 2 -0.1241522559000000E+02  0.1868095920000000E+01
 2
  0.2554050000000000E+00 1  0.1363026257000000E+02
  0.2454945300000000E+00 0
         # Potential name:  GTH-PBE-Q5  for symbol:  N
         # Potential read from the potential filename: GTH_POTENTIALS
       &END POTENTIAL
     &END KIND
     &KIND Ga
       BASIS_SET DZVP-MOLOPT-SR-GTH-q13
       POTENTIAL GTH-PBE-q13
       &POTENTIAL
 2 1 10
  0.4900000000000000E+00 0
 3
  0.4167772300000000E+00 3  0.1047568975000000E+02 -0.4921768140000000E+01  0.8707055900000000E+00
  0.7770178090000000E+01 -0.2248152160000000E+01
  0.1784415450000000E+01
  0.5696265200000000E+00 2  0.1777985340000000E+01  0.1958597600000000E+00
 -0.2317443900000000E+00
  0.2381265000000000E+00 1 -0.1624868022000000E+02
         # Potential name:  GTH-PBE-Q13  for symbol:  GA
         # Potential read from the potential filename: GTH_POTENTIALS
       &END POTENTIAL
     &END KIND
     &TOPOLOGY
       COORD_FILE_NAME ../start-first.xyz
       COORD_FILE_FORMAT  XYZ
       NUMBER_OF_ATOMS  156
       MULTIPLE_UNIT_CELL  1 1 1
     &END TOPOLOGY
     &COLVAR
       &DISTANCE
         ATOMS  145 147
       &END DISTANCE
       &PRINT
       &END PRINT
     &END COLVAR
   &END SUBSYS
 &END FORCE_EVAL
