 # Version information for this restart file 
 # current date 2019-05-28 00:14:49.101
 # current working dir /lustre03/project/6004141/rzk/GaN-carbene/334-native/08-2Methanol-Htransfer/03-CO-constraint/1.54
 # Program compiled at                              Sun Apr  7 00:48:11 EDT 2019
 # Program compiled on                          beluga2.int.ets1.calculquebec.ca
 # Program compiled for                        Beluga-Linux-x86-64-intel-openmpi
 # Source code revision number                                         svn:18619
 &GLOBAL
   PRINT_LEVEL  MEDIUM
   PROJECT_NAME TEST
   RUN_TYPE  GEO_OPT
 &END GLOBAL
 &MOTION
   &GEO_OPT
     MAX_ITER  500
     STEP_START_VAL  124
   &END GEO_OPT
   &CONSTRAINT
     &COLLECTIVE
       COLVAR  1
       INTERMOLECULAR  T
       TARGET     2.9101782446438902E+00
       &RESTRAINT
         K     1.0000000000000001E-01
       &END RESTRAINT
     &END COLLECTIVE
     &COLVAR_RESTART
           2.9101782446438902E+00
     &END COLVAR_RESTART
   &END CONSTRAINT
 &END MOTION
 &FORCE_EVAL
   METHOD  QS
   STRESS_TENSOR  ANALYTICAL
   &DFT
     BASIS_SET_FILE_NAME BASIS_MOLOPT
     POTENTIAL_FILE_NAME GTH_POTENTIALS
     &SCF
       MAX_SCF  100
       EPS_SCF     5.0000000000000004E-06
       &OT  T
         PRECONDITIONER  FULL_ALL
       &END OT
       &OUTER_SCF  T
         OPTIMIZER  NONE
         EPS_SCF     5.0000000000000004E-06
         MAX_SCF  4
       &END OUTER_SCF
       &PRINT
         &RESTART  OFF
           BACKUP_COPIES  1
           &EACH
             JUST_ENERGY  0
             QS_SCF  0
             MD  20
           &END EACH
         &END RESTART
       &END PRINT
     &END SCF
     &QS
       EPS_DEFAULT     1.0000000000000000E-14
       ALMO_SCF  F
       METHOD  GPW
     &END QS
     &MGRID
       NGRIDS  5
       CUTOFF     1.2000000000000000E+03
     &END MGRID
     &XC
       DENSITY_CUTOFF     1.0000000000000000E-10
       GRADIENT_CUTOFF     1.0000000000000000E-10
       TAU_CUTOFF     1.0000000000000000E-10
       &XC_FUNCTIONAL  NO_SHORTCUT
         &PBE  T
         &END PBE
       &END XC_FUNCTIONAL
       &VDW_POTENTIAL
         POTENTIAL_TYPE  PAIR_POTENTIAL
         &PAIR_POTENTIAL
           R_CUTOFF     1.0000000000000005E+01
           TYPE  DFTD3
           PARAMETER_FILE_NAME dftd3.dat
           REFERENCE_FUNCTIONAL PBE
           EPS_CN     9.9999999999999995E-07
           CALCULATE_C9_TERM  T
           REFERENCE_C9_TERM  T
           LONG_RANGE_CORRECTION  F
           VERBOSE_OUTPUT  F
         &END PAIR_POTENTIAL
       &END VDW_POTENTIAL
     &END XC
   &END DFT
   &SUBSYS
     &CELL
       A     9.7367653356401487E+00    0.0000000000000000E+00    0.0000000000000000E+00
       B    -4.8591341382960209E+00    8.4162672083210595E+00    0.0000000000000000E+00
       C     0.0000000000000000E+00    0.0000000000000000E+00    3.0744000000000000E+01
       MULTIPLE_UNIT_CELL  1 1 1
       &CELL_REF
         A     9.5580000000000052E+00    0.0000000000000000E+00    0.0000000000000000E+00
         B    -4.7790000000000026E+00    8.2774708093716640E+00    0.0000000000000000E+00
         C     0.0000000000000000E+00    0.0000000000000000E+00    3.0744000000000000E+01
         MULTIPLE_UNIT_CELL  1 1 1
       &END CELL_REF
     &END CELL
     &COORD
Ga    2.5324029436617074E-03   -2.6182731745204236E-02   -5.4221256848297983E-01
N    5.4855306834473254E-03    1.8482558537834703E+00    6.0332587524679737E-01
Ga    4.9275427344652413E-03    1.8166139198893367E+00    2.6343514819203384E+00
N    1.8529169739181282E-03   -2.6869162407684628E-02    3.2656720521106530E+00
Ga    1.9925440695198232E-03   -2.6396484159276114E-02    5.2559814587824167E+00
N    4.9969487383451890E-03    1.8482083964595906E+00    5.8439631848044185E+00
Ga    5.6858269611665081E-03    1.8450928687114276E+00    7.8434222538719718E+00
N    4.6544732059938150E-03   -2.7773138593537177E-02    8.4443534460015766E+00
Ga    6.5227979697679303E-03   -2.8631792195542623E-02    1.0442302952371982E+01
N    4.9398001011766810E-03    1.8437532973816162E+00    1.1044664463234078E+01
Ga    1.1617955302858675E-02    1.8394666487344777E+00    1.3038749003863355E+01
N    2.0125472613683866E-02   -3.3391668505925655E-02    1.3632882957754559E+01
Ga    3.8419923756560989E-02   -5.5322503905460306E-02    1.5626092114814780E+01
N    3.5078654611872755E-02    1.8258420476741664E+00    1.6200841213918139E+01
Ga    5.7416475981798838E-02    1.8075210132973032E+00    1.8254413826969454E+01
N    4.8509340371457051E-02   -6.4907400504540483E-02    1.8657206528890015E+01
Ga   -1.6174354737541101E+00    2.7783874649440490E+00    3.2080612431511391E-01
N   -1.6180319097148945E+00    4.6488086210836599E+00    6.0264740063127176E-01
Ga   -1.5905929179713232E+00    4.6641897629033862E+00    2.6341001483575872E+00
N   -1.6175649473992910E+00    2.7787001024477473E+00    3.2246918613327571E+00
Ga   -1.6174075900364282E+00    2.7790780968758488E+00    5.2359745032491603E+00
N   -1.6171735881180260E+00    4.6489857047153347E+00    5.8424925932853276E+00
Ga   -1.6166787034749222E+00    4.6485087757999306E+00    7.8409736100224654E+00
N   -1.6170852012165584E+00    2.7783011439901237E+00    8.4476399478463353E+00
Ga   -1.6177905328300799E+00    2.7793002768542969E+00    1.0443596300983538E+01
N   -1.6188679980550436E+00    4.6495060034330971E+00    1.1051691153432662E+01
Ga   -1.6232694124090972E+00    4.6471442651386381E+00    1.3049636048028162E+01
N   -1.6052238621187609E+00    2.7784007025178790E+00    1.3666021737436580E+01
Ga   -1.5995263485803037E+00    2.7899693408832040E+00    1.5675576552601955E+01
N   -1.5907733961019348E+00    4.6551109874468706E+00    1.6307550218628897E+01
Ga   -1.4898061088195209E+00    4.6462962334902320E+00    1.8388394074168840E+01
N   -1.5366140387250737E+00    2.7464252155149018E+00    1.8699649040152661E+01
Ga   -3.2379406494277649E+00    5.5842227551197148E+00    3.2097179317810265E-01
N   -3.2306479162441719E+00    7.4545385847116572E+00    6.0326758663039370E-01
Ga   -3.2589578133368486E+00    7.4696738780600036E+00    2.6342295342267894E+00
N   -3.2373451436855532E+00    5.5839483788889117E+00    3.2246543352840709E+00
Ga   -3.2375357319791540E+00    5.5840229658368425E+00    5.2360415392727493E+00
N   -3.2315303394041313E+00    7.4545293793491858E+00    5.8417920493149689E+00
Ga   -3.2329669971411961E+00    7.4540184412659656E+00    7.8401897937866476E+00
N   -3.2373735589665635E+00    5.5833639224751250E+00    8.4440384968995694E+00
Ga   -3.2378490219334579E+00    5.5812265388580231E+00    1.0438643583978799E+01
N   -3.2292476122949245E+00    7.4498082372663497E+00    1.1049496720781773E+01
Ga   -3.2213627443908552E+00    7.4422144535667796E+00    1.3047583201311706E+01
N   -3.2413589814802033E+00    5.5752402426994898E+00    1.3689193795966974E+01
Ga   -3.2217006459980788E+00    5.5700204101168609E+00    1.5726882287800015E+01
N   -3.1987418295768468E+00    7.4350396505464786E+00    1.6284567814306161E+01
Ga   -3.1806132875585513E+00    7.3959516403883283E+00    1.8347797285979251E+01
N   -3.1284725288167019E+00    5.5379717684330565E+00    1.8879918491991731E+01
Ga    3.2485188933463887E+00   -2.6317425912554041E-02    3.2126469293562160E-01
N    3.2470680466159565E+00    1.8433589449237646E+00    6.0369891703453904E-01
Ga    3.2750800068318573E+00    1.8592739680140065E+00    2.6339001669645494E+00
N    3.2479103401026390E+00   -2.6658579126506803E-02    3.2245364965663734E+00
Ga    3.2485537051988680E+00   -2.6017959310302208E-02    5.2359903844013003E+00
N    3.2488241766288959E+00    1.8439871677252209E+00    5.8429400860988778E+00
Ga    3.2496271132749253E+00    1.8434053481629957E+00    7.8416689206757058E+00
N    3.2468941589091909E+00   -2.7451305960466105E-02    8.4437401006985251E+00
Ga    3.2487150561626716E+00   -2.8573893485364411E-02    1.0437923119929094E+01
N    3.2555101504816695E+00    1.8412449733552969E+00    1.1046002176383341E+01
Ga    3.2627697781614531E+00    1.8337142887462814E+00    1.3042421835725063E+01
N    3.2525486778419648E+00   -3.3931449998544159E-02    1.3664514529805068E+01
Ga    3.2638188415807696E+00   -3.9589988014945218E-02    1.5675398433683526E+01
N    3.2888929607150339E+00    1.8268615185422210E+00    1.6256357948960716E+01
Ga    3.3413374096875565E+00    1.8192210187222864E+00    1.8294594113146257E+01
N    3.3116376578696096E+00   -6.9634949426079409E-02    1.8745447185087329E+01
Ga    1.6282875136070092E+00    2.7789437568656221E+00    3.2101750203927459E-01
N    1.6342641484119576E+00    4.6494374201517861E+00    6.0307378121063127E-01
Ga    1.6066242914602138E+00    4.6643942907269738E+00    2.6344661470693982E+00
N    1.6279469952865515E+00    2.7788301419504533E+00    3.2254413504516402E+00
Ga    1.6285269354494396E+00    2.7795549754333329E+00    5.2371886543004793E+00
N    1.6335571709607770E+00    4.6493422238040036E+00    5.8452897546811258E+00
Ga    1.6324854326728861E+00    4.6488139267024744E+00    7.8457603338660258E+00
N    1.6289734083048943E+00    2.7764223904962613E+00    8.4459710797451173E+00
Ga    1.6301489952673511E+00    2.7749760415970854E+00    1.0441718628434693E+01
N    1.6256804847622004E+00    4.6464394757790606E+00    1.1036093565120590E+01
Ga    1.6216285593903987E+00    4.6458173386775989E+00    1.3029474058109235E+01
N    1.6378129557383208E+00    2.7671916522695570E+00    1.3632807546836142E+01
Ga    1.6663363679742786E+00    2.7566024632905850E+00    1.5624008240635003E+01
N    1.6213025318195893E+00    4.6376047407466769E+00    1.6125711681627397E+01
Ga    1.6991811036012219E+00    4.5993671269875955E+00    1.8104745698851900E+01
N    1.6928694708226391E+00    2.7498966017988016E+00    1.8601250030963794E+01
Ga    8.7292591712097023E-03    5.5844797800928321E+00   -5.4156493169334108E-01
N    1.1807719161368845E-02    7.4585223450668279E+00    6.0299730905517657E-01
Ga    1.1386965405873384E-02    7.4274953114893583E+00    2.6344095327088977E+00
N    8.2301226550609962E-03    5.5839279383570126E+00    3.2657980834947691E+00
Ga    8.8940774937977772E-03    5.5844662213949432E+00    5.2562689963263916E+00
N    1.1697748360504178E-02    7.4591213519558437E+00    5.8436569588016134E+00
Ga    1.1450777998690457E-02    7.4570764781695802E+00    7.8430685869689407E+00
N    6.3138523698255140E-03    5.5832958283245286E+00    8.4426052155033826E+00
Ga    4.4342694644093844E-03    5.5824647544381385E+00    1.0439698688745727E+01
N    1.1654415304494729E-02    7.4558237101805043E+00    1.1038261681163483E+01
Ga    1.0714718333509701E-02    7.4585353086432846E+00    1.3030199708100762E+01
N   -1.7054623440791003E-03    5.5878398732523751E+00    1.3627348849175732E+01
Ga   -1.5049070146764894E-03    5.5758572333384757E+00    1.5621888582463159E+01
N    4.0391924268914553E-02    7.4428541297507627E+00    1.6255788953121989E+01
Ga    6.8006062506099377E-02    7.3984894069875500E+00    1.8344142862890138E+01
N    1.8457182102151717E-01    5.5394232422302530E+00    1.8879071296136754E+01
Ga    6.4929743372799766E+00   -2.5669868820596395E-02    3.2069157416130079E-01
N    6.4996981463725483E+00    1.8439120322977185E+00    6.0367339462393099E-01
Ga    6.4713750130860390E+00    1.8592761022791251E+00    2.6338145308432539E+00
N    6.4933441109225427E+00   -2.6469902778775187E-02    3.2254917629291029E+00
Ga    6.4940175367026978E+00   -2.5840614728541086E-02    5.2373311446631767E+00
N    6.4989604535925736E+00    1.8445759014560412E+00    5.8434364238742917E+00
Ga    6.4977020185735634E+00    1.8444894233838751E+00    7.8421910056316646E+00
N    6.4930100376296762E+00   -2.5184497872758272E-02    8.4462749413333924E+00
Ga    6.4940419754418119E+00   -2.1806867597577977E-02    1.0442559580062436E+01
N    6.4967254834098629E+00    1.8496144902138496E+00    1.1052603905322261E+01
Ga    6.5006080359881526E+00    1.8543480655169977E+00    1.3051533769997535E+01
N    6.4885201970121500E+00   -1.9112556142374296E-02    1.3627050899961572E+01
Ga    6.5044202145480678E+00   -1.4645755142479781E-02    1.5627176018840730E+01
N    6.5129191578320489E+00    1.8514581609870344E+00    1.6243001123322394E+01
Ga    6.5786045953587129E+00    1.8172952098131032E+00    1.8294114382467619E+01
N    6.5787865481027401E+00   -8.5555511655578412E-02    1.8661095711752459E+01
Ga    4.8742696139312640E+00    2.7798309110589385E+00   -5.4994579774100638E-01
N    4.8768813823832957E+00    4.6536645215344992E+00    6.0398524705507350E-01
Ga    4.8762072985401694E+00    4.6217781523043353E+00    2.6340130223914398E+00
N    4.8735467048895202E+00    2.7787287199257209E+00    3.2658963627909574E+00
Ga    4.8739948770217874E+00    2.7796691803191638E+00    5.2557074282423875E+00
N    4.8763636513614594E+00    4.6536268908392167E+00    5.8438318345061866E+00
Ga    4.8749762525035960E+00    4.6519419776663309E+00    7.8431907120497089E+00
N    4.8737264063495784E+00    2.7784340721978307E+00    8.4438158792597484E+00
Ga    4.8758522720989887E+00    2.7803793772312364E+00    1.0441251829217714E+01
N    4.8795164142397098E+00    4.6497856819128822E+00    1.1048450043197326E+01
Ga    4.8784237405935755E+00    4.6507230300238014E+00    1.3048564506917183E+01
N    4.8733932632817885E+00    2.7825632203718293E+00    1.3663058272660743E+01
Ga    4.8773182905186294E+00    2.7760116596614242E+00    1.5683856061473774E+01
N    4.8376105401654304E+00    4.6673180841652133E+00    1.6147949580085005E+01
Ga    4.9699238000903048E+00    4.5976846669144171E+00    1.9105006734552962E+01
N    4.9603346660020868E+00    2.7118614095348330E+00    1.8827766801805598E+01
Ga    3.2549473785913867E+00    5.5838527096505191E+00    3.2086686404781040E-01
N    3.2528390953622295E+00    7.4540789338721334E+00    6.0315734173520474E-01
Ga    3.2807669572998344E+00    7.4696636680009139E+00    2.6341991524174593E+00
N    3.2537589659055963E+00    5.5842621172496631E+00    3.2256361922413439E+00
Ga    3.2539764484402571E+00    5.5847583311625151E+00    5.2375467331996211E+00
N    3.2545967416454515E+00    7.4548969168970336E+00    5.8455412792843298E+00
Ga    3.2559265377173343E+00    7.4545114237152399E+00    7.8461392507554368E+00
N    3.2537692162114049E+00    5.5836529786428084E+00    8.4496110218611857E+00
Ga    3.2541506234145361E+00    5.5838221538098267E+00    1.0448802550332219E+01
N    3.2577033172564631E+00    7.4608061114766846E+00    1.1037571801431962E+01
Ga    3.2573052037533512E+00    7.4644209563561743E+00    1.3032225884370730E+01
N    3.2428859763012055E+00    5.5871877867376494E+00    1.3590925378989205E+01
Ga    3.2411941866237153E+00    5.5960555738089779E+00    1.5584652442544368E+01
N    3.2725550209401488E+00    7.4661877974823119E+00    1.6131153310219723E+01
Ga    3.3341623552961415E+00    7.4372783628149763E+00    1.8135780847850775E+01
N    3.4443459448344598E+00    5.4839408525652269E+00    1.8323160359952720E+01
O    1.6007520816861771E+00    5.0963666173389832E+00    2.1226471037810168E+01
H    1.0187077347734914E+00    5.3813432036762610E+00    2.0435471010151584E+01
C    1.0197905753286520E+00    3.8040987111149334E+00    2.1678685285763265E+01
H    1.2601834597768469E+00    3.0081149291518288E+00    2.0953896682521187E+01
H    1.4593199042488350E+00    3.5779157380193802E+00    2.2656383184786918E+01
H   -6.9269586965711741E-02    3.9017905521496248E+00    2.1767012227252156E+01
O    4.2196367500387515E+00    4.8334585553988170E+00    2.1035704360563287E+01
H    3.1977216266069135E+00    4.9568181871802599E+00    2.1044736047675936E+01
C    4.5993683641881020E+00    3.8525496543213014E+00    2.2034269450801840E+01
H    4.2790977753510600E+00    2.8437329070868262E+00    2.1739416756693487E+01
H    5.6921338749358403E+00    3.8745099320915899E+00    2.2116419570626601E+01
H    4.1551811833558094E+00    4.1312452428098538E+00    2.2997974449686193E+01
     &END COORD
     &KIND C
       BASIS_SET DZVP-MOLOPT-SR-GTH-q4
       POTENTIAL GTH-PBE-q4
       &POTENTIAL
 2 2
  0.3384712400000000E+00 2 -0.8803673979999999E+01  0.1339210850000000E+01
 2
  0.3025757500000000E+00 1  0.9622486650000001E+01
  0.2915069400000000E+00 0
         # Potential name:  GTH-PBE-Q4  for symbol:  C
         # Potential read from the potential filename: GTH_POTENTIALS
       &END POTENTIAL
     &END KIND
     &KIND O
       BASIS_SET DZVP-MOLOPT-SR-GTH-q6
       POTENTIAL GTH-PBE-q6
       &POTENTIAL
 2 4
  0.2445543000000000E+00 2 -0.1666721480000000E+02  0.2487311320000000E+01
 2
  0.2209559200000000E+00 1  0.1833745811000000E+02
  0.2113324700000000E+00 0
         # Potential name:  GTH-PBE-Q6  for symbol:  O
         # Potential read from the potential filename: GTH_POTENTIALS
       &END POTENTIAL
     &END KIND
     &KIND H
       BASIS_SET DZVP-MOLOPT-SR-GTH-q1
       POTENTIAL GTH-PBE-q1
       &POTENTIAL
 1
  0.2000000000000000E+00 2 -0.4178900440000000E+01  0.7244633100000000E+00
 0
         # Potential name:  GTH-PBE-Q1  for symbol:  H
         # Potential read from the potential filename: GTH_POTENTIALS
       &END POTENTIAL
     &END KIND
     &KIND N
       BASIS_SET DZVP-MOLOPT-SR-GTH-q5
       POTENTIAL GTH-PBE-q5
       &POTENTIAL
 2 3
  0.2837905100000000E+00 2 -0.1241522559000000E+02  0.1868095920000000E+01
 2
  0.2554050000000000E+00 1  0.1363026257000000E+02
  0.2454945300000000E+00 0
         # Potential name:  GTH-PBE-Q5  for symbol:  N
         # Potential read from the potential filename: GTH_POTENTIALS
       &END POTENTIAL
     &END KIND
     &KIND Ga
       BASIS_SET DZVP-MOLOPT-SR-GTH-q13
       POTENTIAL GTH-PBE-q13
       &POTENTIAL
 2 1 10
  0.4900000000000000E+00 0
 3
  0.4167772300000000E+00 3  0.1047568975000000E+02 -0.4921768140000000E+01  0.8707055900000000E+00
  0.7770178090000000E+01 -0.2248152160000000E+01
  0.1784415450000000E+01
  0.5696265200000000E+00 2  0.1777985340000000E+01  0.1958597600000000E+00
 -0.2317443900000000E+00
  0.2381265000000000E+00 1 -0.1624868022000000E+02
         # Potential name:  GTH-PBE-Q13  for symbol:  GA
         # Potential read from the potential filename: GTH_POTENTIALS
       &END POTENTIAL
     &END KIND
     &TOPOLOGY
       COORD_FILE_NAME ../start-first.xyz
       COORD_FILE_FORMAT  XYZ
       NUMBER_OF_ATOMS  156
       MULTIPLE_UNIT_CELL  1 1 1
     &END TOPOLOGY
     &COLVAR
       &DISTANCE
         ATOMS  145 147
       &END DISTANCE
       &PRINT
       &END PRINT
     &END COLVAR
   &END SUBSYS
 &END FORCE_EVAL
