 # Version information for this restart file 
 # current date 2019-05-28 00:16:27.782
 # current working dir /lustre03/project/6004141/rzk/GaN-carbene/334-native/08-2Methanol-Htransfer/03-CO-constraint/1.54
 # Program compiled at                              Sun Apr  7 00:48:11 EDT 2019
 # Program compiled on                          beluga2.int.ets1.calculquebec.ca
 # Program compiled for                        Beluga-Linux-x86-64-intel-openmpi
 # Source code revision number                                         svn:18619
 &GLOBAL
   PRINT_LEVEL  MEDIUM
   PROJECT_NAME TEST
   RUN_TYPE  GEO_OPT
 &END GLOBAL
 &MOTION
   &GEO_OPT
     MAX_ITER  500
     STEP_START_VAL  126
   &END GEO_OPT
   &CONSTRAINT
     &COLLECTIVE
       COLVAR  1
       INTERMOLECULAR  T
       TARGET     2.9101782446438902E+00
       &RESTRAINT
         K     1.0000000000000001E-01
       &END RESTRAINT
     &END COLLECTIVE
     &COLVAR_RESTART
           2.9101782446438902E+00
     &END COLVAR_RESTART
   &END CONSTRAINT
 &END MOTION
 &FORCE_EVAL
   METHOD  QS
   STRESS_TENSOR  ANALYTICAL
   &DFT
     BASIS_SET_FILE_NAME BASIS_MOLOPT
     POTENTIAL_FILE_NAME GTH_POTENTIALS
     &SCF
       MAX_SCF  100
       EPS_SCF     5.0000000000000004E-06
       &OT  T
         PRECONDITIONER  FULL_ALL
       &END OT
       &OUTER_SCF  T
         OPTIMIZER  NONE
         EPS_SCF     5.0000000000000004E-06
         MAX_SCF  4
       &END OUTER_SCF
       &PRINT
         &RESTART  OFF
           BACKUP_COPIES  1
           &EACH
             JUST_ENERGY  0
             QS_SCF  0
             MD  20
           &END EACH
         &END RESTART
       &END PRINT
     &END SCF
     &QS
       EPS_DEFAULT     1.0000000000000000E-14
       ALMO_SCF  F
       METHOD  GPW
     &END QS
     &MGRID
       NGRIDS  5
       CUTOFF     1.2000000000000000E+03
     &END MGRID
     &XC
       DENSITY_CUTOFF     1.0000000000000000E-10
       GRADIENT_CUTOFF     1.0000000000000000E-10
       TAU_CUTOFF     1.0000000000000000E-10
       &XC_FUNCTIONAL  NO_SHORTCUT
         &PBE  T
         &END PBE
       &END XC_FUNCTIONAL
       &VDW_POTENTIAL
         POTENTIAL_TYPE  PAIR_POTENTIAL
         &PAIR_POTENTIAL
           R_CUTOFF     1.0000000000000005E+01
           TYPE  DFTD3
           PARAMETER_FILE_NAME dftd3.dat
           REFERENCE_FUNCTIONAL PBE
           EPS_CN     9.9999999999999995E-07
           CALCULATE_C9_TERM  T
           REFERENCE_C9_TERM  T
           LONG_RANGE_CORRECTION  F
           VERBOSE_OUTPUT  F
         &END PAIR_POTENTIAL
       &END VDW_POTENTIAL
     &END XC
   &END DFT
   &SUBSYS
     &CELL
       A     9.7367653356401487E+00    0.0000000000000000E+00    0.0000000000000000E+00
       B    -4.8591341382960209E+00    8.4162672083210595E+00    0.0000000000000000E+00
       C     0.0000000000000000E+00    0.0000000000000000E+00    3.0744000000000000E+01
       MULTIPLE_UNIT_CELL  1 1 1
       &CELL_REF
         A     9.5580000000000052E+00    0.0000000000000000E+00    0.0000000000000000E+00
         B    -4.7790000000000026E+00    8.2774708093716640E+00    0.0000000000000000E+00
         C     0.0000000000000000E+00    0.0000000000000000E+00    3.0744000000000000E+01
         MULTIPLE_UNIT_CELL  1 1 1
       &END CELL_REF
     &END CELL
     &COORD
Ga    2.1421999720898002E-03   -2.6148804629172656E-02   -5.3969834192475807E-01
N    5.0648756844108083E-03    1.8481033692346613E+00    6.0301021409068378E-01
Ga    4.5872462134447650E-03    1.8168269580432841E+00    2.6344140478762990E+00
N    1.4917232909121567E-03   -2.6722525489600819E-02    3.2654295155350406E+00
Ga    1.8345709729851525E-03   -2.6152923457226668E-02    5.2558624554743183E+00
N    4.8778428517250103E-03    1.8484627491668575E+00    5.8438036113675915E+00
Ga    5.8360757366244017E-03    1.8454765328294120E+00    7.8433433666257590E+00
N    4.8621764904790057E-03   -2.7376800058428588E-02    8.4442032907984075E+00
Ga    6.9790139027812890E-03   -2.8204205538421383E-02    1.0442269146530087E+01
N    5.4014510606331589E-03    1.8442365275959329E+00    1.1044363880201923E+01
Ga    1.2336254249216760E-02    1.8400833768365179E+00    1.3038425466334751E+01
N    2.0643733584313591E-02   -3.2593625353407540E-02    1.3632363424040333E+01
Ga    3.8998214397853191E-02   -5.4540344649392884E-02    1.5625573495092809E+01
N    3.5596638398857419E-02    1.8266492163371926E+00    1.6201059061777485E+01
Ga    5.8225014012744568E-02    1.8076330336601696E+00    1.8254771742637416E+01
N    4.8912785057313460E-02   -6.4541862772800232E-02    1.8658168039349015E+01
Ga   -1.6180124952578707E+00    2.7785775089761233E+00    3.2067799379744144E-01
N   -1.6184405350566167E+00    4.6489131436377340E+00    6.0278528162668121E-01
Ga   -1.5909712061277157E+00    4.6643662830555161E+00    2.6340704424154380E+00
N   -1.6178975891035576E+00    2.7788011527469001E+00    3.2245433198531046E+00
Ga   -1.6175487851709478E+00    2.7793561386732528E+00    5.2358667944760953E+00
N   -1.6173062058909544E+00    4.6492518979562947E+00    5.8424151557837787E+00
Ga   -1.6165151942687284E+00    4.6488529972328827E+00    7.8409030515238536E+00
N   -1.6169230606771945E+00    2.7786827202712239E+00    8.4474480665580280E+00
Ga   -1.6173685825070869E+00    2.7797656983346912E+00    1.0443497441465949E+01
N   -1.6184730186640879E+00    4.6499265360024458E+00    1.1051637928032093E+01
Ga   -1.6227204738983760E+00    4.6478270198369911E+00    1.3049627685161257E+01
N   -1.6045414218616085E+00    2.7789262075797869E+00    1.3665681752950640E+01
Ga   -1.5989713661279938E+00    2.7906090942034867E+00    1.5675179759370172E+01
N   -1.5903381334761124E+00    4.6557487106887203E+00    1.6307637503895208E+01
Ga   -1.4896147079219293E+00    4.6466582919213657E+00    1.8388448901013064E+01
N   -1.5360395357554186E+00    2.7466109644257775E+00    1.8699507547190276E+01
Ga   -3.2383519584982401E+00    5.5840752326432401E+00    3.2076149014905636E-01
N   -3.2312791333184907E+00    7.4546788453892674E+00    6.0294060911060643E-01
Ga   -3.2592814504885443E+00    7.4697748010007325E+00    2.6343239344994864E+00
N   -3.2377163451612780E+00    5.5841653243943554E+00    3.2246513109891333E+00
Ga   -3.2376774276635714E+00    5.5843117068432910E+00    5.2360793531176189E+00
N   -3.2316859586461599E+00    7.4548116687260144E+00    5.8416995625121828E+00
Ga   -3.2327967381436467E+00    7.4544029084122307E+00    7.8401730709036910E+00
N   -3.2371905897014868E+00    5.5837399474750802E+00    8.4439151733762507E+00
Ga   -3.2374580441851930E+00    5.5816071676302679E+00    1.0438574352528327E+01
N   -3.2288095470699498E+00    7.4502049682831988E+00    1.1049328751011574E+01
Ga   -3.2208059949322547E+00    7.4426730080146379E+00    1.3047486521769455E+01
N   -3.2409122877975003E+00    5.5757855142993478E+00    1.3688773720783546E+01
Ga   -3.2213874645724414E+00    5.5706153208711298E+00    1.5726412424168773E+01
N   -3.1987108304188077E+00    7.4354235059041711E+00    1.6283926859739886E+01
Ga   -3.1804744174894792E+00    7.3964585162892984E+00    1.8346783376605686E+01
N   -3.1278745689561180E+00    5.5387276673564187E+00    1.8880467195823432E+01
Ga    3.2482788657752537E+00   -2.6301970302654177E-02    3.2096771201361851E-01
N    3.2465837278600160E+00    1.8433277226360165E+00    6.0365080544044558E-01
Ga    3.2747066489123324E+00    1.8593154380582655E+00    2.6338341248775579E+00
N    3.2475291120085887E+00   -2.6595563483659136E-02    3.2244504868779487E+00
Ga    3.2483939776902786E+00   -2.5840970186531104E-02    5.2359599105916246E+00
N    3.2486995350591421E+00    1.8442032600950899E+00    5.8428081512444807E+00
Ga    3.2497812179143364E+00    1.8437110425839125E+00    7.8415880766024300E+00
N    3.2471095336008458E+00   -2.7105002945872324E-02    8.4435863127599067E+00
Ga    3.2491382577789776E+00   -2.8224022943809188E-02    1.0437804409705077E+01
N    3.2558684481518809E+00    1.8415726955920610E+00    1.1045914064071992E+01
Ga    3.2632960153414476E+00    1.8340394060125391E+00    1.3042410668837357E+01
N    3.2530930727688339E+00   -3.3549067654929425E-02    1.3664547432977296E+01
Ga    3.2643038097312886E+00   -3.9353497452031407E-02    1.5675506830701170E+01
N    3.2895241229702132E+00    1.8269273131956605E+00    1.6256729644682942E+01
Ga    3.3416749064820741E+00    1.8199714328102405E+00    1.8295074006027914E+01
N    3.3116472116790816E+00   -6.9187129268041533E-02    1.8745473933499106E+01
Ga    1.6279925667104420E+00    2.7791465908765418E+00    3.2078368911598965E-01
N    1.6337766590524871E+00    4.6495158961425407E+00    6.0316708618238846E-01
Ga    1.6062593117062023E+00    4.6645275079028190E+00    2.6344301765019975E+00
N    1.6275906565677212E+00    2.7789142593684883E+00    3.2253343777981542E+00
Ga    1.6283912196670014E+00    2.7798065241452923E+00    5.2371232407003907E+00
N    1.6334383387516964E+00    4.6495785671528234E+00    5.8451885880179493E+00
Ga    1.6326706514583607E+00    4.6491130525577740E+00    7.8456421624300319E+00
N    1.6291871815531092E+00    2.7767567037606002E+00    8.4457892535147643E+00
Ga    1.6306100368103229E+00    2.7753845475243630E+00    1.0441575045038995E+01
N    1.6261506512483062E+00    4.6467942759826197E+00    1.1036039030285794E+01
Ga    1.6221078209727460E+00    4.6462911811452150E+00    1.3029552517249581E+01
N    1.6384199901336347E+00    2.7676410780178426E+00    1.3633165637768538E+01
Ga    1.6671736359026010E+00    2.7571932094358593E+00    1.5624502716045214E+01
N    1.6218820410179076E+00    4.6380657336762114E+00    1.6126253970501541E+01
Ga    1.6992240654111070E+00    4.6002125896100639E+00    1.8105411222440448E+01
N    1.6933787093830104E+00    2.7503847538368502E+00    1.8602022623090459E+01
Ga    8.2908227224056576E-03    5.5844183298171721E+00   -5.4329224896686268E-01
N    1.1364130096043845E-02    7.4583591317082831E+00    6.0298642523820745E-01
Ga    1.1008725990762427E-02    7.4275284207438785E+00    2.6343644849108618E+00
N    7.8784442233929518E-03    5.5840415287779219E+00    3.2657928152167828E+00
Ga    8.7570974507765291E-03    5.5846908213580022E+00    5.2562478152191874E+00
N    1.1576855889639139E-02    7.4593456460509122E+00    5.8435572283345367E+00
Ga    1.1609719950771752E-02    7.4573905940885181E+00    7.8429797851285832E+00
N    6.5319901482022600E-03    5.5836127113103808E+00    8.4424563256939980E+00
Ga    4.8741885871580815E-03    5.5827883435810532E+00    1.0439567810863712E+01
N    1.2076533642211850E-02    7.4561779586463324E+00    1.1038113907511461E+01
Ga    1.1157313642855878E-02    7.4588477519492438E+00    1.3030129748814742E+01
N   -1.0630598122054909E-03    5.5882279028442570E+00    1.3627534689844154E+01
Ga   -7.2751050378293866E-04    5.5765489466382059E+00    1.5622096754674875E+01
N    4.0823569620700009E-02    7.4431148097547704E+00    1.6256393181557083E+01
Ga    6.7780107604474199E-02    7.3984096158301593E+00    1.8344834252196147E+01
N    1.8458475061103261E-01    5.5395863492900936E+00    1.8879633661932605E+01
Ga    6.4923530562853982E+00   -2.5671562398897025E-02    3.2043284570208447E-01
N    6.4992857682651213E+00    1.8438698815876089E+00    6.0363239812524050E-01
Ga    6.4710074977227068E+00    1.8593227534803385E+00    2.6337471611396364E+00
N    6.4930236019297825E+00   -2.6413614829982404E-02    3.2253540991430785E+00
Ga    6.4938650041351291E+00   -2.5670334593772479E-02    5.2372533647593915E+00
N    6.4988415796655339E+00    1.8448055536687236E+00    5.8432794254980580E+00
Ga    6.4978428319039381E+00    1.8448453336534307E+00    7.8420988765452631E+00
N    6.4931775932480686E+00   -2.4837336581852939E-02    8.4461252425128350E+00
Ga    6.4944886951691601E+00   -2.1426649941518314E-02    1.0442464425269998E+01
N    6.4971705969443958E+00    1.8500714394578965E+00    1.1052450798953524E+01
Ga    6.5009395729691581E+00    1.8547937912812820E+00    1.3051529953820724E+01
N    6.4889737683688207E+00   -1.8715885746754930E-02    1.3626887870545756E+01
Ga    6.5046592506548135E+00   -1.4218942513782940E-02    1.5627129579358582E+01
N    6.5136057108605794E+00    1.8522638809849525E+00    1.6242058256870667E+01
Ga    6.5790930866365658E+00    1.8180298812144582E+00    1.8292879479574882E+01
N    6.5786859226630350E+00   -8.5103099156856793E-02    1.8659406716907306E+01
Ga    4.8737745920185471E+00    2.7799044802109099E+00   -5.5039406260737500E-01
N    4.8764290874240022E+00    4.6537386955974798E+00    6.0407606361260380E-01
Ga    4.8758280915369880E+00    4.6219593925139799E+00    2.6340552425198358E+00
N    4.8731845112620205E+00    2.7788315537996939E+00    3.2657800304148283E+00
Ga    4.8738362813941150E+00    2.7798980900066290E+00    5.2555825159574585E+00
N    4.8762292195050918E+00    4.6538791091905152E+00    5.8437262453468453E+00
Ga    4.8751486982733061E+00    4.6522728152115382E+00    7.8431468689283488E+00
N    4.8738706285725035E+00    2.7787731447059132E+00    8.4436801698439599E+00
Ga    4.8762111216897619E+00    2.7807771295751489E+00    1.0441220239614520E+01
N    4.8799191952101850E+00    4.6501804314468647E+00    1.1048413241935439E+01
Ga    4.8787803372220422E+00    4.6510793080107478E+00    1.3048760841709273E+01
N    4.8737231693399767E+00    2.7829021537862553E+00    1.3662894660359131E+01
Ga    4.8779927788869921E+00    2.7764442714391731E+00    1.5683683193987818E+01
N    4.8383556025936798E+00    4.6674972033426778E+00    1.6147933465161081E+01
Ga    4.9701861906610851E+00    4.5985727411969242E+00    1.9105221247266311E+01
N    4.9610309559452421E+00    2.7126344369780484E+00    1.8827439308278738E+01
Ga    3.2544407508261854E+00    5.5836756772820033E+00    3.2061402969783653E-01
N    3.2526292845498799E+00    7.4541911748103828E+00    6.0277645417531101E-01
Ga    3.2803686660961628E+00    7.4697499280404660E+00    2.6342496617041724E+00
N    3.2534026843776060E+00    5.5844834272851731E+00    3.2256142088010873E+00
Ga    3.2538111993578989E+00    5.5850274813837748E+00    5.2375738152237528E+00
N    3.2544880851539459E+00    7.4551685174616233E+00    5.8454375580021267E+00
Ga    3.2561064379163609E+00    7.4548693017862044E+00    7.8461256006436377E+00
N    3.2539596992904447E+00    5.5839792941408497E+00    8.4494291980501313E+00
Ga    3.2545618755367114E+00    5.5841839558421489E+00    1.0448678178142584E+01
N    3.2582089888508396E+00    7.4611575844552727E+00    1.1037404502376415E+01
Ga    3.2577590570717603E+00    7.4648505011416173E+00    1.3032141503127937E+01
N    3.2433093001437725E+00    5.5877224420036846E+00    1.3591215081648171E+01
Ga    3.2421107040709249E+00    5.5965926911630799E+00    1.5585174648908994E+01
N    3.2733605151957614E+00    7.4671862516854404E+00    1.6130978187881485E+01
Ga    3.3346830116176234E+00    7.4383589766783569E+00    1.8135648467275907E+01
N    3.4448346288101637E+00    5.4846070640361395E+00    1.8322756050570785E+01
O    1.5993664491031303E+00    5.0939509107419871E+00    2.1227814888193468E+01
H    1.0174171979397779E+00    5.3793394054003869E+00    2.0437005095509676E+01
C    1.0186883528678894E+00    3.8016236003098696E+00    2.1680166685206384E+01
H    1.2593698900050481E+00    3.0056693699520607E+00    2.0955611497139309E+01
H    1.4582588724284782E+00    3.5758696900110767E+00    2.2657808151814866E+01
H   -7.0250717268992915E-02    3.8989346761378916E+00    2.1769198654772442E+01
O    4.2188217454660251E+00    4.8325684680972705E+00    2.1035920458683606E+01
H    3.1967048185941165E+00    4.9551227650352221E+00    2.1044776353317186E+01
C    4.5983578095135593E+00    3.8505556466062565E+00    2.2033534972144146E+01
H    4.2822779635550168E+00    2.8413858825234888E+00    2.1735354666835065E+01
H    5.6908029690454249E+00    3.8759188879244850E+00    2.2119528686032243E+01
H    4.1500706330984505E+00    4.1257936497269396E+00    2.2996267787034927E+01
     &END COORD
     &KIND C
       BASIS_SET DZVP-MOLOPT-SR-GTH-q4
       POTENTIAL GTH-PBE-q4
       &POTENTIAL
 2 2
  0.3384712400000000E+00 2 -0.8803673979999999E+01  0.1339210850000000E+01
 2
  0.3025757500000000E+00 1  0.9622486650000001E+01
  0.2915069400000000E+00 0
         # Potential name:  GTH-PBE-Q4  for symbol:  C
         # Potential read from the potential filename: GTH_POTENTIALS
       &END POTENTIAL
     &END KIND
     &KIND O
       BASIS_SET DZVP-MOLOPT-SR-GTH-q6
       POTENTIAL GTH-PBE-q6
       &POTENTIAL
 2 4
  0.2445543000000000E+00 2 -0.1666721480000000E+02  0.2487311320000000E+01
 2
  0.2209559200000000E+00 1  0.1833745811000000E+02
  0.2113324700000000E+00 0
         # Potential name:  GTH-PBE-Q6  for symbol:  O
         # Potential read from the potential filename: GTH_POTENTIALS
       &END POTENTIAL
     &END KIND
     &KIND H
       BASIS_SET DZVP-MOLOPT-SR-GTH-q1
       POTENTIAL GTH-PBE-q1
       &POTENTIAL
 1
  0.2000000000000000E+00 2 -0.4178900440000000E+01  0.7244633100000000E+00
 0
         # Potential name:  GTH-PBE-Q1  for symbol:  H
         # Potential read from the potential filename: GTH_POTENTIALS
       &END POTENTIAL
     &END KIND
     &KIND N
       BASIS_SET DZVP-MOLOPT-SR-GTH-q5
       POTENTIAL GTH-PBE-q5
       &POTENTIAL
 2 3
  0.2837905100000000E+00 2 -0.1241522559000000E+02  0.1868095920000000E+01
 2
  0.2554050000000000E+00 1  0.1363026257000000E+02
  0.2454945300000000E+00 0
         # Potential name:  GTH-PBE-Q5  for symbol:  N
         # Potential read from the potential filename: GTH_POTENTIALS
       &END POTENTIAL
     &END KIND
     &KIND Ga
       BASIS_SET DZVP-MOLOPT-SR-GTH-q13
       POTENTIAL GTH-PBE-q13
       &POTENTIAL
 2 1 10
  0.4900000000000000E+00 0
 3
  0.4167772300000000E+00 3  0.1047568975000000E+02 -0.4921768140000000E+01  0.8707055900000000E+00
  0.7770178090000000E+01 -0.2248152160000000E+01
  0.1784415450000000E+01
  0.5696265200000000E+00 2  0.1777985340000000E+01  0.1958597600000000E+00
 -0.2317443900000000E+00
  0.2381265000000000E+00 1 -0.1624868022000000E+02
         # Potential name:  GTH-PBE-Q13  for symbol:  GA
         # Potential read from the potential filename: GTH_POTENTIALS
       &END POTENTIAL
     &END KIND
     &TOPOLOGY
       COORD_FILE_NAME ../start-first.xyz
       COORD_FILE_FORMAT  XYZ
       NUMBER_OF_ATOMS  156
       MULTIPLE_UNIT_CELL  1 1 1
     &END TOPOLOGY
     &COLVAR
       &DISTANCE
         ATOMS  145 147
       &END DISTANCE
       &PRINT
       &END PRINT
     &END COLVAR
   &END SUBSYS
 &END FORCE_EVAL
