 # Version information for this restart file 
 # current date 2019-05-27 22:25:01.560
 # current working dir /lustre03/project/6004141/rzk/GaN-carbene/334-native/08-2Methanol-Htransfer/02-NH-constraint/2.84
 # Program compiled at                              Sun Apr  7 00:48:11 EDT 2019
 # Program compiled on                          beluga2.int.ets1.calculquebec.ca
 # Program compiled for                        Beluga-Linux-x86-64-intel-openmpi
 # Source code revision number                                         svn:18619
 &GLOBAL
   PRINT_LEVEL  MEDIUM
   PROJECT_NAME TEST
   RUN_TYPE  GEO_OPT
 &END GLOBAL
 &MOTION
   &GEO_OPT
     MAX_ITER  500
     STEP_START_VAL  86
   &END GEO_OPT
   &CONSTRAINT
     &COLLECTIVE
       COLVAR  1
       INTERMOLECULAR  T
       TARGET     5.3668222173952254E+00
       &RESTRAINT
         K     1.0000000000000001E-01
       &END RESTRAINT
     &END COLLECTIVE
     &COLVAR_RESTART
           5.3668222173952254E+00
     &END COLVAR_RESTART
   &END CONSTRAINT
 &END MOTION
 &FORCE_EVAL
   METHOD  QS
   STRESS_TENSOR  ANALYTICAL
   &DFT
     BASIS_SET_FILE_NAME BASIS_MOLOPT
     POTENTIAL_FILE_NAME GTH_POTENTIALS
     &SCF
       MAX_SCF  100
       EPS_SCF     5.0000000000000004E-06
       &OT  T
         PRECONDITIONER  FULL_ALL
       &END OT
       &OUTER_SCF  T
         OPTIMIZER  NONE
         EPS_SCF     5.0000000000000004E-06
         MAX_SCF  4
       &END OUTER_SCF
       &PRINT
         &RESTART  OFF
           BACKUP_COPIES  1
           &EACH
             JUST_ENERGY  0
             QS_SCF  0
             MD  20
           &END EACH
         &END RESTART
       &END PRINT
     &END SCF
     &QS
       EPS_DEFAULT     1.0000000000000000E-14
       ALMO_SCF  F
       METHOD  GPW
     &END QS
     &MGRID
       NGRIDS  5
       CUTOFF     1.2000000000000000E+03
     &END MGRID
     &XC
       DENSITY_CUTOFF     1.0000000000000000E-10
       GRADIENT_CUTOFF     1.0000000000000000E-10
       TAU_CUTOFF     1.0000000000000000E-10
       &XC_FUNCTIONAL  NO_SHORTCUT
         &PBE  T
         &END PBE
       &END XC_FUNCTIONAL
       &VDW_POTENTIAL
         POTENTIAL_TYPE  PAIR_POTENTIAL
         &PAIR_POTENTIAL
           R_CUTOFF     1.0000000000000005E+01
           TYPE  DFTD3
           PARAMETER_FILE_NAME dftd3.dat
           REFERENCE_FUNCTIONAL PBE
           EPS_CN     9.9999999999999995E-07
           CALCULATE_C9_TERM  T
           REFERENCE_C9_TERM  T
           LONG_RANGE_CORRECTION  F
           VERBOSE_OUTPUT  F
         &END PAIR_POTENTIAL
       &END VDW_POTENTIAL
     &END XC
   &END DFT
   &SUBSYS
     &CELL
       A     9.7367653356401487E+00    0.0000000000000000E+00    0.0000000000000000E+00
       B    -4.8591341382960209E+00    8.4162672083210595E+00    0.0000000000000000E+00
       C     0.0000000000000000E+00    0.0000000000000000E+00    3.0744000000000000E+01
       MULTIPLE_UNIT_CELL  1 1 1
       &CELL_REF
         A     9.5580000000000052E+00    0.0000000000000000E+00    0.0000000000000000E+00
         B    -4.7790000000000026E+00    8.2774708093716640E+00    0.0000000000000000E+00
         C     0.0000000000000000E+00    0.0000000000000000E+00    3.0744000000000000E+01
         MULTIPLE_UNIT_CELL  1 1 1
       &END CELL_REF
     &END CELL
     &COORD
Ga    7.9949093671628450E-03   -2.3309008202298497E-02   -5.4682032058313335E-01
N    1.1009095277542326E-02    1.8513377409560650E+00    6.0622586551428059E-01
Ga    1.0586224180065792E-02    1.8204244114246602E+00    2.6360428158474138E+00
N    7.6567965297426408E-03   -2.3053086584302048E-02    3.2686792539925862E+00
Ga    8.1082730693011092E-03   -2.1946389661099366E-02    5.2582756425642607E+00
N    1.1099195061924784E-02    1.8527376519385632E+00    5.8475721893070265E+00
Ga    1.2461845249637232E-02    1.8505053234304238E+00    7.8460616590559322E+00
N    1.1281130228213131E-02   -2.2433140235095631E-02    8.4481500819278033E+00
Ga    1.3919372216693390E-02   -2.2735299117503546E-02    1.0445331126351530E+01
N    1.2256105577752139E-02    1.8497690142883403E+00    1.1048817006896897E+01
Ga    2.0153554020835768E-02    1.8460541156308294E+00    1.3041917794182680E+01
N    2.8009186817685806E-02   -2.6354550314933119E-02    1.3636902516358520E+01
Ga    4.8015184004844412E-02   -4.9573704141974352E-02    1.5629083202194911E+01
N    4.1803533934263455E-02    1.8311676771695384E+00    1.6210228131271659E+01
Ga    7.1853873052472678E-02    1.8058788362780178E+00    1.8267120887198381E+01
N    6.1519028082945119E-02   -6.6308513576530323E-02    1.8669390097697672E+01
Ga   -1.6113065432481084E+00    2.7818062558688101E+00    3.2274646058437995E-01
N   -1.6130509669574136E+00    4.6516739415497979E+00    6.0671565507469560E-01
Ga   -1.5849808374616181E+00    4.6679208577420708E+00    2.6362434636399761E+00
N   -1.6118523087626888E+00    2.7823691353275439E+00    3.2281013394357743E+00
Ga   -1.6111652128094864E+00    2.7836850915023530E+00    5.2382822953282355E+00
N   -1.6111068364930339E+00    4.6534967293206160E+00    5.8462215085240130E+00
Ga   -1.6100385021227048E+00    4.6536747511194116E+00    7.8437241764005483E+00
N   -1.6106038435723118E+00    2.7834670082229893E+00    8.4513440450141495E+00
Ga   -1.6104001302882200E+00    2.7852963427555415E+00    1.0446464427817151E+01
N   -1.6119184931856079E+00    4.6551461707928077E+00    1.1056026675034001E+01
Ga   -1.6150599993377592E+00    4.6530939076250002E+00    1.3053180685159635E+01
N   -1.5964615650848732E+00    2.7842062241444192E+00    1.3672399756733146E+01
Ga   -1.5906875662703168E+00    2.7956824957583435E+00    1.5680579818509401E+01
N   -1.5837628204494243E+00    4.6600569267766536E+00    1.6312206235094383E+01
Ga   -1.4819915477895924E+00    4.6467443772517480E+00    1.8388942895607862E+01
N   -1.5138275629577944E+00    2.7496384712307145E+00    1.8734751000060665E+01
Ga   -3.2319207692864818E+00    5.5876062548615391E+00    3.2280572475835262E-01
N   -3.2251294321057644E+00    7.4576681897627823E+00    6.0620147777028510E-01
Ga   -3.2531970042305010E+00    7.4733266414303534E+00    2.6359211905090771E+00
N   -3.2317221931763123E+00    5.5878974120051383E+00    3.2283166375165271E+00
Ga   -3.2312975922297134E+00    5.5886999788619720E+00    5.2386386122359587E+00
N   -3.2254443584197792E+00    7.4591374860094879E+00    5.8456466134299729E+00
Ga   -3.2261009314863416E+00    7.4594107402169021E+00    7.8432295401798839E+00
N   -3.2309448160549361E+00    5.5885357448225790E+00    8.4477088281041937E+00
Ga   -3.2305013239925278E+00    5.5867062066628668E+00    1.0441435505827851E+01
N   -3.2222213031818914E+00    7.4551351947033409E+00    1.1053781366891972E+01
Ga   -3.2133081462889703E+00    7.4490341888095077E+00    1.3051337601448557E+01
N   -3.2338278091448625E+00    5.5808707798989623E+00    1.3692799673393973E+01
Ga   -3.2113625737689286E+00    5.5770070455922625E+00    1.5728711670178384E+01
N   -3.1893564619849291E+00    7.4417449176261572E+00    1.6283801123020126E+01
Ga   -3.1716345568497064E+00    7.3966579811870723E+00    1.8346229472336532E+01
N   -3.1187281595106509E+00    5.5380534045291823E+00    1.8887382213038357E+01
Ga    3.2540386094355345E+00   -2.3754581647633211E-02    3.2292508843190770E-01
N    3.2530299060461658E+00    1.8467004071968594E+00    6.0572346217556650E-01
Ga    3.2806578029328328E+00    1.8627682211251038E+00    2.6359263850967909E+00
N    3.2535756835754501E+00   -2.2779104106029967E-02    3.2278350599768051E+00
Ga    3.2545033642499819E+00   -2.1843199816713958E-02    5.2382966369535433E+00
N    3.2549651313701475E+00    1.8484820571591363E+00    5.8462159478152742E+00
Ga    3.2561212671061077E+00    1.8484704653559827E+00    7.8441227377075560E+00
N    3.2535040395944459E+00   -2.1926603853957189E-02    8.4484623034795074E+00
Ga    3.2559804378460377E+00   -2.2757739111576008E-02    1.0442380261494009E+01
N    3.2631239619002730E+00    1.8476265549471280E+00    1.1051815899327847E+01
Ga    3.2713563388889337E+00    1.8406406020675190E+00    1.3048287260828483E+01
N    3.2612357178625802E+00   -2.7523395205819635E-02    1.3667005815501232E+01
Ga    3.2751055966156652E+00   -3.4789357411370347E-02    1.5676911506599126E+01
N    3.3010845466168672E+00    1.8317133367278768E+00    1.6258525715795034E+01
Ga    3.3578498117536784E+00    1.8181394361536596E+00    1.8298531766868546E+01
N    3.3246020289090841E+00   -7.1290622868704440E-02    1.8744947101926098E+01
Ga    1.6333148057254911E+00    2.7822276598010793E+00    3.2281190240488727E-01
N    1.6402875728780160E+00    4.6523058834318674E+00    6.0674252070492907E-01
Ga    1.6121911607512533E+00    4.6680982312062795E+00    2.6364026008496815E+00
N    1.6338267606775370E+00    2.7824340221365045E+00    3.2286147832379313E+00
Ga    1.6344079366116697E+00    2.7840225517005197E+00    5.2393255369422649E+00
N    1.6396998034046997E+00    4.6538501596696609E+00    5.8488692370789259E+00
Ga    1.6390773060859285E+00    4.6537479242624187E+00    7.8483400527657139E+00
N    1.6358362382388101E+00    2.7815641739755086E+00    8.4499870835179749E+00
Ga    1.6375254588140140E+00    2.7808216121746439E+00    1.0445121669810572E+01
N    1.6330026866451497E+00    4.6520598278656831E+00    1.1040435291892457E+01
Ga    1.6287087963658178E+00    4.6506658807363204E+00    1.3033114590519469E+01
N    1.6455795959413968E+00    2.7725797736198095E+00    1.3639739371361340E+01
Ga    1.6762768961619923E+00    2.7616242234918920E+00    1.5632526143703753E+01
N    1.6294037246791389E+00    4.6454677776264868E+00    1.6125592068462510E+01
Ga    1.7129439261695207E+00    4.6031333013963742E+00    1.8103735466972321E+01
N    1.7108526335639174E+00    2.7515642511207901E+00    1.8576509009882106E+01
Ga    1.3815160352843983E-02    5.5869940551627169E+00   -5.4589472169204922E-01
N    1.7418141389894368E-02    7.4621281894943374E+00    6.0640525095924058E-01
Ga    1.7018615076710351E-02    7.4311240649921402E+00    2.6362739929803376E+00
N    1.3927249241102077E-02    5.5877592670207639E+00    3.2694014311400128E+00
Ga    1.4847232397179404E-02    5.5889077195787200E+00    5.2589634472197622E+00
N    1.7771604051733222E-02    7.4636552017813109E+00    5.8475832215399484E+00
Ga    1.7874511950700958E-02    7.4623205625131481E+00    7.8461986765439447E+00
N    1.3001311585962766E-02    5.5883921685105662E+00    8.4466672620861072E+00
Ga    1.1560319283051684E-02    5.5879556623720799E+00    1.0443161537059224E+01
N    1.9255086285886357E-02    7.4615367616543971E+00    1.1042302421174023E+01
Ga    1.9091428264305273E-02    7.4645671656891874E+00    1.3033483860445594E+01
N    6.0430605487960202E-03    5.5934840641427979E+00    1.3630645089964849E+01
Ga    6.2620063474021249E-03    5.5826153221182580E+00    1.5624484870981615E+01
N    5.1545027342192067E-02    7.4497970137495564E+00    1.6256434843229226E+01
Ga    8.0504581526071359E-02    7.3988853582494079E+00    1.8341820691567086E+01
N    1.9717641557634713E-01    5.5411558739629170E+00    1.8874602605433470E+01
Ga    6.4986756366549594E+00   -2.2976710661505126E-02    3.2267978130983016E-01
N    6.5051965739248976E+00    1.8472459147277118E+00    6.0619152284452804E-01
Ga    6.4774451223177900E+00    1.8629374028015822E+00    2.6361039471556476E+00
N    6.4991235644676948E+00   -2.2593363651293358E-02    3.2287584517755183E+00
Ga    6.5001251715537238E+00   -2.1499982090722833E-02    5.2395603107962563E+00
N    6.5051153889635325E+00    1.8491335888027329E+00    5.8467622410233773E+00
Ga    6.5039538889884572E+00    1.8497404562767641E+00    7.8446258096976438E+00
N    6.4996215824699499E+00   -1.9704454158269491E-02    8.4503133418986547E+00
Ga    6.5013022489385568E+00   -1.5894090684604747E-02    1.0445903436711609E+01
N    6.5040096585200899E+00    1.8560584914264195E+00    1.1057534613000000E+01
Ga    6.5085458201994761E+00    1.8611769605757249E+00    1.3055711118962456E+01
N    6.4968964164395508E+00   -1.1607460796056556E-02    1.3631975899176464E+01
Ga    6.5140589537064093E+00   -6.0054365082253085E-03    1.5631574834270882E+01
N    6.5235586720182592E+00    1.8586961586431217E+00    1.6256023146197951E+01
Ga    6.6000177763767711E+00    1.8223781680073208E+00    1.8309848128846628E+01
N    6.5942910886402561E+00   -8.7112636180065650E-02    1.8664263888289188E+01
Ga    4.8806077017453058E+00    2.7830561452568636E+00   -5.4269071393552537E-01
N    4.8825628566791339E+00    4.6564852366187770E+00    6.0653265149730418E-01
Ga    4.8821625549047329E+00    4.6259148855197845E+00    2.6364794656666013E+00
N    4.8792924493274850E+00    2.7825159791692267E+00    3.2684290330350239E+00
Ga    4.8801973220868220E+00    2.7842313415626165E+00    5.2578254652239718E+00
N    4.8824647553737144E+00    4.6582247155611505E+00    5.8471612941784139E+00
Ga    4.8812993313663453E+00    4.6569306303235285E+00    7.8455806771976455E+00
N    4.8801259613849730E+00    2.7836283951352518E+00    8.4475540928375104E+00
Ga    4.8830033499482095E+00    2.7861170421329553E+00    1.0444133762510880E+01
N    4.8867287927701533E+00    4.6555107790518120E+00    1.1052270884151724E+01
Ga    4.8858988046840457E+00    4.6568449546727884E+00    1.3050939769041710E+01
N    4.8824598909142667E+00    2.7905626629495242E+00    1.3671180380691563E+01
Ga    4.8894016717421058E+00    2.7828770526273852E+00    1.5692853828663115E+01
N    4.8433413429859593E+00    4.6770192786305920E+00    1.6157733821282346E+01
Ga    4.9802198921872485E+00    4.5928392991964602E+00    1.9118005547511260E+01
N    4.9771068694684057E+00    2.7074478745780484E+00    1.8839724590102207E+01
Ga    3.2601715133702029E+00    5.5871949562099550E+00    3.2289530806738170E-01
N    3.2584545946096366E+00    7.4571924182396279E+00    6.0615421101640155E-01
Ga    3.2865523810582173E+00    7.4734255063233590E+00    2.6359054348724951E+00
N    3.2596368802972253E+00    5.5880940887125057E+00    3.2289714784959456E+00
Ga    3.2600274392976107E+00    5.5894450016897386E+00    5.2398027052758973E+00
N    3.2606836084894244E+00    7.4594998415657470E+00    5.8491875920332861E+00
Ga    3.2623737776172779E+00    7.4597130547275059E+00    7.8487983456776353E+00
N    3.2603226532834619E+00    5.5888480700797176E+00    8.4533652067490941E+00
Ga    3.2611687455022080E+00    5.5896669246154564E+00    1.0451740832842722E+01
N    3.2651113410052779E+00    7.4667213079276813E+00    1.1041448410401609E+01
Ga    3.2648350153138073E+00    7.4709647020833554E+00    1.3035077394428150E+01
N    3.2506666599771448E+00    5.5931867730076554E+00    1.3592774105537829E+01
Ga    3.2492754633376064E+00    5.6050956085709176E+00    1.5584419830704727E+01
N    3.2814072787379316E+00    7.4739769477753839E+00    1.6134298958903631E+01
Ga    3.3502380812782264E+00    7.4371705449456895E+00    1.8138081490820042E+01
N    3.4679170089801272E+00    5.4801221700356217E+00    1.8310266881843159E+01
O    1.5646707537931044E+00    4.9714661175813015E+00    2.1179803655422539E+01
H    9.8952549605781215E-01    5.3290282333010106E+00    2.0410895859987974E+01
C    9.0404325411769004E-01    3.7793220784464179E+00    2.1657210115496792E+01
H    1.2980230933355133E-01    3.4498153415990269E+00    2.0945657226142572E+01
H    1.6353619708334060E+00    2.9666808758071577E+00    2.1762400515783913E+01
H    4.3525891192980870E-01    3.9782929236453413E+00    2.2632103027086821E+01
O    4.1861211461956653E+00    4.8076582105678316E+00    2.1032088828818502E+01
H    3.1591661016961261E+00    4.8801443106630540E+00    2.1027946150689893E+01
C    4.5973799933154682E+00    3.8576483996564259E+00    2.2048818413143209E+01
H    4.4241916184161996E+00    2.8252908857839052E+00    2.1713325151284295E+01
H    5.6688653664583732E+00    4.0073421404259948E+00    2.2225812334145935E+01
H    4.0406141384995387E+00    4.0601400044417195E+00    2.2972145837840856E+01
     &END COORD
     &KIND C
       BASIS_SET DZVP-MOLOPT-SR-GTH-q4
       POTENTIAL GTH-PBE-q4
       &POTENTIAL
 2 2
  0.3384712400000000E+00 2 -0.8803673979999999E+01  0.1339210850000000E+01
 2
  0.3025757500000000E+00 1  0.9622486650000001E+01
  0.2915069400000000E+00 0
         # Potential name:  GTH-PBE-Q4  for symbol:  C
         # Potential read from the potential filename: GTH_POTENTIALS
       &END POTENTIAL
     &END KIND
     &KIND O
       BASIS_SET DZVP-MOLOPT-SR-GTH-q6
       POTENTIAL GTH-PBE-q6
       &POTENTIAL
 2 4
  0.2445543000000000E+00 2 -0.1666721480000000E+02  0.2487311320000000E+01
 2
  0.2209559200000000E+00 1  0.1833745811000000E+02
  0.2113324700000000E+00 0
         # Potential name:  GTH-PBE-Q6  for symbol:  O
         # Potential read from the potential filename: GTH_POTENTIALS
       &END POTENTIAL
     &END KIND
     &KIND H
       BASIS_SET DZVP-MOLOPT-SR-GTH-q1
       POTENTIAL GTH-PBE-q1
       &POTENTIAL
 1
  0.2000000000000000E+00 2 -0.4178900440000000E+01  0.7244633100000000E+00
 0
         # Potential name:  GTH-PBE-Q1  for symbol:  H
         # Potential read from the potential filename: GTH_POTENTIALS
       &END POTENTIAL
     &END KIND
     &KIND N
       BASIS_SET DZVP-MOLOPT-SR-GTH-q5
       POTENTIAL GTH-PBE-q5
       &POTENTIAL
 2 3
  0.2837905100000000E+00 2 -0.1241522559000000E+02  0.1868095920000000E+01
 2
  0.2554050000000000E+00 1  0.1363026257000000E+02
  0.2454945300000000E+00 0
         # Potential name:  GTH-PBE-Q5  for symbol:  N
         # Potential read from the potential filename: GTH_POTENTIALS
       &END POTENTIAL
     &END KIND
     &KIND Ga
       BASIS_SET DZVP-MOLOPT-SR-GTH-q13
       POTENTIAL GTH-PBE-q13
       &POTENTIAL
 2 1 10
  0.4900000000000000E+00 0
 3
  0.4167772300000000E+00 3  0.1047568975000000E+02 -0.4921768140000000E+01  0.8707055900000000E+00
  0.7770178090000000E+01 -0.2248152160000000E+01
  0.1784415450000000E+01
  0.5696265200000000E+00 2  0.1777985340000000E+01  0.1958597600000000E+00
 -0.2317443900000000E+00
  0.2381265000000000E+00 1 -0.1624868022000000E+02
         # Potential name:  GTH-PBE-Q13  for symbol:  GA
         # Potential read from the potential filename: GTH_POTENTIALS
       &END POTENTIAL
     &END KIND
     &TOPOLOGY
       COORD_FILE_NAME ../start-first.xyz
       COORD_FILE_FORMAT  XYZ
       NUMBER_OF_ATOMS  156
       MULTIPLE_UNIT_CELL  1 1 1
     &END TOPOLOGY
     &COLVAR
       &DISTANCE
         ATOMS  32 148
       &END DISTANCE
       &PRINT
       &END PRINT
     &END COLVAR
   &END SUBSYS
 &END FORCE_EVAL
