 # Version information for this restart file 
 # current date 2019-05-27 22:24:07.547
 # current working dir /lustre03/project/6004141/rzk/GaN-carbene/334-native/08-2Methanol-Htransfer/02-NH-constraint/2.84
 # Program compiled at                              Sun Apr  7 00:48:11 EDT 2019
 # Program compiled on                          beluga2.int.ets1.calculquebec.ca
 # Program compiled for                        Beluga-Linux-x86-64-intel-openmpi
 # Source code revision number                                         svn:18619
 &GLOBAL
   PRINT_LEVEL  MEDIUM
   PROJECT_NAME TEST
   RUN_TYPE  GEO_OPT
 &END GLOBAL
 &MOTION
   &GEO_OPT
     MAX_ITER  500
     STEP_START_VAL  85
   &END GEO_OPT
   &CONSTRAINT
     &COLLECTIVE
       COLVAR  1
       INTERMOLECULAR  T
       TARGET     5.3668222173952254E+00
       &RESTRAINT
         K     1.0000000000000001E-01
       &END RESTRAINT
     &END COLLECTIVE
     &COLVAR_RESTART
           5.3668222173952254E+00
     &END COLVAR_RESTART
   &END CONSTRAINT
 &END MOTION
 &FORCE_EVAL
   METHOD  QS
   STRESS_TENSOR  ANALYTICAL
   &DFT
     BASIS_SET_FILE_NAME BASIS_MOLOPT
     POTENTIAL_FILE_NAME GTH_POTENTIALS
     &SCF
       MAX_SCF  100
       EPS_SCF     5.0000000000000004E-06
       &OT  T
         PRECONDITIONER  FULL_ALL
       &END OT
       &OUTER_SCF  T
         OPTIMIZER  NONE
         EPS_SCF     5.0000000000000004E-06
         MAX_SCF  4
       &END OUTER_SCF
       &PRINT
         &RESTART  OFF
           BACKUP_COPIES  1
           &EACH
             JUST_ENERGY  0
             QS_SCF  0
             MD  20
           &END EACH
         &END RESTART
       &END PRINT
     &END SCF
     &QS
       EPS_DEFAULT     1.0000000000000000E-14
       ALMO_SCF  F
       METHOD  GPW
     &END QS
     &MGRID
       NGRIDS  5
       CUTOFF     1.2000000000000000E+03
     &END MGRID
     &XC
       DENSITY_CUTOFF     1.0000000000000000E-10
       GRADIENT_CUTOFF     1.0000000000000000E-10
       TAU_CUTOFF     1.0000000000000000E-10
       &XC_FUNCTIONAL  NO_SHORTCUT
         &PBE  T
         &END PBE
       &END XC_FUNCTIONAL
       &VDW_POTENTIAL
         POTENTIAL_TYPE  PAIR_POTENTIAL
         &PAIR_POTENTIAL
           R_CUTOFF     1.0000000000000005E+01
           TYPE  DFTD3
           PARAMETER_FILE_NAME dftd3.dat
           REFERENCE_FUNCTIONAL PBE
           EPS_CN     9.9999999999999995E-07
           CALCULATE_C9_TERM  T
           REFERENCE_C9_TERM  T
           LONG_RANGE_CORRECTION  F
           VERBOSE_OUTPUT  F
         &END PAIR_POTENTIAL
       &END VDW_POTENTIAL
     &END XC
   &END DFT
   &SUBSYS
     &CELL
       A     9.7367653356401487E+00    0.0000000000000000E+00    0.0000000000000000E+00
       B    -4.8591341382960209E+00    8.4162672083210595E+00    0.0000000000000000E+00
       C     0.0000000000000000E+00    0.0000000000000000E+00    3.0744000000000000E+01
       MULTIPLE_UNIT_CELL  1 1 1
       &CELL_REF
         A     9.5580000000000052E+00    0.0000000000000000E+00    0.0000000000000000E+00
         B    -4.7790000000000026E+00    8.2774708093716640E+00    0.0000000000000000E+00
         C     0.0000000000000000E+00    0.0000000000000000E+00    3.0744000000000000E+01
         MULTIPLE_UNIT_CELL  1 1 1
       &END CELL_REF
     &END CELL
     &COORD
Ga    8.0161511518077374E-03   -2.3234865735690936E-02   -5.4229963604223652E-01
N    1.1024091384712135E-02    1.8511003632873906E+00    6.0594438464322253E-01
Ga    1.0601955788388361E-02    1.8206037925364416E+00    2.6367315025830735E+00
N    7.6694714450878942E-03   -2.2815352441154183E-02    3.2687423103324451E+00
Ga    8.1074041758316482E-03   -2.1562894712917946E-02    5.2587044563853143E+00
N    1.1096298640460661E-02    1.8531314328795048E+00    5.8472199775587379E+00
Ga    1.2402644225873080E-02    1.8510368533606727E+00    7.8460314132212865E+00
N    1.1203263926393337E-02   -2.1906280049339342E-02    8.4476861390820357E+00
Ga    1.3771429556832035E-02   -2.2235231255012734E-02    1.0445126130001444E+01
N    1.2119494543566237E-02    1.8502753694375984E+00    1.1048106036524496E+01
Ga    2.0100717907129289E-02    1.8464192842490290E+00    1.3041375725145961E+01
N    2.7765488525691835E-02   -2.5825654240983490E-02    1.3636144576768965E+01
Ga    4.7521167896158817E-02   -4.8936760392346720E-02    1.5628630084220246E+01
N    4.1958766644877979E-02    1.8320924025111591E+00    1.6208362969995527E+01
Ga    7.1279412555539573E-02    1.8054155851592155E+00    1.8264713141700330E+01
N    6.1356023489832122E-02   -6.5974851084368527E-02    1.8669794368490894E+01
Ga   -1.6114272096224667E+00    2.7820142714365681E+00    3.2331962830425082E-01
N   -1.6130136743274455E+00    4.6518236311644223E+00    6.0686725664941266E-01
Ga   -1.5849104693635467E+00    4.6681792552760379E+00    2.6366859096171997E+00
N   -1.6117771284307285E+00    2.7826158226951798E+00    3.2279715673460294E+00
Ga   -1.6111634935971633E+00    2.7840999685680292E+00    5.2385440763933531E+00
N   -1.6111380458382978E+00    4.6539191266484181E+00    5.8459552070396041E+00
Ga   -1.6100744111586094E+00    4.6541638559363818E+00    7.8437299809139907E+00
N   -1.6106722530885580E+00    2.7839697399122740E+00    8.4508858133652112E+00
Ga   -1.6106092999468347E+00    2.7857372317582119E+00    1.0446250546833214E+01
N   -1.6119653104227512E+00    4.6556126027615647E+00    1.1055398176772453E+01
Ga   -1.6152580691996778E+00    4.6536898857648366E+00    1.3052748331735417E+01
N   -1.5963998702349287E+00    2.7847724042906812E+00    1.3671428360556568E+01
Ga   -1.5910301963829487E+00    2.7957069004226356E+00    1.5679514588707088E+01
N   -1.5841385783478601E+00    4.6600806405322110E+00    1.6311572740727069E+01
Ga   -1.4818532251700232E+00    4.6463585958193292E+00    1.8388833680840992E+01
N   -1.5142911353354462E+00    2.7489296933177534E+00    1.8733202231002174E+01
Ga   -3.2319126285177262E+00    5.5875587021491162E+00    3.2332970829840102E-01
N   -3.2254085265970058E+00    7.4579400975821164E+00    6.0590905859836286E-01
Ga   -3.2532398137148162E+00    7.4735419757467625E+00    2.6365853849098992E+00
N   -3.2316660661909800E+00    5.5881579258509824E+00    3.2281609818147841E+00
Ga   -3.2312748181509363E+00    5.5890918885860543E+00    5.2388549646412521E+00
N   -3.2254417732183858E+00    7.4595289289884201E+00    5.8453575283964625E+00
Ga   -3.2261332846185802E+00    7.4599252371920075E+00    7.8432845888771290E+00
N   -3.2309468843720666E+00    5.5890627457460704E+00    8.4473476809676118E+00
Ga   -3.2306227085178829E+00    5.5872778565754633E+00    1.0441395437262591E+01
N   -3.2223861370691780E+00    7.4557724407471255E+00    1.1053079819360144E+01
Ga   -3.2136320287371070E+00    7.4494458968906807E+00    1.3050818128889324E+01
N   -3.2339544725674623E+00    5.5814950341051004E+00    1.3692235135095812E+01
Ga   -3.2123145476673542E+00    5.5769669400058737E+00    1.5728243674814248E+01
N   -3.1902588235774947E+00    7.4416744799697288E+00    1.6282750061525991E+01
Ga   -3.1722367194871857E+00    7.3970786757383431E+00    1.8345274198024100E+01
N   -3.1179698596389076E+00    5.5383501047277779E+00    1.8887485149858133E+01
Ga    3.2541699328867040E+00   -2.3573248364774188E-02    3.2347226518751543E-01
N    3.2528757935491130E+00    1.8467293100799527E+00    6.0580911132744431E-01
Ga    3.2807148228549630E+00    1.8630018962642860E+00    2.6363025880274242E+00
N    3.2535698209908777E+00   -2.2621824904182075E-02    3.2276714711585197E+00
Ga    3.2545204763616082E+00   -2.1477765441366242E-02    5.2385263012660106E+00
N    3.2549473575506873E+00    1.8488561980836955E+00    5.8459261578597674E+00
Ga    3.2560876044504159E+00    1.8489829748622566E+00    7.8441743781068585E+00
N    3.2535009596425510E+00   -2.1432168439951344E-02    8.4480219956545124E+00
Ga    3.2558593388963595E+00   -2.2278488291273012E-02    1.0442211687738704E+01
N    3.2629413551502719E+00    1.8480479171412343E+00    1.1051133573500245E+01
Ga    3.2711923564758245E+00    1.8411279336315982E+00    1.3047906986560346E+01
N    3.2609834730942144E+00   -2.7319787712247964E-02    1.3666177404857182E+01
Ga    3.2748462781263870E+00   -3.4572550402110526E-02    1.5676392633461781E+01
N    3.3007443693367864E+00    1.8317528230873144E+00    1.6257599102296268E+01
Ga    3.3569646361256851E+00    1.8185309407743340E+00    1.8297637753180283E+01
N    3.3241401513666697E+00   -7.1473993845579897E-02    1.8743375272038023E+01
Ga    1.6334634881583938E+00    2.7824345511124560E+00    3.2335843318313212E-01
N    1.6402570100212543E+00    4.6524552643510031E+00    6.0688224407610381E-01
Ga    1.6121318627251777E+00    4.6683549818903680E+00    2.6368502281084472E+00
N    1.6337815684950747E+00    2.7826706930284799E+00    3.2284587203339843E+00
Ga    1.6344042211758372E+00    2.7844171613306803E+00    5.2395636325415831E+00
N    1.6397005775279130E+00    4.6542401080698808E+00    5.8485629430289423E+00
Ga    1.6390463186067072E+00    4.6542433594608728E+00    7.8483029793145329E+00
N    1.6357707417647533E+00    2.7820921836133383E+00    8.4495661834706208E+00
Ga    1.6374608175454684E+00    2.7813303617089513E+00    1.0444952451476320E+01
N    1.6329075007307046E+00    4.6525881505230782E+00    1.1040087020733429E+01
Ga    1.6286038404820491E+00    4.6511057066291004E+00    1.3033105502237316E+01
N    1.6453369303342240E+00    2.7729668035481114E+00    1.3638786793840007E+01
Ga    1.6761846493172270E+00    2.7617627450101159E+00    1.5631513743694700E+01
N    1.6290412247117110E+00    4.6452755418669414E+00    1.6125868196294217E+01
Ga    1.7123503641783404E+00    4.6031670012474590E+00    1.8104336156084933E+01
N    1.7101296858112212E+00    2.7510628661431968E+00    1.8576801758300462E+01
Ga    1.3789321662062745E-02    5.5871167049056787E+00   -5.4587779468307918E-01
N    1.7421613999834676E-02    7.4622269928651805E+00    6.0656121290196352E-01
Ga    1.7027837343838496E-02    7.4312477465832112E+00    2.6367116746478971E+00
N    1.3927768206899815E-02    5.5879820006193386E+00    3.2694607146173169E+00
Ga    1.4836534192413027E-02    5.5892959128030713E+00    5.2593070399149848E+00
N    1.7764718129448152E-02    7.4640578617615461E+00    5.8473182153177401E+00
Ga    1.7846548384041535E-02    7.4628197392157620E+00    7.8461947758858184E+00
N    1.2977769321463209E-02    5.5889099751222648E+00    8.4462602343947744E+00
Ga    1.1488812626301052E-02    5.5884332610180651E+00    1.0442968296619487E+01
N    1.9122806553165433E-02    7.4619509316062995E+00    1.1041826262995286E+01
Ga    1.8879371120114754E-02    7.4648622671530216E+00    1.3033319171313419E+01
N    5.7866155926004810E-03    5.5938015546339974E+00    1.3630559210508212E+01
Ga    6.1356397590928511E-03    5.5827992080000213E+00    1.5624704727417260E+01
N    5.1238121813987278E-02    7.4500342143690119E+00    1.6256086445535409E+01
Ga    7.9868389762433351E-02    7.3984257172355381E+00    1.8342053435633886E+01
N    1.9677245759736048E-01    5.5410331291436892E+00    1.8874270593473810E+01
Ga    6.4985545009192913E+00   -2.2790451338300814E-02    3.2323140369911990E-01
N    6.5053687281689250E+00    1.8472807976950532E+00    6.0628331614995912E-01
Ga    6.4774231812254595E+00    1.8631836954856740E+00    2.6364925217782331E+00
N    6.4991519674939884E+00   -2.2433840132297388E-02    3.2285883365663595E+00
Ga    6.5000937610753473E+00   -2.1153254892046815E-02    5.2397730265602114E+00
N    6.5051111984792636E+00    1.8494936692270167E+00    5.8464434894593964E+00
Ga    6.5039133375747804E+00    1.8502317119409792E+00    7.8446283832184900E+00
N    6.4995471575107722E+00   -1.9203949990550785E-02    8.4500152443644794E+00
Ga    6.5012109698047267E+00   -1.5355213869721916E-02    1.0445894752517489E+01
N    6.5039880000236119E+00    1.8564825295627034E+00    1.1057106825147242E+01
Ga    6.5082166751193693E+00    1.8614576279443447E+00    1.3055700704130393E+01
N    6.4964877174825890E+00   -1.1461346524837315E-02    1.3631498033031649E+01
Ga    6.5137343298607560E+00   -5.4528894332816118E-03    1.5631400192396850E+01
N    6.5237577781320155E+00    1.8594071128915812E+00    1.6254772072623410E+01
Ga    6.5997491184020971E+00    1.8215803639921482E+00    1.8308061209132475E+01
N    6.5938589000374721E+00   -8.7917471045313972E-02    1.8661916918236784E+01
Ga    4.8806229517376565E+00    2.7832361387696709E+00   -5.4288362316905003E-01
N    4.8825753943980965E+00    4.6568138651150015E+00    6.0666255015515824E-01
Ga    4.8821742288082852E+00    4.6260925372679145E+00    2.6368904421177697E+00
N    4.8793019679590550E+00    2.7827377256775696E+00    3.2684239786130145E+00
Ga    4.8801836073153950E+00    2.7846036524977653E+00    5.2580864404243464E+00
N    4.8824874602364927E+00    4.6586326569897976E+00    5.8468900054393096E+00
Ga    4.8812898030692002E+00    4.6574339488120273E+00    7.8456601287104464E+00
N    4.8801080353994326E+00    2.7841297896050610E+00    8.4472596970898461E+00
Ga    4.8829739142791357E+00    2.7866151662002476E+00    1.0444279660059221E+01
N    4.8865997287069947E+00    4.6561236802822927E+00    1.1051906823158943E+01
Ga    4.8856365577047036E+00    4.6570633568313120E+00    1.3051004090674233E+01
N    4.8822056181789844E+00    2.7906207557030753E+00    1.3670455945510556E+01
Ga    4.8893011541213012E+00    2.7827098763064901E+00    1.5692224413140933E+01
N    4.8428213726609641E+00    4.6769314244800055E+00    1.6158459785278499E+01
Ga    4.9804377105715689E+00    4.5929821564506605E+00    1.9116699052409807E+01
N    4.9770312879183285E+00    2.7070421989531148E+00    1.8838373866093615E+01
Ga    3.2601785537021208E+00    5.5871460711167895E+00    3.2344148222452612E-01
N    3.2587661360103279E+00    7.4574698121507410E+00    6.0587077837088921E-01
Ga    3.2866200536917574E+00    7.4736471094463512E+00    2.6365814975275015E+00
N    3.2595967423576560E+00    5.5883558632474344E+00    3.2288242263729088E+00
Ga    3.2600121599741896E+00    5.5898209604259179E+00    5.2400462089373887E+00
N    3.2606696551635004E+00    7.4598988522112419E+00    5.8488774941055723E+00
Ga    3.2622917933817610E+00    7.4602221232082915E+00    7.8488243473238377E+00
N    3.2602710786663129E+00    5.5893655012347745E+00    8.4529961928912538E+00
Ga    3.2610815951838092E+00    5.5902252032301458E+00    1.0451664348345652E+01
N    3.2650323042564353E+00    7.4672724884852162E+00    1.1041095920753177E+01
Ga    3.2644980197119708E+00    7.4715317300526820E+00    1.3035035302739765E+01
N    3.2504331189700015E+00    5.5938123491220466E+00    1.3592997072449039E+01
Ga    3.2490506512774617E+00    5.6049813524022074E+00    1.5585231496209520E+01
N    3.2810646434849899E+00    7.4745758961383624E+00    1.6134474871283455E+01
Ga    3.3505583518686266E+00    7.4372528946787453E+00    1.8138747943534710E+01
N    3.4676865780751620E+00    5.4795942558117421E+00    1.8308906806883606E+01
O    1.5640345012922132E+00    4.9704435941876586E+00    2.1179034300543982E+01
H    9.8855613529668696E-01    5.3274029595249903E+00    2.0409723165616818E+01
C    9.0276790615912361E-01    3.7791002468393051E+00    2.1657407464564894E+01
H    1.3214438560624739E-01    3.4457616633145722E+00    2.0943398461509048E+01
H    1.6346926892596623E+00    2.9680992861475111E+00    2.1769194467788157E+01
H    4.2905470221893205E-01    3.9805348055508745E+00    2.2629548841318741E+01
O    4.1852497188102751E+00    4.8064157340100939E+00    2.1030847278125751E+01
H    3.1580247857463615E+00    4.8779631337605496E+00    2.1026234399054946E+01
C    4.5964233598619746E+00    3.8574295662995413E+00    2.2048502800809270E+01
H    4.4260803666361834E+00    2.8243986054820147E+00    2.1713396759575208E+01
H    5.6673086294134691E+00    4.0097446391411813E+00    2.2227251085723388E+01
H    4.0383443020383512E+00    4.0593850714685447E+00    2.2970993603396504E+01
     &END COORD
     &KIND C
       BASIS_SET DZVP-MOLOPT-SR-GTH-q4
       POTENTIAL GTH-PBE-q4
       &POTENTIAL
 2 2
  0.3384712400000000E+00 2 -0.8803673979999999E+01  0.1339210850000000E+01
 2
  0.3025757500000000E+00 1  0.9622486650000001E+01
  0.2915069400000000E+00 0
         # Potential name:  GTH-PBE-Q4  for symbol:  C
         # Potential read from the potential filename: GTH_POTENTIALS
       &END POTENTIAL
     &END KIND
     &KIND O
       BASIS_SET DZVP-MOLOPT-SR-GTH-q6
       POTENTIAL GTH-PBE-q6
       &POTENTIAL
 2 4
  0.2445543000000000E+00 2 -0.1666721480000000E+02  0.2487311320000000E+01
 2
  0.2209559200000000E+00 1  0.1833745811000000E+02
  0.2113324700000000E+00 0
         # Potential name:  GTH-PBE-Q6  for symbol:  O
         # Potential read from the potential filename: GTH_POTENTIALS
       &END POTENTIAL
     &END KIND
     &KIND H
       BASIS_SET DZVP-MOLOPT-SR-GTH-q1
       POTENTIAL GTH-PBE-q1
       &POTENTIAL
 1
  0.2000000000000000E+00 2 -0.4178900440000000E+01  0.7244633100000000E+00
 0
         # Potential name:  GTH-PBE-Q1  for symbol:  H
         # Potential read from the potential filename: GTH_POTENTIALS
       &END POTENTIAL
     &END KIND
     &KIND N
       BASIS_SET DZVP-MOLOPT-SR-GTH-q5
       POTENTIAL GTH-PBE-q5
       &POTENTIAL
 2 3
  0.2837905100000000E+00 2 -0.1241522559000000E+02  0.1868095920000000E+01
 2
  0.2554050000000000E+00 1  0.1363026257000000E+02
  0.2454945300000000E+00 0
         # Potential name:  GTH-PBE-Q5  for symbol:  N
         # Potential read from the potential filename: GTH_POTENTIALS
       &END POTENTIAL
     &END KIND
     &KIND Ga
       BASIS_SET DZVP-MOLOPT-SR-GTH-q13
       POTENTIAL GTH-PBE-q13
       &POTENTIAL
 2 1 10
  0.4900000000000000E+00 0
 3
  0.4167772300000000E+00 3  0.1047568975000000E+02 -0.4921768140000000E+01  0.8707055900000000E+00
  0.7770178090000000E+01 -0.2248152160000000E+01
  0.1784415450000000E+01
  0.5696265200000000E+00 2  0.1777985340000000E+01  0.1958597600000000E+00
 -0.2317443900000000E+00
  0.2381265000000000E+00 1 -0.1624868022000000E+02
         # Potential name:  GTH-PBE-Q13  for symbol:  GA
         # Potential read from the potential filename: GTH_POTENTIALS
       &END POTENTIAL
     &END KIND
     &TOPOLOGY
       COORD_FILE_NAME ../start-first.xyz
       COORD_FILE_FORMAT  XYZ
       NUMBER_OF_ATOMS  156
       MULTIPLE_UNIT_CELL  1 1 1
     &END TOPOLOGY
     &COLVAR
       &DISTANCE
         ATOMS  32 148
       &END DISTANCE
       &PRINT
       &END PRINT
     &END COLVAR
   &END SUBSYS
 &END FORCE_EVAL
