 # Version information for this restart file 
 # current date 2019-05-27 22:25:49.858
 # current working dir /lustre03/project/6004141/rzk/GaN-carbene/334-native/08-2Methanol-Htransfer/02-NH-constraint/2.84
 # Program compiled at                              Sun Apr  7 00:48:11 EDT 2019
 # Program compiled on                          beluga2.int.ets1.calculquebec.ca
 # Program compiled for                        Beluga-Linux-x86-64-intel-openmpi
 # Source code revision number                                         svn:18619
 &GLOBAL
   PRINT_LEVEL  MEDIUM
   PROJECT_NAME TEST
   RUN_TYPE  GEO_OPT
 &END GLOBAL
 &MOTION
   &GEO_OPT
     MAX_ITER  500
     STEP_START_VAL  87
   &END GEO_OPT
   &CONSTRAINT
     &COLLECTIVE
       COLVAR  1
       INTERMOLECULAR  T
       TARGET     5.3668222173952254E+00
       &RESTRAINT
         K     1.0000000000000001E-01
       &END RESTRAINT
     &END COLLECTIVE
     &COLVAR_RESTART
           5.3668222173952254E+00
     &END COLVAR_RESTART
   &END CONSTRAINT
 &END MOTION
 &FORCE_EVAL
   METHOD  QS
   STRESS_TENSOR  ANALYTICAL
   &DFT
     BASIS_SET_FILE_NAME BASIS_MOLOPT
     POTENTIAL_FILE_NAME GTH_POTENTIALS
     &SCF
       MAX_SCF  100
       EPS_SCF     5.0000000000000004E-06
       &OT  T
         PRECONDITIONER  FULL_ALL
       &END OT
       &OUTER_SCF  T
         OPTIMIZER  NONE
         EPS_SCF     5.0000000000000004E-06
         MAX_SCF  4
       &END OUTER_SCF
       &PRINT
         &RESTART  OFF
           BACKUP_COPIES  1
           &EACH
             JUST_ENERGY  0
             QS_SCF  0
             MD  20
           &END EACH
         &END RESTART
       &END PRINT
     &END SCF
     &QS
       EPS_DEFAULT     1.0000000000000000E-14
       ALMO_SCF  F
       METHOD  GPW
     &END QS
     &MGRID
       NGRIDS  5
       CUTOFF     1.2000000000000000E+03
     &END MGRID
     &XC
       DENSITY_CUTOFF     1.0000000000000000E-10
       GRADIENT_CUTOFF     1.0000000000000000E-10
       TAU_CUTOFF     1.0000000000000000E-10
       &XC_FUNCTIONAL  NO_SHORTCUT
         &PBE  T
         &END PBE
       &END XC_FUNCTIONAL
       &VDW_POTENTIAL
         POTENTIAL_TYPE  PAIR_POTENTIAL
         &PAIR_POTENTIAL
           R_CUTOFF     1.0000000000000005E+01
           TYPE  DFTD3
           PARAMETER_FILE_NAME dftd3.dat
           REFERENCE_FUNCTIONAL PBE
           EPS_CN     9.9999999999999995E-07
           CALCULATE_C9_TERM  T
           REFERENCE_C9_TERM  T
           LONG_RANGE_CORRECTION  F
           VERBOSE_OUTPUT  F
         &END PAIR_POTENTIAL
       &END VDW_POTENTIAL
     &END XC
   &END DFT
   &SUBSYS
     &CELL
       A     9.7367653356401487E+00    0.0000000000000000E+00    0.0000000000000000E+00
       B    -4.8591341382960209E+00    8.4162672083210595E+00    0.0000000000000000E+00
       C     0.0000000000000000E+00    0.0000000000000000E+00    3.0744000000000000E+01
       MULTIPLE_UNIT_CELL  1 1 1
       &CELL_REF
         A     9.5580000000000052E+00    0.0000000000000000E+00    0.0000000000000000E+00
         B    -4.7790000000000026E+00    8.2774708093716640E+00    0.0000000000000000E+00
         C     0.0000000000000000E+00    0.0000000000000000E+00    3.0744000000000000E+01
         MULTIPLE_UNIT_CELL  1 1 1
       &END CELL_REF
     &END CELL
     &COORD
Ga    7.9998957434092507E-03   -2.3226393335723655E-02   -5.4604768780389945E-01
N    1.1006821882136640E-02    1.8514357809653208E+00    6.0635714987196931E-01
Ga    1.0606283206327692E-02    1.8203866010759988E+00    2.6362567685977165E+00
N    7.6675174360676286E-03   -2.3029192483693717E-02    3.2688220846933289E+00
Ga    8.1298764710293243E-03   -2.1917886716978183E-02    5.2585075137652835E+00
N    1.1131409207161770E-02    1.8527684448981647E+00    5.8474964241212470E+00
Ga    1.2479911685837151E-02    1.8506018717927522E+00    7.8461511655374458E+00
N    1.1303350617504201E-02   -2.2333601796887509E-02    8.4480589141852231E+00
Ga    1.3930969748448015E-02   -2.2528724193450287E-02    1.0445409146287957E+01
N    1.2224804425310579E-02    1.8499740518667760E+00    1.1048604049408501E+01
Ga    2.0159386260230748E-02    1.8460945457868851E+00    1.3041809903227152E+01
N    2.8035755709247132E-02   -2.6102254199909733E-02    1.3636684398391619E+01
Ga    4.7800164906967826E-02   -4.9497882972523728E-02    1.5629008422958849E+01
N    4.1707043324786822E-02    1.8312809906361189E+00    1.6210076283338054E+01
Ga    7.1541518664887588E-02    1.8052878689879421E+00    1.8266944033570041E+01
N    6.1434397190088030E-02   -6.6413770490171886E-02    1.8669964540124106E+01
Ga   -1.6112992059758822E+00    2.7819426071659157E+00    3.2291234011634329E-01
N   -1.6130529179088808E+00    4.6517741295316224E+00    6.0667825032994882E-01
Ga   -1.5849450220211272E+00    4.6679760522686635E+00    2.6363121479587979E+00
N   -1.6117873442836619E+00    2.7824279555110278E+00    3.2280352023327232E+00
Ga   -1.6111287786405564E+00    2.7837282312404352E+00    5.2383937697027658E+00
N   -1.6110677530390134E+00    4.6535443757659181E+00    5.8461341387790933E+00
Ga   -1.6100066875487593E+00    4.6537472076478403E+00    7.8438035203778815E+00
N   -1.6105745814236374E+00    2.7835715254202325E+00    8.4512106466624832E+00
Ga   -1.6103943148660140E+00    2.7854181322025156E+00    1.0446459386632105E+01
N   -1.6118413263133398E+00    4.6552265424915165E+00    1.1055856198863722E+01
Ga   -1.6150606504677631E+00    4.6532763649425330E+00    1.3053114747959048E+01
N   -1.5964004352882681E+00    2.7843758303879595E+00    1.3672094492317575E+01
Ga   -1.5906694317586532E+00    2.7955031879698211E+00    1.5680307089160799E+01
N   -1.5838743538405871E+00    4.6599264671114486E+00    1.6311948035191012E+01
Ga   -1.4822022631078171E+00    4.6467148547990531E+00    1.8388916509212510E+01
N   -1.5139794887003479E+00    2.7495486425472322E+00    1.8734394761590227E+01
Ga   -3.2318910392367570E+00    5.5876928929687280E+00    3.2294028596679419E-01
N   -3.2251240130098551E+00    7.4577359141517876E+00    6.0632287595438983E-01
Ga   -3.2532391509481400E+00    7.4733718583264261E+00    2.6361463328008110E+00
N   -3.2316629184357502E+00    5.5879264298470233E+00    3.2282224208152028E+00
Ga   -3.2312531581763655E+00    5.5886946647363551E+00    5.2386982328628893E+00
N   -3.2254002042547718E+00    7.4591353395692490E+00    5.8455777500738133E+00
Ga   -3.2260886486922757E+00    7.4594859430821145E+00    7.8433339373536457E+00
N   -3.2308840401805421E+00    5.5886233866443398E+00    8.4476664307583516E+00
Ga   -3.2304522811677492E+00    5.5868862692684358E+00    1.0441597608810337E+01
N   -3.2222442827057844E+00    7.4553494496338057E+00    1.1053550287695447E+01
Ga   -3.2134433913942382E+00    7.4491028289213075E+00    1.3051242747313744E+01
N   -3.2336823461261064E+00    5.5810531604837506E+00    1.3692559508960064E+01
Ga   -3.2117580122778375E+00    5.5769852447547121E+00    1.5728541710972317E+01
N   -3.1897333497858282E+00    7.4416395730440623E+00    1.6283441935131506E+01
Ga   -3.1720217854047439E+00    7.3966328598694284E+00    1.8345759955791564E+01
N   -3.1185477243854107E+00    5.5381921163096459E+00    1.8887600718143581E+01
Ga    3.2540449226377075E+00   -2.3713428093713480E-02    3.2308560387631691E-01
N    3.2529763519731936E+00    1.8467444556977781E+00    6.0563378135212931E-01
Ga    3.2806640843047461E+00    1.8627882913050691E+00    2.6360715686332896E+00
N    3.2536017842912601E+00   -2.2824224892215965E-02    3.2277553584558243E+00
Ga    3.2545542841197754E+00   -2.1832770031195860E-02    5.2383756441893299E+00
N    3.2549814764298080E+00    1.8484846907091594E+00    5.8461527550407197E+00
Ga    3.2561342751693947E+00    1.8485765903176692E+00    7.8442470153694526E+00
N    3.2535454048400894E+00   -2.1846250294654250E-02    8.4483460318333030E+00
Ga    3.2559435693254142E+00   -2.2580392957040386E-02    1.0442417030818778E+01
N    3.2630165529856758E+00    1.8477707699747401E+00    1.1051550314745647E+01
Ga    3.2712239085353780E+00    1.8407247014394004E+00    1.3048166397618454E+01
N    3.2611530512559641E+00   -2.7556616087056826E-02    1.3666705065976178E+01
Ga    3.2747894598999672E+00   -3.4839648040101277E-02    1.5676690273061590E+01
N    3.3007945789602959E+00    1.8316121549979609E+00    1.6258189294770997E+01
Ga    3.3573522033580949E+00    1.8183789340522756E+00    1.8298200163815750E+01
N    3.3243805203945489E+00   -7.1368168298129711E-02    1.8744655786825113E+01
Ga    1.6333050099168107E+00    2.7823586510301088E+00    3.2298245338154874E-01
N    1.6402772178346823E+00    4.6523989479096519E+00    6.0670904007914983E-01
Ga    1.6121813607186839E+00    4.6681451217289780E+00    2.6364809910349800E+00
N    1.6337941908430604E+00    2.7824858337529350E+00    3.2285473709736325E+00
Ga    1.6344297290296923E+00    2.7840588571735174E+00    5.2394297352159791E+00
N    1.6396832615818733E+00    4.6538858334639697E+00    5.8487647500912798E+00
Ga    1.6390737054152258E+00    4.6538339041973611E+00    7.8484054915491512E+00
N    1.6358402020316285E+00    2.7816780437138360E+00    8.4498527897626250E+00
Ga    1.6374942751881758E+00    2.7809457561849049E+00    1.0445113830896425E+01
N    1.6329728377727981E+00    4.6521907082278053E+00    1.1040281210264585E+01
Ga    1.6287246807801712E+00    4.6507573123423480E+00    1.3033127288000287E+01
N    1.6454119651832815E+00    2.7726608975403795E+00    1.3639502746437863E+01
Ga    1.6760100554684554E+00    2.7614502913955707E+00    1.5632265153142793E+01
N    1.6295232692405477E+00    4.6451839322795276E+00    1.6125722739255085E+01
Ga    1.7127205351036787E+00    4.6032594603082044E+00    1.8104072027440669E+01
N    1.7103045148814358E+00    2.7513790990449558E+00    1.8576939749498852E+01
Ga    1.3798168674546715E-02    5.5871072375005202E+00   -5.4536028722483665E-01
N    1.7405745891786256E-02    7.4622050017679493E+00    6.0636689508556840E-01
Ga    1.7032592850216837E-02    7.4311100110629713E+00    2.6363235638243294E+00
N    1.3937172179075148E-02    5.5877830899314427E+00    3.2692682070405854E+00
Ga    1.4865010674937751E-02    5.5889309413609611E+00    5.2590082355565713E+00
N    1.7791221603436172E-02    7.4636553554394380E+00    5.8474864815979695E+00
Ga    1.7888556856093866E-02    7.4624015815688702E+00    7.8462444103575990E+00
N    1.3007808416159257E-02    5.5885210217713404E+00    8.4465657432853067E+00
Ga    1.1555640385078263E-02    5.5880883381758517E+00    1.0443185685606602E+01
N    1.9239878882780528E-02    7.4616753423600857E+00    1.1042174607153024E+01
Ga    1.9064902971836488E-02    7.4646584953108492E+00    1.3033538233955747E+01
N    6.0134353019161198E-03    5.5935368178777782E+00    1.3630619499176257E+01
Ga    6.3491684744549819E-03    5.5826048286168257E+00    1.5624593945328673E+01
N    5.1296409457322868E-02    7.4496992727095925E+00    1.6256544952545706E+01
Ga    8.0478712157003390E-02    7.3986483581121067E+00    1.8342058193974541E+01
N    1.9680543972052758E-01    5.5409866506101420E+00    1.8874442747359286E+01
Ga    6.4986490293043051E+00   -2.2946889728167646E-02    3.2281667380910462E-01
N    6.5052331420415754E+00    1.8472907329841441E+00    6.0608266748995454E-01
Ga    6.4774609705591812E+00    1.8629588360547313E+00    2.6362508832094762E+00
N    6.4991320051053743E+00   -2.2635341203998488E-02    3.2286814238440207E+00
Ga    6.5001227443090182E+00   -2.1495778864993480E-02    5.2396470623705218E+00
N    6.5051563574922460E+00    1.8491399387328966E+00    5.8466881204609820E+00
Ga    6.5039975664593399E+00    1.8498425519985555E+00    7.8447353319789386E+00
N    6.4995953931546779E+00   -1.9610043619742078E-02    8.4502569986659655E+00
Ga    6.5013270105095877E+00   -1.5670241190200974E-02    1.0446017272946479E+01
N    6.5041007644608522E+00    1.8562247697227938E+00    1.1057415959265072E+01
Ga    6.5084939292083392E+00    1.8611956856140923E+00    1.3055810190195475E+01
N    6.4967684873270217E+00   -1.1578482415937388E-02    1.3631877934993012E+01
Ga    6.5139884964660828E+00   -5.9995453838561389E-03    1.5631651216782252E+01
N    6.5235538627896243E+00    1.8589341699545947E+00    1.6255386878981398E+01
Ga    6.5999217716170664E+00    1.8223694436182289E+00    1.8309046626447824E+01
N    6.5941583623856070E+00   -8.7129100678676852E-02    1.8663196703938404E+01
Ga    4.8805619837438075E+00    2.7831721229787592E+00   -5.4239226141904529E-01
N    4.8825658697273937E+00    4.6566182391692035E+00    6.0644181102104056E-01
Ga    4.8821688346804537E+00    4.6259346136393065E+00    2.6366123488333870E+00
N    4.8793063793821441E+00    2.7825314055111736E+00    3.2684283766444295E+00
Ga    4.8802198301648199E+00    2.7842365503748940E+00    5.2579623439759322E+00
N    4.8824994619895303E+00    4.6582532314971505E+00    5.8471116499176103E+00
Ga    4.8813395183810417E+00    4.6570024010521989E+00    7.8457404918845359E+00
N    4.8801621634362977E+00    2.7836903783343998E+00    8.4475266432034442E+00
Ga    4.8830183481791289E+00    2.7862169233748308E+00    1.0444337397317071E+01
N    4.8867391523120700E+00    4.6556819986205777E+00    1.1052103713691585E+01
Ga    4.8859133180548895E+00    4.6568924595914911E+00    1.3051027084447734E+01
N    4.8823217975667825E+00    2.7904149798027453E+00    1.3670741741342212E+01
Ga    4.8892339480688198E+00    2.7827764152316528E+00    1.5692390678143918E+01
N    4.8433956557225866E+00    4.6766940944907383E+00    1.6157479031598747E+01
Ga    4.9800575818115709E+00    4.5932206079656819E+00    1.9117695653349131E+01
N    4.9770327104123036E+00    2.7075452946361485E+00    1.8839206098105169E+01
Ga    3.2601351236639080E+00    5.5872642296954709E+00    3.2304890811539982E-01
N    3.2584416260715394E+00    7.4572523308641117E+00    6.0627539684541032E-01
Ga    3.2866217639594324E+00    7.4734701589842460E+00    2.6361244193568942E+00
N    3.2595990049832446E+00    5.5881300405045096E+00    3.2288954436012225E+00
Ga    3.2600260639384016E+00    5.5894461366691868E+00    5.2398986117812791E+00
N    3.2606854853316332E+00    7.4595216310157095E+00    5.8491248234396584E+00
Ga    3.2623861979497653E+00    7.4598162685155351E+00    7.8489198544260681E+00
N    3.2603194277791983E+00    5.5889396995744773E+00    8.4532727150258609E+00
Ga    3.2611460772874836E+00    5.5898427621988427E+00    1.0451831673778678E+01
N    3.2651328502567067E+00    7.4669147898176238E+00    1.1041410864773130E+01
Ga    3.2648542797823681E+00    7.4711593954996722E+00    1.3035287345063530E+01
N    3.2505970172151417E+00    5.5933052568878558E+00    1.3592742462729250E+01
Ga    3.2494700249169841E+00    5.6051012910115485E+00    1.5584689460830573E+01
N    3.2813422575866880E+00    7.4740743136164216E+00    1.6134349871005771E+01
Ga    3.3503515243470527E+00    7.4372580239744570E+00    1.8138189924797519E+01
N    3.4674326813994036E+00    5.4802210600248955E+00    1.8310430865215910E+01
O    1.5645855902195189E+00    4.9714785478668961E+00    2.1179695778463490E+01
H    9.8942453358948168E-01    5.3288468710433632E+00    2.0410568388223776E+01
C    9.0381331366137130E-01    3.7795635425493033E+00    2.1657232120560341E+01
H    1.3018987993526102E-01    3.4495353824191812E+00    2.0945182096408381E+01
H    1.6351374086076480E+00    2.9672859707178434E+00    2.1763375519170037E+01
H    4.3438421390688842E-01    3.9788201232147840E+00    2.2631669065941548E+01
O    4.1863121616998082E+00    4.8074483699929180E+00    2.1032188974290047E+01
H    3.1593258835610540E+00    4.8797276962741272E+00    2.1027825134491504E+01
C    4.5972947200757268E+00    3.8571036570523649E+00    2.2048675443320384E+01
H    4.4242889244574641E+00    2.8247394442627254E+00    2.1713076671395346E+01
H    5.6687879756181143E+00    4.0070110019129022E+00    2.2225795473487427E+01
H    4.0406498688824781E+00    4.0594918408040135E+00    2.2972072258556100E+01
     &END COORD
     &KIND C
       BASIS_SET DZVP-MOLOPT-SR-GTH-q4
       POTENTIAL GTH-PBE-q4
       &POTENTIAL
 2 2
  0.3384712400000000E+00 2 -0.8803673979999999E+01  0.1339210850000000E+01
 2
  0.3025757500000000E+00 1  0.9622486650000001E+01
  0.2915069400000000E+00 0
         # Potential name:  GTH-PBE-Q4  for symbol:  C
         # Potential read from the potential filename: GTH_POTENTIALS
       &END POTENTIAL
     &END KIND
     &KIND O
       BASIS_SET DZVP-MOLOPT-SR-GTH-q6
       POTENTIAL GTH-PBE-q6
       &POTENTIAL
 2 4
  0.2445543000000000E+00 2 -0.1666721480000000E+02  0.2487311320000000E+01
 2
  0.2209559200000000E+00 1  0.1833745811000000E+02
  0.2113324700000000E+00 0
         # Potential name:  GTH-PBE-Q6  for symbol:  O
         # Potential read from the potential filename: GTH_POTENTIALS
       &END POTENTIAL
     &END KIND
     &KIND H
       BASIS_SET DZVP-MOLOPT-SR-GTH-q1
       POTENTIAL GTH-PBE-q1
       &POTENTIAL
 1
  0.2000000000000000E+00 2 -0.4178900440000000E+01  0.7244633100000000E+00
 0
         # Potential name:  GTH-PBE-Q1  for symbol:  H
         # Potential read from the potential filename: GTH_POTENTIALS
       &END POTENTIAL
     &END KIND
     &KIND N
       BASIS_SET DZVP-MOLOPT-SR-GTH-q5
       POTENTIAL GTH-PBE-q5
       &POTENTIAL
 2 3
  0.2837905100000000E+00 2 -0.1241522559000000E+02  0.1868095920000000E+01
 2
  0.2554050000000000E+00 1  0.1363026257000000E+02
  0.2454945300000000E+00 0
         # Potential name:  GTH-PBE-Q5  for symbol:  N
         # Potential read from the potential filename: GTH_POTENTIALS
       &END POTENTIAL
     &END KIND
     &KIND Ga
       BASIS_SET DZVP-MOLOPT-SR-GTH-q13
       POTENTIAL GTH-PBE-q13
       &POTENTIAL
 2 1 10
  0.4900000000000000E+00 0
 3
  0.4167772300000000E+00 3  0.1047568975000000E+02 -0.4921768140000000E+01  0.8707055900000000E+00
  0.7770178090000000E+01 -0.2248152160000000E+01
  0.1784415450000000E+01
  0.5696265200000000E+00 2  0.1777985340000000E+01  0.1958597600000000E+00
 -0.2317443900000000E+00
  0.2381265000000000E+00 1 -0.1624868022000000E+02
         # Potential name:  GTH-PBE-Q13  for symbol:  GA
         # Potential read from the potential filename: GTH_POTENTIALS
       &END POTENTIAL
     &END KIND
     &TOPOLOGY
       COORD_FILE_NAME ../start-first.xyz
       COORD_FILE_FORMAT  XYZ
       NUMBER_OF_ATOMS  156
       MULTIPLE_UNIT_CELL  1 1 1
     &END TOPOLOGY
     &COLVAR
       &DISTANCE
         ATOMS  32 148
       &END DISTANCE
       &PRINT
       &END PRINT
     &END COLVAR
   &END SUBSYS
 &END FORCE_EVAL
