 # Version information for this restart file 
 # current date 2019-05-25 04:55:27.575
 # current working dir /lustre03/project/6004141/rzk/GaN-carbene/00-Surface/00-Preoptimization/443-capped
 # Program compiled at                              Sun Apr  7 00:48:11 EDT 2019
 # Program compiled on                          beluga2.int.ets1.calculquebec.ca
 # Program compiled for                        Beluga-Linux-x86-64-intel-openmpi
 # Source code revision number                                         svn:18619
 &GLOBAL
   PRINT_LEVEL  MEDIUM
   PROJECT_NAME TEST
   RUN_TYPE  GEO_OPT
 &END GLOBAL
 &MOTION
   &GEO_OPT
     MAX_ITER 500
   &END GEO_OPT
 &END MOTION
 &FORCE_EVAL
   METHOD  QS
   STRESS_TENSOR  ANALYTICAL
   &DFT
     UKS  T
     SURFACE_DIPOLE_CORRECTION  TRUE
     SURF_DIP_DIR               Z
     BASIS_SET_FILE_NAME BASIS_MOLOPT
     POTENTIAL_FILE_NAME GTH_POTENTIALS
     &SCF
       MAX_SCF  80
       EPS_SCF     5.0000000000000004E-06
       &OT  T
         PRECONDITIONER  FULL_ALL
       &END OT
       &OUTER_SCF  T
         OPTIMIZER  NONE
         EPS_SCF     5.0000000000000004E-06
         MAX_SCF  4
       &END OUTER_SCF
       &PRINT
         &RESTART  OFF
           BACKUP_COPIES  1
           &EACH
             JUST_ENERGY  0
             QS_SCF  0
             MD  20
           &END EACH
         &END RESTART
       &END PRINT
     &END SCF
     &QS
       EPS_DEFAULT     1.0000000000000000E-14
       METHOD  GPW
     &END QS
     &MGRID
       NGRIDS  5
       CUTOFF     1.2000000000000000E+03
     &END MGRID
     &XC
       DENSITY_CUTOFF     1.0000000000000000E-10
       GRADIENT_CUTOFF     1.0000000000000000E-10
       TAU_CUTOFF     1.0000000000000000E-10
       &XC_FUNCTIONAL  NO_SHORTCUT
         &PBE  T
         &END PBE
       &END XC_FUNCTIONAL
       &VDW_POTENTIAL
         POTENTIAL_TYPE  PAIR_POTENTIAL
         &PAIR_POTENTIAL
           R_CUTOFF     1.0000000000000002E+01
           TYPE  DFTD3
           PARAMETER_FILE_NAME dftd3.dat
           REFERENCE_FUNCTIONAL PBE
           EPS_CN     9.9999999999999995E-07
           CALCULATE_C9_TERM  T
           REFERENCE_C9_TERM  T
           LONG_RANGE_CORRECTION  F
           VERBOSE_OUTPUT  F
         &END PAIR_POTENTIAL
       &END VDW_POTENTIAL
     &END XC
   &END DFT
   &SUBSYS
     &CELL
       A     1.2864472766435110E+01    0.0000000000000000E+00    0.0000000000000000E+00
       B    -6.4322363581020028E+00    1.1140960178524471E+01    0.0000000000000000E+00
       #A     1.2982353780853531E+01    0.0000000000000000E+00    0.0000000000000000E+00
       #B    -6.4911768904267628E+00    1.1243048175136114E+01    0.0000000000000000E+00
       C     0.0000000000000000E+00    0.0000000000000000E+00    3.2000000000000000E+01
       MULTIPLE_UNIT_CELL  1 1 1
       &CELL_REF
         A     1.2982353780853531E+01    0.0000000000000000E+00    0.0000000000000000E+00
         B    -6.4911768904267628E+00    1.1243048175136114E+01    0.0000000000000000E+00
         C     0.0000000000000000E+00    0.0000000000000000E+00    3.2000000000000000E+01
         MULTIPLE_UNIT_CELL  1 1 1
       &END CELL_REF
     &END CELL
     &COORD
 N                  0.07771888    1.97666071    2.48916387
 Ga                 0.06043959    0.00547397    2.82189841
 N                  0.08243612   -0.02581000    5.01472196
 Ga                 0.08097337    1.79899272    5.79804580
 N                  0.08003722    1.81473516    7.80083039
 Ga                 0.07734427   -0.03028240    8.44359177
 N                  0.07916045   -0.03096354   10.41967186
 Ga                 0.07916902    1.80832676   11.07100852
 N                  0.07966148    1.78969411   13.06593901
 Ga                 0.07947454   -0.02999590   13.87827463
 N                  0.07945076   -0.02999099   16.06972970
 Ga                 0.07951042    2.01643638   16.49404902
 Ga                 0.04463472    3.68476536    1.36678884
 N                 -1.40868912    4.54782821    2.52935755
 Ga                -1.60182391    2.70299249    3.28036457
 N                 -1.52986984    2.75314994    5.25854807
 Ga                -1.55837704    4.61845966    5.80765212
 N                 -1.53913193    4.61793138    7.80361333
 Ga                -1.51955150    2.75680831    8.43502517
 N                 -1.51770332    2.76067160   10.43165253
 Ga                -1.54272983    4.61881167   11.06925288
 N                 -1.55850565    4.63000170   13.06203929
 Ga                -1.51696349    2.76187373   13.62250156
 N                 -1.55086810    2.75004480   15.58208820
 Ga                -1.34935488    4.51109482   16.49557559
 N                  0.07932450    3.67294347   17.63820922
 N                 -3.13154258    7.51801411    2.53157997
 Ga                -3.11087441    5.51403451    2.85310149
 N                 -3.13670374    5.54074594    5.02345839
 Ga                -3.14395431    7.36126948    5.80815239
 N                 -3.13614009    7.38635128    7.80006798
 Ga                -3.13698482    5.53918803    8.44912833
 N                 -3.13697609    5.54092001   10.42251648
 Ga                -3.13786628    7.38123060   11.07071209
 N                 -3.13615059    7.36259884   13.06272625
 Ga                -3.12686648    5.54587917   13.86119438
 N                 -3.12509457    5.54714681   16.06895141
 Ga                -3.13412071    7.60296055   16.49640546
 Ga                -3.14964303    9.25341873    1.50113590
 N                 -4.63956603   10.12190633    2.51664342
 Ga                -4.85709657    8.27135126    3.29019963
 N                 -4.74390498    8.32639716    5.25192309
 Ga                -4.77624649   10.20126790    5.79897717
 N                 -4.75444635   10.18781169    7.79738222
 Ga                -4.73796974    8.33252047    8.43668994
 N                 -4.73407842    8.33239831   10.43112285
 Ga                -4.76087882   10.19152452   11.07206275
 N                 -4.77636913   10.20099447   13.06639394
 Ga                -4.73289749    8.33250706   13.62375852
 N                 -4.76023514    8.30887780   15.58302201
 Ga                -4.58013209   10.08765262   16.49480782
 N                 -3.14575604    9.25931342   17.63950481
 N                  3.28458301    1.83139029    2.61759166
 Ga                 3.28656539    0.09174609    3.28849279
 N                  3.29649544   -0.03349044    5.25144485
 Ga                 3.28726151    1.82870896    5.87361101
 N                  3.29579260    1.82516302    7.85115202
 Ga                 3.29296662   -0.04067415    8.43933374
 N                  3.29500951   -0.04278955   10.43308220
 Ga                 3.29522345    1.82652045   11.02736037
 N                  3.29820586    1.82788312   13.00128135
 Ga                 3.29606484   -0.04371158   13.62412489
 N                  3.30264679   -0.00753241   15.58350225
 Ga                 3.29424368    1.82626387   15.86370968
 N                  1.56861212    4.54940917    2.51698672
 Ga                 1.75507141    2.71702591    3.26599297
 N                  1.68840090    2.75383704    5.25109739
 Ga                 1.71966051    4.61809317    5.80843168
 N                  1.69716640    4.61668759    7.80508741
 Ga                 1.67696168    2.75790260    8.43887428
 N                  1.67700768    2.76031190   10.43396357
 Ga                 1.70207273    4.61944609   11.06903005
 N                  1.71804820    4.63021129   13.06202820
 Ga                 1.67590013    2.76235654   13.62312957
 N                  1.71036317    2.74992615   15.58263823
 Ga                 1.50892640    4.51103457   16.49609906
 N                  0.08146098    7.37952875    2.69657323
 Ga                 0.08835736    5.53846614    3.33791834
 N                  0.07979317    5.55252357    5.27524770
 Ga                 0.08744014    7.39410261    5.90580207
 N                  0.08005285    7.39828193    7.86484324
 Ga                 0.07966716    5.52498812    8.44397731
 N                  0.07928922    5.52781170   10.43448730
 Ga                 0.08015987    7.39719238   11.02818552
 N                  0.07956093    7.39757413   12.99774833
 Ga                 0.07982566    5.52870992   13.62267230
 N                  0.07985033    5.56042488   15.58081906
 Ga                 0.08026278    7.39768411   15.85986404
 N                 -1.63168291   10.11023645    2.52434675
 Ga                -1.48747331    8.29694737    3.33608840
 N                 -1.51680592    8.31800484    5.26331460
 Ga                -1.50352135   10.20393623    5.81058380
 N                 -1.51989755   10.18600827    7.80178451
 Ga                -1.54043493    8.33187930    8.44642869
 N                 -1.54004363    8.33190207   10.43482185
 Ga                -1.51488455   10.19123175   11.07034494
 N                 -1.49765550   10.19983778   13.06252090
 Ga                -1.53858104    8.33186772   13.62323595
 N                 -1.51113285    8.31606500   15.58110108
 Ga                -1.70526496   10.07805157   16.49689820
 N                  6.50969049    1.94949402    2.53840386
 Ga                 6.52909667   -0.03168277    2.86318104
 N                  6.50712433   -0.03058920    5.02592952
 Ga                 6.50990634    1.79919654    5.80512369
 N                  6.51080414    1.81461144    7.80237644
 Ga                 6.51354284   -0.03117508    8.44623373
 N                  6.51192671   -0.03091473   10.42062006
 Ga                 6.51231419    1.80886917   11.06812329
 N                  6.51206580    1.78809340   13.06879105
 Ga                 6.51240419   -0.04103172   13.86178392
 N                  6.51206344   -0.04288204   16.06903885
 Ga                 6.51243128    1.95775266   16.43374066
 Ga                 6.51484935    3.68160535    1.53445880
 N                  5.00861792    4.54854669    2.53107615
 Ga                 4.79188191    2.69758783    3.29802695
 N                  4.90069030    2.75379205    5.25930999
 Ga                 4.87631360    4.62670331    5.80482806
 N                  4.89436058    4.61687496    7.80283909
 Ga                 4.91194335    2.75955495    8.43899710
 N                  4.91491366    2.76148868   10.43521811
 Ga                 4.88844635    4.62145490   11.06819573
 N                  4.87070258    4.63157012   13.06897996
 Ga                 4.91478742    2.76150788   13.61403198
 N                  4.89795588    2.75177858   15.59248215
 Ga                 5.01741935    4.54703769   16.43352849
 N                  6.51188625    3.68366065   17.55475432
 N                  3.29227537    7.51059522    2.50206070
 N                  3.29507885    5.53758769    5.03013340
 Ga                 3.29952173    7.36512017    5.79548388
 N                  3.29359019    7.38744720    7.79459618
 Ga                 3.29560786    5.54164454    8.44606381
 N                  3.29582131    5.54132351   10.42111679
 Ga                 3.29738463    7.38166662   11.06921948
 N                  3.29568240    7.36272323   13.06196374
 Ga                 3.28634857    5.54642803   13.86127215
 N                  3.28455407    5.54729880   16.06940292
 Ga                 3.29405803    7.60397029   16.49761971
 Ga                 3.33134375    9.27519604    1.32317819
 N                  1.78444117   10.11744158    2.50604055
 Ga                 1.68058781    8.31282098    3.28938630
 N                  1.67393129    8.31682949    5.23828111
 Ga                 1.66450548   10.19791456    5.79590618
 N                  1.67709479   10.18471701    7.79418668
 Ga                 1.70106043    8.33297881    8.44428337
 N                  1.69921544    8.33235774   10.43393028
 Ga                 1.67502180   10.19153128   11.06926663
 N                  1.65740377   10.19988960   13.06189298
 Ga                 1.69811502    8.33179370   13.62275731
 N                  1.67120729    8.31625695   15.58059713
 Ga                 1.86579032   10.07779431   16.49758097
 N                  3.30485169    9.25958243   17.64158440
 N                  9.73699362    1.82444806    2.62964463
 Ga                 9.73110633    0.06099376    3.25844929
 N                  9.72429283   -0.03433717    5.24070894
 Ga                 9.73314782    1.81957005    5.86767369
 N                  9.72662457    1.82449617    7.84818990
 Ga                 9.72990410   -0.04257894    8.43138677
 N                  9.72826482   -0.04321811   10.42876428
 Ga                 9.72873108    1.82574002   11.02425549
 N                  9.72557543    1.82783260   12.99903016
 Ga                 9.72813263   -0.04340056   13.62339931
 N                  9.72157747   -0.00749405   15.58262823
 Ga                 9.73007349    1.82601069   15.86366769
 N                  8.01332638    4.54939935    2.53977208
 Ga                 8.23073495    2.68982751    3.30077824
 N                  8.11948330    2.75333299    5.26138022
 Ga                 8.14306923    4.62565529    5.80231790
 N                  8.12955927    4.61797674    7.80045786
 Ga                 8.11180944    2.75907100    8.43571138
 N                  8.10862171    2.76166492   10.43319395
 Ga                 8.13468363    4.62052716   11.06858324
 N                  8.15313082    4.63137086   13.06898707
 Ga                 8.10951646    2.76129441   13.61353643
 N                  8.12652553    2.75174763   15.59189929
 Ga                 8.00653738    4.54651129   16.43337420
 N                  6.50583463    7.39880967    2.61099868
 Ga                 6.50513440    5.66224281    3.29627538
 N                  6.51029015    5.54207162    5.25734612
 Ga                 6.50383347    7.40182345    5.86945834
 N                  6.51093673    7.39751133    7.84661344
 Ga                 6.51162769    5.53041804    8.43695029
 N                  6.51197844    5.52817258   10.43359388
 Ga                 6.51132564    7.39864243   11.02539709
 N                  6.51186182    7.39512812   12.99983437
 Ga                 6.51198916    5.52860763   13.61403512
 N                  6.51222340    5.54838505   15.59236831
 Ga                 6.51196022    7.39989480   15.86439482
 N                  4.80376165   10.12499650    2.51120003
 Ga                 4.97949902    8.28114037    3.25504339
 N                  4.90092172    8.32474998    5.23747840
 Ga                 4.92943460   10.19762602    5.78360147
 N                  4.91390002   10.18775838    7.78983323
 Ga                 4.89370264    8.33402933    8.43215842
 N                  4.89326581    8.33242554   10.42885837
 Ga                 4.91856026   10.19112194   11.07040156
 N                  4.93566293   10.20097072   13.06538908
 Ga                 4.89210140    8.33278777   13.62365552
 N                  4.92004381    8.30913180   15.58269325
 Ga                 4.73842084   10.08721806   16.49583481
 O                  0.01055561    4.08902695   -0.42950963
 H                 -0.18863459    5.87541600   -0.34220199
 C                  1.12513116    3.63523914   -1.22067070
 H                  2.09312138    3.93972746   -0.79023133
 H                  1.11991608    2.53965293   -1.32692053
 H                  1.03007106    4.08090360   -2.22101687
 Ga                 3.26580470    5.53463682    2.85184101
 O                 -0.19040280    6.86063387   -0.19900121
 H                  0.03108048    7.30913399    1.65931862
 C                  0.93922708    7.39291218   -0.90384556
 H                  0.95461148    8.47777445   -0.73008854
 H                  6.50223244    7.38613582    1.61108549
 H                  0.86542955    7.21759806   -1.98802169
     &END COORD

     &KIND C
       BASIS_SET DZVP-MOLOPT-SR-GTH-q4
       POTENTIAL GTH-PBE-q4
     &END KIND

     &KIND O
       BASIS_SET DZVP-MOLOPT-SR-GTH-q6
       POTENTIAL GTH-PBE-q6
     &END KIND

     &KIND H
       BASIS_SET DZVP-MOLOPT-SR-GTH-q1
       POTENTIAL GTH-PBE-q1
     &END KIND

     &KIND N
       BASIS_SET DZVP-MOLOPT-SR-GTH
       POTENTIAL GTH-PBE-q5
     &END KIND

     &KIND Ga
       BASIS_SET DZVP-MOLOPT-SR-GTH
       POTENTIAL GTH-PBE-q13
     &END KIND

     &TOPOLOGY
       MULTIPLE_UNIT_CELL  1 1 1
     &END TOPOLOGY
   &END SUBSYS
 &END FORCE_EVAL
