 # Version information for this restart file 
 # current date 2019-07-08 08:23:50.391
 # current working dir /lustre04/scratch/rzk/rzk/GaN-carbene/443-adatoms-both-2x2/09-BondBreaking-CH/01-0401-CH-to-NSur
 # Program compiled at                              Sun Apr  7 00:48:11 EDT 2019
 # Program compiled on                          beluga2.int.ets1.calculquebec.ca
 # Program compiled for                        Beluga-Linux-x86-64-intel-openmpi
 # Source code revision number                                         svn:18619
 &GLOBAL
   PRINT_LEVEL  MEDIUM
   PROJECT_NAME TEST
   RUN_TYPE  GEO_OPT
 &END GLOBAL
 &MOTION
   &GEO_OPT
     MAX_ITER  500
     STEP_START_VAL  260
   &END GEO_OPT
 &END MOTION
 &FORCE_EVAL
   METHOD  QS
   STRESS_TENSOR  ANALYTICAL
   &DFT
     BASIS_SET_FILE_NAME BASIS_MOLOPT
     POTENTIAL_FILE_NAME GTH_POTENTIALS
     UKS  T
     SURFACE_DIPOLE_CORRECTION  T
     SURF_DIP_DIR  Z
     &SCF
       MAX_SCF  80
       EPS_SCF     5.0000000000000004E-06
       &OT  T
         PRECONDITIONER  FULL_ALL
       &END OT
       &OUTER_SCF  T
         OPTIMIZER  NONE
         EPS_SCF     5.0000000000000004E-06
         MAX_SCF  4
       &END OUTER_SCF
       &PRINT
         &RESTART  OFF
           BACKUP_COPIES  1
           &EACH
             JUST_ENERGY  0
             QS_SCF  0
             MD  20
           &END EACH
         &END RESTART
       &END PRINT
     &END SCF
     &QS
       EPS_DEFAULT     1.0000000000000000E-14
       METHOD  GPW
     &END QS
     &MGRID
       NGRIDS  5
       CUTOFF     1.2000000000000000E+03
     &END MGRID
     &XC
       DENSITY_CUTOFF     1.0000000000000000E-10
       GRADIENT_CUTOFF     1.0000000000000000E-10
       TAU_CUTOFF     1.0000000000000000E-10
       &XC_FUNCTIONAL  NO_SHORTCUT
         &PBE  T
         &END PBE
       &END XC_FUNCTIONAL
       &VDW_POTENTIAL
         POTENTIAL_TYPE  PAIR_POTENTIAL
         &PAIR_POTENTIAL
           R_CUTOFF     1.0000000000000005E+01
           TYPE  DFTD3
           PARAMETER_FILE_NAME dftd3.dat
           REFERENCE_FUNCTIONAL PBE
           EPS_CN     9.9999999999999995E-07
           CALCULATE_C9_TERM  T
           REFERENCE_C9_TERM  T
           LONG_RANGE_CORRECTION  F
           VERBOSE_OUTPUT  F
         &END PAIR_POTENTIAL
       &END VDW_POTENTIAL
     &END XC
   &END DFT
   &SUBSYS
     &CELL
       A     1.2864472766435110E+01    0.0000000000000000E+00    0.0000000000000000E+00
       B    -6.4322363581020028E+00    1.1140960178524475E+01    0.0000000000000000E+00
       C     0.0000000000000000E+00    0.0000000000000000E+00    3.2000000000000000E+01
       MULTIPLE_UNIT_CELL  1 1 1
       &CELL_REF
         A     1.2982353780853531E+01    0.0000000000000000E+00    0.0000000000000000E+00
         B    -6.4911768904267628E+00    1.1243048175136114E+01    0.0000000000000000E+00
         C     0.0000000000000000E+00    0.0000000000000000E+00    3.2000000000000000E+01
         MULTIPLE_UNIT_CELL  1 1 1
       &END CELL_REF
     &END CELL
     &COORD
N    8.8525905581190861E-03    1.9342989828952544E+00    2.5157382269458433E+00
Ga    2.2248384720621340E-03   -2.9400619362714174E-02    2.8278018099361812E+00
N    1.0520936106680574E-02   -6.5645052734016648E-02    5.0313048982947732E+00
Ga    1.5015042601890259E-02    1.7624029239217092E+00    5.8008120099997660E+00
N    1.5656395267160370E-02    1.7782813625437963E+00    7.8084328745842848E+00
Ga    1.7232078014845300E-02   -6.6537847984457180E-02    8.4477042899682520E+00
N    1.7348327974251253E-02   -6.7291363044204577E-02    1.0424809123028156E+01
Ga    1.7672626723943943E-02    1.7732643011374629E+00    1.1072278714271491E+01
N    1.8041452652191904E-02    1.7540346304107826E+00    1.3069377614013918E+01
Ga    1.7149551852239341E-02   -6.6987484046156370E-02    1.3870637878013257E+01
N    1.5739611765104636E-02   -6.7856135571906798E-02    1.6073318229670893E+01
Ga    1.7557748923388558E-02    1.9665705479662035E+00    1.6478110818387361E+01
Ga    2.8619082374505907E-03    3.6253891799338929E+00    1.3276682750783932E+00
N   -1.4689070345210706E+00    4.5107403544597107E+00    2.5153389861922189E+00
Ga   -1.6548501983754154E+00    2.6783724975829775E+00    3.2825612677875897E+00
N   -1.5935826453261968E+00    2.7226385754664992E+00    5.2683553272929116E+00
Ga   -1.6154135881168838E+00    4.5875511521027414E+00    5.8095925176434484E+00
N   -1.5997637091147519E+00    4.5847398711729932E+00    7.8095409880639677E+00
Ga   -1.5798284246886696E+00    2.7248384863312047E+00    8.4435447544398006E+00
N   -1.5800629989546795E+00    2.7262425171621181E+00    1.0440603093138009E+01
Ga   -1.6058260342129211E+00    4.5846014182812960E+00    1.1074123265425808E+01
N   -1.6221498608994311E+00    4.5952692566400382E+00    1.3069664593479194E+01
Ga   -1.5788985908001012E+00    2.7259689049082683E+00    1.3622238663120658E+01
N   -1.6063819580830174E+00    2.7114890997850725E+00    1.5587740039104730E+01
Ga   -1.4361426740913392E+00    4.4874808038795120E+00    1.6478276749233348E+01
N    9.7218093954335848E-03    3.6416839982933067E+00    1.7610708006286490E+01
N   -3.2023513947279305E+00    7.4688151501364146E+00    2.5101111149434394E+00
Ga   -3.1550049493199626E+00    5.4991469766680572E+00    2.8573754108148974E+00
N   -3.2003776915241331E+00    5.5009102893680444E+00    5.0379234688617771E+00
Ga   -3.1988310509702234E+00    7.3271347532549891E+00    5.7999294733062650E+00
N   -3.2001665651114108E+00    7.3534751406666690E+00    7.7970156269402811E+00
Ga   -3.1970789811798821E+00    5.5075628127503995E+00    8.4515537043761491E+00
N   -3.1993503486634869E+00    5.5062072035623109E+00    1.0426102487111008E+01
Ga   -3.1990374440786917E+00    7.3450748197822264E+00    1.1075101476096908E+01
N   -3.1982569952973643E+00    7.3256925924093190E+00    1.3069042625951163E+01
Ga   -3.1980044993080603E+00    5.5060058835333319E+00    1.3869179337153076E+01
N   -3.1995664588278423E+00    5.5052570117793023E+00    1.6073887742271520E+01
Ga   -3.1985630590617542E+00    7.5490655903307413E+00    1.6487432633781971E+01
Ga   -3.1950265564726177E+00    9.2748515685624007E+00    1.2513519401164122E+00
N   -4.7208515042920594E+00    1.0093362780345535E+01    2.5044371040250692E+00
Ga   -4.8062185255166145E+00    8.3036413957668085E+00    3.2915163217055694E+00
N   -4.8189198452938866E+00    8.2830079894059949E+00    5.2401902307437567E+00
Ga   -4.8383797963451141E+00    1.0170660039312004E+01    5.7938923532397952E+00
N   -4.8173989318758954E+00    1.0149488623938280E+01    7.7971626936511296E+00
Ga   -4.7962048785968348E+00    8.2990861892107954E+00    8.4435014727226143E+00
N   -4.7964431999995760E+00    8.2955412737917236E+00    1.0436934899070604E+01
Ga   -4.8215415903169712E+00    1.0155810137988025E+01    1.1073030103596384E+01
N   -4.8377143226062422E+00    1.0164895158162341E+01    1.3068540669134666E+01
Ga   -4.7948149915445732E+00    8.2968755999969570E+00    1.3625792220609465E+01
N   -4.8227042039428030E+00    8.2791157213607551E+00    1.5588010950626114E+01
Ga   -4.6469310190907791E+00    1.0054799467788374E+01    1.6487070046236937E+01
N   -3.2064613315250514E+00    9.2160018992487949E+00    1.7623002717576789E+01
N    3.2180993399522548E+00    1.7924605931781774E+00    2.6318834136942448E+00
Ga    3.2234500213682993E+00    2.4906447672862219E-02    3.2511014251470050E+00
N    3.2317666712933999E+00   -7.1918917721185791E-02    5.2410849356575886E+00
Ga    3.2224550429815970E+00    1.7833763520723922E+00    5.8672603738676186E+00
N    3.2333647160726033E+00    1.7888303179105356E+00    7.8515145427407766E+00
Ga    3.2323606725163909E+00   -7.8065351452273404E-02    8.4347420065977428E+00
N    3.2329349023040357E+00   -7.9842212607270660E-02    1.0433015231535100E+01
Ga    3.2317800124091622E+00    1.7890065058494140E+00    1.1029454633828895E+01
N    3.2337091825018245E+00    1.7907480480016396E+00    1.3003745117991041E+01
Ga    3.2343880104729346E+00   -7.8828032088289285E-02    1.3624878440614687E+01
N    3.2359880898796431E+00   -4.5993597533133555E-02    1.5586762001711508E+01
Ga    3.2344643106726862E+00    1.7910059802187206E+00    1.5865611559875987E+01
N    1.5092962937128034E+00    4.5122465125701199E+00    2.5246265868986519E+00
Ga    1.6833908401637874E+00    2.6751203265201742E+00    3.2695819990195418E+00
N    1.6240888283434933E+00    2.7165527547614445E+00    5.2601827421418976E+00
Ga    1.6468459458901505E+00    4.5791652370337985E+00    5.8113924170904632E+00
N    1.6323413360413459E+00    4.5821820510345290E+00    7.8099228833116205E+00
Ga    1.6147501184536464E+00    2.7213012646345218E+00    8.4389416470497629E+00
N    1.6147144744848621E+00    2.7249474413937298E+00    1.0436960965466820E+01
Ga    1.6398359648755150E+00    4.5831270201943335E+00    1.1072376130920182E+01
N    1.6575817744846209E+00    4.5946439600947153E+00    1.3068192112820785E+01
Ga    1.6148740384840341E+00    2.7261834607570528E+00    1.3622532413360986E+01
N    1.6429619588396323E+00    2.7127311240999190E+00    1.5587265872631825E+01
Ga    1.4647985108145749E+00    4.4838819397136707E+00    1.6479503450195097E+01
N    2.2942114751093732E-02    7.3622213228560334E+00    2.6798313915472236E+00
Ga    2.2952681936785034E-02    5.5042437558348603E+00    3.3139075817102461E+00
N    1.7529270338493625E-02    5.5226264557119285E+00    5.2610684635451204E+00
Ga    2.0949925513585824E-02    7.3651279687886850E+00    5.8907800227717235E+00
N    1.6983341074600072E-02    7.3635203197130101E+00    7.8591836858334032E+00
Ga    1.6756527341372628E-02    5.4935839232852963E+00    8.4471605437913873E+00
N    1.6913481341067731E-02    5.4927989569133606E+00    1.0440572456976803E+01
Ga    1.6215244978662821E-02    7.3614410008368800E+00    1.1031918353830132E+01
N    1.7087765822005722E-02    7.3613904466601285E+00    1.3004067114852365E+01
Ga    1.8361937782079035E-02    5.4919817821618846E+00    1.3623257137622655E+01
N    1.9297716846333260E-02    5.5222396031276908E+00    1.5587113057067574E+01
Ga    1.8314467214879664E-02    7.3618350691801764E+00    1.5865048965308667E+01
N   -1.6843688235332239E+00    1.0091154019222634E+01    2.5165252411492411E+00
Ga   -1.5847711847856774E+00    8.2870929304020837E+00    3.2854224873489839E+00
N   -1.5803351279674984E+00    8.2813825401970025E+00    5.2377226308835603E+00
Ga   -1.5687176102358769E+00    1.0164407028184081E+01    5.7952955273635247E+00
N   -1.5820329872125141E+00    1.0149416518323754E+01    7.7971134341146149E+00
Ga   -1.6019581755592496E+00    8.2976386473162602E+00    8.4427335045067000E+00
N   -1.6026982965767929E+00    8.2957626080628462E+00    1.0436324885734011E+01
Ga   -1.5775600749586027E+00    1.0155153894362625E+01    1.1072649687711767E+01
N   -1.5589472409704557E+00    1.0164741670479877E+01    1.3067588355898856E+01
Ga   -1.6011318059383635E+00    8.2969513300996312E+00    1.3625667529456621E+01
N   -1.5734018310289131E+00    8.2809764460182311E+00    1.5587230584642572E+01
Ga   -1.7571277529041442E+00    1.0050583243426592E+01    1.6487910528806260E+01
N    6.4519546465961648E+00    1.9087532297646213E+00    2.5529572455460974E+00
Ga    6.4631130357475186E+00   -8.9129958156414030E-02    2.8703669708006427E+00
N    6.4524873820691999E+00   -6.4483949405855667E-02    5.0378576464633271E+00
Ga    6.4495913163839456E+00    1.7588605077388426E+00    5.8142031433353782E+00
N    6.4493108769517322E+00    1.7790751910091245E+00    7.8112873632345838E+00
Ga    6.4481554492162889E+00   -6.9350486744749723E-02    8.4490562942643290E+00
N    6.4485713384442356E+00   -6.7178352108947098E-02    1.0424973851482578E+01
Ga    6.4485129664511636E+00    1.7726090294557890E+00    1.1074358288162950E+01
N    6.4499116591309669E+00    1.7537744026648689E+00    1.3070480668697916E+01
Ga    6.4499169393839377E+00   -6.8097507861652709E-02    1.3870538341258134E+01
N    6.4499179961709396E+00   -6.8295435621771580E-02    1.6073165956547022E+01
Ga    6.4500069237662094E+00    1.9632177282182959E+00    1.6475746935782354E+01
Ga    6.4470249047331452E+00    3.6111509082620539E+00    1.5468339586932114E+00
N    4.9559431741423019E+00    4.5160193219287939E+00    2.5438989938590839E+00
Ga    4.7234205376077973E+00    2.6465616690510378E+00    3.3089840158180595E+00
N    4.8428842489431823E+00    2.7186620588794730E+00    5.2682168276577119E+00
Ga    4.8101713402156063E+00    4.5842516698228897E+00    5.8246421138752584E+00
N    4.8349465980304807E+00    4.5814176639896314E+00    7.8138645682665135E+00
Ga    4.8479472187289918E+00    2.7197482200227956E+00    8.4446875679786721E+00
N    4.8513025674855408E+00    2.7249236778074106E+00    1.0439650641599556E+01
Ga    4.8252249415231017E+00    4.5838636651377209E+00    1.1074517605797450E+01
N    4.8099847409001821E+00    4.5949021044846567E+00    1.3070022078311055E+01
Ga    4.8528409866756981E+00    2.7256671944438349E+00    1.3622895680038225E+01
N    4.8266729390710763E+00    2.7115315008460201E+00    1.5588991925727676E+01
Ga    4.9921441131400863E+00    4.4895379774787454E+00    1.6476518520021102E+01
N    6.4416163069818460E+00    3.6419253511607748E+00    1.7607749272914283E+01
N    3.2269490478606202E+00    7.4346854030005511E+00    2.4940979134677308E+00
N    3.2363485113475230E+00    5.4930101261986026E+00    5.0564131457987527E+00
Ga    3.2324166009353505E+00    7.3280716701685353E+00    5.8011497767858717E+00
N    3.2335717971472828E+00    7.3524550377157478E+00    7.7989480207944597E+00
Ga    3.2308138692838497E+00    5.5056660919791574E+00    8.4501653489267632E+00
N    3.2332289074811786E+00    5.5052208757615331E+00    1.0425269344758481E+01
Ga    3.2327610300464795E+00    7.3432450301771066E+00    1.1076979773393917E+01
N    3.2339418655881000E+00    7.3251358096623909E+00    1.3070153909429283E+01
Ga    3.2325422121831973E+00    5.5056919103188156E+00    1.3869459214083124E+01
N    3.2321981063474743E+00    5.5063150168933603E+00    1.6073898675263216E+01
Ga    3.2332684490237740E+00    7.5515412776871225E+00    1.6489941906103411E+01
Ga    3.2256519181383561E+00    9.4659909954509462E+00    1.2582809718696906E+00
N    1.7505088016818044E+00    1.0102551273488087E+01    2.5282624285844415E+00
Ga    1.6453809901863710E+00    8.2826384558011661E+00    3.2746563311628485E+00
N    1.6166314487983826E+00    8.2819448560519469E+00    5.2353210929632024E+00
Ga    1.5995126183615975E+00    1.0158284612982428E+01    5.8066642236856731E+00
N    1.6139593611024954E+00    1.0147285726760382E+01    7.8056633011009104E+00
Ga    1.6355619631074678E+00    8.2954924428750729E+00    8.4471867512429188E+00
N    1.6363905193891344E+00    8.2947257187618675E+00    1.0439950077823953E+01
Ga    1.6107847914581903E+00    1.0155292448082601E+01    1.1073245304316575E+01
N    1.5943677249269734E+00    1.0164835891818877E+01    1.3068330198489042E+01
Ga    1.6367112153073418E+00    8.2965236144951753E+00    1.3625436485669759E+01
N    1.6091979627446029E+00    8.2794452716591209E+00    1.5587360919916863E+01
Ga    1.7884728178785001E+00    1.0052949489902794E+01    1.6489203553589395E+01
N    3.2264541811190526E+00    9.2157413453190475E+00    1.7627718401716681E+01
N    9.6768266132865257E+00    1.7906606962573033E+00    2.6515327427499167E+00
Ga    9.6682561185337619E+00    4.0559328976685981E-02    3.3221021689965058E+00
N    9.6658285431446664E+00   -6.3896995911156163E-02    5.2856091515535066E+00
Ga    9.6734188403128538E+00    1.7951519531508104E+00    5.8878126488116660E+00
N    9.6636633059224266E+00    1.7932267520127092E+00    7.8654033796163159E+00
Ga    9.6653138030170478E+00   -7.8007759314683275E-02    8.4378617723344860E+00
N    9.6651653924111240E+00   -7.9529391574260699E-02    1.0435952190377773E+01
Ga    9.6657107397898105E+00    1.7899583381553907E+00    1.1029473439019885E+01
N    9.6655343726436822E+00    1.7912255122189897E+00    1.3003804836090932E+01
Ga    9.6666797395533610E+00   -7.8692489537238314E-02    1.3624606644045704E+01
N    9.6680140060820374E+00   -4.5827261764864013E-02    1.5585989988467354E+01
Ga    9.6668960684263379E+00    1.7909316869195775E+00    1.5864963575539456E+01
N    7.9449524237131222E+00    4.5250219264892984E+00    2.5335885288327993E+00
Ga    8.1735940713068818E+00    2.6579500897409893E+00    3.3141185458521547E+00
N    8.0547541153848243E+00    2.7251416723684772E+00    5.2731112010961763E+00
Ga    8.0911713711432700E+00    4.5930078803381376E+00    5.8201829935675491E+00
N    8.0644179071101671E+00    4.5848533525922450E+00    7.8117913862860080E+00
Ga    8.0471157013826211E+00    2.7242096496127233E+00    8.4482105996075720E+00
N    8.0452170502951645E+00    2.7265725317927902E+00    1.0441920223734606E+01
Ga    8.0730478537669264E+00    4.5851324474375286E+00    1.1075624966370432E+01
N    8.0898629656456578E+00    4.5951734710134993E+00    1.3070073902663268E+01
Ga    8.0473046571674534E+00    2.7262373837280660E+00    1.3622907378932283E+01
N    8.0743344963999544E+00    2.7132401296522124E+00    1.5588070542280320E+01
Ga    7.9002197369649707E+00    4.4853940796463050E+00    1.6477091410530711E+01
N    6.4429838210930583E+00    7.3769192940835477E+00    2.6817478030121871E+00
Ga    6.4479557668979188E+00    5.5519267450737884E+00    3.3458908365435196E+00
N    6.4481742338233188E+00    5.5223808843687490E+00    5.2690435234163884E+00
Ga    6.4420516311563949E+00    7.3785782672273958E+00    5.8946789741216055E+00
N    6.4470746180243683E+00    7.3637636581923127E+00    7.8588995385271909E+00
Ga    6.4492190238499409E+00    5.4950650616994050E+00    8.4522275945845848E+00
N    6.4491214204773639E+00    5.4931052116990546E+00    1.0442370480833105E+01
Ga    6.4493347299595509E+00    7.3624949673425810E+00    1.1033800978519912E+01
N    6.4500501565154318E+00    7.3611593960190920E+00    1.3005348849881775E+01
Ga    6.4503638654330588E+00    5.4918500473124334E+00    1.3624068780571342E+01
N    6.4517180206413673E+00    5.5215679501546440E+00    1.5588400800666246E+01
Ga    6.4503559758255173E+00    7.3620844274151516E+00    1.5865693042177270E+01
N    4.7095594883678382E+00    1.0101066897011556E+01    2.4941237475522637E+00
Ga    4.8046592799737713E+00    8.2911321031036280E+00    3.2645081224884738E+00
N    4.8467204678599458E+00    8.2841329150336964E+00    5.2254107861055257E+00
Ga    4.8718973660210150E+00    1.0162796386792351E+01    5.8047138776420724E+00
N    4.8515353122901157E+00    1.0146591671741257E+01    7.8051220852359515E+00
Ga    4.8278722606038587E+00    8.2973549707507743E+00    8.4496476743314233E+00
N    4.8294964928026474E+00    8.2948140965000086E+00    1.0440801562856366E+01
Ga    4.8558754434264273E+00    1.0156050225843380E+01    1.1073331655375101E+01
N    4.8733655654950452E+00    1.0164809095407811E+01    1.3067985849356463E+01
Ga    4.8309532439503062E+00    8.2972847381779751E+00    1.3625769655490291E+01
N    4.8593245643426322E+00    8.2810634590727048E+00    1.5586990307709636E+01
Ga    4.6731424706285267E+00    1.0049974795811039E+01    1.6490557598706690E+01
O    2.5565775066755021E-02    3.7279307903413956E+00   -4.7984192469735742E-01
H    2.5625822748625797E+00    7.0690924196707012E+00    5.9939048246074433E-01
C    1.3093754164875497E+00    3.8987545493978706E+00   -1.1088361643314226E+00
H    1.7644586198714376E+00    4.8717160332049305E+00   -8.6410260470197875E-01
H    2.0168328200278056E+00    3.0970620178806665E+00   -8.4307076340542919E-01
H    1.1406995294350433E+00    3.8635132570261930E+00   -2.1948010163934129E+00
Ga    3.1920664356536497E+00    5.4937748803146000E+00    2.9085406219833434E+00
O    2.1775778832509793E+00    7.4142563061744324E+00   -2.4225460340796490E-01
H    4.1000498010161299E-02    7.3464186117127763E+00    1.6516553320675738E+00
C    2.8964025040242611E+00    8.6207752441666585E+00   -5.2338842586204637E-01
H    2.2651569314190567E+00    9.2677767820406860E+00   -1.1432777550207787E+00
H    6.4540956136101402E+00    7.3501427642431931E+00    1.6562442765629728E+00
H    3.8450272770346814E+00    8.4342485106225897E+00   -1.0478103699344057E+00
     &END COORD
     &KIND C
       BASIS_SET DZVP-MOLOPT-SR-GTH-q4
       POTENTIAL GTH-PBE-q4
       &POTENTIAL
2 2
0.3384712400000000E+00 2 -0.8803673979999999E+01  0.1339210850000000E+01
2
0.3025757500000000E+00 1  0.9622486650000001E+01
0.2915069400000000E+00 0
       &END POTENTIAL
     &END KIND
     &KIND O
       BASIS_SET DZVP-MOLOPT-SR-GTH-q6
       POTENTIAL GTH-PBE-q6
       &POTENTIAL
2 4
0.2445543000000000E+00 2 -0.1666721480000000E+02  0.2487311320000000E+01
2
0.2209559200000000E+00 1  0.1833745811000000E+02
0.2113324700000000E+00 0
       &END POTENTIAL
     &END KIND
     &KIND H
       BASIS_SET DZVP-MOLOPT-SR-GTH-q1
       POTENTIAL GTH-PBE-q1
       &POTENTIAL
1
0.2000000000000000E+00 2 -0.4178900440000000E+01  0.7244633100000000E+00
0
       &END POTENTIAL
     &END KIND
     &KIND N
       BASIS_SET DZVP-MOLOPT-SR-GTH
       POTENTIAL GTH-PBE-q5
       &POTENTIAL
2 3
0.2837905100000000E+00 2 -0.1241522559000000E+02  0.1868095920000000E+01
2
0.2554050000000000E+00 1  0.1363026257000000E+02
0.2454945300000000E+00 0
       &END POTENTIAL
     &END KIND
     &KIND Ga
       BASIS_SET DZVP-MOLOPT-SR-GTH
       POTENTIAL GTH-PBE-q13
       &POTENTIAL
2 1 10
0.4900000000000000E+00 0
3
0.4167772300000000E+00 3  0.1047568975000000E+02 -0.4921768140000000E+01  0.8707055900000000E+00
0.7770178090000000E+01 -0.2248152160000000E+01
0.1784415450000000E+01
0.5696265200000000E+00 2  0.1777985340000000E+01  0.1958597600000000E+00
-0.2317443900000000E+00
0.2381265000000000E+00 1 -0.1624868022000000E+02
       &END POTENTIAL
     &END KIND
     &TOPOLOGY
       NUMBER_OF_ATOMS  212
       MULTIPLE_UNIT_CELL  1 1 1
     &END TOPOLOGY
   &END SUBSYS
 &END FORCE_EVAL
