 # Version information for this restart file 
 # current date 2019-07-02 13:41:51.748
 # current working dir /lustre04/scratch/rzk/rzk/GaN-carbene/443-adatoms-both-2x2/09-BondBreaking-CH/01-0401-CH-to-NSur
 # Program compiled at                              Sun Apr  7 00:48:11 EDT 2019
 # Program compiled on                          beluga2.int.ets1.calculquebec.ca
 # Program compiled for                        Beluga-Linux-x86-64-intel-openmpi
 # Source code revision number                                         svn:18619
 &GLOBAL
   PRINT_LEVEL  MEDIUM
   PROJECT_NAME TEST
   RUN_TYPE  GEO_OPT
 &END GLOBAL
 &MOTION
   &GEO_OPT
     MAX_ITER  500
     STEP_START_VAL  211
   &END GEO_OPT
 &END MOTION
 &FORCE_EVAL
   METHOD  QS
   STRESS_TENSOR  ANALYTICAL
   &DFT
     BASIS_SET_FILE_NAME BASIS_MOLOPT
     POTENTIAL_FILE_NAME GTH_POTENTIALS
     UKS  T
     SURFACE_DIPOLE_CORRECTION  T
     SURF_DIP_DIR  Z
     &SCF
       MAX_SCF  80
       EPS_SCF     5.0000000000000004E-06
       &OT  T
         PRECONDITIONER  FULL_ALL
       &END OT
       &OUTER_SCF  T
         OPTIMIZER  NONE
         EPS_SCF     5.0000000000000004E-06
         MAX_SCF  4
       &END OUTER_SCF
       &PRINT
         &RESTART  OFF
           BACKUP_COPIES  1
           &EACH
             JUST_ENERGY  0
             QS_SCF  0
             MD  20
           &END EACH
         &END RESTART
       &END PRINT
     &END SCF
     &QS
       EPS_DEFAULT     1.0000000000000000E-14
       METHOD  GPW
     &END QS
     &MGRID
       NGRIDS  5
       CUTOFF     1.2000000000000000E+03
     &END MGRID
     &XC
       DENSITY_CUTOFF     1.0000000000000000E-10
       GRADIENT_CUTOFF     1.0000000000000000E-10
       TAU_CUTOFF     1.0000000000000000E-10
       &XC_FUNCTIONAL  NO_SHORTCUT
         &PBE  T
         &END PBE
       &END XC_FUNCTIONAL
       &VDW_POTENTIAL
         POTENTIAL_TYPE  PAIR_POTENTIAL
         &PAIR_POTENTIAL
           R_CUTOFF     1.0000000000000004E+01
           TYPE  DFTD3
           PARAMETER_FILE_NAME dftd3.dat
           REFERENCE_FUNCTIONAL PBE
           EPS_CN     9.9999999999999995E-07
           CALCULATE_C9_TERM  T
           REFERENCE_C9_TERM  T
           LONG_RANGE_CORRECTION  F
           VERBOSE_OUTPUT  F
         &END PAIR_POTENTIAL
       &END VDW_POTENTIAL
     &END XC
   &END DFT
   &SUBSYS
     &CELL
       A     1.2864472766435110E+01    0.0000000000000000E+00    0.0000000000000000E+00
       B    -6.4322363581020028E+00    1.1140960178524473E+01    0.0000000000000000E+00
       C     0.0000000000000000E+00    0.0000000000000000E+00    3.2000000000000000E+01
       MULTIPLE_UNIT_CELL  1 1 1
       &CELL_REF
         A     1.2982353780853531E+01    0.0000000000000000E+00    0.0000000000000000E+00
         B    -6.4911768904267628E+00    1.1243048175136114E+01    0.0000000000000000E+00
         C     0.0000000000000000E+00    0.0000000000000000E+00    3.2000000000000000E+01
         MULTIPLE_UNIT_CELL  1 1 1
       &END CELL_REF
     &END CELL
     &COORD
N    8.3766858238774802E-03    1.9351197721365931E+00    2.5136174644562144E+00
Ga    1.7564217285885170E-03   -2.9535526071043955E-02    2.8271685545785852E+00
N    1.0087668509563517E-02   -6.5446755633944018E-02    5.0302258813614351E+00
Ga    1.4479673825355073E-02    1.7625604386678499E+00    5.8008452545667453E+00
N    1.5496744985667161E-02    1.7784924017477686E+00    7.8078248358938840E+00
Ga    1.7151705403206884E-02   -6.6482643401219982E-02    8.4468109414154302E+00
N    1.6776233648095384E-02   -6.7221942277119417E-02    1.0423690341069538E+01
Ga    1.7389812954098725E-02    1.7733006331433434E+00    1.1071648860707299E+01
N    1.6800498910802635E-02    1.7546656073328590E+00    1.3068548147918587E+01
Ga    1.7040059937201039E-02   -6.6491481164054470E-02    1.3867810582211604E+01
N    1.5885685333266113E-02   -6.7697203565276920E-02    1.6072094240418178E+01
Ga    1.6950492197788412E-02    1.9695855763152925E+00    1.6479338798506163E+01
Ga    2.7759094911352406E-03    3.6273498019815560E+00    1.3259240432387638E+00
N   -1.4693846092624194E+00    4.5112021787273591E+00    2.5145944849785304E+00
Ga   -1.6557304940795228E+00    2.6788231418103434E+00    3.2814943478668224E+00
N   -1.5937305950786667E+00    2.7226527067479980E+00    5.2672202726669175E+00
Ga   -1.6160108466126921E+00    4.5873880555815463E+00    5.8094347291448738E+00
N   -1.6000720732999716E+00    4.5845365740088733E+00    7.8089806633633003E+00
Ga   -1.5802233519575875E+00    2.7246383234012805E+00    8.4428209558792791E+00
N   -1.5801953755720066E+00    2.7266084752091486E+00    1.0439497518378847E+01
Ga   -1.6062341017719197E+00    4.5845787346155289E+00    1.1074728779597086E+01
N   -1.6232547362765113E+00    4.5947985992452134E+00    1.3070107098707902E+01
Ga   -1.5804528481720339E+00    2.7255099857727996E+00    1.3622531136998607E+01
N   -1.6070483581813342E+00    2.7099611508537729E+00    1.5587628195599585E+01
Ga   -1.4369778843823029E+00    4.4871637618183069E+00    1.6479501231128555E+01
N    8.3318679618921507E-03    3.6431357312873436E+00    1.7610533480011163E+01
N   -3.2031284656751162E+00    7.4701285415294736E+00    2.5099717311745975E+00
Ga   -3.1553109895659035E+00    5.5000132576546346E+00    2.8570186830887501E+00
N   -3.2010062376258230E+00    5.5011417608679940E+00    5.0366799600050367E+00
Ga   -3.1990571264080256E+00    7.3268718421342651E+00    5.8003824577407919E+00
N   -3.2006676639375669E+00    7.3534435140850620E+00    7.7964391785237259E+00
Ga   -3.1975269745264430E+00    5.5074419497878981E+00    8.4510001866856239E+00
N   -3.1995120760728271E+00    5.5058488517771167E+00    1.0425433039969670E+01
Ga   -3.1998190245481246E+00    7.3448294995964041E+00    1.1075098309751983E+01
N   -3.1994845525782103E+00    7.3248675096293949E+00    1.3068962093304698E+01
Ga   -3.1995682608660534E+00    5.5051184187206870E+00    1.3871830354429729E+01
N   -3.2010097170849670E+00    5.5048521604751359E+00    1.6073705006398136E+01
Ga   -3.1992970426134919E+00    7.5469913494159337E+00    1.6486156786935037E+01
Ga   -3.1954717325864439E+00    9.2737043690940855E+00    1.2536799855344265E+00
N   -4.7208894193199207E+00    1.0092867903679236E+01    2.5044985563147719E+00
Ga   -4.8077875721557799E+00    8.3033848601648437E+00    3.2921205588042683E+00
N   -4.8191037287336513E+00    8.2829334762172415E+00    5.2400169940725823E+00
Ga   -4.8386219063918690E+00    1.0170826673695734E+01    5.7938963506498977E+00
N   -4.8175232017316745E+00    1.0149354431706399E+01    7.7962603840248335E+00
Ga   -4.7967247851813370E+00    8.2989833748011392E+00    8.4429308510265528E+00
N   -4.7970326517971040E+00    8.2951628041704559E+00    1.0436086018025525E+01
Ga   -4.8220469503218792E+00    1.0155498011372609E+01    1.1072079571914420E+01
N   -4.8384285498956823E+00    1.0164163390587248E+01    1.3067453858143733E+01
Ga   -4.7960667827602270E+00    8.2963435624637043E+00    1.3625111328063857E+01
N   -4.8247226238479239E+00    8.2799100707250073E+00    1.5587455578941345E+01
Ga   -4.6462540622992305E+00    1.0053790229367904E+01    1.6485887030960516E+01
N   -3.2056296444909838E+00    9.2144282348437816E+00    1.7623399637660356E+01
N    3.2178168769724160E+00    1.7918689477745895E+00    2.6307838299699613E+00
Ga    3.2229492588929092E+00    2.4856977473702857E-02    3.2514603797474426E+00
N    3.2315297148065460E+00   -7.1935040137641321E-02    5.2404950237735566E+00
Ga    3.2221957969462718E+00    1.7835123359825500E+00    5.8668645031792668E+00
N    3.2332414798646298E+00    1.7888067332910029E+00    7.8504095872068360E+00
Ga    3.2323405980359809E+00   -7.8035990126325741E-02    8.4340389092254462E+00
N    3.2323595014564845E+00   -7.9863949677683357E-02    1.0431988000903045E+01
Ga    3.2311060215564504E+00    1.7889858384165183E+00    1.1028487415351869E+01
N    3.2327491864761022E+00    1.7904726818137262E+00    1.3002198685357278E+01
Ga    3.2333012322897758E+00   -7.8804103840816681E-02    1.3623769631633085E+01
N    3.2341036603206925E+00   -4.6726431037116767E-02    1.5585209205261465E+01
Ga    3.2328740493017438E+00    1.7903974448779056E+00    1.5865461423488604E+01
N    1.5087276159772238E+00    4.5125756325436353E+00    2.5242538719501550E+00
Ga    1.6833830784290449E+00    2.6755831041177163E+00    3.2681522652163291E+00
N    1.6235563051254811E+00    2.7161171288021135E+00    5.2587426362406982E+00
Ga    1.6468276841759013E+00    4.5788085842949329E+00    5.8109110101389474E+00
N    1.6319514091111729E+00    4.5819541931280625E+00    7.8091843694198708E+00
Ga    1.6148500742128431E+00    2.7211988775175673E+00    8.4382692293356385E+00
N    1.6140590804221504E+00    2.7253743370148720E+00    1.0435940654563453E+01
Ga    1.6395310153364611E+00    4.5830516906334609E+00    1.1072519957893663E+01
N    1.6564610700712086E+00    4.5943028742431276E+00    1.3068120112418427E+01
Ga    1.6143454615717978E+00    2.7256069426517056E+00    1.3622038839305956E+01
N    1.6412940859137883E+00    2.7119105288896868E+00    1.5585871893681512E+01
Ga    1.4626969531856850E+00    4.4823480198258938E+00    1.6480930551825690E+01
N    2.2553353460268512E-02    7.3632291270091512E+00    2.6787204922075620E+00
Ga    2.2556809453351052E-02    5.5054283997931668E+00    3.3131637485405934E+00
N    1.7240916839307893E-02    5.5223980623112503E+00    5.2602875610356348E+00
Ga    2.0284205051714330E-02    7.3650800767037747E+00    5.8904157196345670E+00
N    1.6554752202816526E-02    7.3634156274668205E+00    7.8584149532836491E+00
Ga    1.6495257514725883E-02    5.4934519863706042E+00    8.4466129912402952E+00
N    1.6489612804637621E-02    5.4921071247888316E+00    1.0439879506641415E+01
Ga    1.5671942643103561E-02    7.3608193449091299E+00    1.1031598559829728E+01
N    1.6597162300581871E-02    7.3611816049885421E+00    1.3003918306740017E+01
Ga    1.7236546670727593E-02    5.4916619446875492E+00    1.3623046618219762E+01
N    1.8894273687597572E-02    5.5226578908320993E+00    1.5586620933654251E+01
Ga    1.6916362535786079E-02    7.3616500706180643E+00    1.5865658808296685E+01
N   -1.6855707010297150E+00    1.0090387609341398E+01    2.5164482480938970E+00
Ga   -1.5847283010620448E+00    8.2866032893838746E+00    3.2861039389526292E+00
N   -1.5811928667931763E+00    8.2815668674894507E+00    5.2376467416249728E+00
Ga   -1.5689253468496205E+00    1.0164476248660240E+01    5.7949113843274223E+00
N   -1.5825806073021822E+00    1.0149260722728062E+01    7.7957551662588029E+00
Ga   -1.6023979184428887E+00    8.2978200246370459E+00    8.4423033414930444E+00
N   -1.6031724836152350E+00    8.2952675636877267E+00    1.0435787843939870E+01
Ga   -1.5782118368717635E+00    1.0155044102941792E+01    1.1072292440564834E+01
N   -1.5599855173086958E+00    1.0164415680907023E+01    1.3067039168623062E+01
Ga   -1.6023198338040130E+00    8.2965685978800732E+00    1.3624847135649429E+01
N   -1.5735948039966388E+00    8.2810836297636445E+00    1.5586120129609835E+01
Ga   -1.7578593972353111E+00    1.0050602271157382E+01    1.6486124558073520E+01
N    6.4517101346723624E+00    1.9082534507485223E+00    2.5521912323013312E+00
Ga    6.4619219889255417E+00   -8.9524164212327159E-02    2.8718321075158713E+00
N    6.4520403336324215E+00   -6.4688674473989530E-02    5.0369264931731985E+00
Ga    6.4493591211642149E+00    1.7586029492713862E+00    5.8133268338882802E+00
N    6.4490870896931654E+00    1.7789751792140434E+00    7.8097624487343200E+00
Ga    6.4474553348044443E+00   -6.9277090155766261E-02    8.4482113947472524E+00
N    6.4481842681926436E+00   -6.7442210853782436E-02    1.0424147831737061E+01
Ga    6.4480408616822054E+00    1.7728291684303337E+00    1.1073661879018788E+01
N    6.4492076337073874E+00    1.7543403531380279E+00    1.3069347259139830E+01
Ga    6.4480368406972906E+00   -6.6698815651571222E-02    1.3870175681242966E+01
N    6.4469642737130437E+00   -6.7402617556362149E-02    1.6072994021967904E+01
Ga    6.4489446806559094E+00    1.9708689196280682E+00    1.6482261394132738E+01
Ga    6.4464173767745097E+00    3.6111405412829218E+00    1.5447367680534645E+00
N    4.9551970191512194E+00    4.5161529082968395E+00    2.5432235546347606E+00
Ga    4.7230825944118910E+00    2.6467625653050497E+00    3.3077059626107013E+00
N    4.8425836733803234E+00    2.7179156672408009E+00    5.2668137841980789E+00
Ga    4.8098696187102457E+00    4.5835018177586280E+00    5.8236368805828240E+00
N    4.8347855166871767E+00    4.5812642891892716E+00    7.8125296821902133E+00
Ga    4.8480108384766432E+00    2.7196577198259968E+00    8.4438425028533803E+00
N    4.8505419514062584E+00    2.7250792097535008E+00    1.0438580842003510E+01
Ga    4.8248239674306435E+00    4.5838392495322653E+00    1.1074053547672120E+01
N    4.8094467121944549E+00    4.5944478821794821E+00    1.3068931204115005E+01
Ga    4.8515680454815806E+00    2.7251920155746641E+00    1.3623777554279224E+01
N    4.8242350032145174E+00    2.7103364110453292E+00    1.5587842256969196E+01
Ga    4.9981110663360742E+00    4.4849984529175320E+00    1.6483662625358377E+01
N    6.4413936215453722E+00    3.6416802027678528E+00    1.7618050689781434E+01
N    3.2256033300541040E+00    7.4347078753322826E+00    2.4932711019105041E+00
N    3.2362612233740728E+00    5.4930507948818299E+00    5.0555233479026525E+00
Ga    3.2320323237690300E+00    7.3283205360102599E+00    5.8003757324612977E+00
N    3.2332508681392853E+00    7.3520779497508792E+00    7.7978878630752702E+00
Ga    3.2306880060599670E+00    5.5052154760779706E+00    8.4493464223384382E+00
N    3.2324962922352061E+00    5.5049504463066299E+00    1.0424431192529134E+01
Ga    3.2322958170485743E+00    7.3426569812718494E+00    1.1076832363686469E+01
N    3.2328825934388528E+00    7.3243282045372355E+00    1.3070593982026940E+01
Ga    3.2324662455152549E+00    5.5036135089660680E+00    1.3869545024309589E+01
N    3.2313359476674286E+00    5.5037455533455031E+00    1.6073031363322958E+01
Ga    3.2326859301174853E+00    7.5421553071269569E+00    1.6482401445518622E+01
Ga    3.2218838440128570E+00    9.4678906077322704E+00    1.2562846818934077E+00
N    1.7499679869910401E+00    1.0102726809621332E+01    2.5272391058821704E+00
Ga    1.6449408211523469E+00    8.2828992825427967E+00    3.2750774173287471E+00
N    1.6159325841341836E+00    8.2821629698714645E+00    5.2352413561922928E+00
Ga    1.5990978519295642E+00    1.0158503842720835E+01    5.8063406911714752E+00
N    1.6134715273953024E+00    1.0147431278493970E+01    7.8045036010851208E+00
Ga    1.6353186043244836E+00    8.2956279041910559E+00    8.4464532381980320E+00
N    1.6358791761210465E+00    8.2941822440033466E+00    1.0439229878187527E+01
Ga    1.6102757443184326E+00    1.0155007970359968E+01    1.1073210214847615E+01
N    1.5933543964308798E+00    1.0164666306084699E+01    1.3068874594122191E+01
Ga    1.6357045510396930E+00    8.2962662105799243E+00    1.3624515101484674E+01
N    1.6092270960261790E+00    8.2799933811569737E+00    1.5588524380766305E+01
Ga    1.7797689783857853E+00    1.0057286435599323E+01    1.6481061508214147E+01
N    3.2236970752509868E+00    9.2147820878560243E+00    1.7618047765477446E+01
N    9.6760117055547745E+00    1.7904298926738205E+00    2.6509834202807081E+00
Ga    9.6678043093800738E+00    4.0460357938590236E-02    3.3220498626195165E+00
N    9.6651513096377766E+00   -6.3598268117533774E-02    5.2846327707172422E+00
Ga    9.6731603175820506E+00    1.7954003233015581E+00    5.8871600149573693E+00
N    9.6633238563867518E+00    1.7933510870726843E+00    7.8643482255937052E+00
Ga    9.6647985818658491E+00   -7.7967528600959624E-02    8.4369103487726012E+00
N    9.6646861096824743E+00   -7.9516545979261194E-02    1.0434937235063845E+01
Ga    9.6657928295318367E+00    1.7898820572262784E+00    1.1029302391279403E+01
N    9.6649594406078769E+00    1.7904219655724003E+00    1.3003243438256225E+01
Ga    9.6656295931869884E+00   -7.8624981769125732E-02    1.3623631815104407E+01
N    9.6669991703257026E+00   -4.8248418776022720E-02    1.5586626330112168E+01
Ga    9.6653295979994880E+00    1.7903701612768252E+00    1.5863838812969121E+01
N    7.9449887970102555E+00    4.5254724309015408E+00    2.5328883226835655E+00
Ga    8.1728496113042635E+00    2.6581805016399329E+00    3.3132347416652235E+00
N    8.0543644514135941E+00    2.7247665565001600E+00    5.2721375141963733E+00
Ga    8.0906902597907351E+00    4.5924299546977201E+00    5.8194902584373311E+00
N    8.0640948972799453E+00    4.5847975813676598E+00    7.8107094067876295E+00
Ga    8.0466011519523857E+00    2.7240969397718398E+00    8.4475395061346976E+00
N    8.0454302870379664E+00    2.7265223929797244E+00    1.0441111401113879E+01
Ga    8.0723956120538549E+00    4.5851140739469294E+00    1.1075525254287117E+01
N    8.0890484218743310E+00    4.5948838879908198E+00    1.3069390804640447E+01
Ga    8.0469126674423102E+00    2.7258579497204840E+00    1.3624122816537596E+01
N    8.0741378103360937E+00    2.7113365853009332E+00    1.5586871811020284E+01
Ga    7.8935492965605540E+00    4.4815962806335925E+00    1.6483869571126920E+01
N    6.4421431527512176E+00    7.3770101489104309E+00    2.6812150298670625E+00
Ga    6.4472004690763098E+00    5.5521179534232479E+00    3.3449582366682602E+00
N    6.4478135313786877E+00    5.5222482874841248E+00    5.2680909097195716E+00
Ga    6.4412935613188598E+00    7.3784784309562887E+00    5.8942014643985061E+00
N    6.4467063190578235E+00    7.3632768653840355E+00    7.8579648285498083E+00
Ga    6.4488528355176289E+00    5.4945416591771838E+00    8.4518878139275309E+00
N    6.4486445709481348E+00    5.4931452439830553E+00    1.0441658348817445E+01
Ga    6.4488006776089977E+00    7.3623078942554567E+00    1.1033498902413964E+01
N    6.4486374433850271E+00    7.3611792596984902E+00    1.3004715076396606E+01
Ga    6.4494840612602315E+00    5.4916641793246663E+00    1.3624735986792391E+01
N    6.4497869770741216E+00    5.5227599298238399E+00    1.5587165678478891E+01
Ga    6.4488485284650316E+00    7.3615766054505656E+00    1.5865680009239465E+01
N    4.7093688599940000E+00    1.0101921470097361E+01    2.4934008146526874E+00
Ga    4.8034667344453856E+00    8.2914338765144713E+00    3.2629649630021560E+00
N    4.8462356189527016E+00    8.2842859438415211E+00    5.2240393840523343E+00
Ga    4.8710232012952952E+00    1.0162798257091216E+01    5.8042236974908921E+00
N    4.8513529553221115E+00    1.0146589412143372E+01    7.8040185593489726E+00
Ga    4.8275044630774158E+00    8.2971170463850061E+00    8.4488660206138952E+00
N    4.8288502578781030E+00    8.2943074968727597E+00    1.0439978689019842E+01
Ga    4.8553660248118504E+00    1.0155643873018855E+01    1.1072623879301513E+01
N    4.8721588373663556E+00    1.0164400179386000E+01    1.3067878922217945E+01
Ga    4.8299568216505344E+00    8.2967950979936269E+00    1.3624427761922055E+01
N    4.8566078197261850E+00    8.2819168347277436E+00    1.5587251945273543E+01
Ga    4.6778755989482441E+00    1.0052693887972342E+01    1.6482586351763938E+01
O    2.5801270741214494E-02    3.7437452615973568E+00   -4.8188501400387268E-01
H    2.5638457187333135E+00    7.0714517067096727E+00    6.0646792635236213E-01
C    1.3151678914614229E+00    3.8959221799328581E+00   -1.1062545496972924E+00
H    1.8047850344737748E+00    4.8416816953801201E+00   -8.2483682731419627E-01
H    1.9945934495415221E+00    3.0610721264863514E+00   -8.7321336086761303E-01
H    1.1427018823939179E+00    3.9086086948480117E+00   -2.1940261697653591E+00
Ga    3.1915197299463141E+00    5.4940721125088299E+00    2.9082223381325032E+00
O    2.1832170660070442E+00    7.4074227641639316E+00   -2.4162614887558090E-01
H    3.9855411537289949E-02    7.3455735452261726E+00    1.6502230186371574E+00
C    2.8918149163910352E+00    8.6194636965558544E+00   -5.2468057853617422E-01
H    2.2537120832029451E+00    9.2639146656768308E+00   -1.1417531479787908E+00
H    6.4545182103504866E+00    7.3506836743268833E+00    1.6549822618489594E+00
H    3.8414049466509446E+00    8.4416449025116833E+00   -1.0524617228515480E+00
     &END COORD
     &KIND C
       BASIS_SET DZVP-MOLOPT-SR-GTH-q4
       POTENTIAL GTH-PBE-q4
       &POTENTIAL
 2 2
  0.3384712400000000E+00 2 -0.8803673979999999E+01  0.1339210850000000E+01
 2
  0.3025757500000000E+00 1  0.9622486650000001E+01
  0.2915069400000000E+00 0
         # Potential name:  GTH-PBE-Q4  for symbol:  C
         # Potential read from the potential filename: GTH_POTENTIALS
       &END POTENTIAL
     &END KIND
     &KIND O
       BASIS_SET DZVP-MOLOPT-SR-GTH-q6
       POTENTIAL GTH-PBE-q6
       &POTENTIAL
 2 4
  0.2445543000000000E+00 2 -0.1666721480000000E+02  0.2487311320000000E+01
 2
  0.2209559200000000E+00 1  0.1833745811000000E+02
  0.2113324700000000E+00 0
         # Potential name:  GTH-PBE-Q6  for symbol:  O
         # Potential read from the potential filename: GTH_POTENTIALS
       &END POTENTIAL
     &END KIND
     &KIND H
       BASIS_SET DZVP-MOLOPT-SR-GTH-q1
       POTENTIAL GTH-PBE-q1
       &POTENTIAL
 1
  0.2000000000000000E+00 2 -0.4178900440000000E+01  0.7244633100000000E+00
 0
         # Potential name:  GTH-PBE-Q1  for symbol:  H
         # Potential read from the potential filename: GTH_POTENTIALS
       &END POTENTIAL
     &END KIND
     &KIND N
       BASIS_SET DZVP-MOLOPT-SR-GTH
       POTENTIAL GTH-PBE-q5
       &POTENTIAL
 2 3
  0.2837905100000000E+00 2 -0.1241522559000000E+02  0.1868095920000000E+01
 2
  0.2554050000000000E+00 1  0.1363026257000000E+02
  0.2454945300000000E+00 0
         # Potential name:  GTH-PBE-Q5  for symbol:  N
         # Potential read from the potential filename: GTH_POTENTIALS
       &END POTENTIAL
     &END KIND
     &KIND Ga
       BASIS_SET DZVP-MOLOPT-SR-GTH
       POTENTIAL GTH-PBE-q13
       &POTENTIAL
 2 1 10
  0.4900000000000000E+00 0
 3
  0.4167772300000000E+00 3  0.1047568975000000E+02 -0.4921768140000000E+01  0.8707055900000000E+00
  0.7770178090000000E+01 -0.2248152160000000E+01
  0.1784415450000000E+01
  0.5696265200000000E+00 2  0.1777985340000000E+01  0.1958597600000000E+00
 -0.2317443900000000E+00
  0.2381265000000000E+00 1 -0.1624868022000000E+02
         # Potential name:  GTH-PBE-Q13  for symbol:  GA
         # Potential read from the potential filename: GTH_POTENTIALS
       &END POTENTIAL
     &END KIND
     &TOPOLOGY
       NUMBER_OF_ATOMS  212
       MULTIPLE_UNIT_CELL  1 1 1
     &END TOPOLOGY
   &END SUBSYS
 &END FORCE_EVAL
