 # Version information for this restart file 
 # current date 2019-07-02 13:37:41.798
 # current working dir /lustre04/scratch/rzk/rzk/GaN-carbene/443-adatoms-both-2x2/09-BondBreaking-CH/01-0401-CH-to-NSur
 # Program compiled at                              Sun Apr  7 00:48:11 EDT 2019
 # Program compiled on                          beluga2.int.ets1.calculquebec.ca
 # Program compiled for                        Beluga-Linux-x86-64-intel-openmpi
 # Source code revision number                                         svn:18619
 &GLOBAL
   PRINT_LEVEL  MEDIUM
   PROJECT_NAME TEST
   RUN_TYPE  GEO_OPT
 &END GLOBAL
 &MOTION
   &GEO_OPT
     MAX_ITER  500
     STEP_START_VAL  210
   &END GEO_OPT
 &END MOTION
 &FORCE_EVAL
   METHOD  QS
   STRESS_TENSOR  ANALYTICAL
   &DFT
     BASIS_SET_FILE_NAME BASIS_MOLOPT
     POTENTIAL_FILE_NAME GTH_POTENTIALS
     UKS  T
     SURFACE_DIPOLE_CORRECTION  T
     SURF_DIP_DIR  Z
     &SCF
       MAX_SCF  80
       EPS_SCF     5.0000000000000004E-06
       &OT  T
         PRECONDITIONER  FULL_ALL
       &END OT
       &OUTER_SCF  T
         OPTIMIZER  NONE
         EPS_SCF     5.0000000000000004E-06
         MAX_SCF  4
       &END OUTER_SCF
       &PRINT
         &RESTART  OFF
           BACKUP_COPIES  1
           &EACH
             JUST_ENERGY  0
             QS_SCF  0
             MD  20
           &END EACH
         &END RESTART
       &END PRINT
     &END SCF
     &QS
       EPS_DEFAULT     1.0000000000000000E-14
       METHOD  GPW
     &END QS
     &MGRID
       NGRIDS  5
       CUTOFF     1.2000000000000000E+03
     &END MGRID
     &XC
       DENSITY_CUTOFF     1.0000000000000000E-10
       GRADIENT_CUTOFF     1.0000000000000000E-10
       TAU_CUTOFF     1.0000000000000000E-10
       &XC_FUNCTIONAL  NO_SHORTCUT
         &PBE  T
         &END PBE
       &END XC_FUNCTIONAL
       &VDW_POTENTIAL
         POTENTIAL_TYPE  PAIR_POTENTIAL
         &PAIR_POTENTIAL
           R_CUTOFF     1.0000000000000004E+01
           TYPE  DFTD3
           PARAMETER_FILE_NAME dftd3.dat
           REFERENCE_FUNCTIONAL PBE
           EPS_CN     9.9999999999999995E-07
           CALCULATE_C9_TERM  T
           REFERENCE_C9_TERM  T
           LONG_RANGE_CORRECTION  F
           VERBOSE_OUTPUT  F
         &END PAIR_POTENTIAL
       &END VDW_POTENTIAL
     &END XC
   &END DFT
   &SUBSYS
     &CELL
       A     1.2864472766435110E+01    0.0000000000000000E+00    0.0000000000000000E+00
       B    -6.4322363581020028E+00    1.1140960178524473E+01    0.0000000000000000E+00
       C     0.0000000000000000E+00    0.0000000000000000E+00    3.2000000000000000E+01
       MULTIPLE_UNIT_CELL  1 1 1
       &CELL_REF
         A     1.2982353780853531E+01    0.0000000000000000E+00    0.0000000000000000E+00
         B    -6.4911768904267628E+00    1.1243048175136114E+01    0.0000000000000000E+00
         C     0.0000000000000000E+00    0.0000000000000000E+00    3.2000000000000000E+01
         MULTIPLE_UNIT_CELL  1 1 1
       &END CELL_REF
     &END CELL
     &COORD
N    8.6820365686701550E-03    1.9349804529190813E+00    2.5141429274102545E+00
Ga    1.5141251046047223E-03   -2.8797114206197121E-02    2.8275488900422574E+00
N    1.0008723170162588E-02   -6.5511560921305584E-02    5.0300180023845602E+00
Ga    1.4262311490002528E-02    1.7625061445324863E+00    5.8002433704170651E+00
N    1.4961177153590636E-02    1.7782947487559726E+00    7.8073737810438253E+00
Ga    1.6645456330750950E-02   -6.6663298943677812E-02    8.4470062680369864E+00
N    1.6492783307007479E-02   -6.7614326491101440E-02    1.0423915207287058E+01
Ga    1.6804566572026780E-02    1.7730510802784802E+00    1.1071343781445348E+01
N    1.6775723441619532E-02    1.7538095258764157E+00    1.3068060764573332E+01
Ga    1.6795156827311367E-02   -6.6642035345865852E-02    1.3868459462969929E+01
N    1.5917544031449619E-02   -6.7658517255315520E-02    1.6072868159893371E+01
Ga    1.6727628836625132E-02    1.9684501366787868E+00    1.6479105157249105E+01
Ga    4.2633308538438525E-03    3.6280452754921875E+00    1.3268420969632435E+00
N   -1.4692883966249479E+00    4.5115930095604533E+00    2.5145844503677113E+00
Ga   -1.6551831475188115E+00    2.6789693635076657E+00    3.2807870478642203E+00
N   -1.5940366826058328E+00    2.7228713581445603E+00    5.2668105987363214E+00
Ga   -1.6162071189631504E+00    4.5877372106149483E+00    5.8092639055274269E+00
N   -1.6004373740955926E+00    4.5846665229520704E+00    7.8088266942068714E+00
Ga   -1.5806362365904809E+00    2.7246981667117876E+00    8.4430829543134980E+00
N   -1.5808739339939022E+00    2.7261994262543792E+00    1.0439600754363077E+01
Ga   -1.6068662811445424E+00    4.5844524528432160E+00    1.1073965838480094E+01
N   -1.6235630622808803E+00    4.5946550596041371E+00    1.3069373360264889E+01
Ga   -1.5800504159786504E+00    2.7253289052161573E+00    1.3622530219080607E+01
N   -1.6075708286265216E+00    2.7096738191741596E+00    1.5587531892488800E+01
Ga   -1.4372623030963809E+00    4.4865375750033571E+00    1.6479468246337831E+01
N    8.3326784378723873E-03    3.6420876300046272E+00    1.7610333642859857E+01
N   -3.2034430800082716E+00    7.4699701869005892E+00    2.5099016677759560E+00
Ga   -3.1557505017465499E+00    5.4994837906915253E+00    2.8567186376428384E+00
N   -3.2011324472848433E+00    5.5012696444462268E+00    5.0369146046251645E+00
Ga   -3.1996027605603881E+00    7.3271302119264128E+00    5.8003599611380592E+00
N   -3.2008208237907256E+00    7.3535170056768271E+00    7.7965947795685073E+00
Ga   -3.1979028555494331E+00    5.5074652579493035E+00    8.4512314142224323E+00
N   -3.2001544513461253E+00    5.5058333848640926E+00    1.0425193942483780E+01
Ga   -3.1998765963828646E+00    7.3445786690666912E+00    1.1074802829744808E+01
N   -3.1995090069048451E+00    7.3248348656985272E+00    1.3068810329813656E+01
Ga   -3.1998772558448199E+00    5.5047052362064015E+00    1.3870717196048123E+01
N   -3.2012836161664482E+00    5.5044101219870765E+00    1.6073722505956635E+01
Ga   -3.1996917981900688E+00    7.5465230938673917E+00    1.6486138803595377E+01
Ga   -3.1958238124652776E+00    9.2748029753584529E+00    1.2545582224232412E+00
N   -4.7213416927521825E+00    1.0093370771058892E+01    2.5041593523532542E+00
Ga   -4.8079822573086908E+00    8.3036875052168284E+00    3.2922363584178931E+00
N   -4.8194812324036498E+00    8.2831936726628665E+00    5.2401697540974546E+00
Ga   -4.8390458086200443E+00    1.0170692640583210E+01    5.7939805209000879E+00
N   -4.8178601359834055E+00    1.0149350457534059E+01    7.7964034852919371E+00
Ga   -4.7969913196685603E+00    8.2989278303209719E+00    8.4431774385690623E+00
N   -4.7971668279735216E+00    8.2951388768173544E+00    1.0436108263483060E+01
Ga   -4.8222448924012182E+00    1.0155379352889423E+01    1.1072171004682501E+01
N   -4.8387632718223381E+00    1.0164387939377617E+01    1.3067456870884996E+01
Ga   -4.7959336191581716E+00    8.2966090783318442E+00    1.3625155789099729E+01
N   -4.8247639826063722E+00    8.2796285588017771E+00    1.5587817374114145E+01
Ga   -4.6473534280969071E+00    1.0054085359708077E+01    1.6485615827074280E+01
N   -3.2067536160984753E+00    9.2143379499833689E+00    1.7620119990144477E+01
N    3.2175500252417333E+00    1.7926081534195821E+00    2.6318755122285187E+00
Ga    3.2227052443952475E+00    2.5496650856219338E-02    3.2516399203858151E+00
N    3.2311401500930983E+00   -7.2030786525015822E-02    5.2408841537789774E+00
Ga    3.2219554114922935E+00    1.7834496367660366E+00    5.8671995102599839E+00
N    3.2327765703869056E+00    1.7886807108223479E+00    7.8507799330649286E+00
Ga    3.2319321479676781E+00   -7.8180311081117004E-02    8.4345732837360359E+00
N    3.2323027419316652E+00   -8.0138203453399989E-02    1.0432424493367956E+01
Ga    3.2310910698554109E+00    1.7887259939527373E+00    1.1028488098701592E+01
N    3.2323402166284048E+00    1.7899942712116774E+00    1.3002311613224038E+01
Ga    3.2331887964798027E+00   -7.9199724357232923E-02    1.3623950415693278E+01
N    3.2340681359645860E+00   -4.6960616411860223E-02    1.5585683305538941E+01
Ga    3.2326719785189142E+00    1.7905051833547678E+00    1.5864643352622462E+01
N    1.5086137246812685E+00    4.5126063793899203E+00    2.5252618994049154E+00
Ga    1.6827835823937221E+00    2.6753723329435788E+00    3.2693739809797884E+00
N    1.6234708232717843E+00    2.7165950880713789E+00    5.2596749262610336E+00
Ga    1.6463540323015300E+00    4.5793536362334759E+00    5.8111895611131654E+00
N    1.6315635075825730E+00    4.5820989255582152E+00    7.8092421760340631E+00
Ga    1.6142059873749361E+00    2.7211933342766708E+00    8.4386332555582051E+00
N    1.6138908353843695E+00    2.7248185650409673E+00    1.0436174326682742E+01
Ga    1.6392062892805650E+00    4.5829916468737997E+00    1.1071920906486479E+01
N    1.6566239228695829E+00    4.5940247175261515E+00    1.3067549879733265E+01
Ga    1.6137446140163578E+00    2.7254436455324793E+00    1.3622536604981143E+01
N    1.6411022891353768E+00    2.7114898684803057E+00    1.5586188155943674E+01
Ga    1.4630386166076985E+00    4.4820134658058217E+00    1.6480739953286690E+01
N    2.1879443504106342E-02    7.3627338323821450E+00    2.6795428212293708E+00
Ga    2.2230188285663196E-02    5.5048300104977939E+00    3.3142220916444538E+00
N    1.6912718987012871E-02    5.5228188397213502E+00    5.2609711220949338E+00
Ga    2.0195252237584144E-02    7.3653427709786694E+00    5.8908994090003404E+00
N    1.6330026497885917E-02    7.3635696996813245E+00    7.8588294609745963E+00
Ga    1.6094776769741567E-02    5.4935028666166108E+00    8.4469732121229928E+00
N    1.6051341633190615E-02    5.4924220495517702E+00    1.0439902255253459E+01
Ga    1.5545557233077951E-02    7.3611935368277832E+00    1.1031365806262984E+01
N    1.6306768852321765E-02    7.3611683581199223E+00    1.3003869536573299E+01
Ga    1.7222266328402312E-02    5.4911486770940359E+00    1.3623099765177148E+01
N    1.8452602859996309E-02    5.5219179054273440E+00    1.5586599861863707E+01
Ga    1.6558251303971552E-02    7.3608809120640641E+00    1.5865390465558210E+01
N   -1.6853766016759792E+00    1.0091238302686664E+01    2.5164359533668073E+00
Ga   -1.5853066667547420E+00    8.2871844535973391E+00    3.2861542452905952E+00
N   -1.5813376261905689E+00    8.2816571473922362E+00    5.2378485625592637E+00
Ga   -1.5691237736129464E+00    1.0164660291708893E+01    5.7955277251849067E+00
N   -1.5826569202799665E+00    1.0149336774757550E+01    7.7963640772693825E+00
Ga   -1.6026558172935723E+00    8.2977858251293402E+00    8.4428128933272273E+00
N   -1.6034154867928603E+00    8.2954583404107023E+00    1.0435979923992594E+01
Ga   -1.5780538953926915E+00    1.0154986791820718E+01    1.1072193882381686E+01
N   -1.5599948710369356E+00    1.0164486147883974E+01    1.3066990693942470E+01
Ga   -1.6024649646059974E+00    8.2967555334104457E+00    1.3624688842782799E+01
N   -1.5741146262659196E+00    8.2810232643177173E+00    1.5586351051487169E+01
Ga   -1.7578658068310249E+00    1.0050643390753187E+01    1.6486376142279102E+01
N    6.4512744307576853E+00    1.9087459994582208E+00    2.5523461699428238E+00
Ga    6.4622645804545336E+00   -8.8298018130949285E-02    2.8705857909908197E+00
N    6.4518088598129522E+00   -6.4331050247457666E-02    5.0368781202396846E+00
Ga    6.4492567749581280E+00    1.7589986939936455E+00    5.8136530902952561E+00
N    6.4488187014259735E+00    1.7789610098795088E+00    7.8101651295015557E+00
Ga    6.4475013895805278E+00   -6.9304974378542120E-02    8.4488053137782302E+00
N    6.4480161469071531E+00   -6.7408361978093440E-02    1.0424373238957056E+01
Ga    6.4479116183385576E+00    1.7724100254021873E+00    1.1073723606752367E+01
N    6.4487153366296228E+00    1.7536340135242634E+00    1.3069009416591829E+01
Ga    6.4480065403303213E+00   -6.6812791906352462E-02    1.3869897948374502E+01
N    6.4464955708859089E+00   -6.7493726767831053E-02    1.6073065007290054E+01
Ga    6.4483887618096816E+00    1.9697722269961351E+00    1.6481364246067137E+01
Ga    6.4459696146775149E+00    3.6112344383385189E+00    1.5438592736985128E+00
N    4.9548357072132028E+00    4.5163730791421894E+00    2.5435781043744790E+00
Ga    4.7233310194522939E+00    2.6471336852842944E+00    3.3080597675007475E+00
N    4.8422714204454342E+00    2.7185677450198589E+00    5.2674252185546928E+00
Ga    4.8097219663102413E+00    4.5843309788857178E+00    5.8241608172007044E+00
N    4.8343110333749477E+00    4.5812809606970486E+00    7.8130129779090955E+00
Ga    4.8475633493951893E+00    2.7195816489581470E+00    8.4442993223669802E+00
N    4.8506055558013648E+00    2.7246320393195194E+00    1.0438816059795377E+01
Ga    4.8246064019761814E+00    4.5835596112852830E+00    1.1073967898403653E+01
N    4.8090851896669129E+00    4.5939430108262389E+00    1.3068763464137811E+01
Ga    4.8515320593605882E+00    2.7247737160688090E+00    1.3623390048825081E+01
N    4.8242057370750588E+00    2.7099992798994843E+00    1.5587492011379160E+01
Ga    4.9970980967653631E+00    4.4848335281553213E+00    1.6482416725506081E+01
N    6.4410682862504816E+00    3.6412978462007390E+00    1.7616304266126054E+01
N    3.2258189830683297E+00    7.4345023261174905E+00    2.4936676754437301E+00
N    3.2357626072415431E+00    5.4931260783062541E+00    5.0558334899985953E+00
Ga    3.2318064919975966E+00    7.3281815604479412E+00    5.8008263409906329E+00
N    3.2327960675586946E+00    7.3524196689687775E+00    7.7981656538239283E+00
Ga    3.2302461652386616E+00    5.5055202701088080E+00    8.4496542405299042E+00
N    3.2325053717308561E+00    5.5049829976140590E+00    1.0424352273240688E+01
Ga    3.2320933651708130E+00    7.3428702766892631E+00    1.1076483296952947E+01
N    3.2327682465648184E+00    7.3241786901572503E+00    1.3070316161165319E+01
Ga    3.2323360969099042E+00    5.5034232843393571E+00    1.3869750603842952E+01
N    3.2312443308538836E+00    5.5032145110478021E+00    1.6073710942009466E+01
Ga    3.2325339755498832E+00    7.5425868780189695E+00    1.6483154549937932E+01
Ga    3.2236963484938936E+00    9.4688606672116311E+00    1.2568844031427684E+00
N    1.7496411206958746E+00    1.0103447745439665E+01    2.5275652676376708E+00
Ga    1.6446252992867023E+00    8.2832254400683816E+00    3.2740361689582911E+00
N    1.6158634773476890E+00    8.2822595378088035E+00    5.2346213891368816E+00
Ga    1.5987938981483378E+00    1.0158696117835948E+01    5.8064890919347736E+00
N    1.6133006002082706E+00    1.0147345395762963E+01    7.8048178078394157E+00
Ga    1.6350016173757951E+00    8.2956911657517569E+00    8.4469171912033083E+00
N    1.6357236308191243E+00    8.2945846443601159E+00    1.0439358192666727E+01
Ga    1.6100220446413382E+00    1.0155199948798819E+01    1.1072908025035819E+01
N    1.5929571785806114E+00    1.0164612653517597E+01    1.3068499892034010E+01
Ga    1.6356526759172552E+00    8.2962797082287825E+00    1.3624440026371627E+01
N    1.6086474476292218E+00    8.2797890324127970E+00    1.5588281038823039E+01
Ga    1.7800816032936304E+00    1.0056524869570591E+01    1.6482322694694950E+01
N    3.2240323212345436E+00    9.2145351572639029E+00    1.7617814812762042E+01
N    9.6761293043751575E+00    1.7911800552421242E+00    2.6504745096529123E+00
Ga    9.6675838081074712E+00    4.1329245153725568E-02    3.3217614136976232E+00
N    9.6651505854812978E+00   -6.3555846591456647E-02    5.2847002877550073E+00
Ga    9.6728379680144094E+00    1.7955689204970680E+00    5.8870808926126053E+00
N    9.6630321904455272E+00    1.7933096543758744E+00    7.8643541988766774E+00
Ga    9.6645957129306179E+00   -7.7884776645316164E-02    8.4370435054852422E+00
N    9.6643463088355297E+00   -7.9699496121179728E-02    1.0434966542434989E+01
Ga    9.6649896760878455E+00    1.7896494178458677E+00    1.1028654568273176E+01
N    9.6647892834169298E+00    1.7902368011489505E+00    1.3002906422877084E+01
Ga    9.6654572603145397E+00   -7.9091219019604059E-02    1.3623427557212606E+01
N    9.6665869976762711E+00   -4.8066956629772770E-02    1.5586432979995939E+01
Ga    9.6649835587377027E+00    1.7906157561489271E+00    1.5864133016039339E+01
N    7.9445281782505086E+00    4.5258069335036124E+00    2.5327651033865375E+00
Ga    8.1724962833388890E+00    2.6587458680416578E+00    3.3125512478010086E+00
N    8.0542477701735820E+00    2.7252456282937456E+00    5.2716863895546391E+00
Ga    8.0902781047409213E+00    4.5930237305766504E+00    5.8196821758851325E+00
N    8.0637871269333843E+00    4.5847637593331916E+00    7.8109445892310267E+00
Ga    8.0464283222395103E+00    2.7241042803161055E+00    8.4477955882167652E+00
N    8.0446743049308864E+00    2.7262753295730406E+00    1.0441016956675961E+01
Ga    8.0722393703640858E+00    4.5847739362758650E+00    1.1075163519153110E+01
N    8.0888421012238467E+00    4.5945154564100035E+00    1.3068924711846281E+01
Ga    8.0460801134764246E+00    2.7254930995839119E+00    1.3623146951538208E+01
N    8.0734366355979237E+00    2.7112511397040464E+00    1.5586304187177083E+01
Ga    7.8937101936227254E+00    4.4814785542241840E+00    1.6482847431696015E+01
N    6.4419518857281108E+00    7.3772058001648055E+00    2.6813313638663736E+00
Ga    6.4470250388196897E+00    5.5517650483693446E+00    3.3453157035975418E+00
N    6.4475123049718475E+00    5.5225310310414901E+00    5.2683398340234744E+00
Ga    6.4411334726576470E+00    7.3785535453960769E+00    5.8943179237869545E+00
N    6.4463802768380107E+00    7.3636101435344639E+00    7.8580851832316352E+00
Ga    6.4485670964183814E+00    5.4948520842659621E+00    8.4517546571308131E+00
N    6.4484433316935945E+00    5.4927943626093656E+00    1.0441331444088890E+01
Ga    6.4485516380107848E+00    7.3621181347486795E+00    1.1033017335686035E+01
N    6.4488375515038205E+00    7.3613024474961355E+00    1.3004600009438590E+01
Ga    6.4492109736845862E+00    5.4912326811234866E+00    1.3624101134012076E+01
N    6.4498004050207820E+00    5.5220306835204367E+00    1.5586788740727357E+01
Ga    6.4489072522296622E+00    7.3609248922129922E+00    1.5865422365775157E+01
N    4.7088497091818518E+00    1.0102110357000523E+01    2.4931657677414969E+00
Ga    4.8035938323547391E+00    8.2918269041258466E+00    3.2635127221298492E+00
N    4.8458878703427919E+00    8.2843889875515977E+00    5.2243942037485205E+00
Ga    4.8711683821927565E+00    1.0162899368492470E+01    5.8042523177215530E+00
N    4.8508676524742835E+00    1.0146553777731885E+01    7.8041727757788202E+00
Ga    4.8272377673425408E+00    8.2972153433742388E+00    8.4490253804647537E+00
N    4.8286970172205930E+00    8.2944849526853819E+00    1.0439827243049356E+01
Ga    4.8549124250773739E+00    1.0155651112851858E+01    1.1072363210367156E+01
N    4.8724113096457708E+00    1.0164542796760355E+01    1.3067503522670705E+01
Ga    4.8298203438831653E+00    8.2968701562250224E+00    1.3624513302820619E+01
N    4.8570087567804663E+00    8.2815882219889527E+00    1.5587173761170787E+01
Ga    4.6774645964102017E+00    1.0052189841265371E+01    1.6483403103012794E+01
O    2.9178410232746917E-02    3.7437417711994749E+00   -4.7987917348339948E-01
H    2.5714094949316038E+00    7.0719001060893385E+00    6.0718775851259377E-01
C    1.3165136588698263E+00    3.8945067022533641E+00   -1.1052391030172792E+00
H    1.8080941114950357E+00    4.8397294078469013E+00   -8.2165869179574968E-01
H    1.9949240994232893E+00    3.0566782012060836E+00   -8.7483129910323920E-01
H    1.1451154267039949E+00    3.9117821527814343E+00   -2.1929698096371508E+00
Ga    3.1915988836432785E+00    5.4938057119724562E+00    2.9090255360036488E+00
O    2.1913060196834824E+00    7.4057339545982739E+00   -2.4198606302240058E-01
H    3.9087654251298926E-02    7.3458269849515210E+00    1.6506085153429269E+00
C    2.8956598263903044E+00    8.6200871642971251E+00   -5.2440215914499189E-01
H    2.2556712211156449E+00    9.2634562780019571E+00   -1.1408701048407184E+00
H    6.4533224822326618E+00    7.3502676256005914E+00    1.6551757876459363E+00
H    3.8450341644334816E+00    8.4446550914901248E+00   -1.0527626098366503E+00
     &END COORD
     &KIND C
       BASIS_SET DZVP-MOLOPT-SR-GTH-q4
       POTENTIAL GTH-PBE-q4
       &POTENTIAL
 2 2
  0.3384712400000000E+00 2 -0.8803673979999999E+01  0.1339210850000000E+01
 2
  0.3025757500000000E+00 1  0.9622486650000001E+01
  0.2915069400000000E+00 0
         # Potential name:  GTH-PBE-Q4  for symbol:  C
         # Potential read from the potential filename: GTH_POTENTIALS
       &END POTENTIAL
     &END KIND
     &KIND O
       BASIS_SET DZVP-MOLOPT-SR-GTH-q6
       POTENTIAL GTH-PBE-q6
       &POTENTIAL
 2 4
  0.2445543000000000E+00 2 -0.1666721480000000E+02  0.2487311320000000E+01
 2
  0.2209559200000000E+00 1  0.1833745811000000E+02
  0.2113324700000000E+00 0
         # Potential name:  GTH-PBE-Q6  for symbol:  O
         # Potential read from the potential filename: GTH_POTENTIALS
       &END POTENTIAL
     &END KIND
     &KIND H
       BASIS_SET DZVP-MOLOPT-SR-GTH-q1
       POTENTIAL GTH-PBE-q1
       &POTENTIAL
 1
  0.2000000000000000E+00 2 -0.4178900440000000E+01  0.7244633100000000E+00
 0
         # Potential name:  GTH-PBE-Q1  for symbol:  H
         # Potential read from the potential filename: GTH_POTENTIALS
       &END POTENTIAL
     &END KIND
     &KIND N
       BASIS_SET DZVP-MOLOPT-SR-GTH
       POTENTIAL GTH-PBE-q5
       &POTENTIAL
 2 3
  0.2837905100000000E+00 2 -0.1241522559000000E+02  0.1868095920000000E+01
 2
  0.2554050000000000E+00 1  0.1363026257000000E+02
  0.2454945300000000E+00 0
         # Potential name:  GTH-PBE-Q5  for symbol:  N
         # Potential read from the potential filename: GTH_POTENTIALS
       &END POTENTIAL
     &END KIND
     &KIND Ga
       BASIS_SET DZVP-MOLOPT-SR-GTH
       POTENTIAL GTH-PBE-q13
       &POTENTIAL
 2 1 10
  0.4900000000000000E+00 0
 3
  0.4167772300000000E+00 3  0.1047568975000000E+02 -0.4921768140000000E+01  0.8707055900000000E+00
  0.7770178090000000E+01 -0.2248152160000000E+01
  0.1784415450000000E+01
  0.5696265200000000E+00 2  0.1777985340000000E+01  0.1958597600000000E+00
 -0.2317443900000000E+00
  0.2381265000000000E+00 1 -0.1624868022000000E+02
         # Potential name:  GTH-PBE-Q13  for symbol:  GA
         # Potential read from the potential filename: GTH_POTENTIALS
       &END POTENTIAL
     &END KIND
     &TOPOLOGY
       NUMBER_OF_ATOMS  212
       MULTIPLE_UNIT_CELL  1 1 1
     &END TOPOLOGY
   &END SUBSYS
 &END FORCE_EVAL
