 # Version information for this restart file 
 # current date 2019-07-08 08:30:01.813
 # current working dir /lustre04/scratch/rzk/rzk/GaN-carbene/443-adatoms-both-2x2/09-BondBreaking-CH/01-0401-CH-to-NSur
 # Program compiled at                              Sun Apr  7 00:48:11 EDT 2019
 # Program compiled on                          beluga2.int.ets1.calculquebec.ca
 # Program compiled for                        Beluga-Linux-x86-64-intel-openmpi
 # Source code revision number                                         svn:18619
 &GLOBAL
   PRINT_LEVEL  MEDIUM
   PROJECT_NAME TEST
   RUN_TYPE  GEO_OPT
 &END GLOBAL
 &MOTION
   &GEO_OPT
     MAX_ITER  500
     STEP_START_VAL  262
   &END GEO_OPT
 &END MOTION
 &FORCE_EVAL
   METHOD  QS
   STRESS_TENSOR  ANALYTICAL
   &DFT
     BASIS_SET_FILE_NAME BASIS_MOLOPT
     POTENTIAL_FILE_NAME GTH_POTENTIALS
     UKS  T
     SURFACE_DIPOLE_CORRECTION  T
     SURF_DIP_DIR  Z
     &SCF
       MAX_SCF  80
       EPS_SCF     5.0000000000000004E-06
       &OT  T
         PRECONDITIONER  FULL_ALL
       &END OT
       &OUTER_SCF  T
         OPTIMIZER  NONE
         EPS_SCF     5.0000000000000004E-06
         MAX_SCF  4
       &END OUTER_SCF
       &PRINT
         &RESTART  OFF
           BACKUP_COPIES  1
           &EACH
             JUST_ENERGY  0
             QS_SCF  0
             MD  20
           &END EACH
         &END RESTART
       &END PRINT
     &END SCF
     &QS
       EPS_DEFAULT     1.0000000000000000E-14
       METHOD  GPW
     &END QS
     &MGRID
       NGRIDS  5
       CUTOFF     1.2000000000000000E+03
     &END MGRID
     &XC
       DENSITY_CUTOFF     1.0000000000000000E-10
       GRADIENT_CUTOFF     1.0000000000000000E-10
       TAU_CUTOFF     1.0000000000000000E-10
       &XC_FUNCTIONAL  NO_SHORTCUT
         &PBE  T
         &END PBE
       &END XC_FUNCTIONAL
       &VDW_POTENTIAL
         POTENTIAL_TYPE  PAIR_POTENTIAL
         &PAIR_POTENTIAL
           R_CUTOFF     1.0000000000000005E+01
           TYPE  DFTD3
           PARAMETER_FILE_NAME dftd3.dat
           REFERENCE_FUNCTIONAL PBE
           EPS_CN     9.9999999999999995E-07
           CALCULATE_C9_TERM  T
           REFERENCE_C9_TERM  T
           LONG_RANGE_CORRECTION  F
           VERBOSE_OUTPUT  F
         &END PAIR_POTENTIAL
       &END VDW_POTENTIAL
     &END XC
   &END DFT
   &SUBSYS
     &CELL
       A     1.2864472766435110E+01    0.0000000000000000E+00    0.0000000000000000E+00
       B    -6.4322363581020028E+00    1.1140960178524475E+01    0.0000000000000000E+00
       C     0.0000000000000000E+00    0.0000000000000000E+00    3.2000000000000000E+01
       MULTIPLE_UNIT_CELL  1 1 1
       &CELL_REF
         A     1.2982353780853531E+01    0.0000000000000000E+00    0.0000000000000000E+00
         B    -6.4911768904267628E+00    1.1243048175136114E+01    0.0000000000000000E+00
         C     0.0000000000000000E+00    0.0000000000000000E+00    3.2000000000000000E+01
         MULTIPLE_UNIT_CELL  1 1 1
       &END CELL_REF
     &END CELL
     &COORD
N    8.9003960693213955E-03    1.9341029854955236E+00    2.5157247339632463E+00
Ga    2.3561757652318231E-03   -2.9511309005730957E-02    2.8279760300842791E+00
N    1.0609190549854630E-02   -6.5548831056468249E-02    5.0307161331418264E+00
Ga    1.5015450779971658E-02    1.7623613925410633E+00    5.8011738072391763E+00
N    1.5720408356907981E-02    1.7784732694049670E+00    7.8081867186874243E+00
Ga    1.7422816915783842E-02   -6.6482165113772848E-02    8.4475939823761426E+00
N    1.7361949424505946E-02   -6.7337759106286921E-02    1.0424596126301452E+01
Ga    1.7697642970320088E-02    1.7733035956187184E+00    1.1072159679561608E+01
N    1.7960092820037115E-02    1.7539888606357625E+00    1.3069153640721927E+01
Ga    1.7147840707526413E-02   -6.7066406646403634E-02    1.3871152623875025E+01
N    1.6099800897222610E-02   -6.7316414678830983E-02    1.6072888406201820E+01
Ga    1.7770926753843973E-02    1.9673794304595287E+00    1.6479076887839334E+01
Ga    2.8108158573691873E-03    3.6251639285993691E+00    1.3276385303449589E+00
N   -1.4689619383369847E+00    4.5106564936009628E+00    2.5152264939054443E+00
Ga   -1.6549053844101809E+00    2.6782749873278315E+00    3.2826836594457056E+00
N   -1.5934264023716520E+00    2.7226956504788591E+00    5.2682107766016637E+00
Ga   -1.6155357983616718E+00    4.5875295039259436E+00    5.8100742519444397E+00
N   -1.5997937001615454E+00    4.5847159835984836E+00    7.8094554812824448E+00
Ga   -1.5798325853656909E+00    2.7248460542227884E+00    8.4435334261657413E+00
N   -1.5800964208968225E+00    2.7263502151042496E+00    1.0440337500472166E+01
Ga   -1.6058453193189657E+00    4.5846773905461715E+00    1.1074231701416892E+01
N   -1.6223309236532157E+00    4.5952754772302260E+00    1.3069793507360973E+01
Ga   -1.5791489244114818E+00    2.7257772610812370E+00    1.3622838995643763E+01
N   -1.6062257938440232E+00    2.7115742964093674E+00    1.5587651048816223E+01
Ga   -1.4353358981577997E+00    4.4873088571206523E+00    1.6479174088065317E+01
N    9.4202229760984683E-03    3.6416454915548520E+00    1.7611576505871437E+01
N   -3.2023264071590232E+00    7.4694140119602173E+00    2.5097058960131347E+00
Ga   -3.1548632292782073E+00    5.4993563219376957E+00    2.8574914860709160E+00
N   -3.2003910877917923E+00    5.5008227073249456E+00    5.0374269707136552E+00
Ga   -3.1987756617181335E+00    7.3268477516791952E+00    5.8004803172135038E+00
N   -3.2001151069744398E+00    7.3534213743473948E+00    7.7968638067070879E+00
Ga   -3.1970956489840336E+00    5.5075240211641674E+00    8.4515288682502483E+00
N   -3.1993184755364172E+00    5.5061214249228954E+00    1.0425762102737091E+01
Ga   -3.1989381588238923E+00    7.3449782897002009E+00    1.1075262668804378E+01
N   -3.1983013391884723E+00    7.3258016240436694E+00    1.3069210019744705E+01
Ga   -3.1981575105905695E+00    5.5061794830658570E+00    1.3869888545147804E+01
N   -3.1990409239504283E+00    5.5054219788873278E+00    1.6073508005063562E+01
Ga   -3.1979433137509088E+00    7.5487194744444173E+00    1.6486275892596922E+01
Ga   -3.1949057803252696E+00    9.2748091015391498E+00    1.2533191204920333E+00
N   -4.7204203889101715E+00    1.0093182724842681E+01    2.5040085590112668E+00
Ga   -4.8064465182718745E+00    8.3035474449613389E+00    3.2920425663978952E+00
N   -4.8186604154164385E+00    8.2831457482081223E+00    5.2403396181041026E+00
Ga   -4.8384586087654169E+00    1.0170834705102202E+01    5.7943362812714430E+00
N   -4.8171938387310478E+00    1.0149465510044751E+01    7.7968095456225726E+00
Ga   -4.7961714930799451E+00    8.2990998120000956E+00    8.4435183276266930E+00
N   -4.7964326832857900E+00    8.2954552340926053E+00    1.0436753736080520E+01
Ga   -4.8214532959548535E+00    1.0155787140309950E+01    1.1073289367579905E+01
N   -4.8376888775705993E+00    1.0164688745289403E+01    1.3068772428269352E+01
Ga   -4.7948899680641812E+00    8.2968117264950187E+00    1.3626014866185304E+01
N   -4.8224148003831155E+00    8.2793431020856723E+00    1.5587993622462058E+01
Ga   -4.6479228187965269E+00    1.0055337352636228E+01    1.6486322610517504E+01
N   -3.2074436341590085E+00    9.2159645275981248E+00    1.7622803465359116E+01
N    3.2181692329800180E+00    1.7923656437385993E+00    2.6317327035061382E+00
Ga    3.2236233534478438E+00    2.5102407678074975E-02    3.2515439691280585E+00
N    3.2317876958742198E+00   -7.2003171205268821E-02    5.2410494824824072E+00
Ga    3.2224171038885734E+00    1.7833761096419376E+00    5.8676337477610101E+00
N    3.2334631314062494E+00    1.7889287361157256E+00    7.8513439702655674E+00
Ga    3.2324326108022876E+00   -7.8033788015394637E-02    8.4349414586010383E+00
N    3.2331062908648835E+00   -7.9837165665884335E-02    1.0433149102474884E+01
Ga    3.2319824965079307E+00    1.7890989900022722E+00    1.1029136954847340E+01
N    3.2337788047143903E+00    1.7905687666494614E+00    1.3003084269481448E+01
Ga    3.2345360263809817E+00   -7.8922703492448495E-02    1.3624567230117604E+01
N    3.2362892856045025E+00   -4.6620405117390476E-02    1.5586138679226478E+01
Ga    3.2337644944805231E+00    1.7909570032011959E+00    1.5865274147588973E+01
N    1.5092253825307052E+00    4.5121379632766452E+00    2.5243568735919872E+00
Ga    1.6834479585596140E+00    2.6751551094425903E+00    3.2697929535100401E+00
N    1.6240401587687903E+00    2.7165659969466369E+00    5.2601535219378635E+00
Ga    1.6471610007066990E+00    4.5792163634964753E+00    5.8117175752772505E+00
N    1.6324001690781134E+00    4.5821226614086399E+00    7.8096983063685359E+00
Ga    1.6148232604939796E+00    2.7213221385707200E+00    8.4391751854650536E+00
N    1.6148146786671507E+00    2.7250644771362587E+00    1.0437034710413554E+01
Ga    1.6401432110049545E+00    4.5833344849786650E+00    1.1072417255014381E+01
N    1.6577162159926457E+00    4.5947266591655662E+00    1.3068134345675350E+01
Ga    1.6150977955187360E+00    2.7260525463643295E+00    1.3623304527187026E+01
N    1.6426357651827785E+00    2.7130787780306238E+00    1.5586983791977040E+01
Ga    1.4638440711497827E+00    4.4833741454798819E+00    1.6480331462678688E+01
N    2.2851821306831856E-02    7.3622899821312249E+00    2.6798335599902590E+00
Ga    2.2945541692245847E-02    5.5041202066950445E+00    3.3141694166722733E+00
N    1.7588585988314805E-02    5.5223701753135277E+00    5.2611624975586162E+00
Ga    2.0924719856970433E-02    7.3650553708610556E+00    5.8909843679511305E+00
N    1.6953523530382094E-02    7.3634090492994755E+00    7.8591094326809534E+00
Ga    1.6790007267708993E-02    5.4933493420886199E+00    8.4470868818616065E+00
N    1.6956702085584197E-02    5.4927114950369260E+00    1.0440259757383764E+01
Ga    1.6243038606503044E-02    7.3614135250157160E+00    1.1032370638404275E+01
N    1.7188816799112071E-02    7.3617533228597365E+00    1.3004292961292778E+01
Ga    1.8389650350966381E-02    5.4922278082837330E+00    1.3623511682539586E+01
N    1.9397400765041272E-02    5.5224536445634769E+00    1.5586657494318091E+01
Ga    1.8079507160410381E-02    7.3619102556130764E+00    1.5864795574807378E+01
N   -1.6846031256743663E+00    1.0090995906868063E+01    2.5159609879793687E+00
Ga   -1.5845638716196158E+00    8.2871521835915765E+00    3.2858955602282687E+00
N   -1.5805415639461369E+00    8.2815300462353250E+00    5.2377746895334081E+00
Ga   -1.5684793213485282E+00    1.0164632070251274E+01    5.7955742010378062E+00
N   -1.5820903322102837E+00    1.0149421159695061E+01    7.7966222368010882E+00
Ga   -1.6020450593935835E+00    8.2977678445350822E+00    8.4428405011478365E+00
N   -1.6026348265194295E+00    8.2958021669065225E+00    1.0436220263519958E+01
Ga   -1.5771894142250769E+00    1.0155257283299273E+01    1.1073046240373930E+01
N   -1.5589428526315110E+00    1.0164542046463357E+01    1.3067691586365809E+01
Ga   -1.6011305160391691E+00    8.2970369330346436E+00    1.3625567979241994E+01
N   -1.5731785545086325E+00    8.2812324241045143E+00    1.5586239820113100E+01
Ga   -1.7567335796444761E+00    1.0050036030942016E+01    1.6487161981581831E+01
N    6.4520360342184713E+00    1.9080621584220858E+00    2.5528471631479466E+00
Ga    6.4630395564779857E+00   -8.9361696890188219E-02    2.8704942724089566E+00
N    6.4524911390955602E+00   -6.4368751366089230E-02    5.0372204354753842E+00
Ga    6.4496600904579831E+00    1.7587536176520482E+00    5.8145400371018745E+00
N    6.4493571260269418E+00    1.7792052250055703E+00    7.8110251978905492E+00
Ga    6.4480438910156339E+00   -6.9212516745792277E-02    8.4491548252861488E+00
N    6.4487422083147896E+00   -6.7134389696523397E-02    1.0424780403377014E+01
Ga    6.4487099873543912E+00    1.7725946266394688E+00    1.1074218929370113E+01
N    6.4500494897257985E+00    1.7537797924562979E+00    1.3070044841247793E+01
Ga    6.4498739017965798E+00   -6.7963448495668724E-02    1.3870445021489937E+01
N    6.4489441068531370E+00   -6.8622285609834646E-02    1.6072328982334490E+01
Ga    6.4505866332805475E+00    1.9635379119367116E+00    1.6476479082512125E+01
Ga    6.4471804108113933E+00    3.6108208378860374E+00    1.5464602771592835E+00
N    4.9557368139449531E+00    4.5162583449882137E+00    2.5435374778688229E+00
Ga    4.7237799633672966E+00    2.6467139883133850E+00    3.3087995960222703E+00
N    4.8428692037045966E+00    2.7186092461719613E+00    5.2680966655445651E+00
Ga    4.8099897965403899E+00    4.5842951110464609E+00    5.8250444334198708E+00
N    4.8350242996451822E+00    4.5813712941040441E+00    7.8137061521970246E+00
Ga    4.8481277204170725E+00    2.7198546416293250E+00    8.4449902271308712E+00
N    4.8514195216639990E+00    2.7249751564061304E+00    1.0439699309043691E+01
Ga    4.8253265351419365E+00    4.5839777104655148E+00    1.1074456847387339E+01
N    4.8099394169348990E+00    4.5949409477946412E+00    1.3069897934844336E+01
Ga    4.8529197116061757E+00    2.7255426552264677E+00    1.3623016855703135E+01
N    4.8264986042145770E+00    2.7113218836280124E+00    1.5589014448879372E+01
Ga    4.9924787128426402E+00    4.4901576568900810E+00    1.6476915654342076E+01
N    6.4409434604058555E+00    3.6419848555701781E+00    1.7606967792910375E+01
N    3.2270216428057350E+00    7.4349570485845291E+00    2.4936717722726445E+00
N    3.2364155510569317E+00    5.4929589079652592E+00    5.0560041454322748E+00
Ga    3.2324794108970645E+00    7.3276746845357570E+00    5.8015833541645829E+00
N    3.2336550009568263E+00    7.3523023473681235E+00    7.7988896225781099E+00
Ga    3.2309614121169479E+00    5.5054570096242266E+00    8.4502735259869777E+00
N    3.2333989584314664E+00    5.5052376815700050E+00    1.0424965129769667E+01
Ga    3.2329160349926642E+00    7.3431581510218651E+00    1.1077406426806224E+01
N    3.2339447414013831E+00    7.3252835721456240E+00    1.3070555614292871E+01
Ga    3.2327720866223975E+00    5.5058900796280792E+00    1.3870538680913576E+01
N    3.2312510820956351E+00    5.5057410339104269E+00    1.6073718107562787E+01
Ga    3.2341767378697597E+00    7.5512025117618586E+00    1.6489199014620581E+01
Ga    3.2255781064632840E+00    9.4663141080129769E+00    1.2583753389539849E+00
N    1.7504990596727554E+00    1.0102792402194016E+01    2.5280324708702047E+00
Ga    1.6454045225243288E+00    8.2828435019014783E+00    3.2749102448352181E+00
N    1.6168209261139219E+00    8.2820064351661529E+00    5.2354236783582069E+00
Ga    1.5993038627281286E+00    1.0158517255352971E+01    5.8070170270554655E+00
N    1.6139539662730540E+00    1.0147382083384745E+01    7.8054881806212268E+00
Ga    1.6356823201855335E+00    8.2955602877252073E+00    8.4471661577781525E+00
N    1.6363880783423161E+00    8.2947526573480470E+00    1.0439685872149518E+01
Ga    1.6107739267632530E+00    1.0155421792080320E+01    1.1073960850192618E+01
N    1.5944494859015002E+00    1.0164727224576986E+01    1.3068921925058577E+01
Ga    1.6368464153190774E+00    8.2966396018817861E+00    1.3626028266112863E+01
N    1.6091454619803045E+00    8.2796026712333894E+00    1.5587686361207401E+01
Ga    1.7876871362353994E+00    1.0053466175186857E+01    1.6489166699151522E+01
N    3.2256778488616100E+00    9.2157157148552695E+00    1.7626574665940272E+01
N    9.6767689234178675E+00    1.7907397138184780E+00    2.6512493629709901E+00
Ga    9.6682209708285427E+00    4.0785588362202453E-02    3.3222084186368717E+00
N    9.6658365209004558E+00   -6.3944511154048214E-02    5.2854979323100517E+00
Ga    9.6734986447080136E+00    1.7952302069299528E+00    5.8881251800419587E+00
N    9.6636345509912953E+00    1.7934343559512804E+00    7.8653118338509449E+00
Ga    9.6653426183779274E+00   -7.7823425742881952E-02    8.4378366373307578E+00
N    9.6651167021697031E+00   -7.9383147335274240E-02    1.0435570161606407E+01
Ga    9.6655770918863606E+00    1.7900367376870605E+00    1.1029469695733479E+01
N    9.6656784434497300E+00    1.7910506953335119E+00    1.3003345575878187E+01
Ga    9.6666197914095076E+00   -7.8630571488408907E-02    1.3625172161124681E+01
N    9.6678878427896660E+00   -4.6265319899024285E-02    1.5586098719257437E+01
Ga    9.6669044843845136E+00    1.7907677815465828E+00    1.5864741025611561E+01
N    7.9453860543837136E+00    4.5252762641113717E+00    2.5334079311825608E+00
Ga    8.1733601184588860E+00    2.6579922525114208E+00    3.3140179448102187E+00
N    8.0547712251844104E+00    2.7251136915823566E+00    5.2729303491187558E+00
Ga    8.0912921861288449E+00    4.5929339008414685E+00    5.8207302596183350E+00
N    8.0645235888793305E+00    4.5848169142269573E+00    7.8118183633828959E+00
Ga    8.0470575878913202E+00    2.7242713824635278E+00    8.4484258279642201E+00
N    8.0453141526733063E+00    2.7265879836375424E+00    1.0441609967633244E+01
Ga    8.0729413963719647E+00    4.5850402626099482E+00    1.1075307412245721E+01
N    8.0900269510308611E+00    4.5951981788303886E+00    1.3069798974492230E+01
Ga    8.0475124799887769E+00    2.7259538341321718E+00    1.3623351153886055E+01
N    8.0746178490112612E+00    2.7129186859241807E+00    1.5587750473233024E+01
Ga    7.8993443452556926E+00    4.4849632590388211E+00    1.6477241363830270E+01
N    6.4431148152919082E+00    7.3769410402027980E+00    2.6817267117791026E+00
Ga    6.4479576396135601E+00    5.5517064085417855E+00    3.3461083766022410E+00
N    6.4481850957158988E+00    5.5223186413761978E+00    5.2692644328720242E+00
Ga    6.4421124795024705E+00    7.3785870010112840E+00    5.8950916297856830E+00
N    6.4471810437861965E+00    7.3635852014326826E+00    7.8588426846932968E+00
Ga    6.4492577145613081E+00    5.4948608223591107E+00    8.4523075688311700E+00
N    6.4491669280317501E+00    5.4930669010344868E+00    1.0441933852540656E+01
Ga    6.4493056357632241E+00    7.3622538340115415E+00    1.1034195671283770E+01
N    6.4501574620100639E+00    7.3615849326627494E+00    1.3005353344562597E+01
Ga    6.4503076814257465E+00    5.4922567145263503E+00    1.3624319546986539E+01
N    6.4517540105532198E+00    5.5223640951015209E+00    1.5588114407543356E+01
Ga    6.4500134924966206E+00    7.3625079126860022E+00    1.5865641108488346E+01
N    4.7096192763536360E+00    1.0101179617281906E+01    2.4939396070478193E+00
Ga    4.8048018857572767E+00    8.2911352019244653E+00    3.2648613384385277E+00
N    4.8466379196277414E+00    8.2841458071414777E+00    5.2255550750471480E+00
Ga    4.8720557162062850E+00    1.0162934521933771E+01    5.8050687114161246E+00
N    4.8515627724795207E+00    1.0146622905394354E+01    7.8049847764004161E+00
Ga    4.8280185448075601E+00    8.2973060182153855E+00    8.4497499948212376E+00
N    4.8296595260353863E+00    8.2946921703036978E+00    1.0440464004009202E+01
Ga    4.8557328235139163E+00    1.0155918470833226E+01    1.1073662472308687E+01
N    4.8733734496925276E+00    1.0164663920586090E+01    1.3068335036922900E+01
Ga    4.8310694911661667E+00    8.2970997043990540E+00    1.3626796247192143E+01
N    4.8594319372958692E+00    8.2811327394750993E+00    1.5586721635615017E+01
Ga    4.6735439185798802E+00    1.0049272542642100E+01    1.6490027014538644E+01
O    2.5559908368402016E-02    3.7270818864954656E+00   -4.7981732279200412E-01
H    2.5626025510376329E+00    7.0683494458225153E+00    5.9974046874168974E-01
C    1.3090882473799588E+00    3.8989366239591807E+00   -1.1089747024276775E+00
H    1.7627645433693970E+00    4.8733491907832232E+00   -8.6550099717193918E-01
H    2.0181336062262214E+00    3.0986622136112993E+00   -8.4133564579057463E-01
H    1.1402562767016493E+00    3.8612814033020908E+00   -2.1951355385974547E+00
Ga    3.1919797209408443E+00    5.4938505507409570E+00    2.9088313310599063E+00
O    2.1770424354059776E+00    7.4139440351671277E+00   -2.4232245284361731E-01
H    4.1149662012007551E-02    7.3462757994771559E+00    1.6510400077084233E+00
C    2.8962932313374368E+00    8.6204708233586498E+00   -5.2327731184436221E-01
H    2.2652737767873181E+00    9.2685925890527905E+00   -1.1436660418267557E+00
H    6.4539833309002228E+00    7.3499022471650335E+00    1.6556474898551392E+00
H    3.8457871717507137E+00    8.4341055931871836E+00   -1.0479579745992624E+00
     &END COORD
     &KIND C
       BASIS_SET DZVP-MOLOPT-SR-GTH-q4
       POTENTIAL GTH-PBE-q4
       &POTENTIAL
2 2
0.3384712400000000E+00 2 -0.8803673979999999E+01  0.1339210850000000E+01
2
0.3025757500000000E+00 1  0.9622486650000001E+01
0.2915069400000000E+00 0
       &END POTENTIAL
     &END KIND
     &KIND O
       BASIS_SET DZVP-MOLOPT-SR-GTH-q6
       POTENTIAL GTH-PBE-q6
       &POTENTIAL
2 4
0.2445543000000000E+00 2 -0.1666721480000000E+02  0.2487311320000000E+01
2
0.2209559200000000E+00 1  0.1833745811000000E+02
0.2113324700000000E+00 0
       &END POTENTIAL
     &END KIND
     &KIND H
       BASIS_SET DZVP-MOLOPT-SR-GTH-q1
       POTENTIAL GTH-PBE-q1
       &POTENTIAL
1
0.2000000000000000E+00 2 -0.4178900440000000E+01  0.7244633100000000E+00
0
       &END POTENTIAL
     &END KIND
     &KIND N
       BASIS_SET DZVP-MOLOPT-SR-GTH
       POTENTIAL GTH-PBE-q5
       &POTENTIAL
2 3
0.2837905100000000E+00 2 -0.1241522559000000E+02  0.1868095920000000E+01
2
0.2554050000000000E+00 1  0.1363026257000000E+02
0.2454945300000000E+00 0
       &END POTENTIAL
     &END KIND
     &KIND Ga
       BASIS_SET DZVP-MOLOPT-SR-GTH
       POTENTIAL GTH-PBE-q13
       &POTENTIAL
2 1 10
0.4900000000000000E+00 0
3
0.4167772300000000E+00 3  0.1047568975000000E+02 -0.4921768140000000E+01  0.8707055900000000E+00
0.7770178090000000E+01 -0.2248152160000000E+01
0.1784415450000000E+01
0.5696265200000000E+00 2  0.1777985340000000E+01  0.1958597600000000E+00
-0.2317443900000000E+00
0.2381265000000000E+00 1 -0.1624868022000000E+02
       &END POTENTIAL
     &END KIND
     &TOPOLOGY
       NUMBER_OF_ATOMS  212
       MULTIPLE_UNIT_CELL  1 1 1
     &END TOPOLOGY
   &END SUBSYS
 &END FORCE_EVAL
