 # Version information for this restart file 
 # current date 2019-07-02 13:33:13.647
 # current working dir /lustre04/scratch/rzk/rzk/GaN-carbene/443-adatoms-both-2x2/09-BondBreaking-CH/01-0401-CH-to-NSur
 # Program compiled at                              Sun Apr  7 00:48:11 EDT 2019
 # Program compiled on                          beluga2.int.ets1.calculquebec.ca
 # Program compiled for                        Beluga-Linux-x86-64-intel-openmpi
 # Source code revision number                                         svn:18619
 &GLOBAL
   PRINT_LEVEL  MEDIUM
   PROJECT_NAME TEST
   RUN_TYPE  GEO_OPT
 &END GLOBAL
 &MOTION
   &GEO_OPT
     MAX_ITER  500
     STEP_START_VAL  209
   &END GEO_OPT
 &END MOTION
 &FORCE_EVAL
   METHOD  QS
   STRESS_TENSOR  ANALYTICAL
   &DFT
     BASIS_SET_FILE_NAME BASIS_MOLOPT
     POTENTIAL_FILE_NAME GTH_POTENTIALS
     UKS  T
     SURFACE_DIPOLE_CORRECTION  T
     SURF_DIP_DIR  Z
     &SCF
       MAX_SCF  80
       EPS_SCF     5.0000000000000004E-06
       &OT  T
         PRECONDITIONER  FULL_ALL
       &END OT
       &OUTER_SCF  T
         OPTIMIZER  NONE
         EPS_SCF     5.0000000000000004E-06
         MAX_SCF  4
       &END OUTER_SCF
       &PRINT
         &RESTART  OFF
           BACKUP_COPIES  1
           &EACH
             JUST_ENERGY  0
             QS_SCF  0
             MD  20
           &END EACH
         &END RESTART
       &END PRINT
     &END SCF
     &QS
       EPS_DEFAULT     1.0000000000000000E-14
       METHOD  GPW
     &END QS
     &MGRID
       NGRIDS  5
       CUTOFF     1.2000000000000000E+03
     &END MGRID
     &XC
       DENSITY_CUTOFF     1.0000000000000000E-10
       GRADIENT_CUTOFF     1.0000000000000000E-10
       TAU_CUTOFF     1.0000000000000000E-10
       &XC_FUNCTIONAL  NO_SHORTCUT
         &PBE  T
         &END PBE
       &END XC_FUNCTIONAL
       &VDW_POTENTIAL
         POTENTIAL_TYPE  PAIR_POTENTIAL
         &PAIR_POTENTIAL
           R_CUTOFF     1.0000000000000004E+01
           TYPE  DFTD3
           PARAMETER_FILE_NAME dftd3.dat
           REFERENCE_FUNCTIONAL PBE
           EPS_CN     9.9999999999999995E-07
           CALCULATE_C9_TERM  T
           REFERENCE_C9_TERM  T
           LONG_RANGE_CORRECTION  F
           VERBOSE_OUTPUT  F
         &END PAIR_POTENTIAL
       &END VDW_POTENTIAL
     &END XC
   &END DFT
   &SUBSYS
     &CELL
       A     1.2864472766435110E+01    0.0000000000000000E+00    0.0000000000000000E+00
       B    -6.4322363581020028E+00    1.1140960178524473E+01    0.0000000000000000E+00
       C     0.0000000000000000E+00    0.0000000000000000E+00    3.2000000000000000E+01
       MULTIPLE_UNIT_CELL  1 1 1
       &CELL_REF
         A     1.2982353780853531E+01    0.0000000000000000E+00    0.0000000000000000E+00
         B    -6.4911768904267628E+00    1.1243048175136114E+01    0.0000000000000000E+00
         C     0.0000000000000000E+00    0.0000000000000000E+00    3.2000000000000000E+01
         MULTIPLE_UNIT_CELL  1 1 1
       &END CELL_REF
     &END CELL
     &COORD
N    8.6763808956471442E-03    1.9348647221970265E+00    2.5142745639227289E+00
Ga    1.5235895629668312E-03   -2.8731658453400897E-02    2.8276599287015953E+00
N    9.9488920131635475E-03   -6.5507038976928847E-02    5.0300144320269915E+00
Ga    1.4138471542054304E-02    1.7624781892016759E+00    5.8002077160833334E+00
N    1.4817112510184487E-02    1.7782798393096291E+00    7.8073679426272875E+00
Ga    1.6533175700130468E-02   -6.6678267256328735E-02    8.4470326795409587E+00
N    1.6449269245416856E-02   -6.7691259756682720E-02    1.0423991614014263E+01
Ga    1.6699502977118242E-02    1.7730406131848893E+00    1.1071241674365034E+01
N    1.6801058987333698E-02    1.7536059626315541E+00    1.3067941609860837E+01
Ga    1.6827568068050903E-02   -6.6689305726017375E-02    1.3868657980943967E+01
N    1.5938094031208466E-02   -6.7703581393549872E-02    1.6073099825476035E+01
Ga    1.6699427598835213E-02    1.9680202477311792E+00    1.6478987633412178E+01
Ga    4.5651178539181875E-03    3.6281100305074521E+00    1.3270855399204629E+00
N   -1.4693344954127006E+00    4.5116785712451852E+00    2.5145100435923933E+00
Ga   -1.6551241444247344E+00    2.6790180420751133E+00    3.2807092149560142E+00
N   -1.5941442224734395E+00    2.7229208724253375E+00    5.2667903923561958E+00
Ga   -1.6163229742140079E+00    4.5877718264057714E+00    5.8092749075421386E+00
N   -1.6005505103187916E+00    4.5846888536940629E+00    7.8088439653853339E+00
Ga   -1.5807414733066543E+00    2.7247282641148072E+00    8.4431810184271807E+00
N   -1.5810227535236725E+00    2.7261205656344081E+00    1.0439680337630833E+01
Ga   -1.6069793398235042E+00    4.5844378464429694E+00    1.1073799307695598E+01
N   -1.6236250409965327E+00    4.5946597208213911E+00    1.3069211485009046E+01
Ga   -1.5799579432667672E+00    2.7253151952838728E+00    1.3622512935798564E+01
N   -1.6075414204005691E+00    2.7096517965892075E+00    1.5587528287118575E+01
Ga   -1.4374163195520662E+00    4.4864665240617585E+00    1.6479392367821156E+01
N    8.2484425159492988E-03    3.6417852625292713E+00    1.7610584783076181E+01
N   -3.2035229909730041E+00    7.4699237056503236E+00    2.5097993947154977E+00
Ga   -3.1558856904264596E+00    5.4994294072832650E+00    2.8566011469302146E+00
N   -3.2011887415956140E+00    5.5012636487028246E+00    5.0369396592203239E+00
Ga   -3.1997294129787668E+00    7.3271894774822659E+00    5.8003053943582410E+00
N   -3.2008607344577382E+00    7.3535391748712389E+00    7.7966090293423402E+00
Ga   -3.1979906364856276E+00    5.5074967469054412E+00    8.4512854820799284E+00
N   -3.2002857976642525E+00    5.5058699392286936E+00    1.0425194945561259E+01
Ga   -3.1998984577218965E+00    7.3445623509592108E+00    1.1074764645193378E+01
N   -3.1995017682971691E+00    7.3248888129087080E+00    1.3068789515437961E+01
Ga   -3.1999395445449941E+00    5.5046960880126035E+00    1.3870407966597682E+01
N   -3.2013421572426251E+00    5.5043137191186418E+00    1.6073672033762577E+01
Ga   -3.1997103268496740E+00    7.5463633725183268E+00    1.6486049469839603E+01
Ga   -3.1960057358978089E+00    9.2749763628351758E+00    1.2544887836977434E+00
N   -4.7214403838084342E+00    1.0093435238223837E+01    2.5040537070817139E+00
Ga   -4.8079785307670919E+00    8.3037451659529040E+00    3.2922012867976314E+00
N   -4.8195669567767272E+00    8.2832581877147025E+00    5.2401813953908425E+00
Ga   -4.8391685998769800E+00    1.0170676610066634E+01    5.7939724367276124E+00
N   -4.8179528797814148E+00    1.0149380959651719E+01    7.7964235111842886E+00
Ga   -4.7970356117392505E+00    8.2989487147421173E+00    8.4431919703965157E+00
N   -4.7972059645084357E+00    8.2951283766023707E+00    1.0436123920840366E+01
Ga   -4.8222542044921513E+00    1.0155334225709185E+01    1.1072171202983910E+01
N   -4.8387859692586037E+00    1.0164407290281719E+01    1.3067479877384899E+01
Ga   -4.7958856925186817E+00    8.2966325793772171E+00    1.3625238569045898E+01
N   -4.8246072511302653E+00    8.2796397565331912E+00    1.5587952271776537E+01
Ga   -4.6475894511868399E+00    1.0054154358588457E+01    1.6485504170330408E+01
N   -3.2069872256725360E+00    9.2142544655403338E+00    1.7619801924828241E+01
N    3.2174601125024189E+00    1.7926937644511769E+00    2.6320753145091484E+00
Ga    3.2226447677588430E+00    2.5532602117840527E-02    3.2516174252233738E+00
N    3.2310192070007702E+00   -7.2067836420887696E-02    5.2409510425208099E+00
Ga    3.2218729679218163E+00    1.7834113675036491E+00    5.8672444876020240E+00
N    3.2326677254714822E+00    1.7886785471167126E+00    7.8508733431701128E+00
Ga    3.2318338894350997E+00   -7.8213550551504196E-02    8.4346241666351514E+00
N    3.2322897920321343E+00   -8.0172136557629226E-02    1.0432514581941195E+01
Ga    3.2311199222050897E+00    1.7887007503391366E+00    1.1028510274422949E+01
N    3.2322977166416513E+00    1.7898706836463594E+00    1.3002394567545165E+01
Ga    3.2331928623874506E+00   -7.9305982460976573E-02    1.3624066278483836E+01
N    3.2340779826357497E+00   -4.7171036854280451E-02    1.5585851285316295E+01
Ga    3.2326226163655529E+00    1.7903994838930855E+00    1.5864350639843632E+01
N    1.5085209302471372E+00    4.5125539016595368E+00    2.5254865084883424E+00
Ga    1.6826310350268745E+00    2.6752343584267799E+00    3.2696130144297486E+00
N    1.6233855388327545E+00    2.7166622575085078E+00    5.2598809332939336E+00
Ga    1.6462529294502410E+00    4.5794240138501374E+00    5.8113252497211318E+00
N    1.6314797029603347E+00    4.5821330467135937E+00    7.8093172194913132E+00
Ga    1.6140510327258271E+00    2.7212105134503752E+00    8.4387125473674995E+00
N    1.6138970801939077E+00    2.7247066299432379E+00    1.0436261351438594E+01
Ga    1.6391440587673636E+00    4.5829878809075169E+00    1.1071779634293277E+01
N    1.6566611646704243E+00    4.5939622070359896E+00    1.3067398745328930E+01
Ga    1.6136639388080631E+00    2.7254208711469459E+00    1.3622582221276469E+01
N    1.6410152978375789E+00    2.7113803736916333E+00    1.5586243825183061E+01
Ga    1.4631378226166327E+00    4.4819401548036319E+00    1.6480623095542640E+01
N    2.1732567445451777E-02    7.3626105403678945E+00    2.6797487797892106E+00
Ga    2.2081232465384012E-02    5.5047136610670462E+00    3.3144556529902935E+00
N    1.6807601437420827E-02    5.5228708823701149E+00    5.2611727810675966E+00
Ga    2.0144131583309785E-02    7.3654273402170061E+00    5.8909727283960507E+00
N    1.6258933014425204E-02    7.3636003109735562E+00    7.8589424150342548E+00
Ga    1.5989489563960183E-02    5.4934853065195313E+00    8.4470465574856455E+00
N    1.5967564112136783E-02    5.4925163927648795E+00    1.0439944817777532E+01
Ga    1.5501465526629706E-02    7.3612558115068634E+00    1.1031363731240527E+01
N    1.6224655159891074E-02    7.3611772258499490E+00    1.3003942197201210E+01
Ga    1.7239576249805967E-02    5.4910334238554803E+00    1.3623077381323693E+01
N    1.8362801359297607E-02    5.5217083115304568E+00    1.5586610929118164E+01
Ga    1.6414076393923741E-02    7.3607279421884089E+00    1.5865265609002682E+01
N   -1.6853567256193491E+00    1.0091399932411695E+01    2.5163403417796664E+00
Ga   -1.5854578490823388E+00    8.2873293053978809E+00    3.2860620774214704E+00
N   -1.5813871590621082E+00    8.2816740677096572E+00    5.2378417942253712E+00
Ga   -1.5692032420189101E+00    1.0164693037925286E+01    5.7956022397435412E+00
N   -1.5827005212533938E+00    1.0149361333261714E+01    7.7964695783353557E+00
Ga   -1.6027504509793040E+00    8.2978055230492913E+00    8.4428708568103357E+00
N   -1.6034694669839915E+00    8.2954853439850744E+00    1.0436024853141756E+01
Ga   -1.5780508734455196E+00    1.0154954505196979E+01    1.1072192818125689E+01
N   -1.5600068931338746E+00    1.0164482461125457E+01    1.3067020678144948E+01
Ga   -1.6025235202176120E+00    8.2967976602630813E+00    1.3624725144886584E+01
N   -1.5742883688878992E+00    8.2810480619960565E+00    1.5586437919311697E+01
Ga   -1.7577976908191548E+00    1.0050625520535151E+01    1.6486382489335444E+01
N    6.4511559930514597E+00    1.9088445783453851E+00    2.5523302587500978E+00
Ga    6.4622008778373061E+00   -8.8075389694600617E-02    2.8703118585730421E+00
N    6.4517455440451617E+00   -6.4256160026589224E-02    5.0368878664569552E+00
Ga    6.4491953435268874E+00    1.7590853600814846E+00    5.8137046981929208E+00
N    6.4487354686688665E+00    1.7789860986506407E+00    7.8102599458511737E+00
Ga    6.4474808203695044E+00   -6.9303655909051368E-02    8.4488429388385153E+00
N    6.4479539351788313E+00   -6.7387000203080638E-02    1.0424399271210715E+01
Ga    6.4478841245818250E+00    1.7723851824356827E+00    1.1073729406177520E+01
N    6.4486329272929011E+00    1.7535010756013021E+00    1.3068961660924659E+01
Ga    6.4479620930189672E+00   -6.6811330006022795E-02    1.3869884969024680E+01
N    6.4464358367782690E+00   -6.7513146341114577E-02    1.6073104087813526E+01
Ga    6.4483152659098781E+00    1.9695564182919425E+00    1.6481159919469818E+01
Ga    6.4458757670647966E+00    3.6112600223926083E+00    1.5436976857971956E+00
N    4.9547772486156614E+00    4.5163740819158065E+00    2.5435992032979544E+00
Ga    4.7233475671406646E+00    2.6471835630320899E+00    3.3080631273046830E+00
N    4.8421604974332713E+00    2.7186973358993867E+00    5.2675204827193953E+00
Ga    4.8096304538369488E+00    4.5844779113787979E+00    5.8242616243151710E+00
N    4.8341872215855650E+00    4.5812980524878428E+00    7.8131076713125047E+00
Ga    4.8474624467257703E+00    2.7196088263527916E+00    8.4443610558102122E+00
N    4.8506135251384173E+00    2.7245764793249947E+00    1.0438858930638432E+01
Ga    4.8245810507281739E+00    4.5835276513789314E+00    1.1073939713453715E+01
N    4.8090493803470160E+00    4.5938483814689777E+00    1.3068719377150581E+01
Ga    4.8515682151415804E+00    2.7247377496943077E+00    1.3623304799314603E+01
N    4.8241388928020719E+00    2.7098451538985358E+00    1.5587397160365347E+01
Ga    4.9970045858139089E+00    4.4847207166809371E+00    1.6482126551381562E+01
N    6.4410711683692696E+00    3.6411973790622962E+00    1.7615550258230179E+01
N    3.2258806756394192E+00    7.4343822632853813E+00    2.4936283201153091E+00
N    3.2356103289650586E+00    5.4930947334610538E+00    5.0558761078471175E+00
Ga    3.2317182187058173E+00    7.3281024147950422E+00    5.8009315137391821E+00
N    3.2326845365433798E+00    7.3524952147225768E+00    7.7982529972884302E+00
Ga    3.2301450040700765E+00    5.5055901094030570E+00    8.4497267516711787E+00
N    3.2325129904372898E+00    5.5049991428879279E+00    1.0424374061250568E+01
Ga    3.2320579577996393E+00    7.3429036443585964E+00    1.1076409257501842E+01
N    3.2327561805565410E+00    7.3241580470762848E+00    1.3070261164790903E+01
Ga    3.2323437963458073E+00    5.5033743506824200E+00    1.3869676611228890E+01
N    3.2312695046866442E+00    5.5030882122870430E+00    1.6073818659918764E+01
Ga    3.2325194796994055E+00    7.5427238209999254E+00    1.6483263839041474E+01
Ga    3.2241449884832001E+00    9.4695165845931779E+00    1.2569268179057218E+00
N    1.7495683660134378E+00    1.0103678437206430E+01    2.5276664856412907E+00
Ga    1.6445720047820778E+00    8.2832894392749346E+00    3.2737176319954795E+00
N    1.6158532796587644E+00    8.2822853500981122E+00    5.2344670803653379E+00
Ga    1.5986929725453911E+00    1.0158742558302933E+01    5.8065238999684849E+00
N    1.6132485989519314E+00    1.0147332498798887E+01    7.8049033135858510E+00
Ga    1.6349292825972994E+00    8.2957200646464493E+00    8.4469815610209373E+00
N    1.6356673808086313E+00    8.2946416982162052E+00    1.0439412391639912E+01
Ga    1.6099607630456603E+00    1.0155233636388582E+01    1.1072847556547144E+01
N    1.5928550183872188E+00    1.0164613019597528E+01    1.3068476609859312E+01
Ga    1.6356743087578740E+00    8.2962685077901615E+00    1.3624451168612937E+01
N    1.6084565795494234E+00    8.2796986466582432E+00    1.5588257158371581E+01
Ga    1.7801916101545110E+00    1.0056368486321061E+01    1.6482571027805978E+01
N    3.2241590233764481E+00    9.2145130345311337E+00    1.7617430717952658E+01
N    9.6761117167522777E+00    1.7913312558043393E+00    2.6503824572440311E+00
Ga    9.6675550320930146E+00    4.1528111052924581E-02    3.3218428541782314E+00
N    9.6651246809441123E+00   -6.3528737022545731E-02    5.2848140165960480E+00
Ga    9.6727299011096459E+00    1.7956393583962398E+00    5.8870900464578009E+00
N    9.6629459990304731E+00    1.7933360616401106E+00    7.8644014301939320E+00
Ga    9.6645074097748935E+00   -7.7840092052317400E-02    8.4370575362418059E+00
N    9.6642748087473773E+00   -7.9717891831023818E-02    1.0434993287537564E+01
Ga    9.6648112625666300E+00    1.7896426242903052E+00    1.1028561142053578E+01
N    9.6647699927409843E+00    1.7902251477850273E+00    1.3002875345752591E+01
Ga    9.6654321971388555E+00   -7.9166754879578416E-02    1.3623449070926194E+01
N    9.6665526296343831E+00   -4.7978230240604235E-02    1.5586445265792229E+01
Ga    9.6649842190651913E+00    1.7906750209144460E+00    1.5864261879451659E+01
N    7.9444138434850418E+00    4.5258815293817776E+00    2.5326674600721080E+00
Ga    8.1723560356883755E+00    2.6588890580414670E+00    3.3123855435557363E+00
N    8.0541807716569274E+00    2.7253496912468145E+00    5.2715902923726405E+00
Ga    8.0901753747163347E+00    4.5931322691847338E+00    5.8196937221999496E+00
N    8.0637072695202328E+00    4.5847646772254356E+00    7.8110015184348232E+00
Ga    8.0463624805313732E+00    2.7241232282310874E+00    8.4478459366405083E+00
N    8.0445192446287983E+00    2.7262641233341927E+00    1.0441005772476641E+01
Ga    8.0721824181722379E+00    4.5847315311549552E+00    1.1075090851020162E+01
N    8.0888152816582899E+00    4.5944786888518170E+00    1.3068853086526026E+01
Ga    8.0459204238993074E+00    2.7254649429322586E+00    1.3622978353033137E+01
N    8.0733896464464632E+00    2.7111948742538803E+00    1.5586187149780212E+01
Ga    7.8937138288767121E+00    4.4814055756911966E+00    1.6482622687350158E+01
N    6.4419356365241969E+00    7.3772114346599400E+00    2.6813375553742054E+00
Ga    6.4469900589662927E+00    5.5516783354857306E+00    3.3453623337384006E+00
N    6.4474100281676270E+00    5.5225709321680663E+00    5.2683860719495010E+00
Ga    6.4411143087003646E+00    7.3785835360830365E+00    5.8943002943299474E+00
N    6.4462961968098158E+00    7.3636976067045588E+00    7.8581227200864063E+00
Ga    6.4484745487865940E+00    5.4949134328209759E+00    8.4517404335448170E+00
N    6.4483975529046527E+00    5.4927496424885147E+00    1.0441285942867758E+01
Ga    6.4485056874426148E+00    7.3620647693138812E+00    1.1032958292972179E+01
N    6.4489219675419136E+00    7.3613360401690757E+00    1.3004611556427697E+01
Ga    6.4491628393998512E+00    5.4911582100761036E+00    1.3623979974750997E+01
N    6.4498321875953755E+00    5.5219754480837606E+00    1.5586717487502298E+01
Ga    6.4490515884711819E+00    7.3608504242999064E+00    1.5865436857028971E+01
N    4.7087316065639264E+00    1.0102194560407760E+01    2.4931303339905990E+00
Ga    4.8036429608704552E+00    8.2919008486103198E+00    3.2635539677686882E+00
N    4.8457824143857264E+00    8.2844187129587503E+00    5.2244665158857435E+00
Ga    4.8711862373443902E+00    1.0162960444241545E+01    5.8042726735149941E+00
N    4.8507301450585523E+00    1.0146565302143442E+01    7.8042403562211264E+00
Ga    4.8271456201026641E+00    8.2972389159721018E+00    8.4490678523435943E+00
N    4.8286775089974014E+00    8.2945110179170030E+00    1.0439843851168737E+01
Ga    4.8548140790369603E+00    1.0155642354480067E+01    1.1072302271348303E+01
N    4.8725148483413685E+00    1.0164579782607239E+01    1.3067479541438058E+01
Ga    4.8298199273197815E+00    8.2968398591798689E+00    1.3624548009137230E+01
N    4.8571965843054956E+00    8.2814846815698839E+00    1.5587182471138565E+01
Ga    4.6774181084650834E+00    1.0052088638230471E+01    1.6483562552495318E+01
O    2.9780829447685939E-02    3.7435775657415054E+00   -4.7941231601676532E-01
H    2.5732090999144561E+00    7.0723495625475108E+00    6.0755276435623629E-01
C    1.3167098269283917E+00    3.8941275652557765E+00   -1.1051567328432665E+00
H    1.8087527408271373E+00    4.8391445654259435E+00   -8.2090738594813695E-01
H    1.9949129401641956E+00    3.0555351148647198E+00   -8.7547410323048758E-01
H    1.1456460694922161E+00    3.9126821637859646E+00   -2.1926892013798405E+00
Ga    3.1916305708808763E+00    5.4936444719097004E+00    2.9091150576855296E+00
O    2.1932325455613477E+00    7.4056506792383150E+00   -2.4194248741627089E-01
H    3.8970712708936067E-02    7.3457686274831655E+00    1.6507568516942042E+00
C    2.8966538913102746E+00    8.6204200314846258E+00   -5.2427335829195332E-01
H    2.2562838980165583E+00    9.2635122270085954E+00   -1.1405914034983777E+00
H    6.4531230731239821E+00    7.3501128500444670E+00    1.6552090986383055E+00
H    3.8460603941512059E+00    8.4455014729471500E+00   -1.0526317926399615E+00
     &END COORD
     &KIND C
       BASIS_SET DZVP-MOLOPT-SR-GTH-q4
       POTENTIAL GTH-PBE-q4
       &POTENTIAL
 2 2
  0.3384712400000000E+00 2 -0.8803673979999999E+01  0.1339210850000000E+01
 2
  0.3025757500000000E+00 1  0.9622486650000001E+01
  0.2915069400000000E+00 0
         # Potential name:  GTH-PBE-Q4  for symbol:  C
         # Potential read from the potential filename: GTH_POTENTIALS
       &END POTENTIAL
     &END KIND
     &KIND O
       BASIS_SET DZVP-MOLOPT-SR-GTH-q6
       POTENTIAL GTH-PBE-q6
       &POTENTIAL
 2 4
  0.2445543000000000E+00 2 -0.1666721480000000E+02  0.2487311320000000E+01
 2
  0.2209559200000000E+00 1  0.1833745811000000E+02
  0.2113324700000000E+00 0
         # Potential name:  GTH-PBE-Q6  for symbol:  O
         # Potential read from the potential filename: GTH_POTENTIALS
       &END POTENTIAL
     &END KIND
     &KIND H
       BASIS_SET DZVP-MOLOPT-SR-GTH-q1
       POTENTIAL GTH-PBE-q1
       &POTENTIAL
 1
  0.2000000000000000E+00 2 -0.4178900440000000E+01  0.7244633100000000E+00
 0
         # Potential name:  GTH-PBE-Q1  for symbol:  H
         # Potential read from the potential filename: GTH_POTENTIALS
       &END POTENTIAL
     &END KIND
     &KIND N
       BASIS_SET DZVP-MOLOPT-SR-GTH
       POTENTIAL GTH-PBE-q5
       &POTENTIAL
 2 3
  0.2837905100000000E+00 2 -0.1241522559000000E+02  0.1868095920000000E+01
 2
  0.2554050000000000E+00 1  0.1363026257000000E+02
  0.2454945300000000E+00 0
         # Potential name:  GTH-PBE-Q5  for symbol:  N
         # Potential read from the potential filename: GTH_POTENTIALS
       &END POTENTIAL
     &END KIND
     &KIND Ga
       BASIS_SET DZVP-MOLOPT-SR-GTH
       POTENTIAL GTH-PBE-q13
       &POTENTIAL
 2 1 10
  0.4900000000000000E+00 0
 3
  0.4167772300000000E+00 3  0.1047568975000000E+02 -0.4921768140000000E+01  0.8707055900000000E+00
  0.7770178090000000E+01 -0.2248152160000000E+01
  0.1784415450000000E+01
  0.5696265200000000E+00 2  0.1777985340000000E+01  0.1958597600000000E+00
 -0.2317443900000000E+00
  0.2381265000000000E+00 1 -0.1624868022000000E+02
         # Potential name:  GTH-PBE-Q13  for symbol:  GA
         # Potential read from the potential filename: GTH_POTENTIALS
       &END POTENTIAL
     &END KIND
     &TOPOLOGY
       NUMBER_OF_ATOMS  212
       MULTIPLE_UNIT_CELL  1 1 1
     &END TOPOLOGY
   &END SUBSYS
 &END FORCE_EVAL
