 # Version information for this restart file 
 # current date 2019-07-02 06:08:19.601
 # current working dir /lustre04/scratch/rzk/rzk/GaN-carbene/443-adatoms-both-2x2/09-BondBreaking-CH/01-0401-CH-to-NSur
 # Program compiled at                              Sun Apr  7 00:48:11 EDT 2019
 # Program compiled on                          beluga2.int.ets1.calculquebec.ca
 # Program compiled for                        Beluga-Linux-x86-64-intel-openmpi
 # Source code revision number                                         svn:18619
 &GLOBAL
   PRINT_LEVEL  MEDIUM
   PROJECT_NAME TEST
   RUN_TYPE  GEO_OPT
 &END GLOBAL
 &MOTION
   &GEO_OPT
     MAX_ITER  500
     STEP_START_VAL  67
   &END GEO_OPT
 &END MOTION
 &FORCE_EVAL
   METHOD  QS
   STRESS_TENSOR  ANALYTICAL
   &DFT
     BASIS_SET_FILE_NAME BASIS_MOLOPT
     POTENTIAL_FILE_NAME GTH_POTENTIALS
     UKS  T
     SURFACE_DIPOLE_CORRECTION  T
     SURF_DIP_DIR  Z
     &SCF
       MAX_SCF  80
       EPS_SCF     5.0000000000000004E-06
       &OT  T
         PRECONDITIONER  FULL_ALL
       &END OT
       &OUTER_SCF  T
         OPTIMIZER  NONE
         EPS_SCF     5.0000000000000004E-06
         MAX_SCF  4
       &END OUTER_SCF
       &PRINT
         &RESTART  OFF
           BACKUP_COPIES  1
           &EACH
             JUST_ENERGY  0
             QS_SCF  0
             MD  20
           &END EACH
         &END RESTART
       &END PRINT
     &END SCF
     &QS
       EPS_DEFAULT     1.0000000000000000E-14
       METHOD  GPW
     &END QS
     &MGRID
       NGRIDS  5
       CUTOFF     1.2000000000000000E+03
     &END MGRID
     &XC
       DENSITY_CUTOFF     1.0000000000000000E-10
       GRADIENT_CUTOFF     1.0000000000000000E-10
       TAU_CUTOFF     1.0000000000000000E-10
       &XC_FUNCTIONAL  NO_SHORTCUT
         &PBE  T
         &END PBE
       &END XC_FUNCTIONAL
       &VDW_POTENTIAL
         POTENTIAL_TYPE  PAIR_POTENTIAL
         &PAIR_POTENTIAL
           R_CUTOFF     1.0000000000000004E+01
           TYPE  DFTD3
           PARAMETER_FILE_NAME dftd3.dat
           REFERENCE_FUNCTIONAL PBE
           EPS_CN     9.9999999999999995E-07
           CALCULATE_C9_TERM  T
           REFERENCE_C9_TERM  T
           LONG_RANGE_CORRECTION  F
           VERBOSE_OUTPUT  F
         &END PAIR_POTENTIAL
       &END VDW_POTENTIAL
     &END XC
   &END DFT
   &SUBSYS
     &CELL
       A     1.2864472766435110E+01    0.0000000000000000E+00    0.0000000000000000E+00
       B    -6.4322363581020028E+00    1.1140960178524473E+01    0.0000000000000000E+00
       C     0.0000000000000000E+00    0.0000000000000000E+00    3.2000000000000000E+01
       MULTIPLE_UNIT_CELL  1 1 1
       &CELL_REF
         A     1.2982353780853531E+01    0.0000000000000000E+00    0.0000000000000000E+00
         B    -6.4911768904267628E+00    1.1243048175136114E+01    0.0000000000000000E+00
         C     0.0000000000000000E+00    0.0000000000000000E+00    3.2000000000000000E+01
         MULTIPLE_UNIT_CELL  1 1 1
       &END CELL_REF
     &END CELL
     &COORD
N    1.2925971063212157E-02    1.9523133829913144E+00    2.4912484291329151E+00
Ga   -3.7621676310668891E-03   -2.3599351020231432E-02    2.8075355413121708E+00
N    1.1004068857361923E-02   -4.7897469546750199E-02    5.0196542885960902E+00
Ga    1.7858435903571532E-02    1.7801145612062390E+00    5.7895511066253924E+00
N    2.1571301579944781E-02    1.7957321728105660E+00    7.7976995745544366E+00
Ga    2.2915114284459880E-02   -4.8423097481202763E-02    8.4415510414748667E+00
N    2.4759011000069182E-02   -5.1372811862966883E-02    1.0417509557811703E+01
Ga    2.5607720838321073E-02    1.7898066976327702E+00    1.1063914338764759E+01
N    2.6593926890216283E-02    1.7680771948715646E+00    1.3060077482575750E+01
Ga    2.6157999637007705E-02   -5.1392294512244800E-02    1.3863135364740291E+01
N    2.8239656774212533E-02   -5.1184186082685421E-02    1.6067244801685966E+01
Ga    2.8456107314998189E-02    1.9928466110039367E+00    1.6475294701657795E+01
Ga    8.3682558212735004E-03    3.6542319428331926E+00    1.3215469949033958E+00
N   -1.4626206657526928E+00    4.5289036520387800E+00    2.4897488997210373E+00
Ga   -1.6533736773206376E+00    2.6897631250564045E+00    3.2634656227252536E+00
N   -1.5898508681931480E+00    2.7403595783470847E+00    5.2502880367700264E+00
Ga   -1.6128050295740954E+00    4.6005581264428113E+00    5.8032728401795550E+00
N   -1.5956107419101908E+00    4.5989091791419474E+00    7.8021433452179538E+00
Ga   -1.5759696052794840E+00    2.7384764112477575E+00    8.4332391782884333E+00
N   -1.5732598458785871E+00    2.7411012800932686E+00    1.0431153382911624E+01
Ga   -1.5994468288939874E+00    4.5995870505935965E+00    1.1068277589855946E+01
N   -1.6143332288547891E+00    4.6086885165868594E+00    1.3063764641841392E+01
Ga   -1.5695236354936779E+00    2.7392000445200821E+00    1.3616047129157987E+01
N   -1.5937017525700896E+00    2.7218939938959470E+00    1.5579524982333485E+01
Ga   -1.4226673636845575E+00    4.4989928323687156E+00    1.6476188268039614E+01
N    2.8694049730496645E-02    3.6700248209852111E+00    1.7608203097882551E+01
N   -3.1984517781700412E+00    7.4872004052949173E+00    2.5008181658760797E+00
Ga   -3.1541463893667805E+00    5.5163971869615454E+00    2.8486309374990642E+00
N   -3.1962163471049490E+00    5.5155209859877079E+00    5.0266503263798477E+00
Ga   -3.1952856194804271E+00    7.3408535121118339E+00    5.7977144014323470E+00
N   -3.1958915886865698E+00    7.3673425864412136E+00    7.7932033064208337E+00
Ga   -3.1929014443365502E+00    5.5209872817324976E+00    8.4464405569943306E+00
N   -3.1924740393098570E+00    5.5213185998677297E+00    1.0420941091962685E+01
Ga   -3.1928349549933612E+00    7.3594890861943796E+00    1.1070921656878031E+01
N   -3.1912448706050127E+00    7.3387485462739388E+00    1.3065051163837564E+01
Ga   -3.1897489218080963E+00    5.5187151941826613E+00    1.3870169881950446E+01
N   -3.1878468186151521E+00    5.5197354429765895E+00    1.6069152078708022E+01
Ga   -3.1870843893921643E+00    7.5644093602452802E+00    1.6479517484448881E+01
Ga   -3.1856002819443288E+00    9.2885907131113168E+00    1.2520286665018698E+00
N   -4.7190754135577944E+00    1.0108238301803716E+01    2.4960196336075073E+00
Ga   -4.8005579833700187E+00    8.3196242756462269E+00    3.2895371252116625E+00
N   -4.8125142281441011E+00    8.2994159032938679E+00    5.2360282476845619E+00
Ga   -4.8371874038489606E+00    1.0189457828292424E+01    5.7862274711824062E+00
N   -4.8126147729270361E+00    1.0166326594396104E+01    7.7889020239687587E+00
Ga   -4.7894738322754256E+00    8.3163022462126577E+00    8.4387993008217652E+00
N   -4.7891079386179420E+00    8.3116839477218214E+00    1.0432442401994390E+01
Ga   -4.8147257549632272E+00    1.0171696388923097E+01    1.1067282371943605E+01
N   -4.8301828162911242E+00    1.0178250817011135E+01    1.3063220364974910E+01
Ga   -4.7871989253223575E+00    8.3099985969267003E+00    1.3619805543212248E+01
N   -4.8114521568365500E+00    8.2930711830179220E+00    1.5583259084870207E+01
Ga   -4.6373720535920180E+00    1.0068201847302968E+01    1.6477456664198467E+01
N   -3.1857834117397203E+00    9.2401231528769756E+00    1.7612049140732815E+01
N    3.2185604129314442E+00    1.8112104524065356E+00    2.6145012508820242E+00
Ga    3.2214152858614713E+00    4.6145191458401180E-02    3.2438518420368587E+00
N    3.2336389533161132E+00   -5.3004017023461608E-02    5.2320792491862802E+00
Ga    3.2261217762744576E+00    1.8023284147898373E+00    5.8590410162071471E+00
N    3.2395690486542699E+00    1.8064491444837012E+00    7.8427580343936905E+00
Ga    3.2369572276820873E+00   -6.0451367984648140E-02    8.4281942574994186E+00
N    3.2394138750715635E+00   -6.3453723922781591E-02    1.0427082878573302E+01
Ga    3.2409360845794972E+00    1.8055282949219535E+00    1.1023076340798980E+01
N    3.2426605160172817E+00    1.8042364081755622E+00    1.2997168080743021E+01
Ga    3.2415231338911950E+00   -6.5460802204167903E-02    1.3618135059514149E+01
N    3.2436953141678457E+00   -3.5232825595007296E-02    1.5582459846076826E+01
Ga    3.2429519048330522E+00    1.8023564700511576E+00    1.5860126394731502E+01
N    1.5189001814265157E+00    4.5375385913866273E+00    2.5298059873761001E+00
Ga    1.6869672123393389E+00    2.6946300742855205E+00    3.2598662935784848E+00
N    1.6274201737726095E+00    2.7342423637845479E+00    5.2491271756274376E+00
Ga    1.6523361013528459E+00    4.5986510948492763E+00    5.7985498397998700E+00
N    1.6382649525744810E+00    4.5991692082670896E+00    7.7996008246607902E+00
Ga    1.6208609434706847E+00    2.7383491912497577E+00    8.4297708227039791E+00
N    1.6230702121658720E+00    2.7406977700103754E+00    1.0428921628543693E+01
Ga    1.6479910523254984E+00    4.5979278732477757E+00    1.1067735722010402E+01
N    1.6659508653776860E+00    4.6077412510470221E+00    1.3063024567399744E+01
Ga    1.6234434854744366E+00    2.7384629134339544E+00    1.3616448399168467E+01
N    1.6509200184162585E+00    2.7213096431211330E+00    1.5579581468845273E+01
Ga    1.4796886255038555E+00    4.4985668280749165E+00    1.6475728275018959E+01
N    2.3130818617092482E-02    7.3844701724479505E+00    2.6930725024792590E+00
Ga    2.6315559760112420E-02    5.5255346522992719E+00    3.3069026357174574E+00
N    1.7816407353014933E-02    5.5389601036371889E+00    5.2549961193225112E+00
Ga    1.9693411232544877E-02    7.3792803863611915E+00    5.8945427837385314E+00
N    1.9635328080469288E-02    7.3782641153616897E+00    7.8603516271856453E+00
Ga    2.1736645946603187E-02    5.5068473830159084E+00    8.4410783846753574E+00
N    2.3918476745526558E-02    5.5070703095289684E+00    1.0434939744296056E+01
Ga    2.3099880876744975E-02    7.3767164585177643E+00    1.1025027538178037E+01
N    2.4981934631234486E-02    7.3751874031089608E+00    1.2998056755333078E+01
Ga    2.6117065035413660E-02    5.5049721581978224E+00    1.3616995508811346E+01
N    2.8633138135371466E-02    5.5365581130501393E+00    1.5581286744279330E+01
Ga    2.8418536278480372E-02    7.3741506233555674E+00    1.5858836579383395E+01
N   -1.6892696351496008E+00    1.0106132742214704E+01    2.5126845105551445E+00
Ga   -1.5859325721667439E+00    8.3053606240006914E+00    3.2896014599552204E+00
N   -1.5797327952732645E+00    8.2978263264960539E+00    5.2392417642132925E+00
Ga   -1.5676495195556435E+00    1.0182290158082004E+01    5.7904190304074667E+00
N   -1.5789342204712351E+00    1.0165412562228656E+01    7.7916454587767729E+00
Ga   -1.5990564535180003E+00    8.3141608062787480E+00    8.4398430341517923E+00
N   -1.5968920191204097E+00    8.3118903979821805E+00    1.0432714305372956E+01
Ga   -1.5707111338626070E+00    1.0171781262339850E+01    1.1067925901973442E+01
N   -1.5512045079820469E+00    1.0178548039473190E+01    1.3062858734131829E+01
Ga   -1.5941159449690505E+00    8.3094514809781028E+00    1.3618458303516503E+01
N   -1.5644255919317180E+00    8.2922695083118860E+00    1.5580874315794739E+01
Ga   -1.7363176634636590E+00    1.0068544407116672E+01    1.6477148174672553E+01
N    6.4519862311469964E+00    1.9225587065055700E+00    2.5421564096098659E+00
Ga    6.4692367611658890E+00   -8.4075837766589251E-02    2.8623246635623532E+00
N    6.4535900874429526E+00   -4.8998019204288382E-02    5.0315575913777790E+00
Ga    6.4500746090857772E+00    1.7754724299066740E+00    5.8043963854133072E+00
N    6.4535505758933045E+00    1.7958907117028959E+00    7.8022647847905180E+00
Ga    6.4517597816209928E+00   -5.1472754551653344E-02    8.4424039755528497E+00
N    6.4544720222096936E+00   -5.0678029776808964E-02    1.0418340971600337E+01
Ga    6.4568821015630231E+00    1.7892954291859500E+00    1.1068818336480833E+01
N    6.4587428361542365E+00    1.7680944945295261E+00    1.3063768727456438E+01
Ga    6.4579492328503552E+00   -5.1846284313021476E-02    1.3865511615281331E+01
N    6.4599989504294726E+00   -5.1114441241349021E-02    1.6068423981353284E+01
Ga    6.4610749547220108E+00    1.9954584987482911E+00    1.6481328529366596E+01
Ga    6.4543038995851418E+00    3.6263837879273959E+00    1.5321435049018388E+00
N    4.9561704220924208E+00    4.5381480871143731E+00    2.5273357730937565E+00
Ga    4.7250680192545067E+00    2.6664734579424998E+00    3.2935021772097315E+00
N    4.8445595963696864E+00    2.7377503057620576E+00    5.2552537323799831E+00
Ga    4.8125026437785809E+00    4.6040653916448093E+00    5.8148882256327301E+00
N    4.8407045747303679E+00    4.5984675496930256E+00    7.8054613874056757E+00
Ga    4.8549248436076544E+00    2.7375473017639957E+00    8.4373635132821256E+00
N    4.8595611349963370E+00    2.7411046843321794E+00    1.0432841265412893E+01
Ga    4.8325865898524896E+00    4.5983866567746858E+00    1.1071951270100762E+01
N    4.8185560892851358E+00    4.6072578926378087E+00    1.3066445882316778E+01
Ga    4.8615249337201023E+00    2.7377556366837750E+00    1.3620800564436273E+01
N    4.8361428123189789E+00    2.7198698478524519E+00    1.5582732046558331E+01
Ga    5.0139431345482386E+00    4.4953129260246207E+00    1.6481059020921165E+01
N    6.4616097300013902E+00    3.6689228407939858E+00    1.7614070546353009E+01
N    3.2372973585150446E+00    7.4902922066545790E+00    2.5210265704779675E+00
N    3.2416376048900162E+00    5.5190610497783030E+00    5.0449688934378152E+00
Ga    3.2375875899277737E+00    7.3447120117254201E+00    5.8080777992826551E+00
N    3.2397602545260558E+00    7.3683070373978170E+00    7.8024712286770859E+00
Ga    3.2367048528126268E+00    5.5195840638529896E+00    8.4456561480529313E+00
N    3.2407941416893791E+00    5.5189895524951060E+00    1.0420300204636371E+01
Ga    3.2398761366662288E+00    7.3575024924675230E+00    1.1069897541564570E+01
N    3.2416956223085576E+00    7.3375042784256701E+00    1.3064204059906032E+01
Ga    3.2420509018179224E+00    5.5175513720584179E+00    1.3869432072979773E+01
N    3.2442294527393862E+00    5.5187695757188040E+00    1.6067596259154321E+01
Ga    3.2439979981291032E+00    7.5623148874713779E+00    1.6476113191894147E+01
Ga    3.2034862162479798E+00    9.2838343114347612E+00    1.2773464219487052E+00
N    1.7408564676240927E+00    1.0098801763356978E+01    2.5246052787733673E+00
Ga    1.6331723831607290E+00    8.3083145757405479E+00    3.3084580553029128E+00
N    1.6182352170474061E+00    8.2976790996811172E+00    5.2591759514449068E+00
Ga    1.6065813747891349E+00    1.0181922734160970E+01    5.8025837198219294E+00
N    1.6196438901846222E+00    1.0166430889467293E+01    7.8016625750406217E+00
Ga    1.6399761944439983E+00    8.3133882693739363E+00    8.4421823296180083E+00
N    1.6425195883303381E+00    8.3106936087989727E+00    1.0434800735356168E+01
Ga    1.6158775034806978E+00    1.0170904955411013E+01    1.1067953019931903E+01
N    1.6013622535630785E+00    1.0178360185186142E+01    1.3063273908610064E+01
Ga    1.6447642810753795E+00    8.3090405885021905E+00    1.3617007647385122E+01
N    1.6212906950482795E+00    8.2928696567155633E+00    1.5580709043450117E+01
Ga    1.7916720897593499E+00    1.0070149154468185E+01    1.6474386311256346E+01
N    3.2436703066606554E+00    9.2407954130956647E+00    1.7607452768883089E+01
N    9.6796332767474276E+00    1.8023207264566898E+00    2.6364240491271693E+00
Ga    9.6692757765538655E+00    3.3222132343258451E-02    3.2661075146128908E+00
N    9.6700378619849854E+00   -5.2052071197100633E-02    5.2523219953322346E+00
Ga    9.6770547592543110E+00    1.8032356694003819E+00    5.8638521437184057E+00
N    9.6691857734284365E+00    1.8070607222460262E+00    7.8475852377383060E+00
Ga    9.6691788719339602E+00   -5.9441073242705936E-02    8.4355123278678494E+00
N    9.6717257329170607E+00   -6.3555919391869928E-02    1.0432208894415515E+01
Ga    9.6734940305201249E+00    1.8058091219398749E+00    1.1024838870578018E+01
N    9.6748751189246605E+00    1.8046417963932690E+00    1.2998129783185821E+01
Ga    9.6743529377956037E+00   -6.5902748494013869E-02    1.3616290532066822E+01
N    9.6771735704848094E+00   -3.5603884970273697E-02    1.5581323185333334E+01
Ga    9.6790279568963005E+00    1.8025524457991189E+00    1.5858514734176454E+01
N    7.9512917666371017E+00    4.5380640415510749E+00    2.5244672993415951E+00
Ga    8.1745781126712274E+00    2.6647967716798004E+00    3.3014511890301712E+00
N    8.0561682548511513E+00    2.7387550754108987E+00    5.2607462121004103E+00
Ga    8.0947220103987139E+00    4.6048621369922307E+00    5.8113597882923704E+00
N    8.0695821531412193E+00    4.5990014447083016E+00    7.8039887436412974E+00
Ga    8.0541782148298555E+00    2.7376330603594945E+00    8.4378045641860790E+00
N    8.0541512471819594E+00    2.7412480121355944E+00    1.0433620747202145E+01
Ga    8.0809617944838958E+00    4.5988391835818190E+00    1.1072502125010471E+01
N    8.0981917530575398E+00    4.6079379124102884E+00    1.3066686069248023E+01
Ga    8.0559484709338847E+00    2.7384182640402233E+00    1.3620812390207936E+01
N    8.0857658314664729E+00    2.7200147213097954E+00    1.5582444485285601E+01
Ga    7.9089306804666188E+00    4.4960027031441721E+00    1.6481126964833972E+01
N    6.4475738033730066E+00    7.3911602174528737E+00    2.6919831983037277E+00
Ga    6.4520563684378738E+00    5.5636387458310299E+00    3.3384838917165052E+00
N    6.4533753485032816E+00    5.5374477445506827E+00    5.2625855893421507E+00
Ga    6.4531427772957457E+00    7.3915451424172183E+00    5.8965634793662902E+00
N    6.4554298474507652E+00    7.3785143507491879E+00    7.8585184514896609E+00
Ga    6.4556019115601631E+00    5.5088856225296219E+00    8.4484657281730673E+00
N    6.4566958930310605E+00    5.5077695134143969E+00    1.0438575559376645E+01
Ga    6.4569680297585403E+00    7.3773881258302607E+00    1.1028451831896838E+01
N    6.4580072432788986E+00    7.3751304476999646E+00    1.3000507796161710E+01
Ga    6.4583413640506366E+00    5.5049027593594975E+00    1.3621440845839782E+01
N    6.4605854563616978E+00    5.5377288641982751E+00    1.5583901007806416E+01
Ga    6.4603719107763729E+00    7.3751081262963618E+00    1.5861172803792664E+01
N    4.7143858184033585E+00    1.0088515121221581E+01    2.4614297763335617E+00
Ga    4.8260173396120098E+00    8.3197748222861563E+00    3.3011514280904741E+00
N    4.8565797195028244E+00    8.3035957582652440E+00    5.2487720856659106E+00
Ga    4.8718196972096761E+00    1.0188529535637590E+01    5.8048746340731112E+00
N    4.8551953123396805E+00    1.0166267908101299E+01    7.8026900666764840E+00
Ga    4.8351891342065958E+00    8.3142682679087621E+00    8.4441293089664704E+00
N    4.8378275778669400E+00    8.3101224334577530E+00    1.0435994611138909E+01
Ga    4.8632048002781172E+00    1.0170952849614176E+01    1.1067167272468733E+01
N    4.8815916447129535E+00    1.0177783315597395E+01    1.3062788814203225E+01
Ga    4.8383613475784610E+00    8.3090545179007389E+00    1.3618173348778729E+01
N    4.8671098724290678E+00    8.2927068659218506E+00    1.5581645255136420E+01
Ga    4.6971174747660633E+00    1.0069817032165918E+01    1.6474029326512703E+01
O    3.1026362463753893E-01    3.8922523069226380E+00   -4.5876571696795349E-01
H    1.7180255886362787E+00    6.9654791934174112E+00   -1.9217228229411396E-01
C    1.6446437301470198E+00    3.5362038895714667E+00   -8.7103938126076452E-01
H    2.3718400148232859E+00    3.5462376009180065E+00   -3.9758813641907427E-02
H    1.6620710603895010E+00    2.5345186480795272E+00   -1.3274576378197396E+00
H    1.9817158108347595E+00    4.2670420274400884E+00   -1.6219934374422604E+00
Ga    3.1952111860012189E+00    5.5351138283364927E+00    2.8865664772691177E+00
O    1.4407783169684729E+00    7.8850036920450668E+00   -3.5815348976274974E-01
H    5.5895563640326378E-02    7.4145930037912740E+00    1.6652593875190695E+00
C    2.6222333901204231E+00    8.6946339258918002E+00   -5.5310172955270775E-01
H    2.3263757163894616E+00    9.5484498627824923E+00   -1.1696804169467419E+00
H    6.4415812725527388E+00    7.3818253667536480E+00    1.6655912421244878E+00
H    3.4187287235838157E+00    8.1441105257591087E+00   -1.0666597982468127E+00
     &END COORD
     &KIND C
       BASIS_SET DZVP-MOLOPT-SR-GTH-q4
       POTENTIAL GTH-PBE-q4
       &POTENTIAL
 2 2
  0.3384712400000000E+00 2 -0.8803673979999999E+01  0.1339210850000000E+01
 2
  0.3025757500000000E+00 1  0.9622486650000001E+01
  0.2915069400000000E+00 0
         # Potential name:  GTH-PBE-Q4  for symbol:  C
         # Potential read from the potential filename: GTH_POTENTIALS
       &END POTENTIAL
     &END KIND
     &KIND O
       BASIS_SET DZVP-MOLOPT-SR-GTH-q6
       POTENTIAL GTH-PBE-q6
       &POTENTIAL
 2 4
  0.2445543000000000E+00 2 -0.1666721480000000E+02  0.2487311320000000E+01
 2
  0.2209559200000000E+00 1  0.1833745811000000E+02
  0.2113324700000000E+00 0
         # Potential name:  GTH-PBE-Q6  for symbol:  O
         # Potential read from the potential filename: GTH_POTENTIALS
       &END POTENTIAL
     &END KIND
     &KIND H
       BASIS_SET DZVP-MOLOPT-SR-GTH-q1
       POTENTIAL GTH-PBE-q1
       &POTENTIAL
 1
  0.2000000000000000E+00 2 -0.4178900440000000E+01  0.7244633100000000E+00
 0
         # Potential name:  GTH-PBE-Q1  for symbol:  H
         # Potential read from the potential filename: GTH_POTENTIALS
       &END POTENTIAL
     &END KIND
     &KIND N
       BASIS_SET DZVP-MOLOPT-SR-GTH
       POTENTIAL GTH-PBE-q5
       &POTENTIAL
 2 3
  0.2837905100000000E+00 2 -0.1241522559000000E+02  0.1868095920000000E+01
 2
  0.2554050000000000E+00 1  0.1363026257000000E+02
  0.2454945300000000E+00 0
         # Potential name:  GTH-PBE-Q5  for symbol:  N
         # Potential read from the potential filename: GTH_POTENTIALS
       &END POTENTIAL
     &END KIND
     &KIND Ga
       BASIS_SET DZVP-MOLOPT-SR-GTH
       POTENTIAL GTH-PBE-q13
       &POTENTIAL
 2 1 10
  0.4900000000000000E+00 0
 3
  0.4167772300000000E+00 3  0.1047568975000000E+02 -0.4921768140000000E+01  0.8707055900000000E+00
  0.7770178090000000E+01 -0.2248152160000000E+01
  0.1784415450000000E+01
  0.5696265200000000E+00 2  0.1777985340000000E+01  0.1958597600000000E+00
 -0.2317443900000000E+00
  0.2381265000000000E+00 1 -0.1624868022000000E+02
         # Potential name:  GTH-PBE-Q13  for symbol:  GA
         # Potential read from the potential filename: GTH_POTENTIALS
       &END POTENTIAL
     &END KIND
     &TOPOLOGY
       NUMBER_OF_ATOMS  212
       MULTIPLE_UNIT_CELL  1 1 1
     &END TOPOLOGY
   &END SUBSYS
 &END FORCE_EVAL
