 # Version information for this restart file 
 # current date 2019-07-08 08:27:11.524
 # current working dir /lustre04/scratch/rzk/rzk/GaN-carbene/443-adatoms-both-2x2/09-BondBreaking-CH/01-0401-CH-to-NSur
 # Program compiled at                              Sun Apr  7 00:48:11 EDT 2019
 # Program compiled on                          beluga2.int.ets1.calculquebec.ca
 # Program compiled for                        Beluga-Linux-x86-64-intel-openmpi
 # Source code revision number                                         svn:18619
 &GLOBAL
   PRINT_LEVEL  MEDIUM
   PROJECT_NAME TEST
   RUN_TYPE  GEO_OPT
 &END GLOBAL
 &MOTION
   &GEO_OPT
     MAX_ITER  500
     STEP_START_VAL  261
   &END GEO_OPT
 &END MOTION
 &FORCE_EVAL
   METHOD  QS
   STRESS_TENSOR  ANALYTICAL
   &DFT
     BASIS_SET_FILE_NAME BASIS_MOLOPT
     POTENTIAL_FILE_NAME GTH_POTENTIALS
     UKS  T
     SURFACE_DIPOLE_CORRECTION  T
     SURF_DIP_DIR  Z
     &SCF
       MAX_SCF  80
       EPS_SCF     5.0000000000000004E-06
       &OT  T
         PRECONDITIONER  FULL_ALL
       &END OT
       &OUTER_SCF  T
         OPTIMIZER  NONE
         EPS_SCF     5.0000000000000004E-06
         MAX_SCF  4
       &END OUTER_SCF
       &PRINT
         &RESTART  OFF
           BACKUP_COPIES  1
           &EACH
             JUST_ENERGY  0
             QS_SCF  0
             MD  20
           &END EACH
         &END RESTART
       &END PRINT
     &END SCF
     &QS
       EPS_DEFAULT     1.0000000000000000E-14
       METHOD  GPW
     &END QS
     &MGRID
       NGRIDS  5
       CUTOFF     1.2000000000000000E+03
     &END MGRID
     &XC
       DENSITY_CUTOFF     1.0000000000000000E-10
       GRADIENT_CUTOFF     1.0000000000000000E-10
       TAU_CUTOFF     1.0000000000000000E-10
       &XC_FUNCTIONAL  NO_SHORTCUT
         &PBE  T
         &END PBE
       &END XC_FUNCTIONAL
       &VDW_POTENTIAL
         POTENTIAL_TYPE  PAIR_POTENTIAL
         &PAIR_POTENTIAL
           R_CUTOFF     1.0000000000000005E+01
           TYPE  DFTD3
           PARAMETER_FILE_NAME dftd3.dat
           REFERENCE_FUNCTIONAL PBE
           EPS_CN     9.9999999999999995E-07
           CALCULATE_C9_TERM  T
           REFERENCE_C9_TERM  T
           LONG_RANGE_CORRECTION  F
           VERBOSE_OUTPUT  F
         &END PAIR_POTENTIAL
       &END VDW_POTENTIAL
     &END XC
   &END DFT
   &SUBSYS
     &CELL
       A     1.2864472766435110E+01    0.0000000000000000E+00    0.0000000000000000E+00
       B    -6.4322363581020028E+00    1.1140960178524475E+01    0.0000000000000000E+00
       C     0.0000000000000000E+00    0.0000000000000000E+00    3.2000000000000000E+01
       MULTIPLE_UNIT_CELL  1 1 1
       &CELL_REF
         A     1.2982353780853531E+01    0.0000000000000000E+00    0.0000000000000000E+00
         B    -6.4911768904267628E+00    1.1243048175136114E+01    0.0000000000000000E+00
         C     0.0000000000000000E+00    0.0000000000000000E+00    3.2000000000000000E+01
         MULTIPLE_UNIT_CELL  1 1 1
       &END CELL_REF
     &END CELL
     &COORD
N    8.8449634180129237E-03    1.9341884954081556E+00    2.5157016613000489E+00
Ga    2.4096321630396747E-03   -2.9452362934954703E-02    2.8278215508693023E+00
N    1.0574588492669013E-02   -6.5549416741755837E-02    5.0308318677984980E+00
Ga    1.4973887204766417E-02    1.7624027743997601E+00    5.8010235223084949E+00
N    1.5676552643183940E-02    1.7784284804607045E+00    7.8082262916199454E+00
Ga    1.7356193476726959E-02   -6.6491154084489870E-02    8.4475897627671674E+00
N    1.7336552750136895E-02   -6.7340947497746093E-02    1.0424648476866194E+01
Ga    1.7654713952630175E-02    1.7732448313505305E+00    1.1072286727826821E+01
N    1.7920278731589547E-02    1.7539492530581482E+00    1.3069436910128063E+01
Ga    1.7085613878907904E-02   -6.7296510770106288E-02    1.3870853806093722E+01
N    1.6068604453783268E-02   -6.7696567568328550E-02    1.6073116219407545E+01
Ga    1.7679119659325299E-02    1.9661608379241091E+00    1.6478011036022938E+01
Ga    2.7861591410524131E-03    3.6253481932630849E+00    1.3276975626177481E+00
N   -1.4690489810919474E+00    4.5107136526068539E+00    2.5152979615903233E+00
Ga   -1.6548755683986756E+00    2.6783733494998039E+00    3.2825591883275487E+00
N   -1.5934994111999372E+00    2.7226958526694029E+00    5.2681572005412880E+00
Ga   -1.6155541546775101E+00    4.5875294675871165E+00    5.8098773792351226E+00
N   -1.5998059031814784E+00    4.5847334810988611E+00    7.8094143408559571E+00
Ga   -1.5798610255801204E+00    2.7248803745235270E+00    8.4434737844965007E+00
N   -1.5801007167799344E+00    2.7262715072974735E+00    1.0440390156327116E+01
Ga   -1.6058938467079726E+00    4.5846467142264240E+00    1.1074248921518642E+01
N   -1.6223733171635677E+00    4.5952747138836374E+00    1.3069943110394833E+01
Ga   -1.5791289410048857E+00    2.7258468093278796E+00    1.3622635476524817E+01
N   -1.6060964738494194E+00    2.7116311358112193E+00    1.5587900904416689E+01
Ga   -1.4364107211840658E+00    4.4877296602743515E+00    1.6478134459213912E+01
N    9.9342970991773763E-03    3.6416917400376758E+00    1.7610352731724465E+01
N   -3.2023565251728190E+00    7.4691183618076815E+00    2.5100138499922355E+00
Ga   -3.1549427727531234E+00    5.4993137802778058E+00    2.8574062675162506E+00
N   -3.2004186223268745E+00    5.5008266420423677E+00    5.0375046002494877E+00
Ga   -3.1988447338026997E+00    7.3268790814735425E+00    5.8002961287917181E+00
N   -3.2001462237010689E+00    7.3534227175886331E+00    7.7968698417049787E+00
Ga   -3.1971066425719479E+00    5.5075338601510975E+00    8.4514514819731978E+00
N   -3.1993803483929253E+00    5.5061720329397996E+00    1.0425814631339488E+01
Ga   -3.1989893740342721E+00    7.3450719640851174E+00    1.1075245974291924E+01
N   -3.1983645734157085E+00    7.3258227611180615E+00    1.3069146985651706E+01
Ga   -3.1983147609959324E+00    5.5062725830428869E+00    1.3869847462141482E+01
N   -3.1994575868913344E+00    5.5055251435352961E+00    1.6073896880602106E+01
Ga   -3.1981746648678779E+00    7.5494609439970271E+00    1.6487249441514333E+01
Ga   -3.1949780540035260E+00    9.2747376238042190E+00    1.2526883369028803E+00
N   -4.7205879440937419E+00    1.0093232786541185E+01    2.5042824683072755E+00
Ga   -4.8063429825104285E+00    8.3035535877878992E+00    3.2918063470898100E+00
N   -4.8187656228983737E+00    8.2830687331648782E+00    5.2402087898074576E+00
Ga   -4.8384734151381084E+00    1.0170743587291312E+01    5.7941888168756588E+00
N   -4.8172867219297633E+00    1.0149455850574236E+01    7.7968976266444132E+00
Ga   -4.7961851557313304E+00    8.2990668328745638E+00    8.4434042763936770E+00
N   -4.7964634369850216E+00    8.2955318159421498E+00    1.0436670293738777E+01
Ga   -4.8214659452052206E+00    1.0155809472150754E+01    1.1073258487822176E+01
N   -4.8377344786137861E+00    1.0164718014738240E+01    1.3068677831393693E+01
Ga   -4.7950266577029481E+00    8.2967767608995846E+00    1.3626059494186151E+01
N   -4.8225879861524588E+00    8.2792496491343286E+00    1.5587932936813495E+01
Ga   -4.6468242680298735E+00    1.0054566478601441E+01    1.6487205372742526E+01
N   -3.2065012412271545E+00    9.2161108307036184E+00    1.7623826814436768E+01
N    3.2181576888825840E+00    1.7924779290551602E+00    2.6318529162224635E+00
Ga    3.2235489437749800E+00    2.5049492644377711E-02    3.2513225394621124E+00
N    3.2317425078644795E+00   -7.1967395742179974E-02    5.2410065303897797E+00
Ga    3.2223920051340427E+00    1.7833717582918065E+00    5.8675013783690035E+00
N    3.2334351560687344E+00    1.7889152930203966E+00    7.8513833508984838E+00
Ga    3.2323638615835040E+00   -7.8048894075216674E-02    8.4348409498127239E+00
N    3.2330726368408453E+00   -7.9857110048879743E-02    1.0433047453518702E+01
Ga    3.2319526383862827E+00    1.7890225464383229E+00    1.1029362450297636E+01
N    3.2335865123473910E+00    1.7906668169746631E+00    1.3003437404644497E+01
Ga    3.2344451829633147E+00   -7.8935851016489644E-02    1.3624750054536131E+01
N    3.2359908073724730E+00   -4.6279468106718485E-02    1.5586352217616312E+01
Ga    3.2340369551933845E+00    1.7909593506158143E+00    1.5865502484479986E+01
N    1.5093232150604634E+00    4.5121992910032462E+00    2.5244482755766908E+00
Ga    1.6833868276914845E+00    2.6751864799730121E+00    3.2696168679062834E+00
N    1.6240428487986325E+00    2.7165657557320011E+00    5.2600808713058615E+00
Ga    1.6470324160263310E+00    4.5792183250009382E+00    5.8115355316361708E+00
N    1.6323571725937014E+00    4.5821444385184371E+00    7.8096892131165383E+00
Ga    1.6147751643637913E+00    2.7213311464556877E+00    8.4390733652236136E+00
N    1.6147762317506913E+00    2.7249767249143622E+00    1.0437030467754139E+01
Ga    1.6400388272853728E+00    4.5832595482006564E+00    1.1072448604624205E+01
N    1.6576364255425948E+00    4.5947027185699829E+00    1.3068328145123022E+01
Ga    1.6149075975146834E+00    2.7260973986427262E+00    1.3623010203250411E+01
N    1.6425154811256613E+00    2.7129765145344940E+00    1.5587303298889349E+01
Ga    1.4652400920625692E+00    4.4840849737342197E+00    1.6479281202528757E+01
N    2.2876849416139433E-02    7.3622032389964698E+00    2.6798788683159613E+00
Ga    2.2942230461225548E-02    5.5040376879884683E+00    3.3140125038207193E+00
N    1.7513193140390786E-02    5.5224334566081632E+00    5.2610547456081997E+00
Ga    2.0898057463264397E-02    7.3650335168491639E+00    5.8909362209857150E+00
N    1.6948136779523785E-02    7.3634465919382022E+00    7.8591496014893911E+00
Ga    1.6738475915027293E-02    5.4933960321254434E+00    8.4470392625407857E+00
N    1.6933941363005457E-02    5.4927491308834462E+00    1.0440322083196991E+01
Ga    1.6208395500377989E-02    7.3614539684754359E+00    1.1032253288066579E+01
N    1.7070095122920327E-02    7.3615350856123305E+00    1.3004255655214399E+01
Ga    1.8286267194285524E-02    5.4921391325744269E+00    1.3623439804001437E+01
N    1.9284167852148700E-02    5.5220944337316960E+00    1.5587123381745572E+01
Ga    1.8025050582143126E-02    7.3619554740952227E+00    1.5864810067211677E+01
N   -1.6845189846219792E+00    1.0091056917316040E+01    2.5162845759300856E+00
Ga   -1.5847072654543273E+00    8.2871140940878636E+00    3.2857012175316633E+00
N   -1.5805104803727463E+00    8.2814369969774067E+00    5.2377198303673698E+00
Ga   -1.5685949019193068E+00    1.0164536631863630E+01    5.7954796416951400E+00
N   -1.5820899318214412E+00    1.0149393516338863E+01    7.7967821342271657E+00
Ga   -1.6020722820634350E+00    8.2976780319928327E+00    8.4427815080298192E+00
N   -1.6026488593516344E+00    8.2958847672878573E+00    1.0436214260312950E+01
Ga   -1.5773234481489313E+00    1.0155270018262391E+01    1.1073122747546574E+01
N   -1.5589890500600463E+00    1.0164597382080270E+01    1.3067754466127740E+01
Ga   -1.6011972500707203E+00    8.2970261786115600E+00    1.3625744544381325E+01
N   -1.5732714335249087E+00    8.2809585699657511E+00    1.5586529653470807E+01
Ga   -1.7569166642837435E+00    1.0050071659482461E+01    1.6487897967294305E+01
N    6.4520457020759547E+00    1.9083127977311798E+00    2.5529269332159465E+00
Ga    6.4629960039968024E+00   -8.9313519340177089E-02    2.8703617564190060E+00
N    6.4524572356528695E+00   -6.4373128145454206E-02    5.0373851098615097E+00
Ga    6.4496635566662750E+00    1.7588635272260178E+00    5.8143889145307650E+00
N    6.4493449387164246E+00    1.7791654806118202E+00    7.8110793047414075E+00
Ga    6.4480434812612284E+00   -6.9259828309475371E-02    8.4491365939756573E+00
N    6.4486199771583816E+00   -6.7150062730883225E-02    1.0424814093868251E+01
Ga    6.4485782190462828E+00    1.7725192703804233E+00    1.1074471859166165E+01
N    6.4499809029495472E+00    1.7537213501384648E+00    1.3070343171967822E+01
Ga    6.4497953517241928E+00   -6.8083252592487223E-02    1.3870705665027581E+01
N    6.4492183210337020E+00   -6.8399909721464647E-02    1.6072522497094663E+01
Ga    6.4504753871027836E+00    1.9635473621771122E+00    1.6476490766826021E+01
Ga    6.4471558576105803E+00    3.6110488018773741E+00    1.5471688237900689E+00
N    4.9557589108303546E+00    4.5162052609905405E+00    2.5436956097930365E+00
Ga    4.7236757748563107E+00    2.6467187092785620E+00    3.3088003115896809E+00
N    4.8428372796937831E+00    2.7186549211219764E+00    5.2680786977800569E+00
Ga    4.8101018286200006E+00    4.5843397176182403E+00    5.8248432526914957E+00
N    4.8349767504509789E+00    4.5814143097596816E+00    7.8136645718480828E+00
Ga    4.8480664023227922E+00    2.7198718799119410E+00    8.4448625816663991E+00
N    4.8513952218630720E+00    2.7248967838121043E+00    1.0439621512148399E+01
Ga    4.8252565302653618E+00    4.5838748834281224E+00    1.1074511623187027E+01
N    4.8099311010579067E+00    4.5949412203436362E+00    1.3069942567360417E+01
Ga    4.8528559354211325E+00    2.7255638045187678E+00    1.3622956621868534E+01
N    4.8264703486348681E+00    2.7114508134926116E+00    1.5588897729384168E+01
Ga    4.9930594093359026E+00    4.4896360118022924E+00    1.6477120534975285E+01
N    6.4416991446525387E+00    3.6417761695749324E+00    1.7607746315158849E+01
N    3.2270184109710809E+00    7.4348074224177410E+00    2.4938251711419746E+00
N    3.2363947879332393E+00    5.4929111620743152E+00    5.0560729464234146E+00
Ga    3.2324845463650522E+00    7.3277343806356292E+00    5.8013866296149468E+00
N    3.2336287823848653E+00    7.3523461613876107E+00    7.7988405385335868E+00
Ga    3.2308850293785811E+00    5.5055058334703952E+00    8.4501713639709930E+00
N    3.2333267227095162E+00    5.5052317355761851E+00    1.0425002612906100E+01
Ga    3.2328050910512141E+00    7.3431866604291800E+00    1.1077208997033026E+01
N    3.2339297688722000E+00    7.3253286681998437E+00    1.3070318995954734E+01
Ga    3.2327964977372288E+00    5.5059560946408084E+00    1.3870015502175978E+01
N    3.2318866109607889E+00    5.5060103874733448E+00    1.6073789970050807E+01
Ga    3.2340585122051424E+00    7.5515565562255889E+00    1.6489512496350827E+01
Ga    3.2256086047859882E+00    9.4662601844125671E+00    1.2584951701530978E+00
N    1.7504533923223000E+00    1.0102740627177804E+01    2.5281738356521175E+00
Ga    1.6454263494457904E+00    8.2827472958369430E+00    3.2747735216152720E+00
N    1.6167482029620095E+00    8.2819700394529665E+00    5.2353624675482013E+00
Ga    1.5993769635553861E+00    1.0158470913250552E+01    5.8068843826407424E+00
N    1.6139436313469220E+00    1.0147346906752519E+01    7.8055360700071574E+00
Ga    1.6356423550467016E+00    8.2955080009100115E+00    8.4471356495952499E+00
N    1.6363571853460717E+00    8.2948197533078947E+00    1.0439724533916282E+01
Ga    1.6106532719628925E+00    1.0155432029044647E+01    1.1073820103693889E+01
N    1.5943868345364287E+00    1.0164780941809497E+01    1.3068745034577079E+01
Ga    1.6366783524015112E+00    8.2966009737324669E+00    1.3625666715404517E+01
N    1.6092417870364992E+00    8.2794871127880576E+00    1.5587472668907118E+01
Ga    1.7879586254181397E+00    1.0053312980237108E+01    1.6489202617693131E+01
N    3.2261633786252188E+00    9.2159416673583241E+00    1.7626975939808126E+01
N    9.6767628818173961E+00    1.7907925277251360E+00    2.6513895618587728E+00
Ga    9.6682049614073833E+00    4.0760316512288446E-02    3.3220861734239384E+00
N    9.6658559304203724E+00   -6.3894475674272505E-02    5.2854583187580637E+00
Ga    9.6734900100025474E+00    1.7952439515144996E+00    5.8880208273812444E+00
N    9.6636022911269936E+00    1.7933741126174545E+00    7.8653228936296928E+00
Ga    9.6653362936143417E+00   -7.7860799508707834E-02    8.4378404862093443E+00
N    9.6650492224667648E+00   -7.9457387803750418E-02    1.0435700011148880E+01
Ga    9.6656069871173713E+00    1.7899952204937204E+00    1.1029540245146279E+01
N    9.6656654332984822E+00    1.7911638335911801E+00    1.3003566669639184E+01
Ga    9.6665538085754985E+00   -7.8601220615080375E-02    1.3624902440459476E+01
N    9.6679531408482493E+00   -4.6055517854997459E-02    1.5586019268015599E+01
Ga    9.6667532189000784E+00    1.7908982091150016E+00    1.5864754908215273E+01
N    7.9452724458939565E+00    4.5251815715447634E+00    2.5335580936750746E+00
Ga    8.1734359485476933E+00    2.6580570123931730E+00    3.3140115346787393E+00
N    8.0548010770730123E+00    2.7251642504447124E+00    5.2729109705366746E+00
Ga    8.0912327280702883E+00    4.5929838187178049E+00    5.8205117741435854E+00
N    8.0644791391687249E+00    4.5848392674320255E+00    7.8117279100952670E+00
Ga    8.0470727396605604E+00    2.7243136619227553E+00    8.4483541030179552E+00
N    8.0452085043720789E+00    2.7264787335162768E+00    1.0441721491213677E+01
Ga    8.0729212421664087E+00    4.5850301206479731E+00    1.1075462531823652E+01
N    8.0898716231256316E+00    4.5951745573913456E+00    1.3069924443660717E+01
Ga    8.0473881210385461E+00    2.7260167933034776E+00    1.3623318077562937E+01
N    8.0745766824140208E+00    2.7129994976195877E+00    1.5587791908371734E+01
Ga    7.8995140831575750E+00    4.4850410838353714E+00    1.6477339674427334E+01
N    6.4430611212437672E+00    7.3768766766243203E+00    2.6818107471439392E+00
Ga    6.4479683275187885E+00    5.5517016035762241E+00    3.3459521690923406E+00
N    6.4482143135934731E+00    5.5223571636232984E+00    5.2690495142857650E+00
Ga    6.4421113062648265E+00    7.3785489692135728E+00    5.8949740826764749E+00
N    6.4471130789598599E+00    7.3636183537781870E+00    7.8588446111317234E+00
Ga    6.4492468935178255E+00    5.4948958589884374E+00    8.4521946283448415E+00
N    6.4490854374379261E+00    5.4930756051835479E+00    1.0441973043600937E+01
Ga    6.4493356430218105E+00    7.3623429620126268E+00    1.1034015532858383E+01
N    6.4500481315866702E+00    7.3614518051313009E+00    1.3005174563123237E+01
Ga    6.4502596120650315E+00    5.4922369161775544E+00    1.3624344605815539E+01
N    6.4516296228039698E+00    5.5221149517970911E+00    1.5588141934913846E+01
Ga    6.4501331345843846E+00    7.3623284058416534E+00    1.5865445863615927E+01
N    4.7096479384496028E+00    1.0101159443944560E+01    2.4940960521347035E+00
Ga    4.8047469666888807E+00    8.2910780836719251E+00    3.2646827061344297E+00
N    4.8466919730783973E+00    8.2841387747730462E+00    5.2254479173946313E+00
Ga    4.8720274607276028E+00    1.0162901559058547E+01    5.8049600730155584E+00
N    4.8515315426433636E+00    1.0146591139920464E+01    7.8050154802918268E+00
Ga    4.8279649717725048E+00    8.2973002753112954E+00    8.4496810586544111E+00
N    4.8295717892045289E+00    8.2947500617842795E+00    1.0440533490540119E+01
Ga    4.8557431451084101E+00    1.0155991042843333E+01    1.1073545333238421E+01
N    4.8732243078378108E+00    1.0164634167560333E+01    1.3068136776071025E+01
Ga    4.8310833689910142E+00    8.2970980158135781E+00    1.3626353224200864E+01
N    4.8594027117834795E+00    8.2810085654860845E+00    1.5586606947583276E+01
Ga    4.6735229791711186E+00    1.0049375707698179E+01    1.6490112803655975E+01
O    2.5466938192476418E-02    3.7276175905794027E+00   -4.7976514483935628E-01
H    2.5625235761194047E+00    7.0685153994149790E+00    5.9965020449190887E-01
C    1.3091977300626161E+00    3.8988547475854207E+00   -1.1088194876174318E+00
H    1.7640880359480546E+00    4.8722310075803845E+00   -8.6445124666816087E-01
H    2.0172454705577825E+00    3.0975509320820560E+00   -8.4251412688416905E-01
H    1.1405256364453944E+00    3.8628080154131426E+00   -2.1949233052723787E+00
Ga    3.1919899989077916E+00    5.4938145641393499E+00    2.9086803714307599E+00
O    2.1772803901103699E+00    7.4140453137913109E+00   -2.4230308673736800E-01
H    4.1059272478019181E-02    7.3463532612069811E+00    1.6512692471884596E+00
C    2.8963476398610739E+00    8.6206959539810324E+00   -5.2338901141436722E-01
H    2.2650239068480698E+00    9.2683924442192982E+00   -1.1435701598357273E+00
H    6.4540457062198939E+00    7.3499712559757571E+00    1.6559746557616630E+00
H    3.8455812850331972E+00    8.4340832897088394E+00   -1.0479971043958334E+00
     &END COORD
     &KIND C
       BASIS_SET DZVP-MOLOPT-SR-GTH-q4
       POTENTIAL GTH-PBE-q4
       &POTENTIAL
2 2
0.3384712400000000E+00 2 -0.8803673979999999E+01  0.1339210850000000E+01
2
0.3025757500000000E+00 1  0.9622486650000001E+01
0.2915069400000000E+00 0
       &END POTENTIAL
     &END KIND
     &KIND O
       BASIS_SET DZVP-MOLOPT-SR-GTH-q6
       POTENTIAL GTH-PBE-q6
       &POTENTIAL
2 4
0.2445543000000000E+00 2 -0.1666721480000000E+02  0.2487311320000000E+01
2
0.2209559200000000E+00 1  0.1833745811000000E+02
0.2113324700000000E+00 0
       &END POTENTIAL
     &END KIND
     &KIND H
       BASIS_SET DZVP-MOLOPT-SR-GTH-q1
       POTENTIAL GTH-PBE-q1
       &POTENTIAL
1
0.2000000000000000E+00 2 -0.4178900440000000E+01  0.7244633100000000E+00
0
       &END POTENTIAL
     &END KIND
     &KIND N
       BASIS_SET DZVP-MOLOPT-SR-GTH
       POTENTIAL GTH-PBE-q5
       &POTENTIAL
2 3
0.2837905100000000E+00 2 -0.1241522559000000E+02  0.1868095920000000E+01
2
0.2554050000000000E+00 1  0.1363026257000000E+02
0.2454945300000000E+00 0
       &END POTENTIAL
     &END KIND
     &KIND Ga
       BASIS_SET DZVP-MOLOPT-SR-GTH
       POTENTIAL GTH-PBE-q13
       &POTENTIAL
2 1 10
0.4900000000000000E+00 0
3
0.4167772300000000E+00 3  0.1047568975000000E+02 -0.4921768140000000E+01  0.8707055900000000E+00
0.7770178090000000E+01 -0.2248152160000000E+01
0.1784415450000000E+01
0.5696265200000000E+00 2  0.1777985340000000E+01  0.1958597600000000E+00
-0.2317443900000000E+00
0.2381265000000000E+00 1 -0.1624868022000000E+02
       &END POTENTIAL
     &END KIND
     &TOPOLOGY
       NUMBER_OF_ATOMS  212
       MULTIPLE_UNIT_CELL  1 1 1
     &END TOPOLOGY
   &END SUBSYS
 &END FORCE_EVAL
