 # Version information for this restart file 
 # current date 2019-07-02 06:10:35.873
 # current working dir /lustre04/scratch/rzk/rzk/GaN-carbene/443-adatoms-both-2x2/09-BondBreaking-CH/01-0401-CH-to-NSur
 # Program compiled at                              Sun Apr  7 00:48:11 EDT 2019
 # Program compiled on                          beluga2.int.ets1.calculquebec.ca
 # Program compiled for                        Beluga-Linux-x86-64-intel-openmpi
 # Source code revision number                                         svn:18619
 &GLOBAL
   PRINT_LEVEL  MEDIUM
   PROJECT_NAME TEST
   RUN_TYPE  GEO_OPT
 &END GLOBAL
 &MOTION
   &GEO_OPT
     MAX_ITER  500
     STEP_START_VAL  68
   &END GEO_OPT
 &END MOTION
 &FORCE_EVAL
   METHOD  QS
   STRESS_TENSOR  ANALYTICAL
   &DFT
     BASIS_SET_FILE_NAME BASIS_MOLOPT
     POTENTIAL_FILE_NAME GTH_POTENTIALS
     UKS  T
     SURFACE_DIPOLE_CORRECTION  T
     SURF_DIP_DIR  Z
     &SCF
       MAX_SCF  80
       EPS_SCF     5.0000000000000004E-06
       &OT  T
         PRECONDITIONER  FULL_ALL
       &END OT
       &OUTER_SCF  T
         OPTIMIZER  NONE
         EPS_SCF     5.0000000000000004E-06
         MAX_SCF  4
       &END OUTER_SCF
       &PRINT
         &RESTART  OFF
           BACKUP_COPIES  1
           &EACH
             JUST_ENERGY  0
             QS_SCF  0
             MD  20
           &END EACH
         &END RESTART
       &END PRINT
     &END SCF
     &QS
       EPS_DEFAULT     1.0000000000000000E-14
       METHOD  GPW
     &END QS
     &MGRID
       NGRIDS  5
       CUTOFF     1.2000000000000000E+03
     &END MGRID
     &XC
       DENSITY_CUTOFF     1.0000000000000000E-10
       GRADIENT_CUTOFF     1.0000000000000000E-10
       TAU_CUTOFF     1.0000000000000000E-10
       &XC_FUNCTIONAL  NO_SHORTCUT
         &PBE  T
         &END PBE
       &END XC_FUNCTIONAL
       &VDW_POTENTIAL
         POTENTIAL_TYPE  PAIR_POTENTIAL
         &PAIR_POTENTIAL
           R_CUTOFF     1.0000000000000004E+01
           TYPE  DFTD3
           PARAMETER_FILE_NAME dftd3.dat
           REFERENCE_FUNCTIONAL PBE
           EPS_CN     9.9999999999999995E-07
           CALCULATE_C9_TERM  T
           REFERENCE_C9_TERM  T
           LONG_RANGE_CORRECTION  F
           VERBOSE_OUTPUT  F
         &END PAIR_POTENTIAL
       &END VDW_POTENTIAL
     &END XC
   &END DFT
   &SUBSYS
     &CELL
       A     1.2864472766435110E+01    0.0000000000000000E+00    0.0000000000000000E+00
       B    -6.4322363581020028E+00    1.1140960178524473E+01    0.0000000000000000E+00
       C     0.0000000000000000E+00    0.0000000000000000E+00    3.2000000000000000E+01
       MULTIPLE_UNIT_CELL  1 1 1
       &CELL_REF
         A     1.2982353780853531E+01    0.0000000000000000E+00    0.0000000000000000E+00
         B    -6.4911768904267628E+00    1.1243048175136114E+01    0.0000000000000000E+00
         C     0.0000000000000000E+00    0.0000000000000000E+00    3.2000000000000000E+01
         MULTIPLE_UNIT_CELL  1 1 1
       &END CELL_REF
     &END CELL
     &COORD
N    1.3390265997703540E-02    1.9517154163956614E+00    2.4921578654848648E+00
Ga   -1.4261021316027097E-03   -2.3343850793632354E-02    2.8080065048511451E+00
N    1.1796874167621976E-02   -4.8010937682666073E-02    5.0200436083325792E+00
Ga    1.7741782232006120E-02    1.7800608516396308E+00    5.7889152531637107E+00
N    2.0854079811778305E-02    1.7956657508087563E+00    7.7976770141258962E+00
Ga    2.2690283508912105E-02   -4.8361646019188222E-02    8.4413037918360629E+00
N    2.4655766744980982E-02   -5.1509331498014128E-02    1.0417956436779555E+01
Ga    2.5006485542371740E-02    1.7893861043406498E+00    1.1064314344472534E+01
N    2.6210981229627200E-02    1.7677728093498764E+00    1.3060531610584217E+01
Ga    2.5892413007755469E-02   -5.1652772721531653E-02    1.3863430285175827E+01
N    2.7631817064719240E-02   -5.1343549731032882E-02    1.6068187676538919E+01
Ga    2.8125025388990393E-02    1.9921306605154820E+00    1.6476668468523275E+01
Ga    5.3465651496097267E-03    3.6554324499916797E+00    1.3220156239515002E+00
N   -1.4625818463345379E+00    4.5285364935150740E+00    2.4905298068358621E+00
Ga   -1.6524411860119659E+00    2.6884722061060993E+00    3.2635192126642032E+00
N   -1.5900328113539564E+00    2.7403639965036573E+00    5.2502311838726143E+00
Ga   -1.6125828498918444E+00    4.6005650595016379E+00    5.8027707566910474E+00
N   -1.5957342438571767E+00    4.5989024353846668E+00    7.8019401028993745E+00
Ga   -1.5765241962692609E+00    2.7383499818418389E+00    8.4328727713959477E+00
N   -1.5737956731512990E+00    2.7404949895846831E+00    1.0431213209148920E+01
Ga   -1.5995790224478350E+00    4.5988095518764682E+00    1.1068215941080259E+01
N   -1.6146967146544784E+00    4.6081985575978033E+00    1.3063978441244499E+01
Ga   -1.5697743742200956E+00    2.7388981099825798E+00    1.3616771698762093E+01
N   -1.5939620847867433E+00    2.7217868795612823E+00    1.5580758273193265E+01
Ga   -1.4234221892447232E+00    4.4989957418292210E+00    1.6477125940347829E+01
N    2.8331657793447679E-02    3.6698380047462842E+00    1.7608463065709433E+01
N   -3.1978656452812566E+00    7.4872330797019275E+00    2.5027810366404091E+00
Ga   -3.1535017978707351E+00    5.5172359668587108E+00    2.8487400967034335E+00
N   -3.1955421419126280E+00    5.5156149963761241E+00    5.0264638050773485E+00
Ga   -3.1946888594346547E+00    7.3415875616582857E+00    5.7975492182032253E+00
N   -3.1956137093182257E+00    7.3672005462823105E+00    7.7930591118753352E+00
Ga   -3.1931456456245408E+00    5.5207320449418358E+00    8.4461185497462097E+00
N   -3.1927628758656370E+00    5.5207278299507658E+00    1.0420552251777988E+01
Ga   -3.1926475102145102E+00    7.3590597944880285E+00    1.1070616723012435E+01
N   -3.1913644037115731E+00    7.3384203685979772E+00    1.3064906039871540E+01
Ga   -3.1901582296208177E+00    5.5184337265820966E+00    1.3869599699543205E+01
N   -3.1881212536973198E+00    5.5196775677466858E+00    1.6069521691016771E+01
Ga   -3.1877015335631622E+00    7.5644357505078528E+00    1.6479527509524821E+01
Ga   -3.1863382597961145E+00    9.2886393152754074E+00    1.2499653816413050E+00
N   -4.7181971407289582E+00    1.0108081491448390E+01    2.4964062840438208E+00
Ga   -4.7994783552867872E+00    8.3204548493874100E+00    3.2891380363560572E+00
N   -4.8122154317751491E+00    8.2995796898399607E+00    5.2368796675640068E+00
Ga   -4.8365068175161774E+00    1.0189395185437094E+01    5.7863374623751609E+00
N   -4.8125306133793853E+00    1.0166589910243392E+01    7.7894909852656697E+00
Ga   -4.7892909755429747E+00    8.3163640827500807E+00    8.4389692262838309E+00
N   -4.7888089003358774E+00    8.3117236929864404E+00    1.0432645311400060E+01
Ga   -4.8146162319177357E+00    1.0171788533737868E+01    1.1067386992534054E+01
N   -4.8304112752993040E+00    1.0178187604682849E+01    1.3063281650252959E+01
Ga   -4.7873545504267296E+00    8.3099263400605441E+00    1.3619698150672921E+01
N   -4.8121703334612222E+00    8.2928373571660146E+00    1.5582943885586046E+01
Ga   -4.6379371853528326E+00    1.0068230185314340E+01    1.6477674295177945E+01
N   -3.1864171463020825E+00    9.2400861884551375E+00    1.7611832674998354E+01
N    3.2181075578955589E+00    1.8109663999033934E+00    2.6145353784528709E+00
Ga    3.2226360677522714E+00    4.5374245684703371E-02    3.2437948094221278E+00
N    3.2337102800472994E+00   -5.2880785630500714E-02    5.2325506073344927E+00
Ga    3.2252003091705523E+00    1.8023984804402502E+00    5.8588128782061961E+00
N    3.2390409752323661E+00    1.8065896623005351E+00    7.8428726684486740E+00
Ga    3.2369583928261147E+00   -6.0282053814528086E-02    8.4287270603718536E+00
N    3.2396500561269868E+00   -6.3379189807771311E-02    1.0427823975952540E+01
Ga    3.2405587888297318E+00    1.8056045913948748E+00    1.1023281611384958E+01
N    3.2423637228168123E+00    1.8042787283595383E+00    1.2997540178979095E+01
Ga    3.2415458985857444E+00   -6.5526228259705221E-02    1.3617864005235431E+01
N    3.2431236250729034E+00   -3.4937017792322542E-02    1.5582229240798208E+01
Ga    3.2427069627197618E+00    1.8028534442191209E+00    1.5859844029924670E+01
N    1.5191435791731305E+00    4.5384559665326165E+00    2.5281590047248010E+00
Ga    1.6866561716389825E+00    2.6949843862123974E+00    3.2589381659790995E+00
N    1.6268924926006743E+00    2.7344050542147862E+00    5.2487227046518043E+00
Ga    1.6524840125551306E+00    4.5983653139441385E+00    5.7986170651264519E+00
N    1.6380687736577435E+00    4.5988859742780628E+00    7.7996187044523078E+00
Ga    1.6199648798708224E+00    2.7382402665689538E+00    8.4299557376432954E+00
N    1.6225803688016962E+00    2.7404328903874964E+00    1.0429147707778233E+01
Ga    1.6477923210858776E+00    4.5976993851462575E+00    1.1067913281220553E+01
N    1.6659877262873568E+00    4.6074568620356819E+00    1.3063517322930290E+01
Ga    1.6229097386430946E+00    2.7382749428194160E+00    1.3616737237938912E+01
N    1.6500988680659752E+00    2.7214000381887646E+00    1.5580350399643660E+01
Ga    1.4796428054271955E+00    4.4984867453525821E+00    1.6476611844729099E+01
N    2.3372246563004628E-02    7.3843994764182010E+00    2.6933289282065207E+00
Ga    2.6850149152889080E-02    5.5252035647031201E+00    3.3075653397379301E+00
N    1.8151165387052137E-02    5.5393149166753846E+00    5.2550177327272944E+00
Ga    2.0402038429364444E-02    7.3796560094198425E+00    5.8947130012384550E+00
N    2.0448887155776727E-02    7.3782269205562399E+00    7.8606766964659647E+00
Ga    2.1726510470577838E-02    5.5067562556385212E+00    8.4410687354460858E+00
N    2.3849682062716381E-02    5.5064656819834052E+00    1.0435100915564981E+01
Ga    2.3252362874117246E-02    7.3759033982182629E+00    1.1025290167748322E+01
N    2.5016113780207117E-02    7.3745320795340188E+00    1.2998697868593243E+01
Ga    2.5896202078638051E-02    5.5041776806667704E+00    1.3617597510873576E+01
N    2.8157854619671650E-02    5.5358557789746738E+00    1.5582182435627427E+01
Ga    2.7816789007063608E-02    7.3736697514633569E+00    1.5858841307008138E+01
N   -1.6875145914033629E+00    1.0107077540526406E+01    2.5142715308286845E+00
Ga   -1.5851032722925824E+00    8.3066335191026912E+00    3.2899446571320530E+00
N   -1.5788937105858827E+00    8.2986665169927711E+00    5.2401023517085799E+00
Ga   -1.5671653784255175E+00    1.0183069264292964E+01    5.7913301273447866E+00
N   -1.5787024268570733E+00    1.0165510127703561E+01    7.7928417000749421E+00
Ga   -1.5984841055650094E+00    8.3136402536337286E+00    8.4397689755244567E+00
N   -1.5965529842294084E+00    8.3111438128651702E+00    1.0433152938817811E+01
Ga   -1.5705157413139179E+00    1.0171192917363845E+01    1.1067776601589648E+01
N   -1.5510276225540169E+00    1.0178430600493108E+01    1.3063121885468174E+01
Ga   -1.5941021376266189E+00    8.3092628568282993E+00    1.3618354581861668E+01
N   -1.5648391600398772E+00    8.2920367856810131E+00    1.5580849588696738E+01
Ga   -1.7372112426879984E+00    1.0068416702383443E+01    1.6477206893061272E+01
N    6.4521725587193499E+00    1.9233414324504421E+00    2.5414757141989779E+00
Ga    6.4690132700330762E+00   -8.3647393719285770E-02    2.8618009963415845E+00
N    6.4541660142934321E+00   -4.8157228574680584E-02    5.0331341399822049E+00
Ga    6.4502417869248569E+00    1.7761394152055667E+00    5.8041874472094452E+00
N    6.4530342393765840E+00    1.7962262285582451E+00    7.8024065571675809E+00
Ga    6.4519769771623112E+00   -5.1547438481625935E-02    8.4424424917597261E+00
N    6.4547122892098923E+00   -5.0982767097220154E-02    1.0418895759540291E+01
Ga    6.4566421296134076E+00    1.7888430340903316E+00    1.1068841377272845E+01
N    6.4584728853394733E+00    1.7677536413591195E+00    1.3064101498783986E+01
Ga    6.4577402693684638E+00   -5.1985967388161851E-02    1.3865858345050107E+01
N    6.4598052185167658E+00   -5.1580956503810629E-02    1.6068320971175520E+01
Ga    6.4604456338039800E+00    1.9942283810231738E+00    1.6481179696448855E+01
Ga    6.4538551995498956E+00    3.6278990147173751E+00    1.5347871464740410E+00
N    4.9562991754637888E+00    4.5389029699207404E+00    2.5265806290870998E+00
Ga    4.7240488992322014E+00    2.6665019226011633E+00    3.2935125424487861E+00
N    4.8439322166504004E+00    2.7378939886413525E+00    5.2551464993542352E+00
Ga    4.8120807088896411E+00    4.6039890466895814E+00    5.8145153473737947E+00
N    4.8402532920120995E+00    4.5986301102526221E+00    7.8052881499522400E+00
Ga    4.8541590083670032E+00    2.7376654283656197E+00    8.4374396660261581E+00
N    4.8593162831491981E+00    2.7412405546807057E+00    1.0433340370860995E+01
Ga    4.8326126988735174E+00    4.5988119599816359E+00    1.1071839113079871E+01
N    4.8186257133974104E+00    4.6073458754803971E+00    1.3066643376317367E+01
Ga    4.8616252218440144E+00    2.7378788488800345E+00    1.3620355801299755E+01
N    4.8358929832066266E+00    2.7200359439603434E+00    1.5582856587247614E+01
Ga    5.0126361647836797E+00    4.4953772998395101E+00    1.6480874864094694E+01
N    6.4609256502741381E+00    3.6682398155624552E+00    1.7613932335775271E+01
N    3.2374941130380899E+00    7.4895308486629073E+00    2.5224796170279080E+00
N    3.2416086861759541E+00    5.5185414070757188E+00    5.0450089893895633E+00
Ga    3.2381112363502185E+00    7.3447742652601811E+00    5.8078258117296002E+00
N    3.2398647973882646E+00    7.3682527918893053E+00    7.8024383782608053E+00
Ga    3.2363295439993496E+00    5.5197039814244055E+00    8.4457742865901153E+00
N    3.2406350591585604E+00    5.5190258199205697E+00    1.0420588277362244E+01
Ga    3.2400733272319484E+00    7.3575119971320007E+00    1.1070359318787167E+01
N    3.2418352040504343E+00    7.3373945963830094E+00    1.3064879036644321E+01
Ga    3.2422001369416003E+00    5.5173714534103881E+00    1.3869270964440449E+01
N    3.2437751445977603E+00    5.5189935656988593E+00    1.6068120041302105E+01
Ga    3.2435526474778626E+00    7.5628288999685331E+00    1.6476820498084326E+01
Ga    3.2042726211030224E+00    9.2825572809410257E+00    1.2775804371219133E+00
N    1.7420514775523881E+00    1.0098901954941233E+01    2.5246401533849410E+00
Ga    1.6336983283711610E+00    8.3075947293813979E+00    3.3092584666161917E+00
N    1.6189257909457204E+00    8.2984693537001473E+00    5.2596012673950376E+00
Ga    1.6072468698471492E+00    1.0182749200316387E+01    5.8022670605472042E+00
N    1.6199477566357356E+00    1.0166550456947371E+01    7.8019968424908201E+00
Ga    1.6404749899154119E+00    8.3134043296139328E+00    8.4424477803886884E+00
N    1.6426744637648758E+00    8.3104128938522468E+00    1.0435419304449672E+01
Ga    1.6159467366551812E+00    1.0170694261654363E+01    1.1068343350709339E+01
N    1.6011010752216592E+00    1.0178233640798540E+01    1.3063823625772160E+01
Ga    1.6448485947401026E+00    8.3088114578360575E+00    1.3617300115891775E+01
N    1.6206708725523589E+00    8.2924756952374725E+00    1.5580972906997433E+01
Ga    1.7915252885016553E+00    1.0069730857212081E+01    1.6475103910957060E+01
N    3.2430279387286229E+00    9.2407740398914608E+00    1.7608265753522481E+01
N    9.6804263830238604E+00    1.8026677170868870E+00    2.6340945639714146E+00
Ga    9.6705523940969744E+00    3.3879847024703466E-02    3.2646066047827378E+00
N    9.6706738306072655E+00   -5.1209213456493159E-02    5.2516255793427886E+00
Ga    9.6768212461750878E+00    1.8036082495597143E+00    5.8633816256990512E+00
N    9.6683273607626141E+00    1.8072699155984926E+00    7.8473741650107485E+00
Ga    9.6692143602390388E+00   -5.9194551039170332E-02    8.4354241522865543E+00
N    9.6715121911297963E+00   -6.3570761586583577E-02    1.0432652670218847E+01
Ga    9.6730234617728375E+00    1.8057917389526446E+00    1.1025234897112780E+01
N    9.6744715359377231E+00    1.8044536942423581E+00    1.2998819738962629E+01
Ga    9.6740133490710107E+00   -6.6037913098880574E-02    1.3616836878255416E+01
N    9.6767587684461702E+00   -3.5356081164157234E-02    1.5581753723830536E+01
Ga    9.6780720051335098E+00    1.8030165285846111E+00    1.5858955732265020E+01
N    7.9512042973376129E+00    4.5387907903530440E+00    2.5239154056623567E+00
Ga    8.1759582855274910E+00    2.6653092201264745E+00    3.3001365905233868E+00
N    8.0564073979160202E+00    2.7390093739978485E+00    5.2595365975513770E+00
Ga    8.0952036107328347E+00    4.6049225401850284E+00    5.8103859549623076E+00
N    8.0691580562183010E+00    4.5989373779352229E+00    7.8032215595183700E+00
Ga    8.0535124691927233E+00    2.7378965735464540E+00    8.4377166062491842E+00
N    8.0536219103262940E+00    2.7411165825966988E+00    1.0434055725605072E+01
Ga    8.0804692073193927E+00    4.5988464114863490E+00    1.1072309554789825E+01
N    8.0980077148329972E+00    4.6078546208432138E+00    1.3066826847548832E+01
Ga    8.0553334716638503E+00    2.7383853657767117E+00    1.3620808988089568E+01
N    8.0849182322854798E+00    2.7202298597696548E+00    1.5582986533391828E+01
Ga    7.9091859549528998E+00    4.4961596054776374E+00    1.6481092524307275E+01
N    6.4481698015851592E+00    7.3917891747465703E+00    2.6920220511225663E+00
Ga    6.4527114684768696E+00    5.5652022280668954E+00    3.3390663864988319E+00
N    6.4533036178400511E+00    5.5376105020403301E+00    5.2626394452198921E+00
Ga    6.4532878791168953E+00    7.3923397565223157E+00    5.8967678468406755E+00
N    6.4553442392382188E+00    7.3788768117738908E+00    7.8589899174001498E+00
Ga    6.4553287858379473E+00    5.5091531310375510E+00    8.4476355615616914E+00
N    6.4565665708558502E+00    5.5080492753347796E+00    1.0438506266533448E+01
Ga    6.4571723280936899E+00    7.3775395035229483E+00    1.1028245935071471E+01
N    6.4580455842682563E+00    7.3750338318653386E+00    1.3000568883692743E+01
Ga    6.4583105387196627E+00    5.5048661587671699E+00    1.3621595000876322E+01
N    6.4601266077021187E+00    5.5370992447512295E+00    1.5584527553729078E+01
Ga    6.4598648644393535E+00    7.3743781948379352E+00    1.5861390491543608E+01
N    4.7154849180345222E+00    1.0089107562347964E+01    2.4615315023504203E+00
Ga    4.8265094974575558E+00    8.3201948893377402E+00    3.3005432357592088E+00
N    4.8569374649414447E+00    8.3036139990544253E+00    5.2486306111463472E+00
Ga    4.8720210416470868E+00    1.0188915508513718E+01    5.8037228548611832E+00
N    4.8548954424616007E+00    1.0166362610205029E+01    7.8025644874724476E+00
Ga    4.8351383068870080E+00    8.3147404198297643E+00    8.4444271044295487E+00
N    4.8378032648072642E+00    8.3102890032082879E+00    1.0436656799677037E+01
Ga    4.8632087428605741E+00    1.0171106020801920E+01    1.1067624666818634E+01
N    4.8814390213584806E+00    1.0177919827162141E+01    1.3063278441823616E+01
Ga    4.8383453899037221E+00    8.3091261536549368E+00    1.3618428130214076E+01
N    4.8668422888307701E+00    8.2926482900981995E+00    1.5581848242955578E+01
Ga    4.6962950774658889E+00    1.0069595019749672E+01    1.6475087474209612E+01
O    3.0690645192080507E-01    3.8849466922827776E+00   -4.5812097974260263E-01
H    1.7255857586606560E+00    6.9649712917733444E+00   -1.9112213911690654E-01
C    1.6415695628884661E+00    3.5356873287945692E+00   -8.7195986385938840E-01
H    2.3690285854686359E+00    3.5458350800572775E+00   -4.1715248573892749E-02
H    1.6618671629481918E+00    2.5346640134711751E+00   -1.3263385509559462E+00
H    1.9727736224359147E+00    4.2672087888517760E+00   -1.6232436620005719E+00
Ga    3.1950054562073347E+00    5.5349347728746912E+00    2.8856783356399354E+00
O    1.4472897166155902E+00    7.8819210982594994E+00   -3.6271203267729951E-01
H    5.5822147011157550E-02    7.4139559793760244E+00    1.6655684712911776E+00
C    2.6262776324225632E+00    8.6943979054700637E+00   -5.5420857256518119E-01
H    2.3292313928222246E+00    9.5503223652651617E+00   -1.1672013029614932E+00
H    6.4421703341251906E+00    7.3812578413900853E+00    1.6657686536017231E+00
H    3.4252285607837090E+00    8.1480568665309328E+00   -1.0698724076561736E+00
     &END COORD
     &KIND C
       BASIS_SET DZVP-MOLOPT-SR-GTH-q4
       POTENTIAL GTH-PBE-q4
       &POTENTIAL
 2 2
  0.3384712400000000E+00 2 -0.8803673979999999E+01  0.1339210850000000E+01
 2
  0.3025757500000000E+00 1  0.9622486650000001E+01
  0.2915069400000000E+00 0
         # Potential name:  GTH-PBE-Q4  for symbol:  C
         # Potential read from the potential filename: GTH_POTENTIALS
       &END POTENTIAL
     &END KIND
     &KIND O
       BASIS_SET DZVP-MOLOPT-SR-GTH-q6
       POTENTIAL GTH-PBE-q6
       &POTENTIAL
 2 4
  0.2445543000000000E+00 2 -0.1666721480000000E+02  0.2487311320000000E+01
 2
  0.2209559200000000E+00 1  0.1833745811000000E+02
  0.2113324700000000E+00 0
         # Potential name:  GTH-PBE-Q6  for symbol:  O
         # Potential read from the potential filename: GTH_POTENTIALS
       &END POTENTIAL
     &END KIND
     &KIND H
       BASIS_SET DZVP-MOLOPT-SR-GTH-q1
       POTENTIAL GTH-PBE-q1
       &POTENTIAL
 1
  0.2000000000000000E+00 2 -0.4178900440000000E+01  0.7244633100000000E+00
 0
         # Potential name:  GTH-PBE-Q1  for symbol:  H
         # Potential read from the potential filename: GTH_POTENTIALS
       &END POTENTIAL
     &END KIND
     &KIND N
       BASIS_SET DZVP-MOLOPT-SR-GTH
       POTENTIAL GTH-PBE-q5
       &POTENTIAL
 2 3
  0.2837905100000000E+00 2 -0.1241522559000000E+02  0.1868095920000000E+01
 2
  0.2554050000000000E+00 1  0.1363026257000000E+02
  0.2454945300000000E+00 0
         # Potential name:  GTH-PBE-Q5  for symbol:  N
         # Potential read from the potential filename: GTH_POTENTIALS
       &END POTENTIAL
     &END KIND
     &KIND Ga
       BASIS_SET DZVP-MOLOPT-SR-GTH
       POTENTIAL GTH-PBE-q13
       &POTENTIAL
 2 1 10
  0.4900000000000000E+00 0
 3
  0.4167772300000000E+00 3  0.1047568975000000E+02 -0.4921768140000000E+01  0.8707055900000000E+00
  0.7770178090000000E+01 -0.2248152160000000E+01
  0.1784415450000000E+01
  0.5696265200000000E+00 2  0.1777985340000000E+01  0.1958597600000000E+00
 -0.2317443900000000E+00
  0.2381265000000000E+00 1 -0.1624868022000000E+02
         # Potential name:  GTH-PBE-Q13  for symbol:  GA
         # Potential read from the potential filename: GTH_POTENTIALS
       &END POTENTIAL
     &END KIND
     &TOPOLOGY
       NUMBER_OF_ATOMS  212
       MULTIPLE_UNIT_CELL  1 1 1
     &END TOPOLOGY
   &END SUBSYS
 &END FORCE_EVAL
