 # Version information for this restart file 
 # current date 2019-07-02 06:15:49.652
 # current working dir /lustre04/scratch/rzk/rzk/GaN-carbene/443-adatoms-both-2x2/09-BondBreaking-CH/01-0401-CH-to-NSur
 # Program compiled at                              Sun Apr  7 00:48:11 EDT 2019
 # Program compiled on                          beluga2.int.ets1.calculquebec.ca
 # Program compiled for                        Beluga-Linux-x86-64-intel-openmpi
 # Source code revision number                                         svn:18619
 &GLOBAL
   PRINT_LEVEL  MEDIUM
   PROJECT_NAME TEST
   RUN_TYPE  GEO_OPT
 &END GLOBAL
 &MOTION
   &GEO_OPT
     MAX_ITER  500
     STEP_START_VAL  70
   &END GEO_OPT
 &END MOTION
 &FORCE_EVAL
   METHOD  QS
   STRESS_TENSOR  ANALYTICAL
   &DFT
     BASIS_SET_FILE_NAME BASIS_MOLOPT
     POTENTIAL_FILE_NAME GTH_POTENTIALS
     UKS  T
     SURFACE_DIPOLE_CORRECTION  T
     SURF_DIP_DIR  Z
     &SCF
       MAX_SCF  80
       EPS_SCF     5.0000000000000004E-06
       &OT  T
         PRECONDITIONER  FULL_ALL
       &END OT
       &OUTER_SCF  T
         OPTIMIZER  NONE
         EPS_SCF     5.0000000000000004E-06
         MAX_SCF  4
       &END OUTER_SCF
       &PRINT
         &RESTART  OFF
           BACKUP_COPIES  1
           &EACH
             JUST_ENERGY  0
             QS_SCF  0
             MD  20
           &END EACH
         &END RESTART
       &END PRINT
     &END SCF
     &QS
       EPS_DEFAULT     1.0000000000000000E-14
       METHOD  GPW
     &END QS
     &MGRID
       NGRIDS  5
       CUTOFF     1.2000000000000000E+03
     &END MGRID
     &XC
       DENSITY_CUTOFF     1.0000000000000000E-10
       GRADIENT_CUTOFF     1.0000000000000000E-10
       TAU_CUTOFF     1.0000000000000000E-10
       &XC_FUNCTIONAL  NO_SHORTCUT
         &PBE  T
         &END PBE
       &END XC_FUNCTIONAL
       &VDW_POTENTIAL
         POTENTIAL_TYPE  PAIR_POTENTIAL
         &PAIR_POTENTIAL
           R_CUTOFF     1.0000000000000004E+01
           TYPE  DFTD3
           PARAMETER_FILE_NAME dftd3.dat
           REFERENCE_FUNCTIONAL PBE
           EPS_CN     9.9999999999999995E-07
           CALCULATE_C9_TERM  T
           REFERENCE_C9_TERM  T
           LONG_RANGE_CORRECTION  F
           VERBOSE_OUTPUT  F
         &END PAIR_POTENTIAL
       &END VDW_POTENTIAL
     &END XC
   &END DFT
   &SUBSYS
     &CELL
       A     1.2864472766435110E+01    0.0000000000000000E+00    0.0000000000000000E+00
       B    -6.4322363581020028E+00    1.1140960178524473E+01    0.0000000000000000E+00
       C     0.0000000000000000E+00    0.0000000000000000E+00    3.2000000000000000E+01
       MULTIPLE_UNIT_CELL  1 1 1
       &CELL_REF
         A     1.2982353780853531E+01    0.0000000000000000E+00    0.0000000000000000E+00
         B    -6.4911768904267628E+00    1.1243048175136114E+01    0.0000000000000000E+00
         C     0.0000000000000000E+00    0.0000000000000000E+00    3.2000000000000000E+01
         MULTIPLE_UNIT_CELL  1 1 1
       &END CELL_REF
     &END CELL
     &COORD
N    1.3263665130423725E-02    1.9506993291858190E+00    2.4966217076261890E+00
Ga    1.8128327534957126E-03   -2.2837203282902330E-02    2.8075191087812073E+00
N    1.4185806311360426E-02   -4.8405168261949093E-02    5.0210214725073827E+00
Ga    1.8643049977384633E-02    1.7798418067874529E+00    5.7881187141561963E+00
N    1.9610549485494802E-02    1.7948398370534326E+00    7.7975366958315968E+00
Ga    2.1951741576833637E-02   -4.9015803941889341E-02    8.4415056154511348E+00
N    2.3918411675249392E-02   -5.2340698921474464E-02    1.0419763617388913E+01
Ga    2.3182936152331305E-02    1.7880928865129693E+00    1.1065876617873172E+01
N    2.4761748309672215E-02    1.7668324559769557E+00    1.3062516160799579E+01
Ga    2.4986831440609127E-02   -5.2710894954507988E-02    1.3863912888332157E+01
N    2.5931230633341188E-02   -5.2211569297164702E-02    1.6070202984745059E+01
Ga    2.6357321704174159E-02    1.9905173954895445E+00    1.6479335737991253E+01
Ga   -4.0941423999707443E-03    3.6542243290015408E+00    1.3251168333005625E+00
N   -1.4630145074565062E+00    4.5267661092084328E+00    2.4934370736422582E+00
Ga   -1.6527815530558223E+00    2.6858394371547063E+00    3.2669614711301205E+00
N   -1.5900431512012623E+00    2.7398534212325698E+00    5.2521024636476961E+00
Ga   -1.6115116763555699E+00    4.6020225056917239E+00    5.8020665190787302E+00
N   -1.5952213492002085E+00    4.5996126547729421E+00    7.8014158752083409E+00
Ga   -1.5772423831358415E+00    2.7385020336368622E+00    8.4325934098536308E+00
N   -1.5749564233059867E+00    2.7395240888865344E+00    1.0431435773908955E+01
Ga   -1.5998299217992171E+00    4.5965201193392913E+00    1.1069662362033165E+01
N   -1.6155907645216725E+00    4.6063716283102671E+00    1.3065520885844785E+01
Ga   -1.5713725341874070E+00    2.7372777273884772E+00    1.3620200910850992E+01
N   -1.5963865245057665E+00    2.7209756750943876E+00    1.5584262724893895E+01
Ga   -1.4261867981677159E+00    4.4987464450653949E+00    1.6478462756257471E+01
N    2.6547505940501516E-02    3.6692792814745294E+00    1.7610935449410142E+01
N   -3.1963697568489082E+00    7.4870429379874164E+00    2.5070253197514041E+00
Ga   -3.1537769031264511E+00    5.5195765338525495E+00    2.8510311008034419E+00
N   -3.1943607219548720E+00    5.5171450773174104E+00    5.0272849138607674E+00
Ga   -3.1932831417313574E+00    7.3436549942089400E+00    5.7980693872520908E+00
N   -3.1945886491412891E+00    7.3671944052896485E+00    7.7935830193179827E+00
Ga   -3.1926930109860239E+00    5.5206691941781187E+00    8.4469984832890486E+00
N   -3.1935360412431781E+00    5.5190734322993755E+00    1.0420960803014983E+01
Ga   -3.1922930023150666E+00    7.3582186705376733E+00    1.1070997743862113E+01
N   -3.1915704990978648E+00    7.3371087316205266E+00    1.3065000019631601E+01
Ga   -3.1913045659750043E+00    5.5170801863293155E+00    1.3867050945178827E+01
N   -3.1900723012756007E+00    5.5185869694044181E+00    1.6070662079820018E+01
Ga   -3.1900478099483918E+00    7.5632555715969998E+00    1.6480415710682220E+01
Ga   -3.1872704706486243E+00    9.2868867911531670E+00    1.2435723767635902E+00
N   -4.7153987946130886E+00    1.0109123350053380E+01    2.4964426259654307E+00
Ga   -4.7968028718544398E+00    8.3237214637923138E+00    3.2908722088013200E+00
N   -4.8115267060915663E+00    8.3012614335019581E+00    5.2404738227292302E+00
Ga   -4.8346447660958418E+00    1.0190388013298721E+01    5.7881063027660087E+00
N   -4.8124852858968215E+00    1.0166682432418597E+01    7.7921241077071253E+00
Ga   -4.7888018259560345E+00    8.3161131295549318E+00    8.4408917199965323E+00
N   -4.7883709942395605E+00    8.3110703546022560E+00    1.0433606654585340E+01
Ga   -4.8145713377018744E+00    1.0171298728620421E+01    1.1068330220960700E+01
N   -4.8308895862944690E+00    1.0177667597853125E+01    1.3063955918876795E+01
Ga   -4.7877166187655655E+00    8.3092199767828863E+00    1.3621261690251822E+01
N   -4.8141680811418190E+00    8.2913216692397924E+00    1.5583296301941765E+01
Ga   -4.6404461140686228E+00    1.0067929595980438E+01    1.6479487006304709E+01
N   -3.1893068472396977E+00    9.2397067206840990E+00    1.7613412020417133E+01
N    3.2194469655046438E+00    1.8123984765471499E+00    2.6146911779994335E+00
Ga    3.2259886830420825E+00    4.4681523610914528E-02    3.2419985169152237E+00
N    3.2344558775664440E+00   -5.1903806068636434E-02    5.2329622008194328E+00
Ga    3.2238872054674763E+00    1.8029982211365785E+00    5.8581474026583056E+00
N    3.2371330231632718E+00    1.8063694008131310E+00    7.8424318900873606E+00
Ga    3.2368033636181246E+00   -6.0214095419569083E-02    8.4297161092278650E+00
N    3.2397543373707962E+00   -6.4036802401957194E-02    1.0428823692793461E+01
Ga    3.2384828178213287E+00    1.8048337050159884E+00    1.1024050769879489E+01
N    3.2408507307986052E+00    1.8035787256852458E+00    1.2998426390786276E+01
Ga    3.2410650060584794E+00   -6.5782215126878166E-02    1.3619442906614102E+01
N    3.2415072745147757E+00   -3.4655039559000976E-02    1.5583246768756108E+01
Ga    3.2420919654608840E+00    1.8031991388813542E+00    1.5860930864725004E+01
N    1.5191931413322850E+00    4.5412364750121883E+00    2.5214360100225193E+00
Ga    1.6875506960233013E+00    2.6969557751720585E+00    3.2560336887696337E+00
N    1.6262431505701536E+00    2.7364620112302394E+00    5.2470010020971927E+00
Ga    1.6528305556869471E+00    4.5994352783077961E+00    5.7994841916207873E+00
N    1.6374295213771528E+00    4.5987637682951430E+00    7.7998133589558680E+00
Ga    1.6179060054966810E+00    2.7379995802934651E+00    8.4305335652119844E+00
N    1.6206828356967631E+00    2.7395489745196211E+00    1.0429555119816246E+01
Ga    1.6465892800478654E+00    4.5963769226212712E+00    1.1069544707269211E+01
N    1.6649819632040708E+00    4.6059883419101730E+00    1.3065524176017524E+01
Ga    1.6214004715290511E+00    2.7368086729979222E+00    1.3619525593739091E+01
N    1.6485829159235803E+00    2.7210060872126567E+00    1.5583414513828313E+01
Ga    1.4787564608710408E+00    4.4983255313824451E+00    1.6478016702633933E+01
N    2.5280686321765614E-02    7.3853583382606720E+00    2.6894685807788554E+00
Ga    2.7926160691407891E-02    5.5267161198964505E+00    3.3060120359806762E+00
N    1.9196480320905648E-02    5.5405794074427783E+00    5.2522899769716060E+00
Ga    2.0715867197213956E-02    7.3802051482130038E+00    5.8956471385922367E+00
N    2.1387456192239848E-02    7.3778924395005276E+00    7.8614676466233941E+00
Ga    2.1781022900905996E-02    5.5068439539707423E+00    8.4430317909910215E+00
N    2.3419944327846675E-02    5.5052068773097051E+00    1.0436511023427185E+01
Ga    2.3238240454927176E-02    7.3745024464313129E+00    1.1027045707219969E+01
N    2.4617144778166188E-02    7.3733373676147842E+00    1.3000272271432499E+01
Ga    2.4829770303681532E-02    5.5028330544424522E+00    1.3620244119353027E+01
N    2.6171022716772848E-02    5.5346994630922257E+00    1.5584904736381004E+01
Ga    2.5616897778663293E-02    7.3728747127672776E+00    1.5860190463455847E+01
N   -1.6835744800779298E+00    1.0109474993103946E+01    2.5150926903666186E+00
Ga   -1.5827416574142330E+00    8.3091057421310062E+00    3.2885510382077729E+00
N   -1.5770035356224670E+00    8.3007306165384360E+00    5.2399659244235828E+00
Ga   -1.5651194564380921E+00    1.0185285408688106E+01    5.7924517268800795E+00
N   -1.5782210682039228E+00    1.0165685793098657E+01    7.7943440069982781E+00
Ga   -1.5975156527413390E+00    8.3130980292310390E+00    8.4400565199192172E+00
N   -1.5962037248867955E+00    8.3094952806360709E+00    1.0433906580809692E+01
Ga   -1.5707809602568761E+00    1.0169617382693469E+01    1.1068141390455470E+01
N   -1.5519477761045970E+00    1.0177384751105770E+01    1.3064150264031209E+01
Ga   -1.5943640582834187E+00    8.3084432694606942E+00    1.3619849446974120E+01
N   -1.5668670488515675E+00    8.2909955214024205E+00    1.5582101145651134E+01
Ga   -1.7396356082547304E+00    1.0067826481199297E+01    1.6478740973379608E+01
N    6.4525643290926649E+00    1.9252125410184924E+00    2.5416456942341767E+00
Ga    6.4689078461099205E+00   -8.1457140495917776E-02    2.8585930551678462E+00
N    6.4550331881292093E+00   -4.6153832796465392E-02    5.0349064391386493E+00
Ga    6.4510710944389844E+00    1.7768838790816426E+00    5.8044287752402868E+00
N    6.4521265727590249E+00    1.7961089034365996E+00    7.8025532674645115E+00
Ga    6.4525629838013616E+00   -5.2553994393858230E-02    8.4430953592089200E+00
N    6.4548330626528374E+00   -5.2579047417393464E-02    1.0420382991149944E+01
Ga    6.4551396159365169E+00    1.7872838277166396E+00    1.1068454422582096E+01
N    6.4570280835795320E+00    1.7666883457870812E+00    1.3064504568424868E+01
Ga    6.4565310487574212E+00   -5.3106585880728946E-02    1.3865529684658389E+01
N    6.4579276166908279E+00   -5.2642973316395517E-02    1.6068659391686655E+01
Ga    6.4581944705513221E+00    1.9918563626063450E+00    1.6481860664148147E+01
Ga    6.4536004367951527E+00    3.6298533278438092E+00    1.5401981680953112E+00
N    4.9570639146834310E+00    4.5420693048504592E+00    2.5256576435683167E+00
Ga    4.7230940815687958E+00    2.6679258820448304E+00    3.2954572169493721E+00
N    4.8437977418208265E+00    2.7388594870756435E+00    5.2554473558186059E+00
Ga    4.8121121267299616E+00    4.6039068482942378E+00    5.8149665368888739E+00
N    4.8391757531793669E+00    4.5983372168682326E+00    7.8056560583378936E+00
Ga    4.8520400186672585E+00    2.7367109418320497E+00    8.4373344868547093E+00
N    4.8576750569450056E+00    2.7402072141751672E+00    1.0433176926502252E+01
Ga    4.8322656833095712E+00    4.5980549027459876E+00    1.1071728009976271E+01
N    4.8177637084999567E+00    4.6068516832650666E+00    1.3066988640343002E+01
Ga    4.8606084218451375E+00    2.7372434092752305E+00    1.3620343971437478E+01
N    4.8347272889362092E+00    2.7205307965219028E+00    1.5583919264300292E+01
Ga    5.0085191392965349E+00    4.4958516470704621E+00    1.6481607375094558E+01
N    6.4582331079832667E+00    3.6668757243919035E+00    1.7616552370950060E+01
N    3.2366855151507323E+00    7.4899011067790333E+00    2.5244464637590616E+00
N    3.2418640889120809E+00    5.5179392451468203E+00    5.0440288662362693E+00
Ga    3.2397017627635365E+00    7.3447654367016835E+00    5.8085848105254838E+00
N    3.2398862296476363E+00    7.3673242316127689E+00    7.8030458745647238E+00
Ga    3.2356270137009524E+00    5.5195973206377342E+00    8.4475245591453252E+00
N    3.2397384055331351E+00    5.5187526431721299E+00    1.0422247991939338E+01
Ga    3.2397484840846000E+00    7.3576087110648070E+00    1.1072444641863434E+01
N    3.2413356998256555E+00    7.3367078448491432E+00    1.3066520469388218E+01
Ga    3.2412862917109968E+00    5.5163384963675588E+00    1.3867314118627579E+01
N    3.2421775647362678E+00    5.5183183696487426E+00    1.6070436521506920E+01
Ga    3.2415290122019402E+00    7.5622150571397864E+00    1.6478866608346127E+01
Ga    3.2070535086140395E+00    9.2806732941025096E+00    1.2780784893260788E+00
N    1.7441157449614366E+00    1.0098121811439857E+01    2.5239484349770422E+00
Ga    1.6334844535879123E+00    8.3064433140770308E+00    3.3123433419614527E+00
N    1.6197299291373624E+00    8.2991465972856791E+00    5.2605789168215074E+00
Ga    1.6078818931801027E+00    1.0184761282770111E+01    5.8013965499170626E+00
N    1.6203720890393205E+00    1.0166578518191184E+01    7.8022796312852760E+00
Ga    1.6414691039784117E+00    8.3132560131619133E+00    8.4428480288993768E+00
N    1.6429779366779169E+00    8.3095288417775564E+00    1.0436302827482439E+01
Ga    1.6164729726399218E+00    1.0169988534311527E+01    1.1069436572895858E+01
N    1.6006750449877503E+00    1.0177444115332872E+01    1.3065129084681848E+01
Ga    1.6442034689223333E+00    8.3081502783532191E+00    1.3619632341229101E+01
N    1.6185387287882640E+00    8.2910007283846205E+00    1.5582599085126173E+01
Ga    1.7895082172881573E+00    1.0068726631984314E+01    1.6477549107325547E+01
N    3.2408881578349811E+00    9.2399308536853741E+00    1.7611080418098247E+01
N    9.6801058677118288E+00    1.8038604701529428E+00    2.6306115692523333E+00
Ga    9.6720124709690101E+00    3.5866832925812206E-02    3.2620098770479986E+00
N    9.6717280158539101E+00   -4.9045604497065159E-02    5.2508528761238935E+00
Ga    9.6770403286951172E+00    1.8041765972709534E+00    5.8656675679395613E+00
N    9.6673051065385334E+00    1.8078633986377417E+00    7.8488197272397136E+00
Ga    9.6696770234356677E+00   -5.9126119765180785E-02    8.4354332600867075E+00
N    9.6711111861990862E+00   -6.3905893900712038E-02    1.0433466448892720E+01
Ga    9.6717336383756844E+00    1.8055104841136638E+00    1.1025924401358834E+01
N    9.6730027368054010E+00    1.8038275179172458E+00    1.3000247154078588E+01
Ga    9.6726972730790806E+00   -6.6048315560270909E-02    1.3619914733983597E+01
N    9.6743781157403692E+00   -3.4899452628883686E-02    1.5584027717083508E+01
Ga    9.6744750515267288E+00    1.8033744510006957E+00    1.5861422437783750E+01
N    7.9505535424890050E+00    4.5408597096532830E+00    2.5261655399191922E+00
Ga    8.1781516490691484E+00    2.6670873855886086E+00    3.3012560427436739E+00
N    8.0580403717954727E+00    2.7404228898130398E+00    5.2599259471322579E+00
Ga    8.0965348384235174E+00    4.6065187669781924E+00    5.8110379163454642E+00
N    8.0692071742507387E+00    4.5995206294177855E+00    7.8030705176150441E+00
Ga    8.0521311629293226E+00    2.7382158646428079E+00    8.4378539141436697E+00
N    8.0517862348025719E+00    2.7404192394746212E+00    1.0434112168562555E+01
Ga    8.0790033013049474E+00    4.5978800612188921E+00    1.1072316448546763E+01
N    8.0969491613572373E+00    4.6067401936249412E+00    1.3067363453957594E+01
Ga    8.0534832880389970E+00    2.7372035379529960E+00    1.3621614573995060E+01
N    8.0817083751670147E+00    2.7206158730102334E+00    1.5584797894460987E+01
Ga    7.9086535504694382E+00    4.4963816653746944E+00    1.6482027911539785E+01
N    6.4507456583594767E+00    7.3952362018021303E+00    2.6908063450862265E+00
Ga    6.4536091920235750E+00    5.5694428602864541E+00    3.3412550128882392E+00
N    6.4536768626787042E+00    5.5391552795456613E+00    5.2637380330948700E+00
Ga    6.4535428686457674E+00    7.3944346241676735E+00    5.9001315487244526E+00
N    6.4547511083253859E+00    7.3789985195687793E+00    7.8619455145997961E+00
Ga    6.4544573608100668E+00    5.5088626689638076E+00    8.4478695526648071E+00
N    6.4558759162934987E+00    5.5072397393447634E+00    1.0438855514451179E+01
Ga    6.4572299347012914E+00    7.3771604265434290E+00    1.1029259244482706E+01
N    6.4578461525522810E+00    7.3743922297943190E+00    1.3001697517923692E+01
Ga    6.4573945013675340E+00    5.5041673764532275E+00    1.3622889720108754E+01
N    6.4580692012857579E+00    5.5351988127006013E+00    1.5587021140210174E+01
Ga    6.4578766268112453E+00    7.3726525009829658E+00    1.5862404070488711E+01
N    4.7171115862941715E+00    1.0091089459013169E+01    2.4646724966446238E+00
Ga    4.8288735396049995E+00    8.3208548896812911E+00    3.3003084559583038E+00
N    4.8573137871408658E+00    8.3031561565473702E+00    5.2494703174915625E+00
Ga    4.8723699417787696E+00    1.0189286644368854E+01    5.8012126632854555E+00
N    4.8545746379568531E+00    1.0165885781945581E+01    7.8025334665661328E+00
Ga    4.8343817273729375E+00    8.3154966202037404E+00    8.4469790053432963E+00
N    4.8367872067641953E+00    8.3103889074376394E+00    1.0438613995170440E+01
Ga    4.8626732440144069E+00    1.0171381436056544E+01    1.1069849078831556E+01
N    4.8805293074391018E+00    1.0177829176712287E+01    1.3065255227654447E+01
Ga    4.8379069969983410E+00    8.3087094408438151E+00    1.3620779608852962E+01
N    4.8650332941157073E+00    8.2914377630917180E+00    1.5583478335080200E+01
Ga    4.6936138772025373E+00    1.0068760506592518E+01    1.6478202221009699E+01
O    2.8577504217227573E-01    3.8436800844441108E+00   -4.5976769567572728E-01
H    1.7679642415523713E+00    6.9738942827847685E+00   -1.8448337355563180E-01
C    1.6267696403338123E+00    3.5285573934711087E+00   -8.7467899668823546E-01
H    2.3531865519475756E+00    3.5438012537875494E+00   -4.3176134329836045E-02
H    1.6672050329589421E+00    2.5281788497864270E+00   -1.3320710735767145E+00
H    1.9405115818519729E+00    4.2707812169112067E+00   -1.6239391815782425E+00
Ga    3.1942375942521086E+00    5.5346687519283346E+00    2.8824857763245717E+00
O    1.4787384986248386E+00    7.8825275212245538E+00   -3.8986439564619318E-01
H    5.9074761149578874E-02    7.4153501751560853E+00    1.6615581235396319E+00
C    2.6507859795774915E+00    8.7046269214454952E+00   -5.6389512931735797E-01
H    2.3552150554199294E+00    9.5669640229063617E+00   -1.1695650257780650E+00
H    6.4489642410870074E+00    7.3836636258023098E+00    1.6647756130614371E+00
H    3.4578721283459624E+00    8.1693852847876194E+00   -1.0820269151910329E+00
     &END COORD
     &KIND C
       BASIS_SET DZVP-MOLOPT-SR-GTH-q4
       POTENTIAL GTH-PBE-q4
       &POTENTIAL
 2 2
  0.3384712400000000E+00 2 -0.8803673979999999E+01  0.1339210850000000E+01
 2
  0.3025757500000000E+00 1  0.9622486650000001E+01
  0.2915069400000000E+00 0
         # Potential name:  GTH-PBE-Q4  for symbol:  C
         # Potential read from the potential filename: GTH_POTENTIALS
       &END POTENTIAL
     &END KIND
     &KIND O
       BASIS_SET DZVP-MOLOPT-SR-GTH-q6
       POTENTIAL GTH-PBE-q6
       &POTENTIAL
 2 4
  0.2445543000000000E+00 2 -0.1666721480000000E+02  0.2487311320000000E+01
 2
  0.2209559200000000E+00 1  0.1833745811000000E+02
  0.2113324700000000E+00 0
         # Potential name:  GTH-PBE-Q6  for symbol:  O
         # Potential read from the potential filename: GTH_POTENTIALS
       &END POTENTIAL
     &END KIND
     &KIND H
       BASIS_SET DZVP-MOLOPT-SR-GTH-q1
       POTENTIAL GTH-PBE-q1
       &POTENTIAL
 1
  0.2000000000000000E+00 2 -0.4178900440000000E+01  0.7244633100000000E+00
 0
         # Potential name:  GTH-PBE-Q1  for symbol:  H
         # Potential read from the potential filename: GTH_POTENTIALS
       &END POTENTIAL
     &END KIND
     &KIND N
       BASIS_SET DZVP-MOLOPT-SR-GTH
       POTENTIAL GTH-PBE-q5
       &POTENTIAL
 2 3
  0.2837905100000000E+00 2 -0.1241522559000000E+02  0.1868095920000000E+01
 2
  0.2554050000000000E+00 1  0.1363026257000000E+02
  0.2454945300000000E+00 0
         # Potential name:  GTH-PBE-Q5  for symbol:  N
         # Potential read from the potential filename: GTH_POTENTIALS
       &END POTENTIAL
     &END KIND
     &KIND Ga
       BASIS_SET DZVP-MOLOPT-SR-GTH
       POTENTIAL GTH-PBE-q13
       &POTENTIAL
 2 1 10
  0.4900000000000000E+00 0
 3
  0.4167772300000000E+00 3  0.1047568975000000E+02 -0.4921768140000000E+01  0.8707055900000000E+00
  0.7770178090000000E+01 -0.2248152160000000E+01
  0.1784415450000000E+01
  0.5696265200000000E+00 2  0.1777985340000000E+01  0.1958597600000000E+00
 -0.2317443900000000E+00
  0.2381265000000000E+00 1 -0.1624868022000000E+02
         # Potential name:  GTH-PBE-Q13  for symbol:  GA
         # Potential read from the potential filename: GTH_POTENTIALS
       &END POTENTIAL
     &END KIND
     &TOPOLOGY
       NUMBER_OF_ATOMS  212
       MULTIPLE_UNIT_CELL  1 1 1
     &END TOPOLOGY
   &END SUBSYS
 &END FORCE_EVAL
