 # Version information for this restart file 
 # current date 2019-07-02 06:12:58.103
 # current working dir /lustre04/scratch/rzk/rzk/GaN-carbene/443-adatoms-both-2x2/09-BondBreaking-CH/01-0401-CH-to-NSur
 # Program compiled at                              Sun Apr  7 00:48:11 EDT 2019
 # Program compiled on                          beluga2.int.ets1.calculquebec.ca
 # Program compiled for                        Beluga-Linux-x86-64-intel-openmpi
 # Source code revision number                                         svn:18619
 &GLOBAL
   PRINT_LEVEL  MEDIUM
   PROJECT_NAME TEST
   RUN_TYPE  GEO_OPT
 &END GLOBAL
 &MOTION
   &GEO_OPT
     MAX_ITER  500
     STEP_START_VAL  69
   &END GEO_OPT
 &END MOTION
 &FORCE_EVAL
   METHOD  QS
   STRESS_TENSOR  ANALYTICAL
   &DFT
     BASIS_SET_FILE_NAME BASIS_MOLOPT
     POTENTIAL_FILE_NAME GTH_POTENTIALS
     UKS  T
     SURFACE_DIPOLE_CORRECTION  T
     SURF_DIP_DIR  Z
     &SCF
       MAX_SCF  80
       EPS_SCF     5.0000000000000004E-06
       &OT  T
         PRECONDITIONER  FULL_ALL
       &END OT
       &OUTER_SCF  T
         OPTIMIZER  NONE
         EPS_SCF     5.0000000000000004E-06
         MAX_SCF  4
       &END OUTER_SCF
       &PRINT
         &RESTART  OFF
           BACKUP_COPIES  1
           &EACH
             JUST_ENERGY  0
             QS_SCF  0
             MD  20
           &END EACH
         &END RESTART
       &END PRINT
     &END SCF
     &QS
       EPS_DEFAULT     1.0000000000000000E-14
       METHOD  GPW
     &END QS
     &MGRID
       NGRIDS  5
       CUTOFF     1.2000000000000000E+03
     &END MGRID
     &XC
       DENSITY_CUTOFF     1.0000000000000000E-10
       GRADIENT_CUTOFF     1.0000000000000000E-10
       TAU_CUTOFF     1.0000000000000000E-10
       &XC_FUNCTIONAL  NO_SHORTCUT
         &PBE  T
         &END PBE
       &END XC_FUNCTIONAL
       &VDW_POTENTIAL
         POTENTIAL_TYPE  PAIR_POTENTIAL
         &PAIR_POTENTIAL
           R_CUTOFF     1.0000000000000004E+01
           TYPE  DFTD3
           PARAMETER_FILE_NAME dftd3.dat
           REFERENCE_FUNCTIONAL PBE
           EPS_CN     9.9999999999999995E-07
           CALCULATE_C9_TERM  T
           REFERENCE_C9_TERM  T
           LONG_RANGE_CORRECTION  F
           VERBOSE_OUTPUT  F
         &END PAIR_POTENTIAL
       &END VDW_POTENTIAL
     &END XC
   &END DFT
   &SUBSYS
     &CELL
       A     1.2864472766435110E+01    0.0000000000000000E+00    0.0000000000000000E+00
       B    -6.4322363581020028E+00    1.1140960178524473E+01    0.0000000000000000E+00
       C     0.0000000000000000E+00    0.0000000000000000E+00    3.2000000000000000E+01
       MULTIPLE_UNIT_CELL  1 1 1
       &CELL_REF
         A     1.2982353780853531E+01    0.0000000000000000E+00    0.0000000000000000E+00
         B    -6.4911768904267628E+00    1.1243048175136114E+01    0.0000000000000000E+00
         C     0.0000000000000000E+00    0.0000000000000000E+00    3.2000000000000000E+01
         MULTIPLE_UNIT_CELL  1 1 1
       &END CELL_REF
     &END CELL
     &COORD
N    1.4212457340272225E-02    1.9497130663228874E+00    2.4976726352944518E+00
Ga    5.3810318476059738E-03   -2.3724185237059981E-02    2.8093784827494352E+00
N    1.4423577066750204E-02   -4.8110591626735075E-02    5.0222333741816527E+00
Ga    1.8118874461935962E-02    1.7798642500712767E+00    5.7891089217201879E+00
N    1.8792019381547530E-02    1.7954878104277827E+00    7.7988539223595756E+00
Ga    2.1629684489456961E-02   -4.8444788389354336E-02    8.4416047402217558E+00
N    2.3923815938514909E-02   -5.1836809616501243E-02    1.0420279307914676E+01
Ga    2.2919078544866835E-02    1.7880384443976070E+00    1.1066549098935118E+01
N    2.4809137484071351E-02    1.7667809038262332E+00    1.3062782333622025E+01
Ga    2.4942714215164110E-02   -5.2857474002110896E-02    1.3863944629062049E+01
N    2.5796886873216438E-02   -5.2636309835162924E-02    1.6071240927822441E+01
Ga    2.6580141978446808E-02    1.9885999939588535E+00    1.6479298733247283E+01
Ga   -5.8008580318524468E-03    3.6554274928551997E+00    1.3243426125066169E+00
N   -1.4627907871709460E+00    4.5259930667804564E+00    2.4935311263976492E+00
Ga   -1.6512089633367262E+00    2.6843443800390450E+00    3.2667133389133194E+00
N   -1.5904290257769780E+00    2.7399404732732293E+00    5.2521526074337457E+00
Ga   -1.6120395258510007E+00    4.6017360795953834E+00    5.8021076210690445E+00
N   -1.5956921030282838E+00    4.5995180023794608E+00    7.8019008229683031E+00
Ga   -1.5780931389814314E+00    2.7385780333034413E+00    8.4329332540143422E+00
N   -1.5752943427895514E+00    2.7391716682569300E+00    1.0432093750344617E+01
Ga   -1.5998865070129746E+00    4.5963482608772859E+00    1.1069339538907627E+01
N   -1.6156487276207878E+00    4.6061397579042875E+00    1.3065456159054960E+01
Ga   -1.5708282082927343E+00    2.7374027427980470E+00    1.3620386010614679E+01
N   -1.5957897317263363E+00    2.7208294182660628E+00    1.5585193517749508E+01
Ga   -1.4268076653728083E+00    4.4987595091820110E+00    1.6478164482288136E+01
N    2.6855940328954317E-02    3.6687651386947735E+00    1.7609048255777559E+01
N   -3.1958373461810248E+00    7.4868318320973124E+00    2.5094267982566194E+00
Ga   -3.1520193659095792E+00    5.5212054953260763E+00    2.8487180476345273E+00
N   -3.1939879839197438E+00    5.5162392835523937E+00    5.0268760237359906E+00
Ga   -3.1925925453548212E+00    7.3443538841701743E+00    5.7970499314361295E+00
N   -3.1944474661489983E+00    7.3671871375564537E+00    7.7929893368789962E+00
Ga   -3.1933756498893593E+00    5.5207081638054856E+00    8.4464002754474912E+00
N   -3.1936586523429105E+00    5.5189324118546708E+00    1.0420221431076586E+01
Ga   -3.1920759059960635E+00    7.3581505671998224E+00    1.1070146167583866E+01
N   -3.1916664080792230E+00    7.3371775194882192E+00    1.3064402811923461E+01
Ga   -3.1913802882644240E+00    5.5172539368976290E+00    1.3866366444435416E+01
N   -3.1897776386814218E+00    5.5188854233999747E+00    1.6071079199983753E+01
Ga   -3.1900033881546332E+00    7.5650387132089341E+00    1.6479719071312360E+01
Ga   -3.1878847280688012E+00    9.2893352111132472E+00    1.2359012222358698E+00
N   -4.7145656067817630E+00    1.0108778707315311E+01    2.4985206755166929E+00
Ga   -4.7947964033600909E+00    8.3239474428217335E+00    3.2889889327611015E+00
N   -4.8114078972480119E+00    8.3010587650912662E+00    5.2408827567823577E+00
Ga   -4.8338250649215988E+00    1.0190035416172703E+01    5.7881151594695144E+00
N   -4.8124547407890521E+00    1.0167715815083820E+01    7.7926801978330698E+00
Ga   -4.7886937481450964E+00    8.3166724948070687E+00    8.4403535400915537E+00
N   -4.7880237609523197E+00    8.3117160637921437E+00    1.0433370138753945E+01
Ga   -4.8144225531596296E+00    1.0171992066474774E+01    1.1068073929175883E+01
N   -4.8310826089958177E+00    1.0177691458273603E+01    1.3063516833270633E+01
Ga   -4.7878351344398844E+00    8.3094028715476167E+00    1.3620124407723853E+01
N   -4.8149009500632589E+00    8.2908964359583699E+00    1.5581839062276561E+01
Ga   -4.6393174363544327E+00    1.0067217676106662E+01    1.6478758938251719E+01
N   -3.1890429926037713E+00    9.2397158351125732E+00    1.7612088296433345E+01
N    3.2184384020992103E+00    1.8108987222230188E+00    2.6161564155512433E+00
Ga    3.2279588096571601E+00    4.2496297662955151E-02    3.2427136411747677E+00
N    3.2344355053235745E+00   -5.1752226870645936E-02    5.2343768878604227E+00
Ga    3.2231443165024989E+00    1.8030353428923365E+00    5.8580500800938520E+00
N    3.2371235266398264E+00    1.8072822098486341E+00    7.8432008551098589E+00
Ga    3.2370121285996079E+00   -5.9380169602497243E-02    8.4304209028254427E+00
N    3.2401634116537217E+00   -6.3202315194944694E-02    1.0429935541580832E+01
Ga    3.2387311045228984E+00    1.8055029048426723E+00    1.1024519638956495E+01
N    3.2408249513882454E+00    1.8039805191743867E+00    1.2998935764789525E+01
Ga    3.2413199787195595E+00   -6.5978413169878972E-02    1.3618042922798955E+01
N    3.2412572899496843E+00   -3.4096857030084159E-02    1.5581601975387175E+01
Ga    3.2421116939945280E+00    1.8036943977902469E+00    1.5858662523427485E+01
N    1.5194080010862545E+00    4.5411383516816590E+00    2.5210965326903318E+00
Ga    1.6870698565079205E+00    2.6964472495688323E+00    3.2563005120970989E+00
N    1.6254356530127800E+00    2.7360837191967202E+00    5.2478255896411179E+00
Ga    1.6530974540778989E+00    4.5987684657513093E+00    5.8001419851156077E+00
N    1.6372562192770601E+00    4.5984732003638076E+00    7.8004787423337989E+00
Ga    1.6173888036644408E+00    2.7382008406987213E+00    8.4315582429827849E+00
N    1.6206536260136750E+00    2.7397301384477086E+00    1.0430444642015397E+01
Ga    1.6468410858796063E+00    4.5967910811820172E+00    1.1069595730843000E+01
N    1.6655021475449259E+00    4.6059318382183232E+00    1.3065784715451349E+01
Ga    1.6209652257666787E+00    2.7370140283310818E+00    1.3619216988799424E+01
N    1.6478547020808578E+00    2.7210106492660118E+00    1.5583691605099187E+01
Ga    1.4797282857033185E+00    4.4981679751582373E+00    1.6477463079144663E+01
N    2.4733641265878535E-02    7.3845349756277789E+00    2.6925023372635595E+00
Ga    2.8044835094973762E-02    5.5252252892520604E+00    3.3082356659513876E+00
N    1.9226362160221045E-02    5.5403819747437941E+00    5.2538138027857375E+00
Ga    2.1513416888542268E-02    7.3808867760316241E+00    5.8952748915508657E+00
N    2.2429103148091021E-02    7.3780396014398555E+00    7.8616489728877248E+00
Ga    2.1716808229066312E-02    5.5070096186606223E+00    8.4427101963165896E+00
N    2.3581043335515747E-02    5.5047893699349402E+00    1.0436551460527244E+01
Ga    2.3690607777447362E-02    7.3738947260685235E+00    1.1026783634849670E+01
N    2.4985363993337305E-02    7.3723664600815626E+00    1.3000510914932313E+01
Ga    2.5008597859553096E-02    5.5018297332662502E+00    1.3620284490378420E+01
N    2.6247464722073854E-02    5.5333735328847995E+00    1.5585372995990184E+01
Ga    2.5585072721723674E-02    7.3717712219336322E+00    1.5858089591016332E+01
N   -1.6816305055485481E+00    1.0110195021523637E+01    2.5180988383685361E+00
Ga   -1.5827634440197129E+00    8.3104864086513714E+00    3.2890889024180070E+00
N   -1.5761754095012985E+00    8.3015983934582973E+00    5.2415501703759899E+00
Ga   -1.5648789055479368E+00    1.0185943140101099E+01    5.7938636317931707E+00
N   -1.5778298932561801E+00    1.0166276489144273E+01    7.7960174704937462E+00
Ga   -1.5968224971332479E+00    8.3126753909026796E+00    8.4397652953534319E+00
N   -1.5956390649220262E+00    8.3089686885831391E+00    1.0434297203358264E+01
Ga   -1.5703083258766546E+00    1.0169401642096968E+01    1.1067597238085359E+01
N   -1.5512707991155366E+00    1.0177481375368849E+01    1.3063984540931145E+01
Ga   -1.5939789309929804E+00    8.3083809281781189E+00    1.3618641828379378E+01
N   -1.5662053290190876E+00    8.2903723623753258E+00    1.5580696298892269E+01
Ga   -1.7409494182624796E+00    1.0066944895216864E+01    1.6477557380772993E+01
N    6.4528341784260430E+00    1.9259019629773473E+00    2.5399656528937520E+00
Ga    6.4674440990810318E+00   -8.2463752042600660E-02    2.8591596707978759E+00
N    6.4555817474901005E+00   -4.4611668768288218E-02    5.0373180628917282E+00
Ga    6.4508754523872707E+00    1.7779750539515025E+00    5.8047801868355364E+00
N    6.4515123850197060E+00    1.7973253722676865E+00    7.8031364300523398E+00
Ga    6.4526920354612418E+00   -5.1853400458610019E-02    8.4433620266637508E+00
N    6.4553027742060287E+00   -5.2114152032581337E-02    1.0420946346701941E+01
Ga    6.4554605838267127E+00    1.7873295265173184E+00    1.1068866342648635E+01
N    6.4572784046593039E+00    1.7664664043447775E+00    1.3065023496825482E+01
Ga    6.4567973093739202E+00   -5.3151520934522592E-02    1.3865861360813204E+01
N    6.4583833871073510E+00   -5.3473653913296712E-02    1.6068170236632415E+01
Ga    6.4580959798857203E+00    1.9894175459342209E+00    1.6480348926138696E+01
Ga    6.4528174365015696E+00    3.6305389237538153E+00    1.5436728505752704E+00
N    4.9566834984666288E+00    4.5421616557013431E+00    2.5240084293560319E+00
Ga    4.7218647612461018E+00    2.6672986863270878E+00    3.2949162010361621E+00
N    4.8429468148688999E+00    2.7393746764988460E+00    5.2552425844348001E+00
Ga    4.8110194217277638E+00    4.6041172210647128E+00    5.8148508007463038E+00
N    4.8386635608403106E+00    4.5991874667789281E+00    7.8056998368099766E+00
Ga    4.8515054568491953E+00    2.7377244503306368E+00    8.4380200303284045E+00
N    4.8579863292094432E+00    2.7412181125851367E+00    1.0434496321759017E+01
Ga    4.8325015774645026E+00    4.5994531664538121E+00    1.1071626458038176E+01
N    4.8182955954104143E+00    4.6071670472732897E+00    1.3067166440601518E+01
Ga    4.8613325945195731E+00    2.7375755422680337E+00    1.3619518889933021E+01
N    4.8348517544827718E+00    2.7203286720534354E+00    1.5583524970170295E+01
Ga    5.0074017394796950E+00    4.4956763332189995E+00    1.6480041129024972E+01
N    6.4581249746674789E+00    3.6656762688278630E+00    1.7613797905035291E+01
N    3.2373015052423688E+00    7.4886765124379799E+00    2.5264236690439623E+00
N    3.2416368162913174E+00    5.5171131798511102E+00    5.0444441316343296E+00
Ga    3.2396181374113744E+00    7.3449636584621532E+00    5.8077843240127240E+00
N    3.2397721806686639E+00    7.3678109914137888E+00    7.8027493769337406E+00
Ga    3.2351052820473440E+00    5.5203622558903955E+00    8.4475153454397809E+00
N    3.2397836216374194E+00    5.5192633905860413E+00    1.0422344952985606E+01
Ga    3.2402504442917515E+00    7.3580660658834365E+00    1.1072189767133661E+01
N    3.2419544870152941E+00    7.3369309771381399E+00    1.3066760248552047E+01
Ga    3.2419940738325828E+00    5.5165844399308464E+00    1.3867223756682337E+01
N    3.2422802205114789E+00    5.5188787155882144E+00    1.6070674538301176E+01
Ga    3.2416725582336481E+00    7.5642588692095121E+00    1.6478590191103123E+01
Ga    3.2045868688705093E+00    9.2819086501705783E+00    1.2773268221602589E+00
N    1.7450372226920607E+00    1.0099250715671083E+01    2.5251805291868408E+00
Ga    1.6344986302433102E+00    8.3055026691002460E+00    3.3125144977074226E+00
N    1.6204015736384780E+00    8.3006498765162817E+00    5.2612013686010277E+00
Ga    1.6080287521972205E+00    1.0185781248882456E+01    5.8015322650587811E+00
N    1.6204516772841557E+00    1.0167214935318578E+01    7.8030208571584545E+00
Ga    1.6417219303397406E+00    8.3136540782343538E+00    8.4427861606719272E+00
N    1.6431523745376104E+00    8.3096228909711201E+00    1.0436796632711046E+01
Ga    1.6164960501432075E+00    1.0170107434560796E+01    1.1069487586403572E+01
N    1.6006483045269637E+00    1.0177440725904729E+01    1.3065309462042890E+01
Ga    1.6446754944415536E+00    8.3079918187601507E+00    1.3618856775131938E+01
N    1.6180774081816667E+00    8.2903341481543951E+00    1.5581638190308912E+01
Ga    1.7908024414862749E+00    1.0067681833664180E+01    1.6476977231446973E+01
N    3.2406975651455463E+00    9.2400778042375311E+00    1.7610587144933220E+01
N    9.6815212987473416E+00    1.8038798643799925E+00    2.6286559961390639E+00
Ga    9.6729901236674376E+00    3.6322239252569964E-02    3.2613390612087616E+00
N    9.6719907192401990E+00   -4.8098313065880936E-02    5.2511981526400877E+00
Ga    9.6759262439860070E+00    1.8048520717010998E+00    5.8643893853120703E+00
N    9.6660584200779329E+00    1.8084751807358377E+00    7.8485273893594156E+00
Ga    9.6692659776577266E+00   -5.8420507120556568E-02    8.4353226017195535E+00
N    9.6709149994258716E+00   -6.3410527367369296E-02    1.0434061886341647E+01
Ga    9.6715809943438398E+00    1.8058327638156224E+00    1.1026641876216395E+01
N    9.6732782695550537E+00    1.8038341161162221E+00    1.3001076168586453E+01
Ga    9.6728431608924712E+00   -6.6376644382374880E-02    1.3619304945047499E+01
N    9.6747651358966600E+00   -3.4519562364971439E-02    1.5583087723059931E+01
Ga    9.6742414737836278E+00    1.8038334242896246E+00    1.5860070856128512E+01
N    7.9505766090910956E+00    4.5413185067222974E+00    2.5235800028303932E+00
Ga    8.1794010887745916E+00    2.6669831348798958E+00    3.2987025326416566E+00
N    8.0573271255443828E+00    2.7407067583496079E+00    5.2577379824806139E+00
Ga    8.0967894710608483E+00    4.6062129476417848E+00    5.8097222488690088E+00
N    8.0682770727243494E+00    4.5994904666507592E+00    7.8022184121554812E+00
Ga    8.0513647003202280E+00    2.7389607698715914E+00    8.4381488042050652E+00
N    8.0517839979981236E+00    2.7408078385080286E+00    1.0435189412275387E+01
Ga    8.0788168408718981E+00    4.5985943790094765E+00    1.1072071040980745E+01
N    8.0972758101078650E+00    4.6070021116782840E+00    1.3067387415598443E+01
Ga    8.0533299087711629E+00    2.7374875652605990E+00    1.3621185882820670E+01
N    8.0816169532185427E+00    2.7205599542335235E+00    1.5584822656174055E+01
Ga    7.9099640240545579E+00    4.4964489993780479E+00    1.6480746337204028E+01
N    6.4507874802086222E+00    7.3954845976022465E+00    2.6915489115337525E+00
Ga    6.4540697374246854E+00    5.5708556795078534E+00    3.3414582363534522E+00
N    6.4531520520911752E+00    5.5387126600453929E+00    5.2635026150181146E+00
Ga    6.4537245452318857E+00    7.3952479781469229E+00    5.8991335222306258E+00
N    6.4547113148959889E+00    7.3798609063887772E+00    7.8617136129595178E+00
Ga    6.4541908902012182E+00    5.5099569073327235E+00    8.4465438898062501E+00
N    6.4559927315869405E+00    5.5083887036012191E+00    1.0438624528777360E+01
Ga    6.4575520365744490E+00    7.3779703275212363E+00    1.1028271235386283E+01
N    6.4581126998960512E+00    7.3744011223009505E+00    1.3000937153551796E+01
Ga    6.4578507552064455E+00    5.5042416096504923E+00    1.3622379483079584E+01
N    6.4582195164046556E+00    5.5342129738211598E+00    1.5586810842407731E+01
Ga    6.4579104295100471E+00    7.3713378840447525E+00    1.5861148495775019E+01
N    4.7181863257715921E+00    1.0092230280409813E+01    2.4656974696213556E+00
Ga    4.8285836156480464E+00    8.3211077503688298E+00    3.2993515568698486E+00
N    4.8577003299833956E+00    8.3035092632896657E+00    5.2492958512890651E+00
Ga    4.8722013799401500E+00    1.0189931277391061E+01    5.8008329135798515E+00
N    4.8538817077963587E+00    1.0166668749614837E+01    7.8029294153060684E+00
Ga    4.8343407713972120E+00    8.3163407882830569E+00    8.4462611535740404E+00
N    4.8371096062797463E+00    8.3109015158317785E+00    1.0438734862856117E+01
Ga    4.8629027964411593E+00    1.0171774579800495E+01    1.1069636537748385E+01
N    4.8807700343292124E+00    1.0178052427578519E+01    1.3065035597154569E+01
Ga    4.8382186726208172E+00    8.3090674905433488E+00    1.3619964152661515E+01
N    4.8657915663304294E+00    8.2913136086561252E+00    1.5582471361624501E+01
Ga    4.6926952932423456E+00    1.0067996872163240E+01    1.6478189953979040E+01
O    2.8702141172385931E-01    3.8442515109594062E+00   -4.5903232607695205E-01
H    1.7623653054635753E+00    6.9673537521677593E+00   -1.8030038439406046E-01
C    1.6290166071716945E+00    3.5314106679192214E+00   -8.7641086144459956E-01
H    2.3546947981143567E+00    3.5455712230918954E+00   -4.4494632009092400E-02
H    1.6689303204891290E+00    2.5310412019042459E+00   -1.3333392995870437E+00
H    1.9401835401417844E+00    4.2747243770054943E+00   -1.6244393778107142E+00
Ga    3.1938519364303599E+00    5.5349398338236817E+00    2.8812767143887292E+00
O    1.4742671627620199E+00    7.8777011344965491E+00   -3.8582058310130340E-01
H    5.7421983497259688E-02    7.4125917716125809E+00    1.6646076552750975E+00
C    2.6467398215724942E+00    8.6986576644192670E+00   -5.6089623050528847E-01
H    2.3495551897721114E+00    9.5605849827805027E+00   -1.1681065668305035E+00
H    6.4471443520774079E+00    7.3811220979065482E+00    1.6654461124680000E+00
H    3.4569110135562560E+00    8.1631472072338607E+00   -1.0782126785814157E+00
     &END COORD
     &KIND C
       BASIS_SET DZVP-MOLOPT-SR-GTH-q4
       POTENTIAL GTH-PBE-q4
       &POTENTIAL
 2 2
  0.3384712400000000E+00 2 -0.8803673979999999E+01  0.1339210850000000E+01
 2
  0.3025757500000000E+00 1  0.9622486650000001E+01
  0.2915069400000000E+00 0
         # Potential name:  GTH-PBE-Q4  for symbol:  C
         # Potential read from the potential filename: GTH_POTENTIALS
       &END POTENTIAL
     &END KIND
     &KIND O
       BASIS_SET DZVP-MOLOPT-SR-GTH-q6
       POTENTIAL GTH-PBE-q6
       &POTENTIAL
 2 4
  0.2445543000000000E+00 2 -0.1666721480000000E+02  0.2487311320000000E+01
 2
  0.2209559200000000E+00 1  0.1833745811000000E+02
  0.2113324700000000E+00 0
         # Potential name:  GTH-PBE-Q6  for symbol:  O
         # Potential read from the potential filename: GTH_POTENTIALS
       &END POTENTIAL
     &END KIND
     &KIND H
       BASIS_SET DZVP-MOLOPT-SR-GTH-q1
       POTENTIAL GTH-PBE-q1
       &POTENTIAL
 1
  0.2000000000000000E+00 2 -0.4178900440000000E+01  0.7244633100000000E+00
 0
         # Potential name:  GTH-PBE-Q1  for symbol:  H
         # Potential read from the potential filename: GTH_POTENTIALS
       &END POTENTIAL
     &END KIND
     &KIND N
       BASIS_SET DZVP-MOLOPT-SR-GTH
       POTENTIAL GTH-PBE-q5
       &POTENTIAL
 2 3
  0.2837905100000000E+00 2 -0.1241522559000000E+02  0.1868095920000000E+01
 2
  0.2554050000000000E+00 1  0.1363026257000000E+02
  0.2454945300000000E+00 0
         # Potential name:  GTH-PBE-Q5  for symbol:  N
         # Potential read from the potential filename: GTH_POTENTIALS
       &END POTENTIAL
     &END KIND
     &KIND Ga
       BASIS_SET DZVP-MOLOPT-SR-GTH
       POTENTIAL GTH-PBE-q13
       &POTENTIAL
 2 1 10
  0.4900000000000000E+00 0
 3
  0.4167772300000000E+00 3  0.1047568975000000E+02 -0.4921768140000000E+01  0.8707055900000000E+00
  0.7770178090000000E+01 -0.2248152160000000E+01
  0.1784415450000000E+01
  0.5696265200000000E+00 2  0.1777985340000000E+01  0.1958597600000000E+00
 -0.2317443900000000E+00
  0.2381265000000000E+00 1 -0.1624868022000000E+02
         # Potential name:  GTH-PBE-Q13  for symbol:  GA
         # Potential read from the potential filename: GTH_POTENTIALS
       &END POTENTIAL
     &END KIND
     &TOPOLOGY
       NUMBER_OF_ATOMS  212
       MULTIPLE_UNIT_CELL  1 1 1
     &END TOPOLOGY
   &END SUBSYS
 &END FORCE_EVAL
