 # Version information for this restart file 
 # current date 2019-07-02 13:46:09.428
 # current working dir /lustre04/scratch/rzk/rzk/GaN-carbene/443-adatoms-both-2x2/09-BondBreaking-CH/01-0401-CH-to-NSur
 # Program compiled at                              Sun Apr  7 00:48:11 EDT 2019
 # Program compiled on                          beluga2.int.ets1.calculquebec.ca
 # Program compiled for                        Beluga-Linux-x86-64-intel-openmpi
 # Source code revision number                                         svn:18619
 &GLOBAL
   PRINT_LEVEL  MEDIUM
   PROJECT_NAME TEST
   RUN_TYPE  GEO_OPT
 &END GLOBAL
 &MOTION
   &GEO_OPT
     MAX_ITER  500
     STEP_START_VAL  212
   &END GEO_OPT
 &END MOTION
 &FORCE_EVAL
   METHOD  QS
   STRESS_TENSOR  ANALYTICAL
   &DFT
     BASIS_SET_FILE_NAME BASIS_MOLOPT
     POTENTIAL_FILE_NAME GTH_POTENTIALS
     UKS  T
     SURFACE_DIPOLE_CORRECTION  T
     SURF_DIP_DIR  Z
     &SCF
       MAX_SCF  80
       EPS_SCF     5.0000000000000004E-06
       &OT  T
         PRECONDITIONER  FULL_ALL
       &END OT
       &OUTER_SCF  T
         OPTIMIZER  NONE
         EPS_SCF     5.0000000000000004E-06
         MAX_SCF  4
       &END OUTER_SCF
       &PRINT
         &RESTART  OFF
           BACKUP_COPIES  1
           &EACH
             JUST_ENERGY  0
             QS_SCF  0
             MD  20
           &END EACH
         &END RESTART
       &END PRINT
     &END SCF
     &QS
       EPS_DEFAULT     1.0000000000000000E-14
       METHOD  GPW
     &END QS
     &MGRID
       NGRIDS  5
       CUTOFF     1.2000000000000000E+03
     &END MGRID
     &XC
       DENSITY_CUTOFF     1.0000000000000000E-10
       GRADIENT_CUTOFF     1.0000000000000000E-10
       TAU_CUTOFF     1.0000000000000000E-10
       &XC_FUNCTIONAL  NO_SHORTCUT
         &PBE  T
         &END PBE
       &END XC_FUNCTIONAL
       &VDW_POTENTIAL
         POTENTIAL_TYPE  PAIR_POTENTIAL
         &PAIR_POTENTIAL
           R_CUTOFF     1.0000000000000004E+01
           TYPE  DFTD3
           PARAMETER_FILE_NAME dftd3.dat
           REFERENCE_FUNCTIONAL PBE
           EPS_CN     9.9999999999999995E-07
           CALCULATE_C9_TERM  T
           REFERENCE_C9_TERM  T
           LONG_RANGE_CORRECTION  F
           VERBOSE_OUTPUT  F
         &END PAIR_POTENTIAL
       &END VDW_POTENTIAL
     &END XC
   &END DFT
   &SUBSYS
     &CELL
       A     1.2864472766435110E+01    0.0000000000000000E+00    0.0000000000000000E+00
       B    -6.4322363581020028E+00    1.1140960178524473E+01    0.0000000000000000E+00
       C     0.0000000000000000E+00    0.0000000000000000E+00    3.2000000000000000E+01
       MULTIPLE_UNIT_CELL  1 1 1
       &CELL_REF
         A     1.2982353780853531E+01    0.0000000000000000E+00    0.0000000000000000E+00
         B    -6.4911768904267628E+00    1.1243048175136114E+01    0.0000000000000000E+00
         C     0.0000000000000000E+00    0.0000000000000000E+00    3.2000000000000000E+01
         MULTIPLE_UNIT_CELL  1 1 1
       &END CELL_REF
     &END CELL
     &COORD
N    8.3744442273956908E-03    1.9348414093222406E+00    2.5135154319441555E+00
Ga    1.4179792882215345E-03   -2.9362027168910992E-02    2.8271958412225962E+00
N    9.9576027810766941E-03   -6.5537241728534007E-02    5.0299507287686813E+00
Ga    1.4335661696002816E-02    1.7624685938252758E+00    5.8006398702394319E+00
N    1.5266488426835027E-02    1.7784156408713376E+00    7.8076443155942421E+00
Ga    1.6943763356160452E-02   -6.6534347471882901E-02    8.4468650590946623E+00
N    1.6690839517676199E-02   -6.7300970033240440E-02    1.0423783320612836E+01
Ga    1.7238820725178055E-02    1.7733303957521587E+00    1.1071430654796890E+01
N    1.6921446597858991E-02    1.7544855184291672E+00    1.3068182283615114E+01
Ga    1.7077497637640854E-02   -6.6348510232008356E-02    1.3868067855506570E+01
N    1.5998942292254834E-02   -6.7527093211755512E-02    1.6072251913912403E+01
Ga    1.6893063150359884E-02    1.9695611936287867E+00    1.6479265280325659E+01
Ga    2.7182810281666191E-03    3.6273599215438259E+00    1.3262431752421195E+00
N   -1.4695183764774011E+00    4.5111732129080799E+00    2.5145440086564297E+00
Ga   -1.6555935736001806E+00    2.6786646920395598E+00    3.2813774802356575E+00
N   -1.5939508962476334E+00    2.7225683945700254E+00    5.2671121726345742E+00
Ga   -1.6161210034290090E+00    4.5873082836524013E+00    5.8094269195393426E+00
N   -1.6001828661782924E+00    4.5844752762763710E+00    7.8089337651613207E+00
Ga   -1.5803917618388623E+00    2.7245989308269798E+00    8.4430450211486079E+00
N   -1.5804327704859722E+00    2.7264710506431480E+00    1.0439632133731033E+01
Ga   -1.6063796496126075E+00    4.5845655896847539E+00    1.1074417008629650E+01
N   -1.6231664545491944E+00    4.5948105985172818E+00    1.3069739789442330E+01
Ga   -1.5801676295833202E+00    2.7255725558707269E+00    1.3622534525771828E+01
N   -1.6070986428595524E+00    2.7099340126600158E+00    1.5587451105525963E+01
Ga   -1.4367807313415755E+00    4.4868874184278642E+00    1.6479530305800765E+01
N    8.5456929834532187E-03    3.6429446628340441E+00    1.7611209906001143E+01
N   -3.2032557944080677E+00    7.4698039769254247E+00    2.5096982377559245E+00
Ga   -3.1556290533869120E+00    5.4995265720331492E+00    2.8569001923214730E+00
N   -3.2010264043943155E+00    5.5009856228335474E+00    5.0366504464415165E+00
Ga   -3.1992351724115249E+00    7.3268110421884609E+00    5.8002989074888109E+00
N   -3.2006890574222546E+00    7.3533847494560076E+00    7.7964356197902118E+00
Ga   -3.1976256284781783E+00    5.5073504719775057E+00    8.4511038328435628E+00
N   -3.1996915512168700E+00    5.5058413607123784E+00    1.0425344011971440E+01
Ga   -3.1997591668615701E+00    7.3446953701317472E+00    1.1074958874216348E+01
N   -3.1993879433515104E+00    7.3249546316687946E+00    1.3068834861385026E+01
Ga   -3.1994868618336239E+00    5.5050026719879686E+00    1.3871334043501948E+01
N   -3.2009830563756139E+00    5.5046587692393167E+00    1.6073558440548531E+01
Ga   -3.1992165189996564E+00    7.5467261934328036E+00    1.6486145411069732E+01
Ga   -3.1956197299798563E+00    9.2737989255300288E+00    1.2535491180637373E+00
N   -4.7212056044355135E+00    1.0092918539369489E+01    2.5041935129674684E+00
Ga   -4.8078753196001562E+00    8.3033136948097805E+00    3.2919330682892820E+00
N   -4.8192859170610776E+00    8.2828743948747388E+00    5.2398899870811881E+00
Ga   -4.8388761265673974E+00    1.0170681934730307E+01    5.7938217698359544E+00
N   -4.8176473084387164E+00    1.0149306097828735E+01    7.7962396088871699E+00
Ga   -4.7968271899139969E+00    8.2988619535667656E+00    8.4430034555607030E+00
N   -4.7970516263070895E+00    8.2951438557837811E+00    1.0436127488759849E+01
Ga   -4.8220738598222637E+00    1.0155501758269608E+01    1.1071993446511367E+01
N   -4.8384802014029979E+00    1.0164340038942630E+01    1.3067301102715948E+01
Ga   -4.7959059536836675E+00    8.2965078681628235E+00    1.3625145974562294E+01
N   -4.8245296735967447E+00    8.2799199462704394E+00    1.5587587397619210E+01
Ga   -4.6465338189760450E+00    1.0054011768366536E+01    1.6485783458580933E+01
N   -3.2059779568528697E+00    9.2143702292878622E+00    1.7622671548493070E+01
N    3.2176073256295585E+00    1.7919136219569682E+00    2.6309116993439399E+00
Ga    3.2228642247642703E+00    2.4912728690453211E-02    3.2513659412196709E+00
N    3.2313674916438937E+00   -7.2156519412855835E-02    5.2404956212791314E+00
Ga    3.2220625865121844E+00    1.7833766893691902E+00    5.8668626126565107E+00
N    3.2330612937473866E+00    1.7887598726512490E+00    7.8504304135947587E+00
Ga    3.2322163380733979E+00   -7.8065441867133059E-02    8.4341612260164212E+00
N    3.2324096633381743E+00   -7.9932809418549869E-02    1.0432117451856071E+01
Ga    3.2312238355386165E+00    1.7889875727848568E+00    1.1028400942571871E+01
N    3.2326306909379738E+00    1.7904768225704750E+00    1.3002133890387020E+01
Ga    3.2333607267517341E+00   -7.8841445100591503E-02    1.3623810362695277E+01
N    3.2341844012858578E+00   -4.6858990137662232E-02    1.5585282257398543E+01
Ga    3.2328500779696441E+00    1.7904487143720014E+00    1.5864903757591241E+01
N    1.5086351196121990E+00    4.5122841439317396E+00    2.5242725329354165E+00
Ga    1.6830793005685223E+00    2.6753261510289255E+00    3.2684367754251737E+00
N    1.6234802148282179E+00    2.7161434860220468E+00    5.2590017795713226E+00
Ga    1.6466202041455409E+00    4.5788590178186457E+00    5.8110158680350015E+00
N    1.6318399954254619E+00    4.5819112461957872E+00    7.8092008709249043E+00
Ga    1.6145971740668350E+00    2.7211612786372505E+00    8.4384189857255159E+00
N    1.6140977196872470E+00    2.7252318744053290E+00    1.0436072289896195E+01
Ga    1.6395421048725662E+00    4.5831115055042737E+00    1.1072291376954562E+01
N    1.6565545195688165E+00    4.5942477547874248E+00    1.3067744820029127E+01
Ga    1.6141815026798112E+00    2.7257370116665598E+00    1.3622248873776345E+01
N    1.6412154580062046E+00    2.7118755540178987E+00    1.5585927234692289E+01
Ga    1.4627447413485988E+00    4.4822758350721186E+00    1.6480798377761630E+01
N    2.2212863196771616E-02    7.3626782346243180E+00    2.6789320725303511E+00
Ga    2.2489559704635551E-02    5.5048703102337395E+00    3.3135294268886075E+00
N    1.7019540552808403E-02    5.5223928469011598E+00    5.2605240346854245E+00
Ga    2.0264981413467879E-02    7.3650453093806130E+00    5.8905216129823161E+00
N    1.6533952761674461E-02    7.3633493480465022E+00    7.8585214601516311E+00
Ga    1.6390933959260286E-02    5.4933646767326989E+00    8.4467782358293029E+00
N    1.6425569891610665E-02    5.4922587662093942E+00    1.0439943218759339E+01
Ga    1.5750471719005704E-02    7.3609754620417496E+00    1.1031441026958946E+01
N    1.6664066909676593E-02    7.3611640192149874E+00    1.3003840188202167E+01
Ga    1.7393212391087973E-02    5.4914429015045112E+00    1.3623076706436134E+01
N    1.8840171939704917E-02    5.5224228082909219E+00    1.5586505251866637E+01
Ga    1.6835261038065076E-02    7.3613918408341616E+00    1.5865313722464505E+01
N   -1.6854435605626426E+00    1.0090558346276135E+01    2.5163503817315593E+00
Ga   -1.5849111633097417E+00    8.2866316835834279E+00    3.2859144968531786E+00
N   -1.5812354749689819E+00    8.2814155026899741E+00    5.2375174734494019E+00
Ga   -1.5690226751811278E+00    1.0164326434255003E+01    5.7950820082216525E+00
N   -1.5825828743418344E+00    1.0149218639012989E+01    7.7959377628657114E+00
Ga   -1.6024069616268311E+00    8.2976910062514779E+00    8.4424547245510837E+00
N   -1.6032076530435273E+00    8.2953584633245097E+00    1.0435860453898396E+01
Ga   -1.5780380680033874E+00    1.0155069947351574E+01    1.1072213158337973E+01
N   -1.5599412278611513E+00    1.0164492892516451E+01    1.3066882535986608E+01
Ga   -1.6022612220165453E+00    8.2967019196319054E+00    1.3624748993914610E+01
N   -1.5737002252572374E+00    8.2811111426434643E+00    1.5586065454486459E+01
Ga   -1.7577952209130538E+00    1.0050577325839155E+01    1.6486106641872105E+01
N    6.4514489922353340E+00    1.9083229576402745E+00    2.5521206086181243E+00
Ga    6.4619561348316896E+00   -8.9186348321332112E-02    2.8713310039617483E+00
N    6.4519072051049351E+00   -6.4699298929088739E-02    5.0369318933436231E+00
Ga    6.4493059557246264E+00    1.7586529393650279E+00    5.8134729309756610E+00
N    6.4490487380407977E+00    1.7789318495100246E+00    7.8099298219633386E+00
Ga    6.4475101414627236E+00   -6.9349778818689631E-02    8.4484327645775270E+00
N    6.4482313763027372E+00   -6.7381051493949892E-02    1.0424182909061130E+01
Ga    6.4480729341192244E+00    1.7727526537830367E+00    1.1073688597589211E+01
N    6.4490835720078357E+00    1.7541734812858778E+00    1.3069172304572792E+01
Ga    6.4480584661175131E+00   -6.6639163112776262E-02    1.3869918212831385E+01
N    6.4468610156472357E+00   -6.7318310826849040E-02    1.6072829166799661E+01
Ga    6.4489004587804244E+00    1.9707189298754972E+00    1.6482111440455917E+01
Ga    6.4462181205938478E+00    3.6109173369242060E+00    1.5442538255845963E+00
N    4.9549741943545431E+00    4.5159774213039610E+00    2.5430889940065264E+00
Ga    4.7230292119691359E+00    2.6466641495459768E+00    3.3078139727256626E+00
N    4.8424401012051881E+00    2.7180679264878775E+00    5.2670304545375162E+00
Ga    4.8097152266128678E+00    4.5837421104284966E+00    5.8238410469258737E+00
N    4.8346287051718102E+00    4.5812033344956742E+00    7.8127213493162655E+00
Ga    4.8478404645239026E+00    2.7195743828585437E+00    8.4439837448260491E+00
N    4.8506767042850223E+00    2.7249968098236832E+00    1.0438612820699536E+01
Ga    4.8247949962987420E+00    4.5837906203340752E+00    1.1074078410775043E+01
N    4.8093352738432911E+00    4.5943584805666928E+00    1.3068856320948104E+01
Ga    4.8516706245810983E+00    2.7252099600822319E+00    1.3623654213419586E+01
N    4.8242359189456687E+00    2.7102070378897287E+00    1.5587694178869526E+01
Ga    4.9979739299014314E+00    4.4849700177819685E+00    1.6483335092668980E+01
N    6.4413665806915681E+00    3.6417024872911457E+00    1.7617160982005814E+01
N    3.2256856305924813E+00    7.4346290480465900E+00    2.4929962388908340E+00
N    3.2359913245857101E+00    5.4928898098840602E+00    5.0555035274301376E+00
Ga    3.2318807471845168E+00    7.3280114551405742E+00    5.8004829520922421E+00
N    3.2331230926549002E+00    7.3521456348239367E+00    7.7979836226620733E+00
Ga    3.2305141191637694E+00    5.5052591903086832E+00    8.4494983246712021E+00
N    3.2325971953333945E+00    5.5049999756473493E+00    1.0424417715562923E+01
Ga    3.2322807131824951E+00    7.3426894791015656E+00    1.1076741180768686E+01
N    3.2329107801484409E+00    7.3242859443291870E+00    1.3070468052823839E+01
Ga    3.2324227330985993E+00    5.5035178360435841E+00    1.3869389128426651E+01
N    3.2314026627097627E+00    5.5035214212859618E+00    1.6073092566872727E+01
Ga    3.2327095775147621E+00    7.5418996873133821E+00    1.6482227066468134E+01
Ga    3.2228468353026898E+00    9.4691995710638963E+00    1.2563734700846074E+00
N    1.7497532796792321E+00    1.0103045422039832E+01    2.5274882943201340E+00
Ga    1.6447608187192599E+00    8.2828706878618057E+00    3.2743337416792380E+00
N    1.6159065342324235E+00    8.2820874535091420E+00    5.2347911574794139E+00
Ga    1.5989768231012196E+00    1.0158425306566560E+01    5.8063841329187778E+00
N    1.6134854637796818E+00    1.0147325428276275E+01    7.8046459494041285E+00
Ga    1.6352409099682050E+00    8.2955318800673723E+00    8.4466070255275909E+00
N    1.6359370981244072E+00    8.2943501149832244E+00    1.0439286758557436E+01
Ga    1.6102492941413289E+00    1.0155095151624847E+01    1.1073125725841599E+01
N    1.5932869234949529E+00    1.0164685457348853E+01    1.3068723666922367E+01
Ga    1.6358907657691122E+00    8.2963400388740602E+00    1.3624454304044596E+01
N    1.6091033754418962E+00    8.2799494225654957E+00    1.5588453223750353E+01
Ga    1.7797025369729438E+00    1.0057236171826423E+01    1.6481120250634987E+01
N    3.2239062183118588E+00    9.2146328509584716E+00    1.7616883991998527E+01
N    9.6760041628062474E+00    1.7905739491786967E+00    2.6507401722730619E+00
Ga    9.6676413187848880E+00    4.0732991812567107E-02    3.3221567895315647E+00
N    9.6651216785960017E+00   -6.3710876616238504E-02    5.2847782165597597E+00
Ga    9.6729631718604310E+00    1.7953438566432351E+00    5.8871704405091947E+00
N    9.6632632304610091E+00    1.7932414826201524E+00    7.8643061872839546E+00
Ga    9.6647530705369853E+00   -7.7931874425111611E-02    8.4370718615600264E+00
N    9.6645971193677163E+00   -7.9549083180189273E-02    1.0435016837024058E+01
Ga    9.6654998425134746E+00    1.7898637694813178E+00    1.1029064135602113E+01
N    9.6650611104489510E+00    1.7904454715799725E+00    1.3003138669160208E+01
Ga    9.6656226995884431E+00   -7.8753240295071608E-02    1.3623532354782681E+01
N    9.6669151637567907E+00   -4.8125109665834165E-02    1.5586567944022141E+01
Ga    9.6653483587455522E+00    1.7905062162172969E+00    1.5864053188000462E+01
N    7.9447194038400397E+00    4.5253858602002097E+00    2.5327583944115299E+00
Ga    8.1726085241694637E+00    2.6581748770699325E+00    3.3130113031862618E+00
N    8.0542753193866368E+00    2.7248148755499755E+00    5.2720010244306872E+00
Ga    8.0905533568984183E+00    4.5925109102623694E+00    5.8195852384886910E+00
N    8.0639935705321371E+00    4.5846654244504146E+00    7.8108038649713558E+00
Ga    8.0466607871305325E+00    2.7240166592663955E+00    8.4477029252862241E+00
N    8.0451925485554554E+00    2.7264858248754802E+00    1.0441081809163535E+01
Ga    8.0723652840126956E+00    4.5850103748681361E+00    1.1075405593219651E+01
N    8.0890565713548988E+00    4.5948526845419480E+00    1.3069276329168209E+01
Ga    8.0466782426096994E+00    2.7258037921218423E+00    1.3623811800302082E+01
N    8.0741244182391032E+00    2.7112516517742153E+00    1.5586622811311322E+01
Ga    7.8936450774759841E+00    4.4815722242230738E+00    1.6483742195157994E+01
N    6.4420440239146721E+00    7.3768975133388430E+00    2.6810118161857974E+00
Ga    6.4469682099888930E+00    5.5518127237353276E+00    3.3449318502202536E+00
N    6.4476882741458166E+00    5.5221762265692034E+00    5.2680614555948173E+00
Ga    6.4412002990108492E+00    7.3783075606487438E+00    5.8942078699157117E+00
N    6.4465527963912761E+00    7.3633297513675844E+00    7.8579765738832528E+00
Ga    6.4487858158593054E+00    5.4945814235208736E+00    8.4518845209693136E+00
N    6.4486041874637339E+00    5.4930216909832250E+00    1.0441548452623589E+01
Ga    6.4487205213713166E+00    7.3621811019711325E+00    1.1033336419541168E+01
N    6.4487074980533539E+00    7.3612752505231445E+00    1.3004677622964213E+01
Ga    6.4493838654675981E+00    5.4914659576971347E+00    1.3624577469295081E+01
N    6.4498655124317299E+00    5.5227316035912279E+00    1.5587040377472656E+01
Ga    6.4489943473963027E+00    7.3614264149106106E+00    1.5865795713889492E+01
N    4.7089512945540051E+00    1.0101813279358575E+01    2.4930978619124935E+00
Ga    4.8034883735385829E+00    8.2913455951488810E+00    3.2629570310767013E+00
N    4.8460849980134855E+00    8.2841953095752014E+00    5.2240086269849648E+00
Ga    4.8710503720360361E+00    1.0162747248225735E+01    5.8042206455088809E+00
N    4.8511273478357309E+00    1.0146529369752946E+01    7.8040444621452689E+00
Ga    4.8274033215294461E+00    8.2970941010712522E+00    8.4489878884034315E+00
N    4.8288422019410024E+00    8.2943474964018264E+00    1.0440016995032856E+01
Ga    4.8552276471657336E+00    1.0155655596848719E+01    1.1072457534525340E+01
N    4.8723804532180681E+00    1.0164534019040525E+01    1.3067701504183786E+01
Ga    4.8298310165686624E+00    8.2968879594639127E+00    1.3624450554450531E+01
N    4.8568210800403637E+00    8.2818153169457265E+00    1.5587275940026947E+01
Ga    4.6780635341786558E+00    1.0052736747195301E+01    1.6482524468503097E+01
O    2.6844629290750963E-02    3.7445738414745491E+00   -4.8085917841204917E-01
H    2.5654324066645815E+00    7.0730176055560410E+00    6.0722761177599049E-01
C    1.3150268981886337E+00    3.8958757687205390E+00   -1.1057778440065114E+00
H    1.8035015953708140E+00    4.8434696960581034E+00   -8.2586948826692197E-01
H    1.9959654091297154E+00    3.0617000401054382E+00   -8.7063718408036495E-01
H    1.1440794112116286E+00    3.9075271258165460E+00   -2.1932933751820727E+00
Ga    3.1914231905831452E+00    5.4937969003748970E+00    2.9081225035815326E+00
O    2.1851170847149572E+00    7.4084757109644004E+00   -2.4137074942396056E-01
H    3.9617776897529149E-02    7.3452894476065751E+00    1.6503007613737766E+00
C    2.8933345306473064E+00    8.6206048934728408E+00   -5.2428290973128044E-01
H    2.2550343658291157E+00    9.2649599055370526E+00   -1.1416259253402663E+00
H    6.4540617113769532E+00    7.3501612986386018E+00    1.6548035120710931E+00
H    3.8428615717576329E+00    8.4425094336978255E+00   -1.0520078342718537E+00
     &END COORD
     &KIND C
       BASIS_SET DZVP-MOLOPT-SR-GTH-q4
       POTENTIAL GTH-PBE-q4
       &POTENTIAL
 2 2
  0.3384712400000000E+00 2 -0.8803673979999999E+01  0.1339210850000000E+01
 2
  0.3025757500000000E+00 1  0.9622486650000001E+01
  0.2915069400000000E+00 0
         # Potential name:  GTH-PBE-Q4  for symbol:  C
         # Potential read from the potential filename: GTH_POTENTIALS
       &END POTENTIAL
     &END KIND
     &KIND O
       BASIS_SET DZVP-MOLOPT-SR-GTH-q6
       POTENTIAL GTH-PBE-q6
       &POTENTIAL
 2 4
  0.2445543000000000E+00 2 -0.1666721480000000E+02  0.2487311320000000E+01
 2
  0.2209559200000000E+00 1  0.1833745811000000E+02
  0.2113324700000000E+00 0
         # Potential name:  GTH-PBE-Q6  for symbol:  O
         # Potential read from the potential filename: GTH_POTENTIALS
       &END POTENTIAL
     &END KIND
     &KIND H
       BASIS_SET DZVP-MOLOPT-SR-GTH-q1
       POTENTIAL GTH-PBE-q1
       &POTENTIAL
 1
  0.2000000000000000E+00 2 -0.4178900440000000E+01  0.7244633100000000E+00
 0
         # Potential name:  GTH-PBE-Q1  for symbol:  H
         # Potential read from the potential filename: GTH_POTENTIALS
       &END POTENTIAL
     &END KIND
     &KIND N
       BASIS_SET DZVP-MOLOPT-SR-GTH
       POTENTIAL GTH-PBE-q5
       &POTENTIAL
 2 3
  0.2837905100000000E+00 2 -0.1241522559000000E+02  0.1868095920000000E+01
 2
  0.2554050000000000E+00 1  0.1363026257000000E+02
  0.2454945300000000E+00 0
         # Potential name:  GTH-PBE-Q5  for symbol:  N
         # Potential read from the potential filename: GTH_POTENTIALS
       &END POTENTIAL
     &END KIND
     &KIND Ga
       BASIS_SET DZVP-MOLOPT-SR-GTH
       POTENTIAL GTH-PBE-q13
       &POTENTIAL
 2 1 10
  0.4900000000000000E+00 0
 3
  0.4167772300000000E+00 3  0.1047568975000000E+02 -0.4921768140000000E+01  0.8707055900000000E+00
  0.7770178090000000E+01 -0.2248152160000000E+01
  0.1784415450000000E+01
  0.5696265200000000E+00 2  0.1777985340000000E+01  0.1958597600000000E+00
 -0.2317443900000000E+00
  0.2381265000000000E+00 1 -0.1624868022000000E+02
         # Potential name:  GTH-PBE-Q13  for symbol:  GA
         # Potential read from the potential filename: GTH_POTENTIALS
       &END POTENTIAL
     &END KIND
     &TOPOLOGY
       NUMBER_OF_ATOMS  212
       MULTIPLE_UNIT_CELL  1 1 1
     &END TOPOLOGY
   &END SUBSYS
 &END FORCE_EVAL
