 # Version information for this restart file 
 # current date 2019-07-07 05:01:46.361
 # current working dir /lustre04/scratch/rzk/rzk/GaN-carbene/443-adatoms-both-2x2/04-2Methanol/03-GaJumps1Ring
 # Program compiled at                              Sun Apr  7 00:48:11 EDT 2019
 # Program compiled on                          beluga2.int.ets1.calculquebec.ca
 # Program compiled for                        Beluga-Linux-x86-64-intel-openmpi
 # Source code revision number                                         svn:18619
 &GLOBAL
   PRINT_LEVEL  MEDIUM
   PROJECT_NAME TEST
   RUN_TYPE  GEO_OPT
 &END GLOBAL
 &MOTION
   &GEO_OPT
     MAX_ITER  500
     STEP_START_VAL  72
   &END GEO_OPT
 &END MOTION
 &FORCE_EVAL
   METHOD  QS
   STRESS_TENSOR  ANALYTICAL
   &DFT
     BASIS_SET_FILE_NAME BASIS_MOLOPT
     POTENTIAL_FILE_NAME GTH_POTENTIALS
     UKS  T
     SURFACE_DIPOLE_CORRECTION  T
     SURF_DIP_DIR  Z
     &SCF
       MAX_SCF  80
       EPS_SCF     5.0000000000000004E-06
       &OT  T
         PRECONDITIONER  FULL_ALL
       &END OT
       &OUTER_SCF  T
         OPTIMIZER  NONE
         EPS_SCF     5.0000000000000004E-06
         MAX_SCF  4
       &END OUTER_SCF
       &PRINT
         &RESTART  OFF
           BACKUP_COPIES  1
           &EACH
             JUST_ENERGY  0
             QS_SCF  0
             MD  20
           &END EACH
         &END RESTART
       &END PRINT
     &END SCF
     &QS
       EPS_DEFAULT     1.0000000000000000E-14
       METHOD  GPW
     &END QS
     &MGRID
       NGRIDS  5
       CUTOFF     1.2000000000000000E+03
     &END MGRID
     &XC
       DENSITY_CUTOFF     1.0000000000000000E-10
       GRADIENT_CUTOFF     1.0000000000000000E-10
       TAU_CUTOFF     1.0000000000000000E-10
       &XC_FUNCTIONAL  NO_SHORTCUT
         &PBE  T
         &END PBE
       &END XC_FUNCTIONAL
       &VDW_POTENTIAL
         POTENTIAL_TYPE  PAIR_POTENTIAL
         &PAIR_POTENTIAL
           R_CUTOFF     1.0000000000000004E+01
           TYPE  DFTD3
           PARAMETER_FILE_NAME dftd3.dat
           REFERENCE_FUNCTIONAL PBE
           EPS_CN     9.9999999999999995E-07
           CALCULATE_C9_TERM  T
           REFERENCE_C9_TERM  T
           LONG_RANGE_CORRECTION  F
           VERBOSE_OUTPUT  F
         &END PAIR_POTENTIAL
       &END VDW_POTENTIAL
     &END XC
   &END DFT
   &SUBSYS
     &CELL
       A     1.2864472766435110E+01    0.0000000000000000E+00    0.0000000000000000E+00
       B    -6.4322363581020028E+00    1.1140960178524473E+01    0.0000000000000000E+00
       C     0.0000000000000000E+00    0.0000000000000000E+00    3.2000000000000000E+01
       MULTIPLE_UNIT_CELL  1 1 1
       &CELL_REF
         A     1.2982353780853531E+01    0.0000000000000000E+00    0.0000000000000000E+00
         B    -6.4911768904267628E+00    1.1243048175136114E+01    0.0000000000000000E+00
         C     0.0000000000000000E+00    0.0000000000000000E+00    3.2000000000000000E+01
         MULTIPLE_UNIT_CELL  1 1 1
       &END CELL_REF
     &END CELL
     &COORD
N    7.9800688358173430E-02    1.9764631487150446E+00    2.4965828061671171E+00
Ga    6.3246926687119662E-02    5.7940571824777222E-03    2.8272569668679632E+00
N    8.2689810310191555E-02   -2.6207467294276653E-02    5.0198194061328119E+00
Ga    8.1033274580630338E-02    1.7985200437768039E+00    5.8026475917631304E+00
N    7.9410062769641299E-02    1.8143994980785056E+00    7.8052868420847332E+00
Ga    7.7123733759090027E-02   -3.0936979838812217E-02    8.4467430680589928E+00
N    7.7919091213583411E-02   -3.1914601019280203E-02    1.0422923316496286E+01
Ga    7.7903984034883092E-02    1.8082825467631081E+00    1.1070988047797490E+01
N    7.7655396352555917E-02    1.7887075862982875E+00    1.3066523394331846E+01
Ga    7.7188077733248484E-02   -3.1275191242144652E-02    1.3867945635756691E+01
N    7.6828845465859136E-02   -3.0909586914964333E-02    1.6072575363033433E+01
Ga    7.6786987617404615E-02    2.0108914655055736E+00    1.6480935749699235E+01
Ga    5.1751061102173333E-02    3.6822102475291536E+00    1.3729713110088027E+00
N   -1.4061759229826929E+00    4.5472134251956957E+00    2.5300421231761350E+00
Ga   -1.6003405201079073E+00    2.7035663373633163E+00    3.2847561598046351E+00
N   -1.5293433005766675E+00    2.7534757774085890E+00    5.2630229732426974E+00
Ga   -1.5580607591708227E+00    4.6187087635951558E+00    5.8117216606569491E+00
N   -1.5392802841257529E+00    4.6179337644850564E+00    7.8076665041868862E+00
Ga   -1.5203718028362916E+00    2.7569283025888698E+00    8.4390733382387815E+00
N   -1.5190470664083229E+00    2.7608046011248173E+00    1.0435345408965039E+01
Ga   -1.5453916441555078E+00    4.6185115307887550E+00    1.1074183618446799E+01
N   -1.5621811174253109E+00    4.6287945693372263E+00    1.3068928645489583E+01
Ga   -1.5193818616990351E+00    2.7592006181255675E+00    1.3622504106083650E+01
N   -1.5452904575478130E+00    2.7434096184204062E+00    1.5586095937992416E+01
Ga   -1.3766757084100145E+00    4.5207441227369145E+00    1.6480488453507302E+01
N    7.7047082367186173E-02    3.6905987856276412E+00    1.7613167259945602E+01
N   -3.1300325185980875E+00    7.5179206663355851E+00    2.5335362965259733E+00
Ga   -3.1094908056473263E+00    5.5141098195929130E+00    2.8563183639087475E+00
N   -3.1358818851412638E+00    5.5404158956459932E+00    5.0262331956803328E+00
Ga   -3.1432299002652648E+00    7.3609554337250502E+00    5.8109998083700747E+00
N   -3.1361973381335457E+00    7.3858754136003535E+00    7.8032262748980878E+00
Ga   -3.1377680190269110E+00    5.5386956335916011E+00    8.4529141762902817E+00
N   -3.1382953405714646E+00    5.5400844503225803E+00    1.0425879594565147E+01
Ga   -3.1395907268034371E+00    7.3791611547898714E+00    1.1075104708705767E+01
N   -3.1387552858770862E+00    7.3596451998200756E+00    1.3068589636523400E+01
Ga   -3.1391413880560592E+00    5.5391678286203963E+00    1.3869331362586678E+01
N   -3.1399897290616154E+00    5.5405159611770101E+00    1.6072922282021111E+01
Ga   -3.1393364469406193E+00    7.5842451574014689E+00    1.6483454508472121E+01
Ga   -3.1492396741762967E+00    9.2548371644072951E+00    1.5019187739314266E+00
N   -4.6385388459513317E+00    1.0122159239728475E+01    2.5204717080511494E+00
Ga   -4.8553676868216362E+00    8.2714235773165008E+00    3.2930742692983355E+00
N   -4.7432886266458842E+00    8.3259367295156874E+00    5.2551775350225247E+00
Ga   -4.7757001530931964E+00    1.0200797454313470E+01    5.8024790031129037E+00
N   -4.7545180513214369E+00    1.0187092272280967E+01    7.8010676235954257E+00
Ga   -4.7380811998948413E+00    8.3315309048418378E+00    8.4401752473455236E+00
N   -4.7347277868357089E+00    8.3311835252775222E+00    1.0434360001895639E+01
Ga   -4.7613877984482187E+00    1.0190169663967946E+01    1.1072502534384375E+01
N   -4.7779503670835934E+00    1.0199151880390200E+01    1.3067672991532339E+01
Ga   -4.7360315693871025E+00    8.3303804319673169E+00    1.3623800558916235E+01
N   -4.7621401300162756E+00    8.3136398026518172E+00    1.5586315148528433E+01
Ga   -4.5906605133986575E+00    1.0090296917532022E+01    1.6482315565391723E+01
N   -3.1390303997045312E+00    9.2615815568477089E+00    1.7615345408758948E+01
N    3.2854510160603794E+00    1.8315797036582191E+00    2.6218197548370057E+00
Ga    3.2879288314929394E+00    9.1673899773260695E-02    3.2921916546714041E+00
N    3.2970745237122827E+00   -3.3817180128975347E-02    5.2554016963922203E+00
Ga    3.2884591575364213E+00    1.8280348209162287E+00    5.8785950613414402E+00
N    3.2954699032584136E+00    1.8243642153794177E+00    7.8553997069314354E+00
Ga    3.2930700837288231E+00   -4.1476173662494759E-02    8.4433142697634516E+00
N    3.2945544561596978E+00   -4.3639905897503953E-02    1.0437113269474624E+01
Ga    3.2945450414353608E+00    1.8264726300163519E+00    1.1030339675953750E+01
N    3.2937204361704606E+00    1.8253187851956820E+00    1.3003263809094982E+01
Ga    3.2935908851613362E+00   -4.4479728500180150E-02    1.3624289826283801E+01
N    3.2928756389036384E+00   -1.2445894264214250E-02    1.5588126526899330E+01
Ga    3.2939699048297264E+00    1.8257617661654215E+00    1.5865041222410841E+01
N    1.5719138453348371E+00    4.5491999575311386E+00    2.5258114308638873E+00
Ga    1.7573814019703682E+00    2.7166969932678855E+00    3.2744496635992322E+00
N    1.6891155933239919E+00    2.7535195469479774E+00    5.2580056991863788E+00
Ga    1.7200119506911433E+00    4.6185359416346365E+00    5.8127742833751919E+00
N    1.6963870882295107E+00    4.6168138383813728E+00    7.8093570657998006E+00
Ga    1.6767555463329207E+00    2.7578627137212397E+00    8.4424896593188183E+00
N    1.6758292361609297E+00    2.7604621400329776E+00    1.0437435212043541E+01
Ga    1.7020196402461347E+00    4.6190477939841745E+00    1.1074166824945555E+01
N    1.7178905610994260E+00    4.6290016446440108E+00    1.3069099762599302E+01
Ga    1.6741681799068986E+00    2.7596439595699587E+00    1.3623039706538728E+01
N    1.6996339700545964E+00    2.7430130582221746E+00    1.5586675397193130E+01
Ga    1.5307413987442284E+00    4.5208640042262802E+00    1.6480532517934098E+01
N    8.3395881106107378E-02    7.3796679125806657E+00    2.6992593392306201E+00
Ga    8.9720862542914379E-02    5.5387178809537945E+00    3.3414748435540882E+00
N    7.9964023766629269E-02    5.5526758613241558E+00    5.2791237065659447E+00
Ga    8.7293949685266686E-02    7.3939586426604640E+00    5.9105215933322199E+00
N    7.9497366667264480E-02    7.3978643257207484E+00    7.8700064761778608E+00
Ga    7.9059244015071334E-02    5.5245904413440936E+00    8.4496801254166112E+00
N    7.8051128324148900E-02    5.5271845497733461E+00    1.0441104832355370E+01
Ga    7.8755149267631289E-02    7.3968978034054720E+00    1.1032868897874003E+01
N    7.7602447379395700E-02    7.3960277929034177E+00    1.3004559592504558E+01
Ga    7.7805520661924490E-02    5.5256440256992274E+00    1.3624193250855088E+01
N    7.6967589218179561E-02    5.5571152450139341E+00    1.5588785856970423E+01
Ga    7.7824860335867371E-02    7.3959042207822812E+00    1.5865883743210690E+01
N   -1.6304487965663319E+00    1.0110699080853106E+01    2.5272675693481443E+00
Ga   -1.4862453760360628E+00    8.2971736173040824E+00    3.3381187073026521E+00
N   -1.5161070543486039E+00    8.3176158210837787E+00    5.2659943936063085E+00
Ga   -1.5029335201456870E+00    1.0203398748227418E+01    5.8137578643517873E+00
N   -1.5202297477066804E+00    1.0185006038778575E+01    7.8053011785023250E+00
Ga   -1.5412657682701216E+00    8.3314291886154859E+00    8.4514407647505845E+00
N   -1.5415076362251063E+00    8.3312913027637538E+00    1.0440696700171083E+01
Ga   -1.5152257373783289E+00    1.0191249835122058E+01    1.1075569524053707E+01
N   -1.4984274141413494E+00    1.0199599215767144E+01    1.3069557017898939E+01
Ga   -1.5418880991786579E+00    8.3305427268448025E+00    1.3624734504404570E+01
N   -1.5156933452239119E+00    8.3130719889180984E+00    1.5587200584298593E+01
Ga   -1.6873417541561042E+00    1.0090639401580761E+01    1.6482571823350057E+01
N    6.5108549998594558E+00    1.9494527644296911E+00    2.5415703975540178E+00
Ga    6.5289271677122507E+00   -3.1064085802988518E-02    2.8664979952516405E+00
N    6.5078019478747127E+00   -3.0935365520535166E-02    5.0295145681429068E+00
Ga    6.5102858051597527E+00    1.7988059619096859E+00    5.8085122796968758E+00
N    6.5104466736873476E+00    1.8138146172980862E+00    7.8053198175802878E+00
Ga    6.5128471467947078E+00   -3.1613527151025916E-02    8.4504203901398665E+00
N    6.5105969229181131E+00   -3.1929542223960099E-02    1.0424171419294932E+01
Ga    6.5110396622957447E+00    1.8090519309651338E+00    1.1072028589639087E+01
N    6.5101599361022888E+00    1.7887445517171019E+00    1.3066556263455867E+01
Ga    6.5107167388742635E+00   -3.0313060159924278E-02    1.3870414196739462E+01
N    6.5095988372181752E+00   -2.9842313916914300E-02    1.6072909263152244E+01
Ga    6.5095285391915931E+00    2.0147727588115849E+00    1.6484309098836722E+01
Ga    6.5159891129429441E+00    3.6817772462729015E+00    1.5367716836201610E+00
N    5.0098757760489709E+00    4.5486759588897181E+00    2.5348605753479712E+00
Ga    4.7932459945731969E+00    2.6975006911548576E+00    3.3014714493125634E+00
N    4.9012003612382040E+00    2.7536409316367454E+00    5.2629783332162017E+00
Ga    4.8771875637142932E+00    4.6264730899046018E+00    5.8087609957159154E+00
N    4.8939258480132741E+00    4.6165225368556762E+00    7.8060161523728970E+00
Ga    4.9118606706563597E+00    2.7591457050496073E+00    8.4430547648390810E+00
N    4.9135117040699336E+00    2.7606378493832282E+00    1.0436956586547861E+01
Ga    4.8882326618791794E+00    4.6201350312927660E+00    1.1072487148944408E+01
N    4.8706416718793824E+00    4.6289651089325528E+00    1.3067436199831578E+01
Ga    4.9135368648408546E+00    2.7599172571030146E+00    1.3622942499973240E+01
N    4.8866041166238530E+00    2.7433547804891991E+00    1.5585293416051590E+01
Ga    5.0592615166504800E+00    4.5192549401615123E+00    1.6483461986741936E+01
N    6.5090545268636761E+00    3.6906167437105108E+00    1.7618753388677955E+01
N    3.2941040851209480E+00    7.5114083428457903E+00    2.5082653657535441E+00
N    3.2960485508019617E+00    5.5379846040793028E+00    5.0352589148472786E+00
Ga    3.3000361679081078E+00    7.3650282920554151E+00    5.8011332142031247E+00
N    3.2928006160183316E+00    7.3870648564786840E+00    7.7995709080537203E+00
Ga    3.2953617802648361E+00    5.5408833869505196E+00    8.4505610834564724E+00
N    3.2945089549071365E+00    5.5404079702822226E+00    1.0424883376664056E+01
Ga    3.2963639327493581E+00    7.3795138646998355E+00    1.1073878375469812E+01
N    3.2943654344697042E+00    7.3597913667490218E+00    1.3067714963005816E+01
Ga    3.2948381703671656E+00    5.5398556506532355E+00    1.3869676827345021E+01
N    3.2941095930913074E+00    5.5407533587767803E+00    1.6072741793783923E+01
Ga    3.2936175771784324E+00    7.5859211545799647E+00    1.6484532449681783E+01
Ga    3.3332361819425254E+00    9.2763884704109056E+00    1.3364929259897318E+00
N    1.7864283561199379E+00    1.0117568888875434E+01    2.5121602749827612E+00
Ga    1.6810940196124853E+00    8.3121210720657945E+00    3.2961100358498512E+00
N    1.6742955451598549E+00    8.3167267273865075E+00    5.2441181004211987E+00
Ga    1.6644624555182876E+00    1.0198009101058325E+01    5.8010116079852576E+00
N    1.6766091807960921E+00    1.0183955000900667E+01    7.7989477387976320E+00
Ga    1.7004623655602835E+00    8.3325846856672730E+00    8.4499509774475996E+00
N    1.6981023272801234E+00    8.3317455867049173E+00    1.0440188013838116E+01
Ga    1.6726794684007624E+00    1.0191646143741510E+01    1.1074457723691099E+01
N    1.6544981179028209E+00    1.0199620432723584E+01    1.3068592624615841E+01
Ga    1.6974972002624289E+00    8.3305687832749626E+00    1.3624188256406059E+01
N    1.6702455090456947E+00    8.3133996148660199E+00    1.5586113517391423E+01
Ga    1.8432236051302802E+00    1.0090042262652888E+01    1.6483613066522800E+01
N    3.2930456798367014E+00    9.2614354774134178E+00    1.7617484593372222E+01
N    9.7383746287006758E+00    1.8249846112404258E+00    2.6342972594409528E+00
Ga    9.7326149660220800E+00    6.2990894804087122E-02    3.2662257907206813E+00
N    9.7247446716473274E+00   -3.4437803836090373E-02    5.2467928993991206E+00
Ga    9.7333610923544267E+00    1.8200271864996680E+00    5.8722304062731432E+00
N    9.7263309352235812E+00    1.8241108140547413E+00    7.8520504087372816E+00
Ga    9.7287861828537849E+00   -4.2747588413298489E-02    8.4358598684041386E+00
N    9.7262605882508311E+00   -4.3874104981824598E-02    1.0432957600025578E+01
Ga    9.7267310462722261E+00    1.8258451473177362E+00    1.1027481367350370E+01
N    9.7260877079973262E+00    1.8253536754400350E+00    1.3001111699436407E+01
Ga    9.7266378866076266E+00   -4.4127735991889731E-02    1.3623758308597720E+01
N    9.7261134683199852E+00   -1.2131049837896500E-02    1.5587089656153218E+01
Ga    9.7253198966171528E+00    1.8254850083444567E+00    1.5864828088045417E+01
N    8.0148251050837569E+00    4.5496441535912142E+00    2.5428672666282504E+00
Ga    8.2314754460723787E+00    2.6903121634405553E+00    3.3043277389355481E+00
N    8.1198018620140520E+00    2.7532776754618258E+00    5.2649136574481439E+00
Ga    8.1435164962538558E+00    4.6256444442611642E+00    5.8054701015809016E+00
N    8.1292293233066442E+00    4.6177609089196228E+00    7.8031128253348694E+00
Ga    8.1110398576131466E+00    2.7588512895536756E+00    8.4395075185758106E+00
N    8.1075755402171357E+00    2.7608333303510277E+00    1.0434675864529583E+01
Ga    8.1322224689368880E+00    4.6191985321404658E+00    1.1072745672238481E+01
N    8.1493919469898408E+00    4.6288360501839554E+00    1.3067461438646621E+01
Ga    8.1068207470384479E+00    2.7598070289222840E+00    1.3622809776241041E+01
N    8.1326670043495515E+00    2.7433749863239045E+00    1.5585240822179946E+01
Ga    7.9589670227270757E+00    4.5187647190593463E+00    1.6483548979621997E+01
N    6.5068999332932602E+00    7.3989819734798505E+00    2.6142491116268372E+00
Ga    6.5065285935724297E+00    5.6620366005199418E+00    3.2994260996457592E+00
N    6.5108759349981185E+00    5.5421246993712430E+00    5.2605034631926300E+00
Ga    6.5047468107837121E+00    7.4014204258987917E+00    5.8736901368326420E+00
N    6.5106129222572475E+00    7.3972271388540580E+00    7.8502439625483289E+00
Ga    6.5112229503295884E+00    5.5298767388762116E+00    8.4409519860236450E+00
N    6.5107200809441323E+00    5.5280679064553944E+00    1.0435418529186528E+01
Ga    6.5100149668766951E+00    7.3976060591843806E+00    1.1028241691515134E+01
N    6.5099086807804705E+00    7.3963852160732646E+00    1.3001112471047092E+01
Ga    6.5100466583450638E+00    5.5264164658206889E+00    1.3623371364055146E+01
N    6.5096764037117509E+00    5.5577034865070356E+00    1.5586936701373828E+01
Ga    6.5094225994649024E+00    7.3954117574918738E+00    1.5865810079670183E+01
N    4.8054136668575920E+00    1.0125568391538330E+01    2.5179502096867261E+00
Ga    4.9819728613373906E+00    8.2807027178577925E+00    3.2617405051162622E+00
N    4.9015079395423076E+00    8.3247843453894781E+00    5.2432253117297414E+00
Ga    4.9300090249373474E+00    1.0197593696850511E+01    5.7895676746082234E+00
N    4.9131170827511674E+00    1.0187196615785393E+01    7.7949714168830999E+00
Ga    4.8932048966740620E+00    8.3329923879804202E+00    8.4363898164389752E+00
N    4.8913365431087712E+00    8.3312612338499363E+00    1.0432443777146906E+01
Ga    4.9164653733267425E+00    1.0189865793839054E+01    1.1070975017728331E+01
N    4.9332354788132280E+00    1.0199138739358832E+01    1.3066497776300722E+01
Ga    4.8911282033174484E+00    8.3307513082336673E+00    1.3623762652287622E+01
N    4.9170985029152314E+00    8.3136390743018964E+00    1.5585809015627218E+01
Ga    4.7428665745055891E+00    1.0089375142213704E+01    1.6483521162762809E+01
O    6.9554777274462576E-02    4.0835044290547744E+00   -4.2473947881415464E-01
H   -1.2864160735376423E-01    5.8649950777832949E+00   -3.3499776025441758E-01
C    1.2426865029848428E+00    3.6767288964626572E+00   -1.1563220739822690E+00
H    2.1748857544643712E+00    3.9872698567050286E+00   -6.5567134586955200E-01
H    1.2677918530462680E+00    2.5848807298384955E+00   -1.2933074271673275E+00
H    1.2015875066850286E+00    4.1512035068897415E+00   -2.1472032488713961E+00
Ga    3.2678400594842398E+00    5.5341040023089709E+00    2.8595589411954179E+00
O   -1.1640077077113543E-01    6.8521006446970869E+00   -2.0275512885591587E-01
H    4.1329885627210503E-02    7.3096781097538797E+00    1.6612754261486664E+00
C    1.0464165279503095E+00    7.3489130129398665E+00   -8.7836578573465918E-01
H    1.0764818365580788E+00    8.4370088634232250E+00   -7.2615077019778296E-01
H    1.9759359563472596E+00    6.9161713715556301E+00   -4.7198669430027196E-01
H    1.0064486069692475E+00    7.1532385676207877E+00   -1.9610098228085613E+00
     &END COORD
     &KIND C
       BASIS_SET DZVP-MOLOPT-SR-GTH-q4
       POTENTIAL GTH-PBE-q4
       &POTENTIAL
 2 2
  0.3384712400000000E+00 2 -0.8803673979999999E+01  0.1339210850000000E+01
 2
  0.3025757500000000E+00 1  0.9622486650000001E+01
  0.2915069400000000E+00 0
         # Potential name:  GTH-PBE-Q4  for symbol:  C
         # Potential read from the potential filename: GTH_POTENTIALS
       &END POTENTIAL
     &END KIND
     &KIND O
       BASIS_SET DZVP-MOLOPT-SR-GTH-q6
       POTENTIAL GTH-PBE-q6
       &POTENTIAL
 2 4
  0.2445543000000000E+00 2 -0.1666721480000000E+02  0.2487311320000000E+01
 2
  0.2209559200000000E+00 1  0.1833745811000000E+02
  0.2113324700000000E+00 0
         # Potential name:  GTH-PBE-Q6  for symbol:  O
         # Potential read from the potential filename: GTH_POTENTIALS
       &END POTENTIAL
     &END KIND
     &KIND H
       BASIS_SET DZVP-MOLOPT-SR-GTH-q1
       POTENTIAL GTH-PBE-q1
       &POTENTIAL
 1
  0.2000000000000000E+00 2 -0.4178900440000000E+01  0.7244633100000000E+00
 0
         # Potential name:  GTH-PBE-Q1  for symbol:  H
         # Potential read from the potential filename: GTH_POTENTIALS
       &END POTENTIAL
     &END KIND
     &KIND N
       BASIS_SET DZVP-MOLOPT-SR-GTH
       POTENTIAL GTH-PBE-q5
       &POTENTIAL
 2 3
  0.2837905100000000E+00 2 -0.1241522559000000E+02  0.1868095920000000E+01
 2
  0.2554050000000000E+00 1  0.1363026257000000E+02
  0.2454945300000000E+00 0
         # Potential name:  GTH-PBE-Q5  for symbol:  N
         # Potential read from the potential filename: GTH_POTENTIALS
       &END POTENTIAL
     &END KIND
     &KIND Ga
       BASIS_SET DZVP-MOLOPT-SR-GTH
       POTENTIAL GTH-PBE-q13
       &POTENTIAL
 2 1 10
  0.4900000000000000E+00 0
 3
  0.4167772300000000E+00 3  0.1047568975000000E+02 -0.4921768140000000E+01  0.8707055900000000E+00
  0.7770178090000000E+01 -0.2248152160000000E+01
  0.1784415450000000E+01
  0.5696265200000000E+00 2  0.1777985340000000E+01  0.1958597600000000E+00
 -0.2317443900000000E+00
  0.2381265000000000E+00 1 -0.1624868022000000E+02
         # Potential name:  GTH-PBE-Q13  for symbol:  GA
         # Potential read from the potential filename: GTH_POTENTIALS
       &END POTENTIAL
     &END KIND
     &TOPOLOGY
       NUMBER_OF_ATOMS  212
       MULTIPLE_UNIT_CELL  1 1 1
     &END TOPOLOGY
   &END SUBSYS
 &END FORCE_EVAL
