 # Version information for this restart file 
 # current date 2019-07-07 05:03:44.919
 # current working dir /lustre04/scratch/rzk/rzk/GaN-carbene/443-adatoms-both-2x2/04-2Methanol/03-GaJumps1Ring
 # Program compiled at                              Sun Apr  7 00:48:11 EDT 2019
 # Program compiled on                          beluga2.int.ets1.calculquebec.ca
 # Program compiled for                        Beluga-Linux-x86-64-intel-openmpi
 # Source code revision number                                         svn:18619
 &GLOBAL
   PRINT_LEVEL  MEDIUM
   PROJECT_NAME TEST
   RUN_TYPE  GEO_OPT
 &END GLOBAL
 &MOTION
   &GEO_OPT
     MAX_ITER  500
     STEP_START_VAL  73
   &END GEO_OPT
 &END MOTION
 &FORCE_EVAL
   METHOD  QS
   STRESS_TENSOR  ANALYTICAL
   &DFT
     BASIS_SET_FILE_NAME BASIS_MOLOPT
     POTENTIAL_FILE_NAME GTH_POTENTIALS
     UKS  T
     SURFACE_DIPOLE_CORRECTION  T
     SURF_DIP_DIR  Z
     &SCF
       MAX_SCF  80
       EPS_SCF     5.0000000000000004E-06
       &OT  T
         PRECONDITIONER  FULL_ALL
       &END OT
       &OUTER_SCF  T
         OPTIMIZER  NONE
         EPS_SCF     5.0000000000000004E-06
         MAX_SCF  4
       &END OUTER_SCF
       &PRINT
         &RESTART  OFF
           BACKUP_COPIES  1
           &EACH
             JUST_ENERGY  0
             QS_SCF  0
             MD  20
           &END EACH
         &END RESTART
       &END PRINT
     &END SCF
     &QS
       EPS_DEFAULT     1.0000000000000000E-14
       METHOD  GPW
     &END QS
     &MGRID
       NGRIDS  5
       CUTOFF     1.2000000000000000E+03
     &END MGRID
     &XC
       DENSITY_CUTOFF     1.0000000000000000E-10
       GRADIENT_CUTOFF     1.0000000000000000E-10
       TAU_CUTOFF     1.0000000000000000E-10
       &XC_FUNCTIONAL  NO_SHORTCUT
         &PBE  T
         &END PBE
       &END XC_FUNCTIONAL
       &VDW_POTENTIAL
         POTENTIAL_TYPE  PAIR_POTENTIAL
         &PAIR_POTENTIAL
           R_CUTOFF     1.0000000000000004E+01
           TYPE  DFTD3
           PARAMETER_FILE_NAME dftd3.dat
           REFERENCE_FUNCTIONAL PBE
           EPS_CN     9.9999999999999995E-07
           CALCULATE_C9_TERM  T
           REFERENCE_C9_TERM  T
           LONG_RANGE_CORRECTION  F
           VERBOSE_OUTPUT  F
         &END PAIR_POTENTIAL
       &END VDW_POTENTIAL
     &END XC
   &END DFT
   &SUBSYS
     &CELL
       A     1.2864472766435110E+01    0.0000000000000000E+00    0.0000000000000000E+00
       B    -6.4322363581020028E+00    1.1140960178524473E+01    0.0000000000000000E+00
       C     0.0000000000000000E+00    0.0000000000000000E+00    3.2000000000000000E+01
       MULTIPLE_UNIT_CELL  1 1 1
       &CELL_REF
         A     1.2982353780853531E+01    0.0000000000000000E+00    0.0000000000000000E+00
         B    -6.4911768904267628E+00    1.1243048175136114E+01    0.0000000000000000E+00
         C     0.0000000000000000E+00    0.0000000000000000E+00    3.2000000000000000E+01
         MULTIPLE_UNIT_CELL  1 1 1
       &END CELL_REF
     &END CELL
     &COORD
N    7.9759681369982113E-02    1.9763318016916667E+00    2.4965109195144284E+00
Ga    6.3504352436156930E-02    5.6896785127876779E-03    2.8269971006352770E+00
N    8.2785739853561233E-02   -2.6127754043831636E-02    5.0197845116702489E+00
Ga    8.1211616459488559E-02    1.7986380302095204E+00    5.8027499109899550E+00
N    7.9504302457423806E-02    1.8144407046705424E+00    7.8054505896089799E+00
Ga    7.7264500373977529E-02   -3.0900214792160947E-02    8.4468727460605439E+00
N    7.7960285480406580E-02   -3.1881159356950212E-02    1.0423026178129041E+01
Ga    7.7967041034149503E-02    1.8082858048319463E+00    1.1071231653151980E+01
N    7.7676191261129471E-02    1.7887577444350031E+00    1.3066659464894810E+01
Ga    7.7198725239497140E-02   -3.1196327341722226E-02    1.3868088658706318E+01
N    7.6705909054299526E-02   -3.0893577812257642E-02    1.6072418759343833E+01
Ga    7.6854212127738408E-02    2.0110871684711351E+00    1.6480741281784578E+01
Ga    5.1627946790514585E-02    3.6819723116618106E+00    1.3726521690998796E+00
N   -1.4061775481912655E+00    4.5470928169382114E+00    2.5297939326512493E+00
Ga   -1.6002993824218734E+00    2.7035324849320865E+00    3.2846919011725384E+00
N   -1.5292706538165552E+00    2.7534581173427086E+00    5.2629716897000165E+00
Ga   -1.5578943104867899E+00    4.6187087616659577E+00    5.8117722000551124E+00
N   -1.5392366472967167E+00    4.6179766421484025E+00    7.8077509532553364E+00
Ga   -1.5202721014193896E+00    2.7569921403911772E+00    8.4392585255130257E+00
N   -1.5189612234059464E+00    2.7608274992038533E+00    1.0435496031422208E+01
Ga   -1.5453324151568875E+00    4.6185229045624414E+00    1.1074382204063504E+01
N   -1.5620734905291906E+00    4.6287464601538177E+00    1.3069028392205899E+01
Ga   -1.5193294158790591E+00    2.7591982314475563E+00    1.3622637764932920E+01
N   -1.5453503829656536E+00    2.7433560531101606E+00    1.5586040465278888E+01
Ga   -1.3763893640626448E+00    4.5206142392989248E+00    1.6480336385754320E+01
N    7.7012187526054848E-02    3.6904974036356037E+00    1.7613680045311817E+01
N   -3.1299919801359182E+00    7.5179645847992447E+00    2.5332991395792352E+00
Ga   -3.1093623317845513E+00    5.5142493830713395E+00    2.8560978454571835E+00
N   -3.1357573236053287E+00    5.5403881577919778E+00    5.0261581354076457E+00
Ga   -3.1430975772601983E+00    7.3609930981179437E+00    5.8109356796969083E+00
N   -3.1361126082967927E+00    7.3858572098720661E+00    7.8032177064702992E+00
Ga   -3.1377026961480206E+00    5.5387367592233563E+00    8.4530367383961291E+00
N   -3.1381902514114239E+00    5.5400815058749329E+00    1.0425967232594841E+01
Ga   -3.1395399266333435E+00    7.3791382873489200E+00    1.1075182094887126E+01
N   -3.1387498723631579E+00    7.3596810187431805E+00    1.3068620540778715E+01
Ga   -3.1389863966933822E+00    5.5392072366051410E+00    1.3869453330341884E+01
N   -3.1399823628901804E+00    5.5404505795860635E+00    1.6072947618157087E+01
Ga   -3.1393360692890613E+00    7.5842803876079534E+00    1.6483342224556637E+01
Ga   -3.1491049069315200E+00    9.2548765636981916E+00    1.5015435384408022E+00
N   -4.6384157706532250E+00    1.0122071388466184E+01    2.5202525240018634E+00
Ga   -4.8552524522803866E+00    8.2714747339913579E+00    3.2928797191104349E+00
N   -4.7432111552527934E+00    8.3259236844271012E+00    5.2550794443131190E+00
Ga   -4.7755174569472336E+00    1.0200812334930687E+01    5.8024855248778762E+00
N   -4.7544411622921299E+00    1.0187097575037511E+01    7.8011421600687640E+00
Ga   -4.7379394010467326E+00    8.3315467456480850E+00    8.4402807833735451E+00
N   -4.7346578502802341E+00    8.3312310412644344E+00    1.0434453863833195E+01
Ga   -4.7613595113275693E+00    1.0190220341078062E+01    1.1072637224478179E+01
N   -4.7779656591691051E+00    1.0199157099889693E+01    1.3067761928058859E+01
Ga   -4.7360101673749222E+00    8.3303969766014276E+00    1.3623874706794913E+01
N   -4.7621579770395632E+00    8.3136676256133608E+00    1.5586348543629004E+01
Ga   -4.5907855604009384E+00    1.0090404212728734E+01    1.6482141099784592E+01
N   -3.1392205510901330E+00    9.2616391442872121E+00    1.7615043217387921E+01
N    3.2855697926063638E+00    1.8315108388896193E+00    2.6216937205471651E+00
Ga    3.2879186797057831E+00    9.1553459113079216E-02    3.2920650685422403E+00
N    3.2972140190917734E+00   -3.3746914996518419E-02    5.2553379808987115E+00
Ga    3.2885179062229968E+00    1.8280512494479713E+00    5.8786678502367495E+00
N    3.2955693426152615E+00    1.8244123882165317E+00    7.8555242794658113E+00
Ga    3.2931608288410810E+00   -4.1430863066070439E-02    8.4433857077478542E+00
N    3.2945616096580705E+00   -4.3590751101433067E-02    1.0437162463475582E+01
Ga    3.2945266481590032E+00    1.8264911991769963E+00    1.1030429702440248E+01
N    3.2936552133676904E+00    1.8253209873911063E+00    1.3003284655841462E+01
Ga    3.2935659300354043E+00   -4.4449257913123839E-02    1.3624341253407822E+01
N    3.2928950458906230E+00   -1.2473456543312599E-02    1.5588113340374976E+01
Ga    3.2938016396075231E+00    1.8256729338852848E+00    1.5865074032680379E+01
N    1.5718858154472268E+00    4.5491416836265142E+00    2.5254044141430398E+00
Ga    1.7574275502013603E+00    2.7167326674879426E+00    3.2740735161922530E+00
N    1.6892659787494131E+00    2.7535222013046483E+00    5.2577589503302828E+00
Ga    1.7200256519124677E+00    4.6184507909843981E+00    5.8127942354289992E+00
N    1.6964874088001720E+00    4.6168380092905874E+00    7.8094372511952459E+00
Ga    1.6768673262785430E+00    2.7578983990550672E+00    8.4426382095270611E+00
N    1.6758531656009261E+00    2.7604877761784383E+00    1.0437570824289930E+01
Ga    1.7020725776071870E+00    4.6190426190144960E+00    1.1074364515259626E+01
N    1.7178011601854419E+00    4.6289429515993845E+00    1.3069176333785300E+01
Ga    1.6741450702608003E+00    2.7596484150427640E+00    1.3623184310704998E+01
N    1.6997234832836556E+00    2.7429571678674711E+00    1.5586578530985214E+01
Ga    1.5304518903590156E+00    4.5206634048124679E+00    1.6480387089244747E+01
N    8.3368407670968314E-02    7.3795711333311500E+00    2.6991623724413536E+00
Ga    8.9796582558915705E-02    5.5386014252554823E+00    3.3411311573318443E+00
N    8.0076749674715550E-02    5.5526892187234234E+00    5.2788747886616054E+00
Ga    8.7243693878002515E-02    7.3938886950506078E+00    5.9105556112116933E+00
N    7.9554622884721107E-02    7.3978429586029213E+00    7.8700962212544860E+00
Ga    7.9136697295447450E-02    5.5245608434630640E+00    8.4498410636248806E+00
N    7.8118751982307749E-02    5.5271673532193031E+00    1.0441255385022734E+01
Ga    7.8757755362171167E-02    7.3968516642223596E+00    1.1032973070979537E+01
N    7.7632339077122428E-02    7.3960182857575614E+00    1.3004587644647335E+01
Ga    7.7821809054476165E-02    5.5256543409358247E+00    1.3624295151625811E+01
N    7.6975662369514877E-02    5.5572689108057816E+00    1.5588697396517505E+01
Ga    7.7789127495745319E-02    7.3958859835691300E+00    1.5865827509837359E+01
N   -1.6303797213277718E+00    1.0110639266841536E+01    2.5272647845086400E+00
Ga   -1.4862431202007622E+00    8.2970688947488878E+00    3.3380163832731427E+00
N   -1.5159772418400652E+00    8.3176075250675972E+00    5.2659025338617127E+00
Ga   -1.5029003801264114E+00    1.0203358392126280E+01    5.8138449920764366E+00
N   -1.5201566198052838E+00    1.0185029020657733E+01    7.8053942474928428E+00
Ga   -1.5412275272196774E+00    8.3314544432400730E+00    8.4514860897655950E+00
N   -1.5414523435189791E+00    8.3312627225193943E+00    1.0440745558872845E+01
Ga   -1.5152092233158045E+00    1.0191270303702078E+01    1.1075559081261829E+01
N   -1.4984908196234703E+00    1.0199558267760038E+01    1.3069542323780135E+01
Ga   -1.5418473960115497E+00    8.3305021294035662E+00    1.3624760229909224E+01
N   -1.5156596838291303E+00    8.3130684519814899E+00    1.5587164885900625E+01
Ga   -1.6874707109790446E+00    1.0090569176664420E+01    1.6482467691305338E+01
N    6.5109688541073494E+00    1.9494097913896742E+00    2.5415230342093653E+00
Ga    6.5292724256100607E+00   -3.1344353592208635E-02    2.8664252486785107E+00
N    6.5078210138089654E+00   -3.0857066247768648E-02    5.0295465198606761E+00
Ga    6.5103577379123667E+00    1.7988702122347340E+00    5.8086774222246778E+00
N    6.5105151390684401E+00    1.8138678442725769E+00    7.8054554617194656E+00
Ga    6.5128374549901098E+00   -3.1538028955051887E-02    8.4505206349033202E+00
N    6.5106639289029733E+00   -3.1945255327133555E-02    1.0424237709526990E+01
Ga    6.5110547838876824E+00    1.8090633139360575E+00    1.1071934755712537E+01
N    6.5101500445015130E+00    1.7887255062151239E+00    1.3066526824130287E+01
Ga    6.5107033977359707E+00   -3.0418038012593254E-02    1.3870437765647601E+01
N    6.5096941573851543E+00   -2.9866300694559988E-02    1.6072975154502242E+01
Ga    6.5094845077151167E+00    2.0147814390124466E+00    1.6484400895410261E+01
Ga    6.5160204632477896E+00    3.6816883982111541E+00    1.5366213870704664E+00
N    5.0099422131349982E+00    4.5486858950311344E+00    2.5346204349667869E+00
Ga    4.7933214688144155E+00    2.6975562091517804E+00    3.3013504006992580E+00
N    4.9012901567377911E+00    2.7536234025470856E+00    5.2629080919404698E+00
Ga    4.8772704152929158E+00    4.6264549622248508E+00    5.8087416716010347E+00
N    4.8940183608253642E+00    4.6165780066003501E+00    7.8060559529194604E+00
Ga    4.9119356590642749E+00    2.7591905369218512E+00    8.4431382691888590E+00
N    4.9134891964566734E+00    2.7606627197535234E+00    1.0437028838305274E+01
Ga    4.8882340889898908E+00    4.6201586622509501E+00    1.1072471356178941E+01
N    4.8706064828000581E+00    4.6290011158247628E+00    1.3067431800001359E+01
Ga    4.9134406324066253E+00    2.7598928519174910E+00    1.3622911218576403E+01
N    4.8865209139596777E+00    2.7432737877423974E+00    1.5585293618435779E+01
Ga    5.0592417739998385E+00    4.5192699867601061E+00    1.6483546787164570E+01
N    6.5090785140018692E+00    3.6906102672083456E+00    1.7618144984542681E+01
N    3.2941000451112687E+00    7.5113313708336742E+00    2.5083499639924014E+00
N    3.2960489165409772E+00    5.5379413803741455E+00    5.0351032858831886E+00
Ga    3.3001230068264316E+00    7.3649716436647870E+00    5.8011906917693450E+00
N    3.2928707334584169E+00    7.3870276105524280E+00    7.7996921410953783E+00
Ga    3.2954603213260563E+00    5.5408331534198823E+00    8.4507244050912771E+00
N    3.2945155417522365E+00    5.5404193873860041E+00    1.0424994765748863E+01
Ga    3.2963845561794161E+00    7.3794894951801471E+00    1.1073958406596386E+01
N    3.2943499739458608E+00    7.3598236002816408E+00    1.3067716368388444E+01
Ga    3.2946910523430026E+00    5.5398700859120922E+00    1.3869631204621994E+01
N    3.2940965384790259E+00    5.5408106171136318E+00    1.6072701349949860E+01
Ga    3.2935492861955131E+00    7.5859458316077584E+00    1.6484353417275560E+01
Ga    3.3325647060439643E+00    9.2767622880022653E+00    1.3370134734920398E+00
N    1.7865582297893625E+00    1.0117495985864497E+01    2.5122011828706858E+00
Ga    1.6809963560941537E+00    8.3121659100165246E+00    3.2958986494095330E+00
N    1.6743392386141756E+00    8.3166191732421897E+00    5.2439706151114871E+00
Ga    1.6644243770132894E+00    1.0197966169287419E+01    5.8011167492123086E+00
N    1.6766255372484065E+00    1.0183997882880449E+01    7.7990321519804633E+00
Ga    1.7005017134720564E+00    8.3325832257050241E+00    8.4500988234728318E+00
N    1.6981092551268704E+00    8.3317206046731869E+00    1.0440320769668514E+01
Ga    1.6727012714524061E+00    1.0191647926970985E+01    1.1074519393631427E+01
N    1.6545545605304031E+00    1.0199567811489677E+01    1.3068600026909726E+01
Ga    1.6974862649102378E+00    8.3305243497079751E+00    1.3624162945117490E+01
N    1.6701988411058066E+00    8.3134179298085051E+00    1.5586015493796728E+01
Ga    1.8432488442206580E+00    1.0089968560164555E+01    1.6483428294665490E+01
N    3.2931612959233210E+00    9.2615228879584830E+00    1.7617350288365039E+01
N    9.7384008714130292E+00    1.8248872282312516E+00    2.6342291538861740E+00
Ga    9.7325155778114656E+00    6.2826618287030164E-02    3.2662292091986957E+00
N    9.7248152189935801E+00   -3.4409265391488725E-02    5.2468305857422681E+00
Ga    9.7333931825322946E+00    1.8201900266805355E+00    5.8723572346649178E+00
N    9.7263747444347324E+00    1.8241539325166376E+00    7.8522202648531385E+00
Ga    9.7288140620727930E+00   -4.2726520389399419E-02    8.4360894493820417E+00
N    9.7263057220801024E+00   -4.3846607719120863E-02    1.0433134500489867E+01
Ga    9.7268265091272603E+00    1.8258899486812337E+00    1.1027590625399473E+01
N    9.7261577549084155E+00    1.8253058171042622E+00    1.3001162135924119E+01
Ga    9.7266710734833097E+00   -4.4155028669947693E-02    1.3623766217331328E+01
N    9.7260762071832367E+00   -1.2223661245225802E-02    1.5587046836897253E+01
Ga    9.7254845834923760E+00    1.8254031555830155E+00    1.5864768485099637E+01
N    8.0149116999848076E+00    4.5496565324057476E+00    2.5425822110730212E+00
Ga    8.2315611735737964E+00    2.6903366937195523E+00    3.3043285533458131E+00
N    8.1198486429791767E+00    2.7533143170997625E+00    5.2649142647484375E+00
Ga    8.1436541092338786E+00    4.6256478824593135E+00    5.8055396921104929E+00
N    8.1293379218001700E+00    4.6178080078042383E+00    7.8031884090114492E+00
Ga    8.1110442437684842E+00    2.7589314879473728E+00    8.4396237128536740E+00
N    8.1076655902991650E+00    2.7608706347373904E+00    1.0434779101848173E+01
Ga    8.1323055526623662E+00    4.6192571649424137E+00    1.1072742099517857E+01
N    8.1494522777764491E+00    4.6288927262828921E+00    1.3067490283964071E+01
Ga    8.1069011888422757E+00    2.7597802702261331E+00    1.3622771181439147E+01
N    8.1327316323999028E+00    2.7433086369392781E+00    1.5585280713876596E+01
Ga    7.9589912657564366E+00    4.5188566868529731E+00    1.6483633962467874E+01
N    6.5069891879291655E+00    7.3990480754283139E+00    2.6139515729087672E+00
Ga    6.5065731270343372E+00    5.6621173483912566E+00    3.2992407169669584E+00
N    6.5110033654264887E+00    5.5421381876646878E+00    5.2604231728112145E+00
Ga    6.5049426066948897E+00    7.4014164609300259E+00    5.8737833482031299E+00
N    6.5107294784791705E+00    7.3972170067409735E+00    7.8503828182513491E+00
Ga    6.5113181939488642E+00    5.5298465579595097E+00    8.4410890776765797E+00
N    6.5107488230348700E+00    5.5280859698552636E+00    1.0435548378267548E+01
Ga    6.5100938814874265E+00    7.3976319698456452E+00    1.1028303226089740E+01
N    6.5098547409839478E+00    7.3964718022982625E+00    1.3001161315780420E+01
Ga    6.5100420462640765E+00    5.5264811193986114E+00    1.3623365368704723E+01
N    6.5096474287225670E+00    5.5578587936601238E+00    1.5586951610962576E+01
Ga    6.5093700966401533E+00    7.3956137969806583E+00    1.5865655615881296E+01
N    4.8054663235340227E+00    1.0125628573974540E+01    2.5180874463167351E+00
Ga    4.9820887304195551E+00    8.2807024178220381E+00    3.2616131991977535E+00
N    4.9016323564523736E+00    8.3247169003396095E+00    5.2431313551986154E+00
Ga    4.9301554740978224E+00    1.0197565761828677E+01    5.7896883770397247E+00
N    4.9131929615278924E+00    1.0187234891877877E+01    7.7951437241115329E+00
Ga    4.8932903056020294E+00    8.3329736252038025E+00    8.4365534780646332E+00
N    4.8913701462663584E+00    8.3312747225653077E+00    1.0432612313718245E+01
Ga    4.9165346320804568E+00    1.0189900727725066E+01    1.1071104377468780E+01
N    4.9332657429907929E+00    1.0199153761028933E+01    1.3066567448569000E+01
Ga    4.8910344839727555E+00    8.3308013618269747E+00    1.3623760098130237E+01
N    4.9169801264323825E+00    8.3137124957256816E+00    1.5585756933999869E+01
Ga    4.7430132128806450E+00    1.0089477625623390E+01    1.6483307640600422E+01
O    6.8569475687903392E-02    4.0825619710348375E+00   -4.2515681911345299E-01
H   -1.2951707920633199E-01    5.8652266114821403E+00   -3.3547878565429951E-01
C    1.2421357710530134E+00    3.6763616665691319E+00   -1.1563893915283299E+00
H    2.1740504198907487E+00    3.9873297992516834E+00   -6.5564148096259078E-01
H    1.2682102218789282E+00    2.5845709646685595E+00   -1.2937172975427091E+00
H    1.2012687494320031E+00    4.1508570004466652E+00   -2.1472154335200377E+00
Ga    3.2677781933686689E+00    5.5339490373261517E+00    2.8590866794572558E+00
O   -1.1698197370857079E-01    6.8522483773613443E+00   -2.0322731665796218E-01
H    4.1464579419765238E-02    7.3097903844160079E+00    1.6612392504846705E+00
C    1.0459083374278746E+00    7.3491911969293069E+00   -8.7904261966462105E-01
H    1.0758348643122522E+00    8.4374285018833266E+00   -7.2756255200050679E-01
H    1.9755228025902454E+00    6.9169622077282620E+00   -4.7252938577403186E-01
H    1.0060362111173802E+00    7.1533602224438582E+00   -1.9617282994170826E+00
     &END COORD
     &KIND C
       BASIS_SET DZVP-MOLOPT-SR-GTH-q4
       POTENTIAL GTH-PBE-q4
       &POTENTIAL
 2 2
  0.3384712400000000E+00 2 -0.8803673979999999E+01  0.1339210850000000E+01
 2
  0.3025757500000000E+00 1  0.9622486650000001E+01
  0.2915069400000000E+00 0
         # Potential name:  GTH-PBE-Q4  for symbol:  C
         # Potential read from the potential filename: GTH_POTENTIALS
       &END POTENTIAL
     &END KIND
     &KIND O
       BASIS_SET DZVP-MOLOPT-SR-GTH-q6
       POTENTIAL GTH-PBE-q6
       &POTENTIAL
 2 4
  0.2445543000000000E+00 2 -0.1666721480000000E+02  0.2487311320000000E+01
 2
  0.2209559200000000E+00 1  0.1833745811000000E+02
  0.2113324700000000E+00 0
         # Potential name:  GTH-PBE-Q6  for symbol:  O
         # Potential read from the potential filename: GTH_POTENTIALS
       &END POTENTIAL
     &END KIND
     &KIND H
       BASIS_SET DZVP-MOLOPT-SR-GTH-q1
       POTENTIAL GTH-PBE-q1
       &POTENTIAL
 1
  0.2000000000000000E+00 2 -0.4178900440000000E+01  0.7244633100000000E+00
 0
         # Potential name:  GTH-PBE-Q1  for symbol:  H
         # Potential read from the potential filename: GTH_POTENTIALS
       &END POTENTIAL
     &END KIND
     &KIND N
       BASIS_SET DZVP-MOLOPT-SR-GTH
       POTENTIAL GTH-PBE-q5
       &POTENTIAL
 2 3
  0.2837905100000000E+00 2 -0.1241522559000000E+02  0.1868095920000000E+01
 2
  0.2554050000000000E+00 1  0.1363026257000000E+02
  0.2454945300000000E+00 0
         # Potential name:  GTH-PBE-Q5  for symbol:  N
         # Potential read from the potential filename: GTH_POTENTIALS
       &END POTENTIAL
     &END KIND
     &KIND Ga
       BASIS_SET DZVP-MOLOPT-SR-GTH
       POTENTIAL GTH-PBE-q13
       &POTENTIAL
 2 1 10
  0.4900000000000000E+00 0
 3
  0.4167772300000000E+00 3  0.1047568975000000E+02 -0.4921768140000000E+01  0.8707055900000000E+00
  0.7770178090000000E+01 -0.2248152160000000E+01
  0.1784415450000000E+01
  0.5696265200000000E+00 2  0.1777985340000000E+01  0.1958597600000000E+00
 -0.2317443900000000E+00
  0.2381265000000000E+00 1 -0.1624868022000000E+02
         # Potential name:  GTH-PBE-Q13  for symbol:  GA
         # Potential read from the potential filename: GTH_POTENTIALS
       &END POTENTIAL
     &END KIND
     &TOPOLOGY
       NUMBER_OF_ATOMS  212
       MULTIPLE_UNIT_CELL  1 1 1
     &END TOPOLOGY
   &END SUBSYS
 &END FORCE_EVAL
