 # Version information for this restart file 
 # current date 2019-07-07 05:00:11.848
 # current working dir /lustre04/scratch/rzk/rzk/GaN-carbene/443-adatoms-both-2x2/04-2Methanol/03-GaJumps1Ring
 # Program compiled at                              Sun Apr  7 00:48:11 EDT 2019
 # Program compiled on                          beluga2.int.ets1.calculquebec.ca
 # Program compiled for                        Beluga-Linux-x86-64-intel-openmpi
 # Source code revision number                                         svn:18619
 &GLOBAL
   PRINT_LEVEL  MEDIUM
   PROJECT_NAME TEST
   RUN_TYPE  GEO_OPT
 &END GLOBAL
 &MOTION
   &GEO_OPT
     MAX_ITER  500
     STEP_START_VAL  71
   &END GEO_OPT
 &END MOTION
 &FORCE_EVAL
   METHOD  QS
   STRESS_TENSOR  ANALYTICAL
   &DFT
     BASIS_SET_FILE_NAME BASIS_MOLOPT
     POTENTIAL_FILE_NAME GTH_POTENTIALS
     UKS  T
     SURFACE_DIPOLE_CORRECTION  T
     SURF_DIP_DIR  Z
     &SCF
       MAX_SCF  80
       EPS_SCF     5.0000000000000004E-06
       &OT  T
         PRECONDITIONER  FULL_ALL
       &END OT
       &OUTER_SCF  T
         OPTIMIZER  NONE
         EPS_SCF     5.0000000000000004E-06
         MAX_SCF  4
       &END OUTER_SCF
       &PRINT
         &RESTART  OFF
           BACKUP_COPIES  1
           &EACH
             JUST_ENERGY  0
             QS_SCF  0
             MD  20
           &END EACH
         &END RESTART
       &END PRINT
     &END SCF
     &QS
       EPS_DEFAULT     1.0000000000000000E-14
       METHOD  GPW
     &END QS
     &MGRID
       NGRIDS  5
       CUTOFF     1.2000000000000000E+03
     &END MGRID
     &XC
       DENSITY_CUTOFF     1.0000000000000000E-10
       GRADIENT_CUTOFF     1.0000000000000000E-10
       TAU_CUTOFF     1.0000000000000000E-10
       &XC_FUNCTIONAL  NO_SHORTCUT
         &PBE  T
         &END PBE
       &END XC_FUNCTIONAL
       &VDW_POTENTIAL
         POTENTIAL_TYPE  PAIR_POTENTIAL
         &PAIR_POTENTIAL
           R_CUTOFF     1.0000000000000004E+01
           TYPE  DFTD3
           PARAMETER_FILE_NAME dftd3.dat
           REFERENCE_FUNCTIONAL PBE
           EPS_CN     9.9999999999999995E-07
           CALCULATE_C9_TERM  T
           REFERENCE_C9_TERM  T
           LONG_RANGE_CORRECTION  F
           VERBOSE_OUTPUT  F
         &END PAIR_POTENTIAL
       &END VDW_POTENTIAL
     &END XC
   &END DFT
   &SUBSYS
     &CELL
       A     1.2864472766435110E+01    0.0000000000000000E+00    0.0000000000000000E+00
       B    -6.4322363581020028E+00    1.1140960178524473E+01    0.0000000000000000E+00
       C     0.0000000000000000E+00    0.0000000000000000E+00    3.2000000000000000E+01
       MULTIPLE_UNIT_CELL  1 1 1
       &CELL_REF
         A     1.2982353780853531E+01    0.0000000000000000E+00    0.0000000000000000E+00
         B    -6.4911768904267628E+00    1.1243048175136114E+01    0.0000000000000000E+00
         C     0.0000000000000000E+00    0.0000000000000000E+00    3.2000000000000000E+01
         MULTIPLE_UNIT_CELL  1 1 1
       &END CELL_REF
     &END CELL
     &COORD
N    7.9982910566427673E-02    1.9763649806317827E+00    2.4969388568103086E+00
Ga    6.2920695786092731E-02    5.7773428405033236E-03    2.8275944242377098E+00
N    8.2746641778512472E-02   -2.6245512578525643E-02    5.0201576994170933E+00
Ga    8.1224186519014141E-02    1.7986217813875172E+00    5.8030156362970109E+00
N    7.9577244449431275E-02    1.8142991343256882E+00    7.8055450165868105E+00
Ga    7.7181743261969443E-02   -3.1008812541956872E-02    8.4470586801029661E+00
N    7.7970949629986783E-02   -3.1980836501008220E-02    1.0423091350117739E+01
Ga    7.7857125925863524E-02    1.8082026311408408E+00    1.1070967664174928E+01
N    7.7578987849332981E-02    1.7887359651219672E+00    1.3066395747058772E+01
Ga    7.7284783675650531E-02   -3.1233133678164524E-02    1.3867934459213112E+01
N    7.6695570474977715E-02   -3.0788226481795078E-02    1.6072640819174307E+01
Ga    7.6706109593174865E-02    2.0114291043506314E+00    1.6481474462391127E+01
Ga    5.2212548216963597E-02    3.6820470254305571E+00    1.3730839048679566E+00
N   -1.4058788703329204E+00    4.5471580261335562E+00    2.5301162759983726E+00
Ga   -1.6000732740677022E+00    2.7035211274764062E+00    3.2850635446036458E+00
N   -1.5292847235801590E+00    2.7533817019067985E+00    5.2631663545457075E+00
Ga   -1.5578959962598129E+00    4.6186372976171830E+00    5.8119319481369329E+00
N   -1.5393025519259294E+00    4.6179371814446588E+00    7.8077104665327690E+00
Ga   -1.5202690264718215E+00    2.7568627770338026E+00    8.4390875149002831E+00
N   -1.5190549317994140E+00    2.7608127737241288E+00    1.0435233664795810E+01
Ga   -1.5454719310611262E+00    4.6185005649520390E+00    1.1074102605216906E+01
N   -1.5624113505703610E+00    4.6288801177377783E+00    1.3068799273276571E+01
Ga   -1.5195367919117750E+00    2.7592187265624966E+00    1.3622261568351783E+01
N   -1.5454360571070214E+00    2.7433360916825555E+00    1.5585757292059332E+01
Ga   -1.3764392228851088E+00    4.5205313329124301E+00    1.6481056359241130E+01
N    7.6973213449803249E-02    3.6906925894346356E+00    1.7613141480049485E+01
N   -3.1300950589514609E+00    7.5179774904940757E+00    2.5333309772585122E+00
Ga   -3.1094150854121887E+00    5.5140436838573814E+00    2.8565671861366728E+00
N   -3.1357883500473007E+00    5.5403840968068980E+00    5.0262408070643918E+00
Ga   -3.1431996819914598E+00    7.3610733443679317E+00    5.8109611015688341E+00
N   -3.1361863370895495E+00    7.3859161385439505E+00    7.8031662468736371E+00
Ga   -3.1378384344158223E+00    5.5387414648290640E+00    8.4528464866451269E+00
N   -3.1383912317870744E+00    5.5401558472979495E+00    1.0425811169022628E+01
Ga   -3.1396718392896936E+00    7.3791438458497716E+00    1.1075224475507035E+01
N   -3.1388134763101139E+00    7.3595865426328384E+00    1.3068747911015166E+01
Ga   -3.1393335652489083E+00    5.5390951833753084E+00    1.3869593093825054E+01
N   -3.1400086617290888E+00    5.5402717840777171E+00    1.6073161633264338E+01
Ga   -3.1394729987528081E+00    7.5839409516361265E+00    1.6483652066434331E+01
Ga   -3.1492272450805205E+00    9.2549255711728424E+00    1.5017820316060879E+00
N   -4.6385960105671309E+00    1.0122163783983749E+01    2.5206428743195186E+00
Ga   -4.8556318867854413E+00    8.2713257402395701E+00    3.2931531634503943E+00
N   -4.7433407707797555E+00    8.3260298126311252E+00    5.2552442623877740E+00
Ga   -4.7755432133924520E+00    1.0200829337305247E+01    5.8028249457314445E+00
N   -4.7545217970581852E+00    1.0187069735261270E+01    7.8013267232402468E+00
Ga   -4.7380455833426769E+00    8.3315411536818633E+00    8.4403258789607598E+00
N   -4.7347255880366408E+00    8.3312142254089760E+00    1.0434489075630063E+01
Ga   -4.7614564657337901E+00    1.0190163925681937E+01    1.1072712256848220E+01
N   -4.7778764352254406E+00    1.0199092914646336E+01    1.3067833924126610E+01
Ga   -4.7360074033279771E+00    8.3303717160621868E+00    1.3623971338568600E+01
N   -4.7621980375273809E+00    8.3136695563392315E+00    1.5586566991206046E+01
Ga   -4.5907604829098094E+00    1.0090352723217602E+01    1.6482511139821291E+01
N   -3.1389340773732015E+00    9.2615048706454726E+00    1.7615559959048262E+01
N    3.2857072343301668E+00    1.8314637291264255E+00    2.6219640448029953E+00
Ga    3.2881945382451891E+00    9.1522973532328966E-02    3.2924086942115549E+00
N    3.2971990933168089E+00   -3.3905328187429196E-02    5.2554290691978807E+00
Ga    3.2887310333062438E+00    1.8278793570682774E+00    5.8787511980637861E+00
N    3.2956114073135376E+00    1.8242254001718390E+00    7.8555296213793797E+00
Ga    3.2931657911597698E+00   -4.1607400336948278E-02    8.4433353445969317E+00
N    3.2945040209057375E+00   -4.3756900218751296E-02    1.0437131652458387E+01
Ga    3.2945243208270067E+00    1.8263800664631056E+00    1.1030440216911634E+01
N    3.2939435742786896E+00    1.8252060455229666E+00    1.3003316538964437E+01
Ga    3.2935674597868112E+00   -4.4501738696683127E-02    1.3624513119378809E+01
N    3.2927833178675665E+00   -1.2480855121214576E-02    1.5588416025734977E+01
Ga    3.2940088623556720E+00    1.8258200611745714E+00    1.5864997484058629E+01
N    1.5721777393683334E+00    4.5492399679619080E+00    2.5262285860421465E+00
Ga    1.7576144230599460E+00    2.7165982786907756E+00    3.2747251553407661E+00
N    1.6893991519435636E+00    2.7533457929013565E+00    5.2582592184401848E+00
Ga    1.7200216708151017E+00    4.6183971958547563E+00    5.8130030325741435E+00
N    1.6964614732416587E+00    4.6166989795321278E+00    7.8095104516782712E+00
Ga    1.6768956074945660E+00    2.7577582796042424E+00    8.4426536966950270E+00
N    1.6758417816255173E+00    2.7603792110856711E+00    1.0437472513002859E+01
Ga    1.7019845960918663E+00    4.6190083221423714E+00    1.1074165569859453E+01
N    1.7179307880468042E+00    4.6290307325124251E+00    1.3069060021753559E+01
Ga    1.6742440948400099E+00    2.7595612907700255E+00    1.3622902550686737E+01
N    1.6996308045097042E+00    2.7428899748412148E+00    1.5586447926177490E+01
Ga    1.5303478636697323E+00    4.5206639764214192E+00    1.6480953842998943E+01
N    8.3595623440545927E-02    7.3795490229534124E+00    2.6989443298735889E+00
Ga    8.9870870526603794E-02    5.5387107048049522E+00    3.3417685389330400E+00
N    8.0029932171393606E-02    5.5527104669210985E+00    5.2793254654234465E+00
Ga    8.7411715962627368E-02    7.3940038546717606E+00    5.9105636493158462E+00
N    7.9523215431236305E-02    7.3978586343829758E+00    7.8700263850831362E+00
Ga    7.9122038363045211E-02    5.5245621282084425E+00    8.4496626860443964E+00
N    7.7990167725430923E-02    5.5272042576068676E+00    1.0441038139301428E+01
Ga    7.8692698329604474E-02    7.3969030476598769E+00    1.1032913315117419E+01
N    7.7424137079530400E-02    7.3962309702657310E+00    1.3004658785785082E+01
Ga    7.7714493647736499E-02    5.5256438277347213E+00    1.3624064377885249E+01
N    7.6857451204291397E-02    5.5571365864280340E+00    1.5588531522304352E+01
Ga    7.7711596372854991E-02    7.3958812219083141E+00    1.5865964593331794E+01
N   -1.6303847023415659E+00    1.0110595442589473E+01    2.5272208762027968E+00
Ga   -1.4861153481565161E+00    8.2970353812097581E+00    3.3379179063861479E+00
N   -1.5159822360376172E+00    8.3175553777925764E+00    5.2657581749083393E+00
Ga   -1.5027943262484078E+00    1.0203322109965743E+01    5.8137928864742836E+00
N   -1.5201060775285027E+00    1.0184918548731742E+01    7.8052504624551400E+00
Ga   -1.5412159112116826E+00    8.3313783823835337E+00    8.4514040418318626E+00
N   -1.5415956188448019E+00    8.3312262023477412E+00    1.0440685334884622E+01
Ga   -1.5153127034283698E+00    1.0191189686862886E+01    1.1075603865448624E+01
N   -1.4984605255775252E+00    1.0199652722310182E+01    1.3069708185968416E+01
Ga   -1.5421044629673388E+00    8.3306614289969421E+00    1.3625033923181334E+01
N   -1.5158942943143612E+00    8.3132144271422241E+00    1.5587623039819974E+01
Ga   -1.6872016147674331E+00    1.0090915330265739E+01    1.6482839836066240E+01
N    6.5110908608767861E+00    1.9494242366670471E+00    2.5417458497805230E+00
Ga    6.5291733526452571E+00   -3.1114358704655808E-02    2.8667785773627585E+00
N    6.5079553086715434E+00   -3.1047697165054924E-02    5.0295913657454747E+00
Ga    6.5104115874471065E+00    1.7987193698916355E+00    5.8085578103734701E+00
N    6.5105665971467186E+00    1.8136591796565509E+00    7.8052544789149545E+00
Ga    6.5129453970744429E+00   -3.1721957401782526E-02    8.4504846198534818E+00
N    6.5105438839407714E+00   -3.1998638267786539E-02    1.0424246873141662E+01
Ga    6.5110731613494348E+00    1.8090895978979047E+00    1.1072014585333770E+01
N    6.5101166978438041E+00    1.7888875317296034E+00    1.3066658140341394E+01
Ga    6.5105128776380008E+00   -3.0052989075431687E-02    1.3870699893482099E+01
N    6.5095952628877880E+00   -2.9726143658015524E-02    1.6073292387956350E+01
Ga    6.5094306409057898E+00    2.0150921149177541E+00    1.6484188948277133E+01
Ga    6.5160520737476100E+00    3.6816015448054769E+00    1.5365269479148345E+00
N    5.0099422539034331E+00    4.5486474288477385E+00    2.5350124650264934E+00
Ga    4.7935789454173392E+00    2.6974879694284986E+00    3.3016916941323129E+00
N    4.9013394982761271E+00    2.7535174140651928E+00    5.2630421004544319E+00
Ga    4.8772231627289706E+00    4.6263579439373919E+00    5.8088510034186758E+00
N    4.8939216731755133E+00    4.6164821801463187E+00    7.8060790891997538E+00
Ga    4.9119815599088623E+00    2.7590617945069074E+00    8.4429828869821577E+00
N    4.9134898707590837E+00    2.7605868786238430E+00    1.0436967220377978E+01
Ga    4.8882156017886507E+00    4.6200801074800060E+00    1.1072701268293033E+01
N    4.8707526246374826E+00    4.6288356843150531E+00    1.3067670372105866E+01
Ga    4.9135273624246807E+00    2.7598730056785081E+00    1.3623579602995679E+01
N    4.8864701468068672E+00    2.7432537088867450E+00    1.5585606211199643E+01
Ga    5.0594722360076965E+00    4.5190851422465599E+00    1.6483220218597026E+01
N    6.5089576011673316E+00    3.6905985453963446E+00    1.7619016634879511E+01
N    3.2940667827701522E+00    7.5116806262738072E+00    2.5086334431176676E+00
N    3.2960592388861589E+00    5.5380318772899715E+00    5.0355774860644189E+00
Ga    3.2998650658417521E+00    7.3651221586623405E+00    5.8014876211753954E+00
N    3.2927955949550016E+00    7.3870125974924772E+00    7.7998071100277544E+00
Ga    3.2954107721445833E+00    5.5408472685909542E+00    8.4507068566526353E+00
N    3.2945118679379441E+00    5.5403868723190524E+00    1.0425010860401317E+01
Ga    3.2963510133731253E+00    7.3795606996860830E+00    1.1073974492841776E+01
N    3.2943494545652863E+00    7.3596317245063050E+00    1.3067859074625250E+01
Ga    3.2949629619174936E+00    5.5396360202235808E+00    1.3870091734237581E+01
N    3.2940561209080506E+00    5.5406028301171499E+00    1.6072844333059678E+01
Ga    3.2936411379716803E+00    7.5858886973220825E+00    1.6484546698284856E+01
Ga    3.3345398139556357E+00    9.2757243795178859E+00    1.3376077963753441E+00
N    1.7862593960928339E+00    1.0117611486103103E+01    2.5117070170727969E+00
Ga    1.6811187791942688E+00    8.3122910497186062E+00    3.2957327335215245E+00
N    1.6743167746430188E+00    8.3167629038985336E+00    5.2441431566714076E+00
Ga    1.6646706795674349E+00    1.0197919344797334E+01    5.8012463669259082E+00
N    1.6766837659923093E+00    1.0183916625512829E+01    7.7990668517253496E+00
Ga    1.7005032083231852E+00    8.3325359666621779E+00    8.4500919768184506E+00
N    1.6980062699795782E+00    8.3317262386645687E+00    1.0440241686393666E+01
Ga    1.6727488032218782E+00    1.0191647968097046E+01    1.1074481730784163E+01
N    1.6542422828898899E+00    1.0199794055281437E+01    1.3068700141228160E+01
Ga    1.6975013567094173E+00    8.3306614740892702E+00    1.3624340727532985E+01
N    1.6701405131478799E+00    8.3134559548043203E+00    1.5586312616116670E+01
Ga    1.8432043246013108E+00    1.0090131601220449E+01    1.6483809834191334E+01
N    3.2928392828228077E+00    9.2613112999483462E+00    1.7617609245049948E+01
N    9.7385963489454497E+00    1.8249654355145752E+00    2.6343515167069937E+00
Ga    9.7325441618374740E+00    6.2720815298587237E-02    3.2653986279117970E+00
N    9.7247525694299970E+00   -3.4344737749977913E-02    5.2468027164374469E+00
Ga    9.7335116041540264E+00    1.8199399482594993E+00    5.8724672639106483E+00
N    9.7264307622754842E+00    1.8240763325398168E+00    7.8522052331272132E+00
Ga    9.7288992204454647E+00   -4.2761400838839968E-02    8.4359850072049127E+00
N    9.7262718475845134E+00   -4.3827549667975668E-02    1.0432964743274701E+01
Ga    9.7267392162369788E+00    1.8258610432579965E+00    1.1027476542499977E+01
N    9.7257566906881525E+00    1.8254406646327972E+00    1.3001071830548137E+01
Ga    9.7265488226207051E+00   -4.4082423791688863E-02    1.3623745212685009E+01
N    9.7260792814331456E+00   -1.2016524854709911E-02    1.5587102883418444E+01
Ga    9.7251268422315729E+00    1.8255894592809492E+00    1.5864795358223754E+01
N    8.0147359676533814E+00    4.5496729901446065E+00    2.5429367022350648E+00
Ga    8.2315523443142773E+00    2.6902187033440965E+00    3.3044726192330249E+00
N    8.1200459158475073E+00    2.7531207138116405E+00    5.2649399736586844E+00
Ga    8.1434528521683909E+00    4.6255507952055757E+00    5.8054365559083116E+00
N    8.1292222671853249E+00    4.6177281657846470E+00    7.8030251849110801E+00
Ga    8.1111250815429816E+00    2.7587804194810790E+00    8.4393183377439787E+00
N    8.1076206156424089E+00    2.7608688677138171E+00    1.0434586012299647E+01
Ga    8.1321990471709302E+00    4.6191816374044050E+00    1.1072835035837789E+01
N    8.1492857100054739E+00    4.6287472584219262E+00    1.3067598359282607E+01
Ga    8.1066782790500884E+00    2.7598418996472178E+00    1.3623349389518445E+01
N    8.1326256098348555E+00    2.7433153982532157E+00    1.5585467223677755E+01
Ga    7.9585982529788666E+00    4.5185717179811054E+00    1.6483440016913566E+01
N    6.5065097641199250E+00    7.3992492618031536E+00    2.6141846251848864E+00
Ga    6.5063038717486874E+00    5.6622867012354634E+00    3.2994697263625281E+00
N    6.5108587926473973E+00    5.5421529604642386E+00    5.2605829152943562E+00
Ga    6.5047277995950168E+00    7.4014072096071608E+00    5.8739818600111233E+00
N    6.5105913524413657E+00    7.3972223444054679E+00    7.8505020806392833E+00
Ga    6.5111917927089253E+00    5.5297743316411783E+00    8.4410121989025484E+00
N    6.5106843917147170E+00    5.5280464205231743E+00    1.0435526260186876E+01
Ga    6.5099925084388399E+00    7.3976250899975762E+00    1.1028391443127887E+01
N    6.5099987307847496E+00    7.3962571009056930E+00    1.3001308476070630E+01
Ga    6.5100681481654066E+00    5.5263435515470727E+00    1.3623878025933024E+01
N    6.5096787618694396E+00    5.5577743012770267E+00    1.5587100611158792E+01
Ga    6.5094315410008612E+00    7.3952117545600364E+00    1.5866063500414379E+01
N    4.8051464286250321E+00    1.0125436077088400E+01    2.5183545757963999E+00
Ga    4.9816534555676659E+00    8.2808615782903967E+00    3.2622722847149941E+00
N    4.9014810687903188E+00    8.3248334826745314E+00    5.2436685327386456E+00
Ga    4.9298393081392007E+00    1.0197723240506395E+01    5.7900311475886586E+00
N    4.9132337385320133E+00    1.0187223519755245E+01    7.7953009105471347E+00
Ga    4.8931049110755547E+00    8.3330500515050279E+00    8.4366614932760822E+00
N    4.8913452744195327E+00    8.3312832431643020E+00    1.0432645107514672E+01
Ga    4.9164674414981411E+00    1.0189909978780294E+01    1.1071059272749052E+01
N    4.9332463488123492E+00    1.0199212964425595E+01    1.3066570305856068E+01
Ga    4.8911497183083981E+00    8.3307512328709095E+00    1.3623811519617977E+01
N    4.9172773857919241E+00    8.3136022574933222E+00    1.5585872901011626E+01
Ga    4.7426334624570847E+00    1.0089282880152419E+01    1.6483714163288035E+01
O    6.9857201225437940E-02    4.0843227262173851E+00   -4.2437562939344137E-01
H   -1.2918102830337955E-01    5.8646074651097715E+00   -3.3483470151256661E-01
C    1.2422884608968414E+00    3.6766247078686982E+00   -1.1565724854619106E+00
H    2.1752454676538475E+00    3.9868237143159297E+00   -6.5681947740015711E-01
H    1.2670369053081199E+00    2.5847759715361533E+00   -1.2942054023779355E+00
H    1.2008718024448382E+00    4.1514826892084757E+00   -2.1474205244527562E+00
Ga    3.2680383732464300E+00    5.5342940633964437E+00    2.8601785214840176E+00
O   -1.1662825462692390E-01    6.8518136308686710E+00   -2.0288801033888423E-01
H    4.1309667741419170E-02    7.3093586053385229E+00    1.6608465144582600E+00
C    1.0462173823347045E+00    7.3485675645980386E+00   -8.7915995569487881E-01
H    1.0765650062893752E+00    8.4375199141959119E+00   -7.2833057528817713E-01
H    1.9763219184107330E+00    6.9155822170614192E+00   -4.7301525233602887E-01
H    1.0053530926947372E+00    7.1515038079165061E+00   -1.9622952453632072E+00
     &END COORD
     &KIND C
       BASIS_SET DZVP-MOLOPT-SR-GTH-q4
       POTENTIAL GTH-PBE-q4
       &POTENTIAL
 2 2
  0.3384712400000000E+00 2 -0.8803673979999999E+01  0.1339210850000000E+01
 2
  0.3025757500000000E+00 1  0.9622486650000001E+01
  0.2915069400000000E+00 0
         # Potential name:  GTH-PBE-Q4  for symbol:  C
         # Potential read from the potential filename: GTH_POTENTIALS
       &END POTENTIAL
     &END KIND
     &KIND O
       BASIS_SET DZVP-MOLOPT-SR-GTH-q6
       POTENTIAL GTH-PBE-q6
       &POTENTIAL
 2 4
  0.2445543000000000E+00 2 -0.1666721480000000E+02  0.2487311320000000E+01
 2
  0.2209559200000000E+00 1  0.1833745811000000E+02
  0.2113324700000000E+00 0
         # Potential name:  GTH-PBE-Q6  for symbol:  O
         # Potential read from the potential filename: GTH_POTENTIALS
       &END POTENTIAL
     &END KIND
     &KIND H
       BASIS_SET DZVP-MOLOPT-SR-GTH-q1
       POTENTIAL GTH-PBE-q1
       &POTENTIAL
 1
  0.2000000000000000E+00 2 -0.4178900440000000E+01  0.7244633100000000E+00
 0
         # Potential name:  GTH-PBE-Q1  for symbol:  H
         # Potential read from the potential filename: GTH_POTENTIALS
       &END POTENTIAL
     &END KIND
     &KIND N
       BASIS_SET DZVP-MOLOPT-SR-GTH
       POTENTIAL GTH-PBE-q5
       &POTENTIAL
 2 3
  0.2837905100000000E+00 2 -0.1241522559000000E+02  0.1868095920000000E+01
 2
  0.2554050000000000E+00 1  0.1363026257000000E+02
  0.2454945300000000E+00 0
         # Potential name:  GTH-PBE-Q5  for symbol:  N
         # Potential read from the potential filename: GTH_POTENTIALS
       &END POTENTIAL
     &END KIND
     &KIND Ga
       BASIS_SET DZVP-MOLOPT-SR-GTH
       POTENTIAL GTH-PBE-q13
       &POTENTIAL
 2 1 10
  0.4900000000000000E+00 0
 3
  0.4167772300000000E+00 3  0.1047568975000000E+02 -0.4921768140000000E+01  0.8707055900000000E+00
  0.7770178090000000E+01 -0.2248152160000000E+01
  0.1784415450000000E+01
  0.5696265200000000E+00 2  0.1777985340000000E+01  0.1958597600000000E+00
 -0.2317443900000000E+00
  0.2381265000000000E+00 1 -0.1624868022000000E+02
         # Potential name:  GTH-PBE-Q13  for symbol:  GA
         # Potential read from the potential filename: GTH_POTENTIALS
       &END POTENTIAL
     &END KIND
     &TOPOLOGY
       NUMBER_OF_ATOMS  212
       MULTIPLE_UNIT_CELL  1 1 1
     &END TOPOLOGY
   &END SUBSYS
 &END FORCE_EVAL
