 # Version information for this restart file 
 # current date 2019-05-28 10:02:32.341
 # current working dir /lustre03/project/6004141/rzk/GaN-carbene/334-native/08-2Methanol-Htransfer/03-CO-constraint/2.54
 # Program compiled at                              Sun Apr  7 00:48:11 EDT 2019
 # Program compiled on                          beluga2.int.ets1.calculquebec.ca
 # Program compiled for                        Beluga-Linux-x86-64-intel-openmpi
 # Source code revision number                                         svn:18619
 &GLOBAL
   PRINT_LEVEL  MEDIUM
   PROJECT_NAME TEST
   RUN_TYPE  GEO_OPT
 &END GLOBAL
 &MOTION
   &GEO_OPT
     MAX_ITER  500
     STEP_START_VAL  231
   &END GEO_OPT
   &CONSTRAINT
     &COLLECTIVE
       COLVAR  1
       INTERMOLECULAR  T
       TARGET     4.7999043775295336E+00
       &RESTRAINT
         K     1.0000000000000001E-01
       &END RESTRAINT
     &END COLLECTIVE
     &COLVAR_RESTART
           4.7999043775295336E+00
     &END COLVAR_RESTART
   &END CONSTRAINT
 &END MOTION
 &FORCE_EVAL
   METHOD  QS
   STRESS_TENSOR  ANALYTICAL
   &DFT
     BASIS_SET_FILE_NAME BASIS_MOLOPT
     POTENTIAL_FILE_NAME GTH_POTENTIALS
     &SCF
       MAX_SCF  100
       EPS_SCF     5.0000000000000004E-06
       &OT  T
         PRECONDITIONER  FULL_ALL
       &END OT
       &OUTER_SCF  T
         OPTIMIZER  NONE
         EPS_SCF     5.0000000000000004E-06
         MAX_SCF  4
       &END OUTER_SCF
       &PRINT
         &RESTART  OFF
           BACKUP_COPIES  1
           &EACH
             JUST_ENERGY  0
             QS_SCF  0
             MD  20
           &END EACH
         &END RESTART
       &END PRINT
     &END SCF
     &QS
       EPS_DEFAULT     1.0000000000000000E-14
       ALMO_SCF  F
       METHOD  GPW
     &END QS
     &MGRID
       NGRIDS  5
       CUTOFF     1.2000000000000000E+03
     &END MGRID
     &XC
       DENSITY_CUTOFF     1.0000000000000000E-10
       GRADIENT_CUTOFF     1.0000000000000000E-10
       TAU_CUTOFF     1.0000000000000000E-10
       &XC_FUNCTIONAL  NO_SHORTCUT
         &PBE  T
         &END PBE
       &END XC_FUNCTIONAL
       &VDW_POTENTIAL
         POTENTIAL_TYPE  PAIR_POTENTIAL
         &PAIR_POTENTIAL
           R_CUTOFF     1.0000000000000005E+01
           TYPE  DFTD3
           PARAMETER_FILE_NAME dftd3.dat
           REFERENCE_FUNCTIONAL PBE
           EPS_CN     9.9999999999999995E-07
           CALCULATE_C9_TERM  T
           REFERENCE_C9_TERM  T
           LONG_RANGE_CORRECTION  F
           VERBOSE_OUTPUT  F
         &END PAIR_POTENTIAL
       &END VDW_POTENTIAL
     &END XC
   &END DFT
   &SUBSYS
     &CELL
       A     9.7367653356401487E+00    0.0000000000000000E+00    0.0000000000000000E+00
       B    -4.8591341382960209E+00    8.4162672083210595E+00    0.0000000000000000E+00
       C     0.0000000000000000E+00    0.0000000000000000E+00    3.0744000000000000E+01
       MULTIPLE_UNIT_CELL  1 1 1
       &CELL_REF
         A     9.5580000000000052E+00    0.0000000000000000E+00    0.0000000000000000E+00
         B    -4.7790000000000026E+00    8.2774708093716640E+00    0.0000000000000000E+00
         C     0.0000000000000000E+00    0.0000000000000000E+00    3.0744000000000000E+01
         MULTIPLE_UNIT_CELL  1 1 1
       &END CELL_REF
     &END CELL
     &COORD
Ga    1.6796849627546465E-01   -1.0162674077350427E-01   -5.4605092931331056E-01
N    1.7210855487148127E-01    1.7743666034233463E+00    6.0890252161492064E-01
Ga    1.7335742935072992E-01    1.7427974737898566E+00    2.6361088519127769E+00
N    1.7003540209799148E-01   -1.0208149746942718E-01    3.2688042092296139E+00
Ga    1.6953448611831745E-01   -1.0075729874752617E-01    5.2563855057766338E+00
N    1.7308261367303396E-01    1.7736025731172138E+00    5.8478683442461721E+00
Ga    1.7074418556288912E-01    1.7718109109042035E+00    7.8434417127723330E+00
N    1.6734025765862198E-01   -1.0126718722248647E-01    8.4492956706913205E+00
Ga    1.6795355116782362E-01   -1.0056002559358047E-01    1.0441809411938982E+01
N    1.6839758863282484E-01    1.7678246651987206E+00    1.1057498268089914E+01
Ga    1.6870505981854128E-01    1.7675560189248061E+00    1.3055277384315344E+01
N    1.6267270554838448E-01   -9.4363149263943291E-02    1.3700262086364303E+01
Ga    1.8133513969126308E-01   -7.8698646321068252E-02    1.5735549754481999E+01
N    1.5995985219985623E-01    1.8203344460039832E+00    1.6277429350519771E+01
Ga    2.0810084825565345E-01    1.8343859186611942E+00    1.8353055743234055E+01
N    1.8709059928513486E-01    4.4170052957988046E-03    1.8842064424522047E+01
Ga   -1.4492433457085114E+00    2.7037390092793814E+00    3.2112974780065179E-01
N   -1.4519524544110973E+00    4.5730032799506750E+00    6.0750397182933613E-01
Ga   -1.4229934819480907E+00    4.5888931917533302E+00    2.6346651939524115E+00
N   -1.4497193963393329E+00    2.7036873999911046E+00    3.2311076297666133E+00
Ga   -1.4497008119429522E+00    2.7048244798812791E+00    5.2388018732030179E+00
N   -1.4500374956172490E+00    4.5751052307675870E+00    5.8485697793879758E+00
Ga   -1.4503983427206173E+00    4.5750935545896994E+00    7.8438767001037988E+00
N   -1.4506185074490068E+00    2.7050714111940435E+00    8.4506627154671694E+00
Ga   -1.4484827492021024E+00    2.7055352049821075E+00    1.0441464377598159E+01
N   -1.4536973097502870E+00    4.5813326552555598E+00    1.1049254872257501E+01
Ga   -1.4472562747543765E+00    4.5817409236151114E+00    1.3035814176384115E+01
N   -1.4513457933455960E+00    2.7193684961937343E+00    1.3636725781707881E+01
Ga   -1.4275111342189715E+00    2.7473491301610524E+00    1.5626074719428644E+01
N   -1.4827892242379845E+00    4.5872228838988738E+00    1.6346866644996904E+01
Ga   -1.4493369702467964E+00    4.7405687988807941E+00    1.8441377529304102E+01
N   -1.4987679376449055E+00    2.8099561091178966E+00    1.8949846722440650E+01
Ga   -3.0696998924133845E+00    5.5098341081911784E+00    3.2071894225099234E-01
N   -3.0618308243479193E+00    7.3787176866396766E+00    6.0764197795516850E-01
Ga   -3.0895290071880219E+00    7.3942899882056166E+00    2.6354684661333128E+00
N   -3.0692039048831634E+00    5.5092026261144627E+00    3.2312168833393415E+00
Ga   -3.0696845292549022E+00    5.5098623933342639E+00    5.2387981591331432E+00
N   -3.0650221776529829E+00    7.3804371879354367E+00    5.8477888642695719E+00
Ga   -3.0684651032058872E+00    7.3801765636645182E+00    7.8429909676246528E+00
N   -3.0735424334435364E+00    5.5091840735876145E+00    8.4499684283265672E+00
Ga   -3.0748127372822496E+00    5.5132240735152145E+00    1.0438757431581651E+01
N   -3.0760810126610441E+00    7.3777006185401426E+00    1.1066308926921712E+01
Ga   -3.0834760547743394E+00    7.3922252052919175E+00    1.3065535161602837E+01
N   -3.0850764932233625E+00    5.5026337132740410E+00    1.3682512537434040E+01
Ga   -2.9634376851880604E+00    5.6006232463092376E+00    1.5651985752393401E+01
N   -3.0769533979763892E+00    7.3823599574496432E+00    1.6330775781680487E+01
Ga   -3.0059195998304293E+00    7.5771143483615795E+00    1.8487040844918980E+01
N   -2.8558548720749921E+00    5.7990267051246338E+00    1.9247780483035370E+01
Ga    3.4150116609175827E+00   -1.0146489878632946E-01    3.2017350680178602E-01
N    3.4121803255426664E+00    1.7677507082980894E+00    6.0767603799989822E-01
Ga    3.4428688894093273E+00    1.7838835121033272E+00    2.6350059273045385E+00
N    3.4163861783318206E+00   -1.0160085613929021E-01    3.2314034310709534E+00
Ga    3.4154531986975654E+00   -1.0075288781206340E-01    5.2388519669337574E+00
N    3.4156383845685769E+00    1.7685270301693208E+00    5.8519157144637495E+00
Ga    3.4133179329851675E+00    1.7669317814492778E+00    7.8490906834074234E+00
N    3.4109761793414002E+00   -1.0515865833742156E-01    8.4561787242891828E+00
Ga    3.4098216520410429E+00   -1.0839317381651152E-01    1.0450773127406817E+01
N    3.4091943277797108E+00    1.7672971273723148E+00    1.1041067254693781E+01
Ga    3.3941279577002077E+00    1.7518206283303430E+00    1.3027577082146610E+01
N    3.4019828237497398E+00   -1.0471504362043890E-01    1.3666425555551909E+01
Ga    3.4070365479310403E+00   -1.1477009231273741E-01    1.5692491975160763E+01
N    3.4059633158011016E+00    1.7831068676898498E+00    1.6202566493987263E+01
Ga    3.2472238812507990E+00    1.7899253449021009E+00    1.8211284204396666E+01
N    3.4952624428742274E+00    6.2149349111460792E-02    1.8797008745823579E+01
Ga    1.7939495528643701E+00    2.7038050050633102E+00    3.2160571162877194E-01
N    1.8027423756153280E+00    4.5731391511088049E+00    6.0838863848299052E-01
Ga    1.7749306225542683E+00    4.5894414309667724E+00    2.6355054774820479E+00
N    1.7966448841187346E+00    2.7040115978290569E+00    3.2315662783692152E+00
Ga    1.7965474610131671E+00    2.7048683896959185E+00    5.2392945529209234E+00
N    1.8001913602775466E+00    4.5751687727190440E+00    5.8490953568294008E+00
Ga    1.7967746442706205E+00    4.5747082108011101E+00    7.8445519909898778E+00
N    1.7920454538196147E+00    2.7049496623169280E+00    8.4529815017640058E+00
Ga    1.7875987492961152E+00    2.7058338007736782E+00    1.0445767551218129E+01
N    1.7932430054562121E+00    4.5801324433693020E+00    1.1056169145904747E+01
Ga    1.7801828260811798E+00    4.5782559821248041E+00    1.3047708437432673E+01
N    1.7897524816071608E+00    2.7114459559859645E+00    1.3643246332017164E+01
Ga    1.7802679190995194E+00    2.7213062348243815E+00    1.5636329091479194E+01
N    1.8109576134162571E+00    4.6029247265812003E+00    1.6248007070089368E+01
Ga    1.5569644684974742E+00    4.5253869856979829E+00    1.8233082592741663E+01
N    1.8058852551060267E+00    2.8017898982696812E+00    1.8855406351955253E+01
Ga    1.7619518189694169E-01    5.5099142099183025E+00   -5.4778588440913534E-01
N    1.7890980941839432E-01    7.3861785293138320E+00    6.0703619190638070E-01
Ga    1.7931320716118973E-01    7.3531501415228888E+00    2.6347531360255214E+00
N    1.7611191959314401E-01    5.5092967597196569E+00    3.2693851428993934E+00
Ga    1.7551396351743212E-01    5.5100468394009008E+00    5.2567226289545852E+00
N    1.7752965881630198E-01    7.3840885769953690E+00    5.8495092932833979E+00
Ga    1.7525745211796445E-01    7.3820931835148977E+00    7.8449900803470047E+00
N    1.7314409462597222E-01    5.5096893804502889E+00    8.4508892577265975E+00
Ga    1.7177919422102389E-01    5.5162584063216960E+00    1.0444719005978731E+01
N    1.7581906601317671E-01    7.3817263290606139E+00    1.1065977355344383E+01
Ga    1.7198394858998473E-01    7.3802525017767451E+00    1.3071670246127963E+01
N    1.6238792101092905E-01    5.5045776377540578E+00    1.3681244529103267E+01
Ga    1.5180392106527332E-01    5.5472803716770818E+00    1.5704258712614237E+01
N    1.8451884200330598E-01    7.4078363166651675E+00    1.6231267054903814E+01
Ga    1.9719057818602731E-01    7.5078633448711685E+00    1.8329737966792894E+01
N    2.0912339313211492E-01    5.6450978359035711E+00    1.8804317283569102E+01
Ga    6.6601283106386129E+00   -1.0079818448373838E-01    3.2011493343858005E-01
N    6.6686339246971462E+00    1.7683610416418305E+00    6.0769384723281172E-01
Ga    6.6406060963047508E+00    1.7830198936312411E+00    2.6355945363867872E+00
N    6.6612268321518187E+00   -1.0197410314371855E-01    3.2318835073673839E+00
Ga    6.6605777326257805E+00   -1.0119926820170741E-01    5.2398922094337008E+00
N    6.6665424720092368E+00    1.7689835305265840E+00    5.8507037278883507E+00
Ga    6.6633869179228231E+00    1.7678118335698023E+00    7.8470125850218597E+00
N    6.6580551554142557E+00   -1.0428623529265452E-01    8.4534063763132181E+00
Ga    6.6576630597399111E+00   -1.0771140156481029E-01    1.0445681398936520E+01
N    6.6666822832843495E+00    1.7665790575013292E+00    1.1038448258691012E+01
Ga    6.6838050123850969E+00    1.7530414213587704E+00    1.3022353312679199E+01
N    6.6721493967713732E+00   -1.0948432520223074E-01    1.3656984575648591E+01
Ga    6.6742303008481256E+00   -1.2863171009349972E-01    1.5668600481774600E+01
N    6.7031162597825089E+00    1.7723334304067073E+00    1.6176058431864938E+01
Ga    6.7118826890305643E+00    1.8336135190043339E+00    1.8146531823834522E+01
N    6.6319653490667463E+00    7.7973479547883445E-02    1.8802954946720572E+01
Ga    5.0411286852635202E+00    2.7046030071349558E+00   -5.4827110180315242E-01
N    5.0446766037305864E+00    4.5808834449929057E+00    6.0868173958429161E-01
Ga    5.0443777856902203E+00    4.5476032637313510E+00    2.6358375215131171E+00
N    5.0418443512226663E+00    2.7034272823634691E+00    3.2705671808153554E+00
Ga    5.0412578417803955E+00    2.7038992731398981E+00    5.2587796629510004E+00
N    5.0435307069288955E+00    4.5786890763820995E+00    5.8490490014098304E+00
Ga    5.0407269032447699E+00    4.5747864555669082E+00    7.8441115303948834E+00
N    5.0390079343815106E+00    2.7025475304771902E+00    8.4502487494697522E+00
Ga    5.0379555065304507E+00    2.6987820191553205E+00    1.0442552721151015E+01
N    5.0411245584266275E+00    4.5746117923399217E+00    1.1049806267097180E+01
Ga    5.0427102207176935E+00    4.5673736106536023E+00    1.3029910503980911E+01
N    5.0406314393935610E+00    2.6820941869210921E+00    1.3586614416197651E+01
Ga    5.0494483257790836E+00    2.5406498365399557E+00    1.5526362690396176E+01
N    4.9890150472901276E+00    4.4085901741036055E+00    1.6223308901911668E+01
Ga    5.1998278078882061E+00    5.1388380911144038E+00    1.9342731077761940E+01
N    5.0599166910192936E+00    3.2947707099110191E+00    1.8314050664949626E+01
Ga    3.4214367443315843E+00    5.5083473698850751E+00    3.2124747448649438E-01
N    3.4182562403588741E+00    7.3777832684467768E+00    6.0716827980384169E-01
Ga    3.4481496035741568E+00    7.3942595933154349E+00    2.6350800245066739E+00
N    3.4220167368593368E+00    5.5095101624104315E+00    3.2315218206511442E+00
Ga    3.4210138005926738E+00    5.5102711085612732E+00    5.2390457666943036E+00
N    3.4218598334090689E+00    7.3804561120679910E+00    5.8494681730881561E+00
Ga    3.4206017489853373E+00    7.3796584399085567E+00    7.8449623790551435E+00
N    3.4192336381163595E+00    5.5084077824381534E+00    8.4529555441033057E+00
Ga    3.4167179380663848E+00    5.5102451052754944E+00    1.0443543703893589E+01
N    3.4263161159658457E+00    7.3793424832558756E+00    1.1054762522880532E+01
Ga    3.4356095110269576E+00    7.3928924770396005E+00    1.3045702537701258E+01
N    3.4273114758709666E+00    5.5065066302095147E+00    1.3655792763471711E+01
Ga    3.3486133588893758E+00    5.5766778319397323E+00    1.5614992429102861E+01
N    3.4409463611238760E+00    7.3567283139843163E+00    1.6336024532155726E+01
Ga    3.4191639396130311E+00    7.7145630804002581E+00    1.8348833266631932E+01
N    4.8759593114378204E+00    4.3546640119667632E+00    1.7544327274520050E+01
O   -7.4373341170936536E-01    4.9210204180467496E+00    2.1306467057514730E+01
H   -1.9293243978377136E-01    5.2709103934182551E+00    2.0548893614460919E+01
C   -1.5621162804989515E+00    2.6095288033731130E+00    2.0446200793373308E+01
H   -2.3035864995460975E+00    3.2684930295881025E+00    2.0904991831760004E+01
H   -5.9776856729110917E-01    2.8090989742089945E+00    2.0912239604361410E+01
H   -1.8455733278041115E+00    1.5626934443860294E+00    2.0642114964921291E+01
O    3.4270039534668029E+00    5.8206697677676980E+00    1.9491517537435410E+01
H   -1.4543931177066016E+00    5.5886025328415361E+00    2.1341549799338150E+01
C    2.8728838474189291E+00    6.0263160798848192E+00    2.0837801834515453E+01
H    2.6171866728716933E+00    5.0492213643803279E+00    2.1269922482051143E+01
H    3.5978370786684257E+00    6.5698642135853218E+00    2.1460257034820533E+01
H    1.9611870995649037E+00    6.6301764142026238E+00    2.0730841010949192E+01
     &END COORD
     &KIND C
       BASIS_SET DZVP-MOLOPT-SR-GTH-q4
       POTENTIAL GTH-PBE-q4
       &POTENTIAL
 2 2
  0.3384712400000000E+00 2 -0.8803673979999999E+01  0.1339210850000000E+01
 2
  0.3025757500000000E+00 1  0.9622486650000001E+01
  0.2915069400000000E+00 0
         # Potential name:  GTH-PBE-Q4  for symbol:  C
         # Potential read from the potential filename: GTH_POTENTIALS
       &END POTENTIAL
     &END KIND
     &KIND O
       BASIS_SET DZVP-MOLOPT-SR-GTH-q6
       POTENTIAL GTH-PBE-q6
       &POTENTIAL
 2 4
  0.2445543000000000E+00 2 -0.1666721480000000E+02  0.2487311320000000E+01
 2
  0.2209559200000000E+00 1  0.1833745811000000E+02
  0.2113324700000000E+00 0
         # Potential name:  GTH-PBE-Q6  for symbol:  O
         # Potential read from the potential filename: GTH_POTENTIALS
       &END POTENTIAL
     &END KIND
     &KIND H
       BASIS_SET DZVP-MOLOPT-SR-GTH-q1
       POTENTIAL GTH-PBE-q1
       &POTENTIAL
 1
  0.2000000000000000E+00 2 -0.4178900440000000E+01  0.7244633100000000E+00
 0
         # Potential name:  GTH-PBE-Q1  for symbol:  H
         # Potential read from the potential filename: GTH_POTENTIALS
       &END POTENTIAL
     &END KIND
     &KIND N
       BASIS_SET DZVP-MOLOPT-SR-GTH-q5
       POTENTIAL GTH-PBE-q5
       &POTENTIAL
 2 3
  0.2837905100000000E+00 2 -0.1241522559000000E+02  0.1868095920000000E+01
 2
  0.2554050000000000E+00 1  0.1363026257000000E+02
  0.2454945300000000E+00 0
         # Potential name:  GTH-PBE-Q5  for symbol:  N
         # Potential read from the potential filename: GTH_POTENTIALS
       &END POTENTIAL
     &END KIND
     &KIND Ga
       BASIS_SET DZVP-MOLOPT-SR-GTH-q13
       POTENTIAL GTH-PBE-q13
       &POTENTIAL
 2 1 10
  0.4900000000000000E+00 0
 3
  0.4167772300000000E+00 3  0.1047568975000000E+02 -0.4921768140000000E+01  0.8707055900000000E+00
  0.7770178090000000E+01 -0.2248152160000000E+01
  0.1784415450000000E+01
  0.5696265200000000E+00 2  0.1777985340000000E+01  0.1958597600000000E+00
 -0.2317443900000000E+00
  0.2381265000000000E+00 1 -0.1624868022000000E+02
         # Potential name:  GTH-PBE-Q13  for symbol:  GA
         # Potential read from the potential filename: GTH_POTENTIALS
       &END POTENTIAL
     &END KIND
     &TOPOLOGY
       COORD_FILE_NAME ../start-first.xyz
       COORD_FILE_FORMAT  XYZ
       NUMBER_OF_ATOMS  156
       MULTIPLE_UNIT_CELL  1 1 1
     &END TOPOLOGY
     &COLVAR
       &DISTANCE
         ATOMS  145 147
       &END DISTANCE
       &PRINT
       &END PRINT
     &END COLVAR
   &END SUBSYS
 &END FORCE_EVAL
