 # Version information for this restart file 
 # current date 2019-05-28 10:04:23.960
 # current working dir /lustre03/project/6004141/rzk/GaN-carbene/334-native/08-2Methanol-Htransfer/03-CO-constraint/2.54
 # Program compiled at                              Sun Apr  7 00:48:11 EDT 2019
 # Program compiled on                          beluga2.int.ets1.calculquebec.ca
 # Program compiled for                        Beluga-Linux-x86-64-intel-openmpi
 # Source code revision number                                         svn:18619
 &GLOBAL
   PRINT_LEVEL  MEDIUM
   PROJECT_NAME TEST
   RUN_TYPE  GEO_OPT
 &END GLOBAL
 &MOTION
   &GEO_OPT
     MAX_ITER  500
     STEP_START_VAL  233
   &END GEO_OPT
   &CONSTRAINT
     &COLLECTIVE
       COLVAR  1
       INTERMOLECULAR  T
       TARGET     4.7999043775295336E+00
       &RESTRAINT
         K     1.0000000000000001E-01
       &END RESTRAINT
     &END COLLECTIVE
     &COLVAR_RESTART
           4.7999043775295336E+00
     &END COLVAR_RESTART
   &END CONSTRAINT
 &END MOTION
 &FORCE_EVAL
   METHOD  QS
   STRESS_TENSOR  ANALYTICAL
   &DFT
     BASIS_SET_FILE_NAME BASIS_MOLOPT
     POTENTIAL_FILE_NAME GTH_POTENTIALS
     &SCF
       MAX_SCF  100
       EPS_SCF     5.0000000000000004E-06
       &OT  T
         PRECONDITIONER  FULL_ALL
       &END OT
       &OUTER_SCF  T
         OPTIMIZER  NONE
         EPS_SCF     5.0000000000000004E-06
         MAX_SCF  4
       &END OUTER_SCF
       &PRINT
         &RESTART  OFF
           BACKUP_COPIES  1
           &EACH
             JUST_ENERGY  0
             QS_SCF  0
             MD  20
           &END EACH
         &END RESTART
       &END PRINT
     &END SCF
     &QS
       EPS_DEFAULT     1.0000000000000000E-14
       ALMO_SCF  F
       METHOD  GPW
     &END QS
     &MGRID
       NGRIDS  5
       CUTOFF     1.2000000000000000E+03
     &END MGRID
     &XC
       DENSITY_CUTOFF     1.0000000000000000E-10
       GRADIENT_CUTOFF     1.0000000000000000E-10
       TAU_CUTOFF     1.0000000000000000E-10
       &XC_FUNCTIONAL  NO_SHORTCUT
         &PBE  T
         &END PBE
       &END XC_FUNCTIONAL
       &VDW_POTENTIAL
         POTENTIAL_TYPE  PAIR_POTENTIAL
         &PAIR_POTENTIAL
           R_CUTOFF     1.0000000000000005E+01
           TYPE  DFTD3
           PARAMETER_FILE_NAME dftd3.dat
           REFERENCE_FUNCTIONAL PBE
           EPS_CN     9.9999999999999995E-07
           CALCULATE_C9_TERM  T
           REFERENCE_C9_TERM  T
           LONG_RANGE_CORRECTION  F
           VERBOSE_OUTPUT  F
         &END PAIR_POTENTIAL
       &END VDW_POTENTIAL
     &END XC
   &END DFT
   &SUBSYS
     &CELL
       A     9.7367653356401487E+00    0.0000000000000000E+00    0.0000000000000000E+00
       B    -4.8591341382960209E+00    8.4162672083210595E+00    0.0000000000000000E+00
       C     0.0000000000000000E+00    0.0000000000000000E+00    3.0744000000000000E+01
       MULTIPLE_UNIT_CELL  1 1 1
       &CELL_REF
         A     9.5580000000000052E+00    0.0000000000000000E+00    0.0000000000000000E+00
         B    -4.7790000000000026E+00    8.2774708093716640E+00    0.0000000000000000E+00
         C     0.0000000000000000E+00    0.0000000000000000E+00    3.0744000000000000E+01
         MULTIPLE_UNIT_CELL  1 1 1
       &END CELL_REF
     &END CELL
     &COORD
Ga    1.6943666400978585E-01   -1.0212969295620182E-01   -5.4902717454156913E-01
N    1.7264722192136900E-01    1.7733622390418147E+00    6.0647305579239208E-01
Ga    1.7237459670784425E-01    1.7412515069437602E+00    2.6340336426172373E+00
N    1.6925643730918144E-01   -1.0324163994948617E-01    3.2668519097616184E+00
Ga    1.6960123603472455E-01   -1.0234515491131960E-01    5.2542640867216495E+00
N    1.7272918312697511E-01    1.7717145948098576E+00    5.8464005109382153E+00
Ga    1.7213997497760627E-01    1.7700972773275918E+00    7.8416495790064671E+00
N    1.6955341354318193E-01   -1.0324456692318924E-01    8.4471959334070235E+00
Ga    1.7161244773841858E-01   -1.0229599285662638E-01    1.0440043116488237E+01
N    1.7196642912847543E-01    1.7661475145675223E+00    1.1055381086977919E+01
Ga    1.7273099037438719E-01    1.7650640184706514E+00    1.3053611202773917E+01
N    1.6602869344700144E-01   -9.6561860028418656E-02    1.3697950817834666E+01
Ga    1.8468031236372479E-01   -8.1110313638644016E-02    1.5734630375973165E+01
N    1.6426281912385821E-01    1.8181756432531466E+00    1.6273305380037097E+01
Ga    2.1159202515362649E-01    1.8350503036473791E+00    1.8348690874047087E+01
N    1.8915689453134132E-01    4.8776099170379063E-03    1.8834999353711158E+01
Ga   -1.4493916927043735E+00    2.7026008343582721E+00    3.1952361085754211E-01
N   -1.4520922265803748E+00    4.5717797286342909E+00    6.0589238389847910E-01
Ga   -1.4234739875272306E+00    4.5876255983575058E+00    2.6334311338343888E+00
N   -1.4503711075889538E+00    2.7024645176536097E+00    3.2293589449478723E+00
Ga   -1.4499495247206788E+00    2.7032721044773229E+00    5.2370427569411406E+00
N   -1.4495136428291728E+00    4.5736543132759140E+00    5.8472380047419437E+00
Ga   -1.4489879634096918E+00    4.5736483375738404E+00    7.8425733810607046E+00
N   -1.4492402562395541E+00    2.7032596364744848E+00    8.4490735953706810E+00
Ga   -1.4454040412126725E+00    2.7038522718337865E+00    1.0440314585076671E+01
N   -1.4505590807146824E+00    4.5794071495886648E+00    1.1048050656075990E+01
Ga   -1.4439496614108878E+00    4.5800541590139403E+00    1.3035270384009371E+01
N   -1.4468638303452945E+00    2.7174487716218310E+00    1.3635373278701515E+01
Ga   -1.4228776022260172E+00    2.7458689951118211E+00    1.5624252696268611E+01
N   -1.4786525517586082E+00    4.5853894922225358E+00    1.6343060942388767E+01
Ga   -1.4432252458954111E+00    4.7394576192650275E+00    1.8437954589947186E+01
N   -1.4962405750655121E+00    2.8094185704384325E+00    1.8944520083805202E+01
Ga   -3.0699437437490951E+00    5.5083387031144202E+00    3.1966058489081245E-01
N   -3.0621688311801574E+00    7.3776825448733208E+00    6.0567585914174427E-01
Ga   -3.0908791487095852E+00    7.3931674440555213E+00    2.6333791587740509E+00
N   -3.0699671214735207E+00    5.5077717709731129E+00    3.2287521319459196E+00
Ga   -3.0695597799974337E+00    5.5082208366430416E+00    5.2361747320191139E+00
N   -3.0646957682293654E+00    7.3786992144679981E+00    5.8459750137716844E+00
Ga   -3.0663713762106410E+00    7.3785364629079107E+00    7.8407842696335770E+00
N   -3.0718010536845530E+00    5.5078554189170417E+00    8.4486312189754962E+00
Ga   -3.0712315667987444E+00    5.5120076876238002E+00    1.0438038101537625E+01
N   -3.0729230019587610E+00    7.3762283178052401E+00    1.1065000336664061E+01
Ga   -3.0802249270737008E+00    7.3902676880476506E+00    1.3064564464480000E+01
N   -3.0821047331192606E+00    5.4998187819891742E+00    1.3680404133502053E+01
Ga   -2.9627092737887883E+00    5.5955569320851497E+00    1.5649851502851696E+01
N   -3.0749694105658292E+00    7.3778660352424446E+00    1.6327766850935411E+01
Ga   -3.0049894121804508E+00    7.5738647072927403E+00    1.8485122852800036E+01
N   -2.8518363528999573E+00    5.7958732538168807E+00    1.9245450783710389E+01
Ga    3.4155649560405985E+00   -1.0293183276973014E-01    3.1923454246453520E-01
N    3.4126816281705126E+00    1.7664845774247411E+00    6.0560082540919657E-01
Ga    3.4417631588339579E+00    1.7824872283078341E+00    2.6332318306985854E+00
N    3.4152182378538400E+00   -1.0289376897367881E-01    3.2287352424865370E+00
Ga    3.4154763338627117E+00   -1.0222102558318918E-01    5.2362534856153671E+00
N    3.4154008172476216E+00    1.7670522035972323E+00    5.8500962198418813E+00
Ga    3.4149795798705620E+00    1.7653163104381235E+00    7.8472335172954404E+00
N    3.4133002922675701E+00   -1.0676152198618809E-01    8.4549974512764674E+00
Ga    3.4131082465361984E+00   -1.1020724268504370E-01    1.0450174756781342E+01
N    3.4124637717654398E+00    1.7654949094492738E+00    1.1039047286449218E+01
Ga    3.3969114758313768E+00    1.7501348808254766E+00    1.3025494681763627E+01
N    3.4048796226566775E+00   -1.0635381502700729E-01    1.3664224022209659E+01
Ga    3.4085379924691837E+00   -1.1737123300126366E-01    1.5692175534762802E+01
N    3.4094190463650995E+00    1.7819191981213458E+00    1.6200148293284080E+01
Ga    3.2500248490697690E+00    1.7889227602583937E+00    1.8207811511302918E+01
N    3.4965474279071986E+00    6.0423054793967153E-02    1.8794278735079118E+01
Ga    1.7946392360573176E+00    2.7030729909154068E+00    3.1954136440456088E-01
N    1.8027565911859291E+00    4.5722507567361292E+00    6.0628959528607840E-01
Ga    1.7739646042858805E+00    4.5878161162050173E+00    2.6337355970953316E+00
N    1.7956707083965313E+00    2.7024872139913905E+00    3.2294681921581025E+00
Ga    1.7960501328758800E+00    2.7031667124483296E+00    5.2372152615173695E+00
N    1.8003590886149803E+00    4.5735885577844275E+00    5.8474279957568092E+00
Ga    1.7981295449156873E+00    4.5731902764558860E+00    7.8428144380030487E+00
N    1.7934811832345914E+00    2.7033295255458523E+00    8.4510079850510085E+00
Ga    1.7909547224836142E+00    2.7040429768631213E+00    1.0443558729734477E+01
N    1.7968614214240926E+00    4.5783895747162857E+00    1.1053836460069869E+01
Ga    1.7832877167705308E+00    4.5766420373674599E+00    1.3044747667564154E+01
N    1.7938462616360384E+00    2.7099512401148185E+00    1.3640642943168546E+01
Ga    1.7840625400333221E+00    2.7206709663175914E+00    1.5634037744203395E+01
N    1.8147798622904254E+00    4.6031223991114034E+00    1.6243862025530852E+01
Ga    1.5627190860267528E+00    4.5271126525082872E+00    1.8228237447724439E+01
N    1.8086333341207090E+00    2.8028048002217210E+00    1.8850775259974320E+01
Ga    1.7617147447312551E-01    5.5081058368086415E+00   -5.4975079628151302E-01
N    1.7887002204281197E-01    7.3842317098693515E+00    6.0564745020102240E-01
Ga    1.7845089501162123E-01    7.3514710628606537E+00    2.6332936695188063E+00
N    1.7546995884399735E-01    5.5078038104612475E+00    3.2675760543269878E+00
Ga    1.7573266030139448E-01    5.5086050169809928E+00    5.2549548019418761E+00
N    1.7825058688083167E-01    7.3826807003729744E+00    5.8476014088692931E+00
Ga    1.7708992623245273E-01    7.3806096414393476E+00    7.8432097432686660E+00
N    1.7491000989177011E-01    5.5082354628896013E+00    8.4496835990234054E+00
Ga    1.7501934240216674E-01    5.5146898986582258E+00    1.0443787248100978E+01
N    1.7887429959265144E-01    7.3799110099175804E+00    1.1065110928906385E+01
Ga    1.7519140540145814E-01    7.3792941845435793E+00    1.3070491428340130E+01
N    1.6611313828324856E-01    5.5033648028776208E+00    1.3678528212875811E+01
Ga    1.5536317229826987E-01    5.5469306854853180E+00    1.5700988106318226E+01
N    1.8756036422808334E-01    7.4074277376437445E+00    1.6228017921985455E+01
Ga    1.9906688143584558E-01    7.5068228642179493E+00    1.8327098723317711E+01
N    2.1358364678137473E-01    5.6446217803160366E+00    1.8802184630716791E+01
Ga    6.6601273968453647E+00   -1.0232422214078825E-01    3.1922402392901084E-01
N    6.6684827148573733E+00    1.7670589879076011E+00    6.0613248033530953E-01
Ga    6.6396271351093450E+00    1.7822908108402427E+00    2.6338484140564531E+00
N    6.6605232033463615E+00   -1.0313402492205596E-01    3.2292579924684519E+00
Ga    6.6608760719223667E+00   -1.0257677418430684E-01    5.2370168411434701E+00
N    6.6664499068891638E+00    1.7673269612472993E+00    5.8489784115030297E+00
Ga    6.6648397930191470E+00    1.7658668080387869E+00    7.8454728575779793E+00
N    6.6601308694818666E+00   -1.0623114587892013E-01    8.4518666276245060E+00
Ga    6.6608025036481777E+00   -1.0950142770523515E-01    1.0445057360553131E+01
N    6.6701898381466185E+00    1.7649270687873722E+00    1.1037092615964950E+01
Ga    6.6880242873186129E+00    1.7521520600542135E+00    1.3021448995764192E+01
N    6.6758857226234269E+00   -1.1024992773615971E-01    1.3653746854074683E+01
Ga    6.6779289808096722E+00   -1.3017842963321943E-01    1.5664941544177982E+01
N    6.7059401768286371E+00    1.7721194838822381E+00    1.6171333646710018E+01
Ga    6.7135043895624298E+00    1.8337480726239321E+00    1.8140757075586713E+01
N    6.6335237838874965E+00    7.8140001111091456E-02    1.8799298804153715E+01
Ga    5.0415386677766127E+00    2.7036641269425519E+00   -5.4947780283942749E-01
N    5.0442923562851130E+00    4.5790906186743650E+00    6.0664624636095155E-01
Ga    5.0436628395078813E+00    4.5458793506263033E+00    2.6340724723783682E+00
N    5.0407929432214775E+00    2.7018555051346604E+00    3.2685270404153748E+00
Ga    5.0410570059741246E+00    2.7020113169468125E+00    5.2566388477114083E+00
N    5.0437974180109251E+00    4.5768873712796561E+00    5.8469567805469795E+00
Ga    5.0425476861682466E+00    4.5732447055828818E+00    7.8419815265197546E+00
N    5.0405280152470660E+00    2.7009543864104488E+00    8.4486735487409295E+00
Ga    5.0411916227050622E+00    2.6968239141951278E+00    1.0441567011044910E+01
N    5.0445035328236489E+00    4.5729811124078017E+00    1.1047426244706024E+01
Ga    5.0458147504918234E+00    4.5665993105182903E+00    1.3026974423804436E+01
N    5.0438988415241708E+00    2.6810159546512051E+00    1.3583355852236878E+01
Ga    5.0525418228610777E+00    2.5396975924656831E+00    1.5521881696862517E+01
N    4.9902458701790184E+00    4.4080256115335592E+00    1.6218683899645573E+01
Ga    5.2024393476209942E+00    5.1356544611395698E+00    1.9339221614696765E+01
N    5.0611147838074944E+00    3.2945462742519807E+00    1.8308458210123913E+01
Ga    3.4215351215001975E+00    5.5075802623009924E+00    3.1985662323090613E-01
N    3.4187426584761997E+00    7.3770190465506555E+00    6.0549447282689806E-01
Ga    3.4475411613889078E+00    7.3930560376976704E+00    2.6332554376897859E+00
N    3.4211509467470429E+00    5.5078471575059176E+00    3.2289221040252336E+00
Ga    3.4211836993370244E+00    5.5083440716591836E+00    5.2363499194121461E+00
N    3.4221523599962529E+00    7.3784841017519005E+00    5.8472240757881258E+00
Ga    3.4223823319591582E+00    7.3778437296204515E+00    7.8425595767605749E+00
N    3.4208830498329559E+00    5.5066653640648875E+00    8.4505692694165493E+00
Ga    3.4201027340118877E+00    5.5086781477233613E+00    1.0441092210973476E+01
N    3.4298642918584004E+00    7.3778102224399529E+00    1.1052345174000633E+01
Ga    3.4397702715672742E+00    7.3917670423815132E+00    1.3042927402707537E+01
N    3.4303808815519226E+00    5.5058119923644488E+00    1.3652041428064566E+01
Ga    3.3516958948725759E+00    5.5770122309080872E+00    1.5610352102687997E+01
N    3.4430899333209477E+00    7.3561018004709666E+00    1.6331997571247310E+01
Ga    3.4208750947436068E+00    7.7161553127497164E+00    1.8345643412439749E+01
N    4.8762149357973836E+00    4.3547632450381295E+00    1.7539122371586195E+01
O   -7.4944588422779135E-01    4.9176358255232806E+00    2.1308088375326967E+01
H   -1.9113477579624116E-01    5.2698754267445320E+00    2.0557322111718776E+01
C   -1.5609699221331022E+00    2.6055193210324936E+00    2.0440882354571833E+01
H   -2.3050771319049175E+00    3.2613803096235285E+00    2.0900965479843830E+01
H   -5.9717192513235806E-01    2.8056010657263353E+00    2.0908373262027016E+01
H   -1.8430154059737625E+00    1.5575412937727604E+00    2.0634673855739880E+01
O    3.4315116256611358E+00    5.8250633305909512E+00    1.9492064409444136E+01
H   -1.4668738479688379E+00    5.5769255913664715E+00    2.1324149416052542E+01
C    2.8786238283379331E+00    6.0290357505425769E+00    2.0840300474929403E+01
H    2.5992528976362022E+00    5.0539990412467830E+00    2.1259439581311145E+01
H    3.6158233076281436E+00    6.5411420883591154E+00    2.1472346778797924E+01
H    1.9856617137823962E+00    6.6575446633301638E+00    2.0738795994530879E+01
     &END COORD
     &KIND C
       BASIS_SET DZVP-MOLOPT-SR-GTH-q4
       POTENTIAL GTH-PBE-q4
       &POTENTIAL
 2 2
  0.3384712400000000E+00 2 -0.8803673979999999E+01  0.1339210850000000E+01
 2
  0.3025757500000000E+00 1  0.9622486650000001E+01
  0.2915069400000000E+00 0
         # Potential name:  GTH-PBE-Q4  for symbol:  C
         # Potential read from the potential filename: GTH_POTENTIALS
       &END POTENTIAL
     &END KIND
     &KIND O
       BASIS_SET DZVP-MOLOPT-SR-GTH-q6
       POTENTIAL GTH-PBE-q6
       &POTENTIAL
 2 4
  0.2445543000000000E+00 2 -0.1666721480000000E+02  0.2487311320000000E+01
 2
  0.2209559200000000E+00 1  0.1833745811000000E+02
  0.2113324700000000E+00 0
         # Potential name:  GTH-PBE-Q6  for symbol:  O
         # Potential read from the potential filename: GTH_POTENTIALS
       &END POTENTIAL
     &END KIND
     &KIND H
       BASIS_SET DZVP-MOLOPT-SR-GTH-q1
       POTENTIAL GTH-PBE-q1
       &POTENTIAL
 1
  0.2000000000000000E+00 2 -0.4178900440000000E+01  0.7244633100000000E+00
 0
         # Potential name:  GTH-PBE-Q1  for symbol:  H
         # Potential read from the potential filename: GTH_POTENTIALS
       &END POTENTIAL
     &END KIND
     &KIND N
       BASIS_SET DZVP-MOLOPT-SR-GTH-q5
       POTENTIAL GTH-PBE-q5
       &POTENTIAL
 2 3
  0.2837905100000000E+00 2 -0.1241522559000000E+02  0.1868095920000000E+01
 2
  0.2554050000000000E+00 1  0.1363026257000000E+02
  0.2454945300000000E+00 0
         # Potential name:  GTH-PBE-Q5  for symbol:  N
         # Potential read from the potential filename: GTH_POTENTIALS
       &END POTENTIAL
     &END KIND
     &KIND Ga
       BASIS_SET DZVP-MOLOPT-SR-GTH-q13
       POTENTIAL GTH-PBE-q13
       &POTENTIAL
 2 1 10
  0.4900000000000000E+00 0
 3
  0.4167772300000000E+00 3  0.1047568975000000E+02 -0.4921768140000000E+01  0.8707055900000000E+00
  0.7770178090000000E+01 -0.2248152160000000E+01
  0.1784415450000000E+01
  0.5696265200000000E+00 2  0.1777985340000000E+01  0.1958597600000000E+00
 -0.2317443900000000E+00
  0.2381265000000000E+00 1 -0.1624868022000000E+02
         # Potential name:  GTH-PBE-Q13  for symbol:  GA
         # Potential read from the potential filename: GTH_POTENTIALS
       &END POTENTIAL
     &END KIND
     &TOPOLOGY
       COORD_FILE_NAME ../start-first.xyz
       COORD_FILE_FORMAT  XYZ
       NUMBER_OF_ATOMS  156
       MULTIPLE_UNIT_CELL  1 1 1
     &END TOPOLOGY
     &COLVAR
       &DISTANCE
         ATOMS  145 147
       &END DISTANCE
       &PRINT
       &END PRINT
     &END COLVAR
   &END SUBSYS
 &END FORCE_EVAL
