 # Version information for this restart file 
 # current date 2019-05-28 10:03:28.873
 # current working dir /lustre03/project/6004141/rzk/GaN-carbene/334-native/08-2Methanol-Htransfer/03-CO-constraint/2.54
 # Program compiled at                              Sun Apr  7 00:48:11 EDT 2019
 # Program compiled on                          beluga2.int.ets1.calculquebec.ca
 # Program compiled for                        Beluga-Linux-x86-64-intel-openmpi
 # Source code revision number                                         svn:18619
 &GLOBAL
   PRINT_LEVEL  MEDIUM
   PROJECT_NAME TEST
   RUN_TYPE  GEO_OPT
 &END GLOBAL
 &MOTION
   &GEO_OPT
     MAX_ITER  500
     STEP_START_VAL  232
   &END GEO_OPT
   &CONSTRAINT
     &COLLECTIVE
       COLVAR  1
       INTERMOLECULAR  T
       TARGET     4.7999043775295336E+00
       &RESTRAINT
         K     1.0000000000000001E-01
       &END RESTRAINT
     &END COLLECTIVE
     &COLVAR_RESTART
           4.7999043775295336E+00
     &END COLVAR_RESTART
   &END CONSTRAINT
 &END MOTION
 &FORCE_EVAL
   METHOD  QS
   STRESS_TENSOR  ANALYTICAL
   &DFT
     BASIS_SET_FILE_NAME BASIS_MOLOPT
     POTENTIAL_FILE_NAME GTH_POTENTIALS
     &SCF
       MAX_SCF  100
       EPS_SCF     5.0000000000000004E-06
       &OT  T
         PRECONDITIONER  FULL_ALL
       &END OT
       &OUTER_SCF  T
         OPTIMIZER  NONE
         EPS_SCF     5.0000000000000004E-06
         MAX_SCF  4
       &END OUTER_SCF
       &PRINT
         &RESTART  OFF
           BACKUP_COPIES  1
           &EACH
             JUST_ENERGY  0
             QS_SCF  0
             MD  20
           &END EACH
         &END RESTART
       &END PRINT
     &END SCF
     &QS
       EPS_DEFAULT     1.0000000000000000E-14
       ALMO_SCF  F
       METHOD  GPW
     &END QS
     &MGRID
       NGRIDS  5
       CUTOFF     1.2000000000000000E+03
     &END MGRID
     &XC
       DENSITY_CUTOFF     1.0000000000000000E-10
       GRADIENT_CUTOFF     1.0000000000000000E-10
       TAU_CUTOFF     1.0000000000000000E-10
       &XC_FUNCTIONAL  NO_SHORTCUT
         &PBE  T
         &END PBE
       &END XC_FUNCTIONAL
       &VDW_POTENTIAL
         POTENTIAL_TYPE  PAIR_POTENTIAL
         &PAIR_POTENTIAL
           R_CUTOFF     1.0000000000000005E+01
           TYPE  DFTD3
           PARAMETER_FILE_NAME dftd3.dat
           REFERENCE_FUNCTIONAL PBE
           EPS_CN     9.9999999999999995E-07
           CALCULATE_C9_TERM  T
           REFERENCE_C9_TERM  T
           LONG_RANGE_CORRECTION  F
           VERBOSE_OUTPUT  F
         &END PAIR_POTENTIAL
       &END VDW_POTENTIAL
     &END XC
   &END DFT
   &SUBSYS
     &CELL
       A     9.7367653356401487E+00    0.0000000000000000E+00    0.0000000000000000E+00
       B    -4.8591341382960209E+00    8.4162672083210595E+00    0.0000000000000000E+00
       C     0.0000000000000000E+00    0.0000000000000000E+00    3.0744000000000000E+01
       MULTIPLE_UNIT_CELL  1 1 1
       &CELL_REF
         A     9.5580000000000052E+00    0.0000000000000000E+00    0.0000000000000000E+00
         B    -4.7790000000000026E+00    8.2774708093716640E+00    0.0000000000000000E+00
         C     0.0000000000000000E+00    0.0000000000000000E+00    3.0744000000000000E+01
         MULTIPLE_UNIT_CELL  1 1 1
       &END CELL_REF
     &END CELL
     &COORD
Ga    1.6915650439132490E-01   -1.0219479918299368E-01   -5.4911092284374841E-01
N    1.7244102529647337E-01    1.7732728427739288E+00    6.0636260871359782E-01
Ga    1.7234724123615802E-01    1.7412008386054272E+00    2.6339682158713127E+00
N    1.6925700733441040E-01   -1.0330789933874239E-01    3.2667676467676006E+00
Ga    1.6965198133392179E-01   -1.0238789600388333E-01    5.2542246884548414E+00
N    1.7281253151478365E-01    1.7716834956609990E+00    5.8463219816782690E+00
Ga    1.7220341661390318E-01    1.7700791151130708E+00    7.8416528325405199E+00
N    1.6953530451322141E-01   -1.0324410363686864E-01    8.4472013183551589E+00
Ga    1.7156200673530791E-01   -1.0227205171173903E-01    1.0440062287361421E+01
N    1.7191146928909617E-01    1.7661676473861463E+00    1.1055387676068735E+01
Ga    1.7272224491953403E-01    1.7651270801165908E+00    1.3053590288463509E+01
N    1.6605779584433691E-01   -9.6514535010030322E-02    1.3698032366175912E+01
Ga    1.8469873645417970E-01   -8.1024996308162553E-02    1.5734645329894263E+01
N    1.6423921671026673E-01    1.8182609722332332E+00    1.6273387387605109E+01
Ga    2.1169503203301518E-01    1.8349426736679915E+00    1.8348658117657362E+01
N    1.8940480010599886E-01    4.8197117448528096E-03    1.8835242055569136E+01
Ga   -1.4495412061004180E+00    2.7025580077057172E+00    3.1918968958711796E-01
N   -1.4521936729715845E+00    4.5717495732223563E+00    6.0569649813539872E-01
Ga   -1.4235766109264087E+00    4.5875324482688153E+00    2.6332659710198536E+00
N   -1.4504198992204567E+00    2.7023829392645453E+00    3.2292543681596810E+00
Ga   -1.4498892364307658E+00    2.7032022029009339E+00    5.2369810432110535E+00
N   -1.4495255221047387E+00    4.5735662363632317E+00    5.8471344290396674E+00
Ga   -1.4489136509094660E+00    4.5736212238977911E+00    7.8425209019267204E+00
N   -1.4491572175188157E+00    2.7032681783992207E+00    8.4490340910677286E+00
Ga   -1.4454026663560446E+00    2.7039156155868294E+00    1.0440255963659121E+01
N   -1.4505553774981665E+00    4.5795009774108273E+00    1.1047958080520571E+01
Ga   -1.4439023567915183E+00    4.5801054190890724E+00    1.3035099984978828E+01
N   -1.4468786287148852E+00    2.7175378053997212E+00    1.3635244184753855E+01
Ga   -1.4229285845517814E+00    2.7458627027717672E+00    1.5624136816158186E+01
N   -1.4786416208193567E+00    4.5854099675937414E+00    1.6343143622476902E+01
Ga   -1.4432741759984247E+00    4.7394268165467883E+00    1.8438024297441398E+01
N   -1.4959982705481569E+00    2.8093668969011598E+00    1.8944651531474033E+01
Ga   -3.0700823085995199E+00    5.5083090553472154E+00    3.1933754939635822E-01
N   -3.0623341285859231E+00    7.3776314129209259E+00    6.0552501808961812E-01
Ga   -3.0908637039638940E+00    7.3930719231854622E+00    2.6333199507597955E+00
N   -3.0700115972245463E+00    5.5076937290500485E+00    3.2286994316144733E+00
Ga   -3.0695429198417004E+00    5.5081608189904001E+00    5.2361703601580603E+00
N   -3.0646741309300731E+00    7.3786448344790525E+00    5.8458942926545534E+00
Ga   -3.0663907933656582E+00    7.3785202547159896E+00    7.8407930880642622E+00
N   -3.0717537696103121E+00    5.5078135095041265E+00    8.4485695998039496E+00
Ga   -3.0713238795522355E+00    5.5120145238233595E+00    1.0437942851022102E+01
N   -3.0729471800635841E+00    7.3762291381703653E+00    1.1064962820637115E+01
Ga   -3.0802051526851306E+00    7.3902273009819472E+00    1.3064494260405221E+01
N   -3.0820407101688825E+00    5.4999293991503002E+00    1.3680401033996281E+01
Ga   -2.9624523521620465E+00    5.5957754952250172E+00    1.5649799392121068E+01
N   -3.0748686645169836E+00    7.3779789018444717E+00    1.6327892426011967E+01
Ga   -3.0047123221148002E+00    7.5739265395233755E+00    1.8485137439691023E+01
N   -2.8515747504744811E+00    5.7960639256352140E+00    1.9245833005057687E+01
Ga    3.4153520521555194E+00   -1.0295930605088524E-01    3.1890601427008008E-01
N    3.4125272720583353E+00    1.7664680650748164E+00    6.0548552896126040E-01
Ga    3.4417651416533457E+00    1.7824337904718199E+00    2.6331520593091482E+00
N    3.4152311602731040E+00   -1.0298213864223096E-01    3.2287180325185245E+00
Ga    3.4155148995624547E+00   -1.0229924525139582E-01    5.2362645816707598E+00
N    3.4154721644007866E+00    1.7669712855409996E+00    5.8500581163658145E+00
Ga    3.4149840559883842E+00    1.7652581618247387E+00    7.8472444966423556E+00
N    3.4132485641241121E+00   -1.0678892732551060E-01    8.4549470114597245E+00
Ga    3.4130340326043447E+00   -1.1016071886291523E-01    1.0450110775834512E+01
N    3.4124228509506360E+00    1.7655314648081595E+00    1.1039085342524706E+01
Ga    3.3970135769118395E+00    1.7501280390727969E+00    1.3025549995270138E+01
N    3.4049146133066133E+00   -1.0638687321229058E-01    1.3664305836745900E+01
Ga    3.4086816657398367E+00   -1.1733053485644235E-01    1.5692102127538243E+01
N    3.4094815218095125E+00    1.7818748439718755E+00    1.6200067690163891E+01
Ga    3.2500310816077600E+00    1.7888117839296238E+00    1.8207836251337774E+01
N    3.4967686998536127E+00    6.0408666681224833E-02    1.8794071554527672E+01
Ga    1.7944119949091244E+00    2.7029940770062728E+00    3.1928025177221536E-01
N    1.8025835227879048E+00    4.5722038297879575E+00    6.0615703717897362E-01
Ga    1.7739285011661712E+00    4.5877725260791484E+00    2.6336252194289527E+00
N    1.7956538426311757E+00    2.7024319351073594E+00    3.2293858538301574E+00
Ga    1.7961273970176284E+00    2.7030954756601848E+00    5.2371844591243120E+00
N    1.8003898357410999E+00    4.5735148446549321E+00    5.8473414819094129E+00
Ga    1.7981855327684075E+00    4.5731613933974407E+00    7.8428106013367564E+00
N    1.7935510113345123E+00    2.7032965709890981E+00    8.4510307563403853E+00
Ga    1.7909282516156300E+00    2.7040943140423970E+00    1.0443628911269165E+01
N    1.7968233754979743E+00    4.5784311119494090E+00    1.1053862064583074E+01
Ga    1.7833832649410053E+00    4.5767060261408199E+00    1.3044824887331458E+01
N    1.7938178046574482E+00    2.7099843870946025E+00    1.3640677287125060E+01
Ga    1.7840711278108778E+00    2.7205875445432772E+00    1.5634023716207080E+01
N    1.8148058883913851E+00    4.6029935465953216E+00    1.6243757108314451E+01
Ga    1.5626098188656805E+00    4.5268013669240919E+00    1.8228060896226996E+01
N    1.8087850918371202E+00    2.8026639580008510E+00    1.8850853029305139E+01
Ga    1.7600394186803231E-01    5.5081417687352712E+00   -5.4985297191966687E-01
N    1.7874131875272078E-01    7.3842253580973569E+00    6.0546701459172680E-01
Ga    1.7842330377356430E-01    7.3514290834989513E+00    2.6331801266819745E+00
N    1.7540242105072676E-01    5.5077324096910631E+00    3.2674579295204254E+00
Ga    1.7572845048587435E-01    5.5085069935254403E+00    5.2548438867513623E+00
N    1.7822247877666303E-01    7.3825841250031585E+00    5.8475647117381815E+00
Ga    1.7709287748504388E-01    7.3805649600968177E+00    7.8432068606750738E+00
N    1.7495707714936706E-01    5.5082132602085947E+00    8.4496527158799797E+00
Ga    1.7502303677946993E-01    5.5147384197302616E+00    1.0443754515123326E+01
N    1.7886522251943640E-01    7.3800009240522035E+00    1.1065017332172060E+01
Ga    1.7525456169796905E-01    7.3792789304136939E+00    1.3070464189180141E+01
N    1.6610606119452451E-01    5.5033384419888343E+00    1.3678488336923024E+01
Ga    1.5538472853657304E-01    5.5467942889945396E+00    1.5700945750252858E+01
N    1.8765141183589820E-01    7.4072871887290992E+00    1.6227987502496632E+01
Ga    1.9940783904955448E-01    7.5068371037166619E+00    1.8327042037449502E+01
N    2.1375044877010199E-01    5.6445705368986969E+00    1.8801977132826710E+01
Ga    6.6599878985243155E+00   -1.0231559733920874E-01    3.1885542184513355E-01
N    6.6683040892699470E+00    1.7670624184249650E+00    6.0594726198954951E-01
Ga    6.6395982607200130E+00    1.7821863664546282E+00    2.6337632419345889E+00
N    6.6604935055488976E+00   -1.0322209408243244E-01    3.2292421066295440E+00
Ga    6.6608955807896129E+00   -1.0266251326302470E-01    5.2370663058154889E+00
N    6.6665215330717160E+00    1.7672661933907310E+00    5.8489254097510068E+00
Ga    6.6649094061576433E+00    1.7658515748737167E+00    7.8454189986589098E+00
N    6.6601228364419320E+00   -1.0621055073587882E-01    8.4518431753078733E+00
Ga    6.6607679759284766E+00   -1.0943016307878038E-01    1.0444962609750979E+01
N    6.6701382946071757E+00    1.7650032472554520E+00    1.1037010615024014E+01
Ga    6.6879666011837529E+00    1.7521686263029954E+00    1.3021332768733721E+01
N    6.6759029484613439E+00   -1.1027925808765661E-01    1.3653824465956800E+01
Ga    6.6779346657296186E+00   -1.3010760956518555E-01    1.5665045452580678E+01
N    6.7060811643317795E+00    1.7720423735186397E+00    1.6171417824082518E+01
Ga    6.7137567816160884E+00    1.8337514330306639E+00    1.8140889182881331E+01
N    6.6337350464086722E+00    7.8228292119100998E-02    1.8799285863863346E+01
Ga    5.0413287851856765E+00    2.7035963443159421E+00   -5.4969136386579598E-01
N    5.0441766126284078E+00    4.5790742076361513E+00    6.0651295552780216E-01
Ga    5.0436282413011782E+00    4.5458198015572400E+00    2.6339474464733437E+00
N    5.0407794849508258E+00    2.7018070576828830E+00    3.2684779140179869E+00
Ga    5.0411216827511831E+00    2.7019740033012103E+00    5.2566084728539071E+00
N    5.0438346576600059E+00    4.5768458226839952E+00    5.8469244788181394E+00
Ga    5.0425591679873616E+00    4.5732297279889487E+00    7.8420040691524076E+00
N    5.0405793484729209E+00    2.7009297988764311E+00    8.4486311135708938E+00
Ga    5.0411285904888397E+00    2.6968972511944096E+00    1.0441465725564889E+01
N    5.0444462569747976E+00    4.5730261555859109E+00    1.1047464363625066E+01
Ga    5.0458590078750527E+00    4.5665775199556915E+00    1.3027069120778208E+01
N    5.0439433184485729E+00    2.6810104807460324E+00    1.3583434020360931E+01
Ga    5.0526719586140301E+00    2.5397226313963497E+00    1.5522038110233453E+01
N    4.9904442733272827E+00    4.4079594530379991E+00    1.6218748727348697E+01
Ga    5.2028957014590480E+00    5.1357557381969556E+00    1.9339080358270692E+01
N    5.0615441212962171E+00    3.2945162556104681E+00    1.8308567544794197E+01
Ga    3.4213943998792944E+00    5.5075041468592323E+00    3.1954610835492386E-01
N    3.4185940354763247E+00    7.3769840502276498E+00    6.0530741137779653E-01
Ga    3.4475279964657659E+00    7.3929897623702843E+00    2.6331682029224854E+00
N    3.4211454508998851E+00    5.5077975921236710E+00    3.2288715835799859E+00
Ga    3.4212229549539028E+00    5.5083094179786380E+00    5.2363611698989319E+00
N    3.4221884249320822E+00    7.3784589158289942E+00    5.8472068046816998E+00
Ga    3.4224083159374157E+00    7.3778373492234000E+00    7.8426192804093251E+00
N    3.4209322263151360E+00    5.5066564932152513E+00    8.4506118547114930E+00
Ga    3.4200430901544689E+00    5.5087153899672172E+00    1.0441182010304265E+01
N    3.4298063544749988E+00    7.3778481188962761E+00    1.1052355316158856E+01
Ga    3.4397034884467894E+00    7.3917627460894497E+00    1.3042942027061434E+01
N    3.4304299099689688E+00    5.5057703595865659E+00    1.3652098626323081E+01
Ga    3.3517726560312053E+00    5.5769581662241610E+00    1.5610390630947743E+01
N    3.4431745764555277E+00    7.3560172736043681E+00    1.6332183348365092E+01
Ga    3.4211224827521067E+00    7.7160361712674570E+00    1.8345774406382400E+01
N    4.8765032690606569E+00    4.3546080852374445E+00    1.7539249973175032E+01
O   -7.4935939065903334E-01    4.9181299717216325E+00    2.1307449452518963E+01
H   -1.9086073844302295E-01    5.2699533100502185E+00    2.0556785965956262E+01
C   -1.5606016641741722E+00    2.6056688013301921E+00    2.0440986072703151E+01
H   -2.3046434415887345E+00    3.2614841142075810E+00    2.0900959768007564E+01
H   -5.9691001013420819E-01    2.8058769435866924E+00    2.0908426442153470E+01
H   -1.8424950363348032E+00    1.5576979054037565E+00    2.0634670055440054E+01
O    3.4318730547218341E+00    5.8248772704139959E+00    1.9491657794152999E+01
H   -1.4667612718043319E+00    5.5774353813887458E+00    2.1323430045355316E+01
C    2.8787550991576198E+00    6.0283921483288738E+00    2.0839808715026166E+01
H    2.5983210346995573E+00    5.0534994973728988E+00    2.1258439024238807E+01
H    3.6158855826268672E+00    6.5399246064025531E+00    2.1472191732634357E+01
H    1.9861625402705949E+00    6.6575082673877102E+00    2.0738485802029313E+01
     &END COORD
     &KIND C
       BASIS_SET DZVP-MOLOPT-SR-GTH-q4
       POTENTIAL GTH-PBE-q4
       &POTENTIAL
 2 2
  0.3384712400000000E+00 2 -0.8803673979999999E+01  0.1339210850000000E+01
 2
  0.3025757500000000E+00 1  0.9622486650000001E+01
  0.2915069400000000E+00 0
         # Potential name:  GTH-PBE-Q4  for symbol:  C
         # Potential read from the potential filename: GTH_POTENTIALS
       &END POTENTIAL
     &END KIND
     &KIND O
       BASIS_SET DZVP-MOLOPT-SR-GTH-q6
       POTENTIAL GTH-PBE-q6
       &POTENTIAL
 2 4
  0.2445543000000000E+00 2 -0.1666721480000000E+02  0.2487311320000000E+01
 2
  0.2209559200000000E+00 1  0.1833745811000000E+02
  0.2113324700000000E+00 0
         # Potential name:  GTH-PBE-Q6  for symbol:  O
         # Potential read from the potential filename: GTH_POTENTIALS
       &END POTENTIAL
     &END KIND
     &KIND H
       BASIS_SET DZVP-MOLOPT-SR-GTH-q1
       POTENTIAL GTH-PBE-q1
       &POTENTIAL
 1
  0.2000000000000000E+00 2 -0.4178900440000000E+01  0.7244633100000000E+00
 0
         # Potential name:  GTH-PBE-Q1  for symbol:  H
         # Potential read from the potential filename: GTH_POTENTIALS
       &END POTENTIAL
     &END KIND
     &KIND N
       BASIS_SET DZVP-MOLOPT-SR-GTH-q5
       POTENTIAL GTH-PBE-q5
       &POTENTIAL
 2 3
  0.2837905100000000E+00 2 -0.1241522559000000E+02  0.1868095920000000E+01
 2
  0.2554050000000000E+00 1  0.1363026257000000E+02
  0.2454945300000000E+00 0
         # Potential name:  GTH-PBE-Q5  for symbol:  N
         # Potential read from the potential filename: GTH_POTENTIALS
       &END POTENTIAL
     &END KIND
     &KIND Ga
       BASIS_SET DZVP-MOLOPT-SR-GTH-q13
       POTENTIAL GTH-PBE-q13
       &POTENTIAL
 2 1 10
  0.4900000000000000E+00 0
 3
  0.4167772300000000E+00 3  0.1047568975000000E+02 -0.4921768140000000E+01  0.8707055900000000E+00
  0.7770178090000000E+01 -0.2248152160000000E+01
  0.1784415450000000E+01
  0.5696265200000000E+00 2  0.1777985340000000E+01  0.1958597600000000E+00
 -0.2317443900000000E+00
  0.2381265000000000E+00 1 -0.1624868022000000E+02
         # Potential name:  GTH-PBE-Q13  for symbol:  GA
         # Potential read from the potential filename: GTH_POTENTIALS
       &END POTENTIAL
     &END KIND
     &TOPOLOGY
       COORD_FILE_NAME ../start-first.xyz
       COORD_FILE_FORMAT  XYZ
       NUMBER_OF_ATOMS  156
       MULTIPLE_UNIT_CELL  1 1 1
     &END TOPOLOGY
     &COLVAR
       &DISTANCE
         ATOMS  145 147
       &END DISTANCE
       &PRINT
       &END PRINT
     &END COLVAR
   &END SUBSYS
 &END FORCE_EVAL
