 # Version information for this restart file 
 # current date 2019-06-30 09:12:06.004
 # current working dir /scratch/rzk/rzk/GaN-carbene/443-adatoms-both-2x2/08-CH3O-H2O-H2C-H/02-Use-0701-H2CGa
 # Program compiled at                              Sun Apr  7 00:48:11 EDT 2019
 # Program compiled on                          beluga2.int.ets1.calculquebec.ca
 # Program compiled for                        Beluga-Linux-x86-64-intel-openmpi
 # Source code revision number                                         svn:18619
 &GLOBAL
   PRINT_LEVEL  MEDIUM
   PROJECT_NAME TEST
   RUN_TYPE  GEO_OPT
 &END GLOBAL
 &MOTION
   &GEO_OPT
     MAX_ITER  500
     STEP_START_VAL  52
   &END GEO_OPT
 &END MOTION
 &FORCE_EVAL
   METHOD  QS
   STRESS_TENSOR  ANALYTICAL
   &DFT
     BASIS_SET_FILE_NAME BASIS_MOLOPT
     POTENTIAL_FILE_NAME GTH_POTENTIALS
     UKS  T
     SURFACE_DIPOLE_CORRECTION  T
     SURF_DIP_DIR  Z
     &SCF
       MAX_SCF  80
       EPS_SCF     5.0000000000000004E-06
       &OT  T
         PRECONDITIONER  FULL_ALL
       &END OT
       &OUTER_SCF  T
         OPTIMIZER  NONE
         EPS_SCF     5.0000000000000004E-06
         MAX_SCF  4
       &END OUTER_SCF
       &PRINT
         &RESTART  OFF
           BACKUP_COPIES  1
           &EACH
             JUST_ENERGY  0
             QS_SCF  0
             MD  20
           &END EACH
         &END RESTART
       &END PRINT
     &END SCF
     &QS
       EPS_DEFAULT     1.0000000000000000E-14
       METHOD  GPW
     &END QS
     &MGRID
       NGRIDS  5
       CUTOFF     1.2000000000000000E+03
     &END MGRID
     &XC
       DENSITY_CUTOFF     1.0000000000000000E-10
       GRADIENT_CUTOFF     1.0000000000000000E-10
       TAU_CUTOFF     1.0000000000000000E-10
       &XC_FUNCTIONAL  NO_SHORTCUT
         &PBE  T
         &END PBE
       &END XC_FUNCTIONAL
       &VDW_POTENTIAL
         POTENTIAL_TYPE  PAIR_POTENTIAL
         &PAIR_POTENTIAL
           R_CUTOFF     1.0000000000000004E+01
           TYPE  DFTD3
           PARAMETER_FILE_NAME dftd3.dat
           REFERENCE_FUNCTIONAL PBE
           EPS_CN     9.9999999999999995E-07
           CALCULATE_C9_TERM  T
           REFERENCE_C9_TERM  T
           LONG_RANGE_CORRECTION  F
           VERBOSE_OUTPUT  F
         &END PAIR_POTENTIAL
       &END VDW_POTENTIAL
     &END XC
   &END DFT
   &SUBSYS
     &CELL
       A     1.2864472766435110E+01    0.0000000000000000E+00    0.0000000000000000E+00
       B    -6.4322363581020028E+00    1.1140960178524473E+01    0.0000000000000000E+00
       C     0.0000000000000000E+00    0.0000000000000000E+00    3.2000000000000000E+01
       MULTIPLE_UNIT_CELL  1 1 1
       &CELL_REF
         A     1.2982353780853531E+01    0.0000000000000000E+00    0.0000000000000000E+00
         B    -6.4911768904267628E+00    1.1243048175136114E+01    0.0000000000000000E+00
         C     0.0000000000000000E+00    0.0000000000000000E+00    3.2000000000000000E+01
         MULTIPLE_UNIT_CELL  1 1 1
       &END CELL_REF
     &END CELL
     &COORD
N   -2.8098502500058093E-02    2.0932223673850672E+00    2.5079480077486438E+00
Ga   -4.0985183439740121E-02    4.5968774474160000E-02    2.8604377226772124E+00
N   -1.9221304424484394E-02    4.9233421356384574E-02    5.0128946365592952E+00
Ga    4.6747114387592510E-03    1.8936808999666825E+00    5.7536567904602220E+00
N   -1.0200979771598059E-02    1.8848708305821733E+00    7.8206330677506362E+00
Ga   -1.9825226355749792E-02    5.2875896403845407E-02    8.4477824221859112E+00
N   -6.0397390160319923E-03    4.2358141221945943E-02    1.0433017638144577E+01
Ga   -8.9780004598680411E-03    1.8595134067510994E+00    1.1042230384630498E+01
N   -1.0419207818932474E-02    1.8712401629505560E+00    1.3083005056971631E+01
Ga    8.1637007166168573E-03    4.7717887807509164E-02    1.3849189415025434E+01
N   -4.8492525361088758E-02    5.9112899451386230E-02    1.6001459915840822E+01
Ga   -4.1916408795240143E-03    2.0118077463218715E+00    1.6534795736391548E+01
Ga    8.5292696793137918E-02    3.7628106425997063E+00    1.4120108150861530E+00
N   -1.4705106951177800E+00    4.6061707315795219E+00    2.5163071927590970E+00
Ga   -1.5628818408381808E+00    2.8236732183695916E+00    3.2975624316530991E+00
N   -1.6346843373637987E+00    2.8301522415316307E+00    5.2611875976705038E+00
Ga   -1.5712053702483966E+00    4.6898640576955550E+00    5.7722180653670874E+00
N   -1.6367229683859759E+00    4.7008469873570311E+00    7.8249504583290905E+00
Ga   -1.6056131909387885E+00    2.8387651127915676E+00    8.4244726995562118E+00
N   -1.5927499413268360E+00    2.8528164009121157E+00    1.0465867511827332E+01
Ga   -1.6399920626349909E+00    4.6903466161495757E+00    1.1055319111093983E+01
N   -1.6489203908901993E+00    4.6957299939345010E+00    1.3082925636405436E+01
Ga   -1.5871763241680619E+00    2.8490783545259757E+00    1.3542901833710474E+01
N   -1.6242665663973350E+00    2.8681472712403795E+00    1.5584936115157644E+01
Ga   -1.4729066895333203E+00    4.6237004069083838E+00    1.6531031918451117E+01
N   -8.3391154611424812E-03    3.7451486673721432E+00    1.7587242018000556E+01
N   -3.1961895742148729E+00    7.6112352868042930E+00    2.5404251388188204E+00
Ga   -3.1404145022650982E+00    5.5923467325335183E+00    2.8309768200656049E+00
N   -3.2175659736794970E+00    5.6156278060268505E+00    5.0082426709625567E+00
Ga   -3.2211984875452875E+00    7.4871756321926064E+00    5.7612232783252288E+00
N   -3.2235370810117323E+00    7.4435016051148839E+00    7.8064819185792853E+00
Ga   -3.2218811410969108E+00    5.5931673831053423E+00    8.4334671150577094E+00
N   -3.2244199307188945E+00    5.6205370574829212E+00    1.0442687835508089E+01
Ga   -3.2214338144750330E+00    7.4482997623002003E+00    1.1050029998610627E+01
N   -3.2304672803303656E+00    7.4276642498851313E+00    1.3042009148397714E+01
Ga   -3.1790190057009795E+00    5.6438570833086148E+00    1.3795086070852735E+01
N   -3.2723492151722868E+00    5.5339485878950132E+00    1.6049349277323234E+01
Ga   -3.2060198424779762E+00    7.8460837677972775E+00    1.6644755425579991E+01
Ga   -3.2710560451064867E+00    9.3600547807371459E+00    1.6239951531997401E+00
N   -4.6801460932431791E+00    1.0179429959003560E+01    2.5300297293569352E+00
Ga   -5.0197458992303341E+00    8.3537642284126186E+00    3.2817638307197399E+00
N   -4.8271602512069807E+00    8.3859509640396670E+00    5.2802588962071733E+00
Ga   -4.8549223082636797E+00    1.0271775182467904E+01    5.7395026728618506E+00
N   -4.8479388012437044E+00    1.0269270405816098E+01    7.8054954313440232E+00
Ga   -4.8304341572908474E+00    8.4082491745781152E+00    8.4091204192891080E+00
N   -4.8144591031793533E+00    8.4009918372884034E+00    1.0450349266873127E+01
Ga   -4.8691466015099092E+00    1.0287286015789970E+01    1.1040511842118940E+01
N   -4.8658258209912937E+00    1.0275372368495127E+01    1.3043066515497726E+01
Ga   -4.8398531075990210E+00    8.3981515972287912E+00    1.3624365391931574E+01
N   -4.8866425926493777E+00    8.3295750448860151E+00    1.5474128600025503E+01
Ga   -4.5258928617887753E+00    1.0085555923100451E+01    1.6652528819838743E+01
N   -3.2230926259881811E+00    9.3248797645595385E+00    1.7723231712848627E+01
N    3.2020494918364650E+00    1.9203579791768310E+00    2.6350114533673414E+00
Ga    3.1572994229742664E+00    2.1176805982396410E-01    3.2803863450097794E+00
N    3.2306057437043161E+00    5.3884971524870005E-02    5.2764978173599983E+00
Ga    3.1915504334073810E+00    1.9372994825488423E+00    5.8238756352804684E+00
N    3.2215677384835097E+00    1.9071708696454133E+00    7.8748465545012936E+00
Ga    3.2056876069635019E+00    4.4152748964137546E-02    8.4258599627229334E+00
N    3.2202327949086023E+00    2.6526344115216965E-02    1.0460388307257181E+01
Ga    3.2074295793838665E+00    1.9000440379820593E+00    1.1018941011949737E+01
N    3.2359717476537715E+00    1.9325744847420723E+00    1.3023838750519747E+01
Ga    3.2043302040842332E+00    4.6376737000596219E-02    1.3610716416522893E+01
N    3.2443000851119841E+00    1.2808995758969294E-01    1.5465336088701438E+01
Ga    3.2086196682443355E+00    1.8523856655114523E+00    1.5929317966295775E+01
N    1.4435516981247241E+00    4.6292114013790320E+00    2.5113526160614090E+00
Ga    1.6994645212099180E+00    2.7979001267079284E+00    3.2798022624601586E+00
N    1.5931019308134469E+00    2.8361580799767698E+00    5.2777712567227777E+00
Ga    1.6472411540387006E+00    4.7272621409719768E+00    5.7811407349573471E+00
N    1.6065815265474988E+00    4.6909319156625298E+00    7.8579728666272688E+00
Ga    1.5888902584449474E+00    2.8471865385109867E+00    8.4105655874292058E+00
N    1.5856859390276385E+00    2.8467232998769796E+00    1.0462300482095939E+01
Ga    1.6293230142000223E+00    4.6975599680756153E+00    1.1070526624624851E+01
N    1.6391543600258871E+00    4.7016513499560117E+00    1.3087739378296185E+01
Ga    1.5812192611652645E+00    2.8546939928589063E+00    1.3536944537235451E+01
N    1.5977632118340777E+00    2.9068555236998743E+00    1.5582842464200992E+01
Ga    1.4360037309213793E+00    4.6081400469541256E+00    1.6526909370230271E+01
N   -3.8387116049585568E-04    7.4572862442600574E+00    2.6471954834000839E+00
Ga    4.7818488055531530E-02    5.7694038859955343E+00    3.2818955217442229E+00
N   -1.7575576905792610E-02    5.6131114220344793E+00    5.2752038569130937E+00
Ga    6.5625013792667788E-02    7.4621063088629791E+00    5.7847729585645338E+00
N   -3.3705945307111462E-03    7.4789732324463367E+00    7.8582105823475450E+00
Ga    1.8262305656795564E-03    5.5916408610987061E+00    8.3961677876810139E+00
N   -9.8963384546973242E-03    5.6020264300378360E+00    1.0460766587396190E+01
Ga   -5.7285524033115582E-03    7.4771921986125021E+00    1.0999029141957299E+01
N    1.5306096271921506E-02    7.4674520372734401E+00    1.2976981188359005E+01
Ga    2.4416243187780481E-03    5.5960236798899734E+00    1.3562778830910583E+01
N    2.1277350467145094E-02    5.5571911312049771E+00    1.5581564508777729E+01
Ga   -3.7156322761535521E-02    7.4982693412378927E+00    1.5909351320023557E+01
N   -1.7222232835077060E+00    1.0176825995042487E+01    2.5361408627885864E+00
Ga   -1.4063373573121323E+00    8.2938124092214736E+00    3.3054026540719108E+00
N   -1.6090617300377237E+00    8.4009885530753508E+00    5.2745986286000894E+00
Ga   -1.6017841627215426E+00    1.0260093827478673E+01    5.7575566174189987E+00
N   -1.5884816638770458E+00    1.0277341542140336E+01    7.8028556653256356E+00
Ga   -1.6175500598902086E+00    8.4089844472235331E+00    8.4123339024569876E+00
N   -1.6249903826929999E+00    8.4091006479669463E+00    1.0460978645370698E+01
Ga   -1.5842532062822692E+00    1.0279694899613558E+01    1.1040242048403439E+01
N   -1.5686717741970648E+00    1.0291418217499091E+01    1.3038545793744788E+01
Ga   -1.6069852739782871E+00    8.3932496233551941E+00    1.3639702035715652E+01
N   -1.5492887766468231E+00    8.3645461480808301E+00    1.5466931446362373E+01
Ga   -1.9398158475381135E+00    1.0054638670848123E+01    1.6643110028192055E+01
N    6.4560016884408853E+00    2.0511155930830678E+00    2.5473848157096999E+00
Ga    6.4808527648557224E+00    9.5643909224135250E-05    2.8476534578099537E+00
N    6.4263791144397135E+00    5.1369083085572316E-02    5.0130848513160533E+00
Ga    6.4138954983941812E+00    1.8959796267292321E+00    5.7848812631138840E+00
N    6.4298002390985651E+00    1.8899791514863460E+00    7.8113725677093031E+00
Ga    6.4500643617632765E+00    5.8889199843152974E-02    8.4404502590180783E+00
N    6.4303147635400917E+00    4.9562750092626513E-02    1.0451521388038325E+01
Ga    6.4435747446042821E+00    1.8776877252195667E+00    1.1021025654038471E+01
N    6.4339960728645886E+00    1.8807031726368488E+00    1.3120806972613412E+01
Ga    6.4164690374692697E+00    4.8090849749655136E-03    1.3807674658230216E+01
N    6.4821708676721954E+00    1.2610232824901585E-01    1.6038834148893187E+01
Ga    6.4218302469175379E+00    1.8375502577939256E+00    1.6372632469868194E+01
Ga    6.3963293666891028E+00    3.7649254236719938E+00    1.5302521034506475E+00
N    4.9362952300348217E+00    4.6304735992629125E+00    2.4408682206377961E+00
Ga    4.6428062192216730E+00    2.8113953015765678E+00    3.2678650245212721E+00
N    4.8435019601479699E+00    2.8327913164926120E+00    5.2584914087328540E+00
Ga    4.7554882423430733E+00    4.7297711557558673E+00    5.8168402163406423E+00
N    4.8314002438519976E+00    4.6860290916739951E+00    7.8610445756320546E+00
Ga    4.8385510200644672E+00    2.8533508133933414E+00    8.4191479638609668E+00
N    4.8491801573679441E+00    2.8441488879998063E+00    1.0477065693343208E+01
Ga    4.7979011200395369E+00    4.7029975882689063E+00    1.1048844973513127E+01
N    4.8104932076329394E+00    4.7002929899863899E+00    1.3129326135824112E+01
Ga    4.8307327465852641E+00    2.8553722786879860E+00    1.3527383776219962E+01
N    4.8762835563360944E+00    2.8948096664020784E+00    1.5674252303433793E+01
Ga    4.8054567264572929E+00    4.7001133025253150E+00    1.6364665454824280E+01
N    6.4420740121996261E+00    3.7487081560523525E+00    1.7634222828315703E+01
N    3.1960498132439583E+00    7.6188065532518108E+00    2.3304192596712148E+00
N    3.2155930052806565E+00    5.6164951448788454E+00    5.1604487779794264E+00
Ga    3.2146439440256183E+00    7.4532625245668962E+00    5.7632837446031360E+00
N    3.2137591474725129E+00    7.4774386665719161E+00    7.8513273386292157E+00
Ga    3.2166755872806876E+00    5.6188782725894368E+00    8.3910181364399392E+00
N    3.2184379777054928E+00    5.6199302241977405E+00    1.0440839036742315E+01
Ga    3.2201880533664538E+00    7.4473861305026530E+00    1.1062418417648022E+01
N    3.2236924713074151E+00    7.4455976340385996E+00    1.3094550035036507E+01
Ga    3.1735514074508226E+00    5.6304213292326963E+00    1.3730687885958504E+01
N    3.2721393363595990E+00    5.5893507406355454E+00    1.6078114466022406E+01
Ga    3.2157878136500346E+00    7.7461238406409780E+00    1.6527655748387179E+01
Ga    3.2882716777706347E+00    9.3268713949704711E+00    1.3732877449641883E+00
N    1.7143058259918544E+00    1.0205408881594224E+01    2.5022874291624086E+00
Ga    1.5465370357421693E+00    8.3047779464606108E+00    3.2545183401031514E+00
N    1.6093948494871180E+00    8.4088243499911233E+00    5.2454744310938652E+00
Ga    1.6236232505231165E+00    1.0206688517531211E+01    5.7478782416469913E+00
N    1.5894588057394492E+00    1.0273911937977202E+01    7.8052560148359618E+00
Ga    1.6340815154007875E+00    8.4131760068220576E+00    8.3926678318595744E+00
N    1.6195721106218826E+00    8.4158322509736880E+00    1.0464193862149042E+01
Ga    1.5864525442278148E+00    1.0292408853172256E+01    1.1033757856794651E+01
N    1.5793572509870486E+00    1.0288560239691400E+01    1.3085744389470602E+01
Ga    1.6131421015072800E+00    8.3926029848708676E+00    1.3584021856261531E+01
N    1.6493859995748070E+00    8.4004084077007626E+00    1.5567815467762301E+01
Ga    1.8115302914601483E+00    1.0135426329203739E+01    1.6539110822958591E+01
N    3.2146432566536891E+00    9.3354365397861176E+00    1.7573250986925792E+01
N    9.6551310555111343E+00    1.8955942904115985E+00    2.6946629346882767E+00
Ga    9.6705611505813227E+00   -2.9381180143598255E-02    3.3109195169728887E+00
N    9.6374918632660798E+00    7.5239687018621271E-02    5.2636905649834320E+00
Ga    9.6676620026213822E+00    1.8795869212532319E+00    5.8654440094717311E+00
N    9.6408161859099408E+00    1.9022290307248997E+00    7.8835062695929663E+00
Ga    9.6472604297603457E+00    3.1878721595809123E-02    8.4184359317307624E+00
N    9.6408408411546702E+00    1.8757427705619695E-02    1.0463567315557084E+01
Ga    9.6423576819679795E+00    1.8990565795998229E+00    1.1000846405665214E+01
N    9.6226273813103926E+00    1.9084015031278783E+00    1.3060252427172165E+01
Ga    9.6520292617557359E+00    3.7169450140353617E-02    1.3577792882288508E+01
N    9.6026418384240291E+00    5.6580677711169716E-02    1.5571271767074771E+01
Ga    9.6534125507009279E+00    1.8733763138905062E+00    1.5942594583155328E+01
N    7.9271674340889104E+00    4.5980406564043657E+00    2.5485845011438411E+00
Ga    8.0735151715544173E+00    2.7991018167069872E+00    3.3295032025694882E+00
N    8.0480366456021475E+00    2.8238879735646512E+00    5.2632555485362564E+00
Ga    8.0157990073686420E+00    4.7010295341807380E+00    5.7856736880756499E+00
N    8.0527574359588492E+00    4.7016534992046779E+00    7.8157700751447008E+00
Ga    8.0269249885022305E+00    2.8412494274901121E+00    8.4348262031067822E+00
N    8.0095385374635821E+00    2.8525984223244931E+00    1.0475682342641582E+01
Ga    8.0625096070118190E+00    4.6867885286415722E+00    1.1029219532761708E+01
N    8.0509836056167892E+00    4.6956979666906653E+00    1.3125413764483694E+01
Ga    8.0248826606581662E+00    2.8464975782377415E+00    1.3531068731418056E+01
N    7.9921010253836648E+00    2.8565304697199538E+00    1.5678103874871530E+01
Ga    8.0863086105760775E+00    4.7282501625825253E+00    1.6368001684946172E+01
N    6.4089342311955795E+00    7.4650957358255825E+00    2.6576834059974783E+00
Ga    6.3654746688226487E+00    5.8052590728318725E+00    3.2633329348255478E+00
N    6.4357835114190758E+00    5.6014512233142915E+00    5.2577970318198703E+00
Ga    6.3564264487936075E+00    7.4911789296286271E+00    5.7953348099743396E+00
N    6.4314132636334804E+00    7.4703789129099096E+00    7.8608772968223528E+00
Ga    6.4220286878290151E+00    5.5972894424571704E+00    8.4081503516553440E+00
N    6.4372509215156697E+00    5.5998795421951248E+00    1.0468384327486143E+01
Ga    6.4267547050958118E+00    7.4813851283114303E+00    1.1021597942163897E+01
N    6.4101059336371851E+00    7.4416968296529147E+00    1.3006982929732072E+01
Ga    6.4200143656975426E+00    5.6130447891684030E+00    1.3546558211625385E+01
N    6.4012441180766446E+00    5.5384434703240295E+00    1.5681482247367153E+01
Ga    6.4396847593396966E+00    7.5108586761704004E+00    1.5910256888260216E+01
N    4.6829066537314823E+00    1.0200077911063628E+01    2.4668186909685796E+00
Ga    4.8686191620915427E+00    8.3580197204223552E+00    3.2374591707625058E+00
N    4.8090133156826003E+00    8.4032278333857189E+00    5.2334146159351969E+00
Ga    4.8178824041339112E+00    1.0212527452194603E+01    5.7351227054025280E+00
N    4.8345443248468891E+00    1.0272013040445438E+01    7.8086572649807122E+00
Ga    4.7994509172525381E+00    8.4105504107790292E+00    8.3911517729183895E+00
N    4.8098760871031034E+00    8.4089950733398506E+00    1.0459460451334202E+01
Ga    4.8533475833905282E+00    1.0291520684453559E+01    1.1032729610399521E+01
N    4.8413837053686182E+00    1.0274024623162871E+01    1.3088136306256150E+01
Ga    4.8203506801595672E+00    8.3966861480794712E+00    1.3594041630720431E+01
N    4.7847258450297865E+00    8.3479637567886833E+00    1.5569742327911978E+01
Ga    4.6415062411992780E+00    1.0145830978305128E+01    1.6527822924732106E+01
O    6.1295022307639657E-01    3.9587879279571472E+00   -3.3096075910486228E-01
H    2.8270970830558744E+00    6.4595168509617586E+00   -3.8462635195457334E-01
C    1.0074851220711485E+00    2.7968397342863698E+00   -1.1083337872379901E+00
H    1.7080124512391024E+00    2.1948401221265397E+00   -5.5441305375337413E-01
H    1.3303760202987136E-01    2.1756359258280868E+00   -1.3087410430275119E+00
H    1.4593803816719091E+00    3.1052243834918354E+00   -2.0413831661778730E+00
Ga    3.1189099726380753E+00    5.6669841578661933E+00    2.3301706317665656E+00
O    2.7402960809114005E+00    5.4452984824008226E+00    1.9625136369842194E-01
H    2.0125364789778719E+00    5.0386723052420681E+00   -1.0678226272944398E-01
C    3.0308801557145406E+00    9.5283512211498014E+00   -5.6078672872856872E-01
H    9.6418488322452749E+00    1.9141492678519727E+00    1.7067853701284053E+00
H    4.1570668127104957E+00    9.5047227212382452E+00   -1.3899102757184727E+00
H    2.1354321677688537E+00    9.0850226167765555E+00   -1.2062718384600470E+00
     &END COORD
     &KIND C
       BASIS_SET DZVP-MOLOPT-SR-GTH-q4
       POTENTIAL GTH-PBE-q4
       &POTENTIAL
 2 2
  0.3384712400000000E+00 2 -0.8803673979999999E+01  0.1339210850000000E+01
 2
  0.3025757500000000E+00 1  0.9622486650000001E+01
  0.2915069400000000E+00 0
         # Potential name:  GTH-PBE-Q4  for symbol:  C
         # Potential read from the potential filename: GTH_POTENTIALS
       &END POTENTIAL
     &END KIND
     &KIND O
       BASIS_SET DZVP-MOLOPT-SR-GTH-q6
       POTENTIAL GTH-PBE-q6
       &POTENTIAL
 2 4
  0.2445543000000000E+00 2 -0.1666721480000000E+02  0.2487311320000000E+01
 2
  0.2209559200000000E+00 1  0.1833745811000000E+02
  0.2113324700000000E+00 0
         # Potential name:  GTH-PBE-Q6  for symbol:  O
         # Potential read from the potential filename: GTH_POTENTIALS
       &END POTENTIAL
     &END KIND
     &KIND H
       BASIS_SET DZVP-MOLOPT-SR-GTH-q1
       POTENTIAL GTH-PBE-q1
       &POTENTIAL
 1
  0.2000000000000000E+00 2 -0.4178900440000000E+01  0.7244633100000000E+00
 0
         # Potential name:  GTH-PBE-Q1  for symbol:  H
         # Potential read from the potential filename: GTH_POTENTIALS
       &END POTENTIAL
     &END KIND
     &KIND N
       BASIS_SET DZVP-MOLOPT-SR-GTH
       POTENTIAL GTH-PBE-q5
       &POTENTIAL
 2 3
  0.2837905100000000E+00 2 -0.1241522559000000E+02  0.1868095920000000E+01
 2
  0.2554050000000000E+00 1  0.1363026257000000E+02
  0.2454945300000000E+00 0
         # Potential name:  GTH-PBE-Q5  for symbol:  N
         # Potential read from the potential filename: GTH_POTENTIALS
       &END POTENTIAL
     &END KIND
     &KIND Ga
       BASIS_SET DZVP-MOLOPT-SR-GTH
       POTENTIAL GTH-PBE-q13
       &POTENTIAL
 2 1 10
  0.4900000000000000E+00 0
 3
  0.4167772300000000E+00 3  0.1047568975000000E+02 -0.4921768140000000E+01  0.8707055900000000E+00
  0.7770178090000000E+01 -0.2248152160000000E+01
  0.1784415450000000E+01
  0.5696265200000000E+00 2  0.1777985340000000E+01  0.1958597600000000E+00
 -0.2317443900000000E+00
  0.2381265000000000E+00 1 -0.1624868022000000E+02
         # Potential name:  GTH-PBE-Q13  for symbol:  GA
         # Potential read from the potential filename: GTH_POTENTIALS
       &END POTENTIAL
     &END KIND
     &TOPOLOGY
       NUMBER_OF_ATOMS  212
       MULTIPLE_UNIT_CELL  1 1 1
     &END TOPOLOGY
   &END SUBSYS
 &END FORCE_EVAL
