 # Version information for this restart file 
 # current date 2019-06-30 09:00:21.097
 # current working dir /scratch/rzk/rzk/GaN-carbene/443-adatoms-both-2x2/08-CH3O-H2O-H2C-H/02-Use-0701-H2CGa
 # Program compiled at                              Sun Apr  7 00:48:11 EDT 2019
 # Program compiled on                          beluga2.int.ets1.calculquebec.ca
 # Program compiled for                        Beluga-Linux-x86-64-intel-openmpi
 # Source code revision number                                         svn:18619
 &GLOBAL
   PRINT_LEVEL  MEDIUM
   PROJECT_NAME TEST
   RUN_TYPE  GEO_OPT
 &END GLOBAL
 &MOTION
   &GEO_OPT
     MAX_ITER  500
     STEP_START_VAL  51
   &END GEO_OPT
 &END MOTION
 &FORCE_EVAL
   METHOD  QS
   STRESS_TENSOR  ANALYTICAL
   &DFT
     BASIS_SET_FILE_NAME BASIS_MOLOPT
     POTENTIAL_FILE_NAME GTH_POTENTIALS
     UKS  T
     SURFACE_DIPOLE_CORRECTION  T
     SURF_DIP_DIR  Z
     &SCF
       MAX_SCF  80
       EPS_SCF     5.0000000000000004E-06
       &OT  T
         PRECONDITIONER  FULL_ALL
       &END OT
       &OUTER_SCF  T
         OPTIMIZER  NONE
         EPS_SCF     5.0000000000000004E-06
         MAX_SCF  4
       &END OUTER_SCF
       &PRINT
         &RESTART  OFF
           BACKUP_COPIES  1
           &EACH
             JUST_ENERGY  0
             QS_SCF  0
             MD  20
           &END EACH
         &END RESTART
       &END PRINT
     &END SCF
     &QS
       EPS_DEFAULT     1.0000000000000000E-14
       METHOD  GPW
     &END QS
     &MGRID
       NGRIDS  5
       CUTOFF     1.2000000000000000E+03
     &END MGRID
     &XC
       DENSITY_CUTOFF     1.0000000000000000E-10
       GRADIENT_CUTOFF     1.0000000000000000E-10
       TAU_CUTOFF     1.0000000000000000E-10
       &XC_FUNCTIONAL  NO_SHORTCUT
         &PBE  T
         &END PBE
       &END XC_FUNCTIONAL
       &VDW_POTENTIAL
         POTENTIAL_TYPE  PAIR_POTENTIAL
         &PAIR_POTENTIAL
           R_CUTOFF     1.0000000000000004E+01
           TYPE  DFTD3
           PARAMETER_FILE_NAME dftd3.dat
           REFERENCE_FUNCTIONAL PBE
           EPS_CN     9.9999999999999995E-07
           CALCULATE_C9_TERM  T
           REFERENCE_C9_TERM  T
           LONG_RANGE_CORRECTION  F
           VERBOSE_OUTPUT  F
         &END PAIR_POTENTIAL
       &END VDW_POTENTIAL
     &END XC
   &END DFT
   &SUBSYS
     &CELL
       A     1.2864472766435110E+01    0.0000000000000000E+00    0.0000000000000000E+00
       B    -6.4322363581020028E+00    1.1140960178524473E+01    0.0000000000000000E+00
       C     0.0000000000000000E+00    0.0000000000000000E+00    3.2000000000000000E+01
       MULTIPLE_UNIT_CELL  1 1 1
       &CELL_REF
         A     1.2982353780853531E+01    0.0000000000000000E+00    0.0000000000000000E+00
         B    -6.4911768904267628E+00    1.1243048175136114E+01    0.0000000000000000E+00
         C     0.0000000000000000E+00    0.0000000000000000E+00    3.2000000000000000E+01
         MULTIPLE_UNIT_CELL  1 1 1
       &END CELL_REF
     &END CELL
     &COORD
N   -4.0198490927567439E-03    2.0461510856273635E+00    2.4814113900979891E+00
Ga   -3.9216160084888069E-02    5.9118258658645610E-02    2.8301409471776910E+00
N   -6.2853402394834161E-03    4.8776007269144404E-02    5.0123716326989429E+00
Ga    4.3397148786302161E-03    1.8708810562652032E+00    5.8033287029025260E+00
N   -6.4505998836963509E-03    1.8904834949381724E+00    7.8009893874644440E+00
Ga   -5.1713946978017167E-03    4.5215672392434583E-02    8.4437198314962369E+00
N   -4.0483626703643446E-03    4.6121567940802161E-02    1.0420129208671840E+01
Ga   -2.8477465859388720E-03    1.8843573876598869E+00    1.1072563513586319E+01
N   -4.9196077375180721E-03    1.8663307106046609E+00    1.3067864521646033E+01
Ga   -3.3596542821557147E-03    4.5814832195409064E-02    1.3864791723748343E+01
N   -3.0463243833577826E-03    4.5254944492380114E-02    1.6070927784024569E+01
Ga   -4.3662431702899815E-03    2.0842736369138990E+00    1.6478723028990828E+01
Ga    5.5151764936990803E-02    3.7953935853677936E+00    1.3650912393555810E+00
N   -1.4816741148773007E+00    4.6162520774488112E+00    2.4871884569364360E+00
Ga   -1.5962166228083019E+00    2.8323391499336972E+00    3.3122485152897561E+00
N   -1.6238952773808593E+00    2.8248403361769427E+00    5.2516217991598699E+00
Ga   -1.6284381739471507E+00    4.7079196611989866E+00    5.8055824419556608E+00
N   -1.6250075880705495E+00    4.6923006840101946E+00    7.8010728651522268E+00
Ga   -1.5980528819242521E+00    2.8391734644967817E+00    8.4466091021390906E+00
N   -1.6000937114853249E+00    2.8385406858618238E+00    1.0438140006347652E+01
Ga   -1.6272239376693678E+00    4.6988941070378241E+00    1.1072294513481703E+01
N   -1.6448713754300295E+00    4.7069702569026646E+00    1.3067115418611468E+01
Ga   -1.6020540687923834E+00    2.8384203763615066E+00    1.3620970669317435E+01
N   -1.6290666594925136E+00    2.8237530595528830E+00    1.5584308023994824E+01
Ga   -1.4493508274160123E+00    4.5947748085647158E+00    1.6479208792441060E+01
N    3.9418451455543483E-03    3.7564099261563797E+00    1.7613263471077961E+01
N   -3.2185601713119887E+00    7.5968954362297003E+00    2.5400002476726784E+00
Ga   -3.1806669655813131E+00    5.6101843444520538E+00    2.8575993973373692E+00
N   -3.2177541269723937E+00    5.6129698001832073E+00    5.0106770947635955E+00
Ga   -3.2190852423355567E+00    7.4475889149401233E+00    5.7933249535658691E+00
N   -3.2196887974668780E+00    7.4612340357453890E+00    7.7918601494336102E+00
Ga   -3.2193095074801010E+00    5.6176194898822969E+00    8.4456712867127504E+00
N   -3.2206899792895332E+00    5.6171691163473225E+00    1.0420466423968923E+01
Ga   -3.2203577795332947E+00    7.4584579089070653E+00    1.1066196344820778E+01
N   -3.2205289663355003E+00    7.4380336199156689E+00    1.3063502295947963E+01
Ga   -3.2200753399268134E+00    5.6177064417782576E+00    1.3866358543779064E+01
N   -3.2196864145883879E+00    5.6165189599922902E+00    1.6071120981344443E+01
Ga   -3.2208741872907676E+00    7.6524370739808116E+00    1.6476947835383427E+01
Ga   -3.2154118648419594E+00    9.3286209889264757E+00    1.5557871004678172E+00
N   -4.7230604722129899E+00    1.0199738131643704E+01    2.5272499146713789E+00
Ga   -4.9517816034583646E+00    8.3411767888932449E+00    3.2935222943213316E+00
N   -4.8339248056163173E+00    8.3993732158710745E+00    5.2514244505333458E+00
Ga   -4.8575785968817291E+00    1.0276283034442919E+01    5.7930365370439292E+00
N   -4.8377871749028767E+00    1.0265315866012907E+01    7.7929177337304374E+00
Ga   -4.8213643372675108E+00    8.4061009894443774E+00    8.4271464322965954E+00
N   -4.8165857005417951E+00    8.4086649087738436E+00    1.0426095567224699E+01
Ga   -4.8422915918970979E+00    1.0266629075193888E+01    1.1065354699700061E+01
N   -4.8595560059581091E+00    1.0276984105585299E+01    1.3062434375028925E+01
Ga   -4.8166425558621286E+00    8.4096875946908689E+00    1.3620256047401478E+01
N   -4.8446455234598078E+00    8.3951396345027103E+00    1.5583662118276434E+01
Ga   -4.6670491673732268E+00    1.0165393211972258E+01    1.6478023832895264E+01
N   -3.2126254261187355E+00    9.3260296192625933E+00    1.7611128411931997E+01
N    3.1946892962634941E+00    1.9186050111089152E+00    2.6006948763966746E+00
Ga    3.2060472823698190E+00    1.8305181298494502E-01    3.2943830804911132E+00
N    3.2123476348809730E+00    5.3275559620469287E-02    5.2527269297864416E+00
Ga    3.2087110415261688E+00    1.9159639852432948E+00    5.8740010623189640E+00
N    3.2153123682617708E+00    1.9051331544274241E+00    7.8512893819710170E+00
Ga    3.2124466167734220E+00    3.6700459649569597E-02    8.4326669642626744E+00
N    3.2123591625620529E+00    3.3062078863027020E-02    1.0429677300740764E+01
Ga    3.2122781360009984E+00    1.9003200958458857E+00    1.1030253398790576E+01
N    3.2118600604108232E+00    1.9016586530551696E+00    1.3003727698525177E+01
Ga    3.2115757569231724E+00    3.2432734652752003E-02    1.3619998374532184E+01
N    3.2095091932125586E+00    6.3698489704068356E-02    1.5583646728065624E+01
Ga    3.2116576908514531E+00    1.9032123888037036E+00    1.5859354938917072E+01
N    1.4883748129631074E+00    4.6272053329352616E+00    2.5193485209493205E+00
Ga    1.6855406934013748E+00    2.8137772041100093E+00    3.2880019137765526E+00
N    1.6013097667024927E+00    2.8317330916676968E+00    5.2581385524387603E+00
Ga    1.6475700460900118E+00    4.7131409825172339E+00    5.8164504912528443E+00
N    1.6017209497934013E+00    4.6862656577858326E+00    7.8305028118601596E+00
Ga    1.5936187171708147E+00    2.8368455432067581E+00    8.4447722094963424E+00
N    1.5937778579679636E+00    2.8331830433155747E+00    1.0441350597506899E+01
Ga    1.6199770249162888E+00    4.6978975863309023E+00    1.1065173619868766E+01
N    1.6351156804011533E+00    4.7069739973401310E+00    1.3064914654360020E+01
Ga    1.5923647440703310E+00    2.8391864350588505E+00    1.3619789607665973E+01
N    1.6192993809428033E+00    2.8220424206684029E+00    1.5585016012733876E+01
Ga    1.4481210986079267E+00    4.5991087478706065E+00    1.6477877447588870E+01
N    1.6320315843057195E-02    7.4636166174528347E+00    2.6168642454013402E+00
Ga    3.1735072792948314E-02    5.7113694836323470E+00    3.2931539823153888E+00
N   -4.4273386374289441E-03    5.6144244921076645E+00    5.2620084306977386E+00
Ga    1.5801050788412267E-02    7.4705727206729851E+00    5.8673075729159105E+00
N   -1.2065417896466265E-03    7.4750534408562519E+00    7.8500010064940957E+00
Ga   -4.1334530083995515E-03    5.6071572864203345E+00    8.4424603141686063E+00
N   -7.7420721080095588E-03    5.6064800061706057E+00    1.0440035335093432E+01
Ga   -5.3534798570182614E-03    7.4751683316584483E+00    1.1028087039317532E+01
N   -5.5957730805532586E-03    7.4748576954109458E+00    1.3002661476636257E+01
Ga   -4.1504016315474903E-03    5.6043467405689444E+00    1.3619382044621732E+01
N   -6.3756050263344957E-03    5.6354679416009157E+00    1.5583484896722002E+01
Ga   -4.5416649537259636E-03    7.4743610090855492E+00    1.5858965936533457E+01
N   -1.7165122376009938E+00    1.0200673349736759E+01    2.5383352572800462E+00
Ga   -1.4835338343242805E+00    8.3340981691438998E+00    3.2975852581536316E+00
N   -1.6057188799936852E+00    8.4006874591050202E+00    5.2555704436059392E+00
Ga   -1.5882496654692768E+00    1.0273312735547652E+01    5.7967728992387313E+00
N   -1.6012979227252990E+00    1.0265857584181040E+01    7.7945243352671358E+00
Ga   -1.6180887569152835E+00    8.4063412084089482E+00    8.4305692607886691E+00
N   -1.6236609635755035E+00    8.4090940079084202E+00    1.0429154364673099E+01
Ga   -1.5977558862282255E+00    1.0267142144013285E+01    1.1066640912428571E+01
N   -1.5805624961153184E+00    1.0277595858251079E+01    1.3063854875522228E+01
Ga   -1.6243926627585876E+00    8.4095875616150284E+00    1.3620116946504391E+01
N   -1.5973341922457249E+00    8.3931814600432446E+00    1.5584920443089635E+01
Ga   -1.7675069452117627E+00    1.0169569673203330E+01    1.6476876706107870E+01
N    6.4339246783874628E+00    2.0336673506096914E+00    2.5223746758319900E+00
Ga    6.4619933479210241E+00    1.7145993822300171E-02    2.8674854319361520E+00
N    6.4306899795966324E+00    4.9082774433808228E-02    5.0177662327569239E+00
Ga    6.4168855405951222E+00    1.8721614808894860E+00    5.8032851591489942E+00
N    6.4297025440046438E+00    1.8919381437961584E+00    7.7958626283747066E+00
Ga    6.4304069932724914E+00    4.5309246976207217E-02    8.4437739970999388E+00
N    6.4286521299263191E+00    4.7107607203845596E-02    1.0419471567496814E+01
Ga    6.4289630654830745E+00    1.8846647907858332E+00    1.1073770289795187E+01
N    6.4291058786943411E+00    1.8665169100831940E+00    1.3067887724327326E+01
Ga    6.4284197481904828E+00    4.6279374285538979E-02    1.3866694818196949E+01
N    6.4287717560282642E+00    4.5626435246401753E-02    1.6070919410224302E+01
Ga    6.4270168822415599E+00    2.0875502577939256E+00    1.6482023660030034E+01
Ga    6.4232665940339553E+00    3.7641905012970152E+00    1.5032499699147008E+00
N    4.9051653018112091E+00    4.6395498987753729E+00    2.4168812826756847E+00
Ga    4.6863901317732317E+00    2.8104534394314102E+00    3.2794576117599088E+00
N    4.8245628719519891E+00    2.8404985844733122E+00    5.2386992597514048E+00
Ga    4.7744584361226385E+00    4.7155467465673855E+00    5.8287245405666663E+00
N    4.8269173122962146E+00    4.6847201696461482E+00    7.8325450198727298E+00
Ga    4.8317165446930028E+00    2.8353846275952295E+00    8.4506388800070802E+00
N    4.8322989481912453E+00    2.8335672469971409E+00    1.0443080323124796E+01
Ga    4.8046337395048164E+00    4.6986880728083662E+00    1.1066213226724278E+01
N    4.7892522470921230E+00    4.7068472521689158E+00    1.3064123527195676E+01
Ga    4.8309269175868446E+00    2.8390859102888522E+00    1.3620128327127608E+01
N    4.8028226278703334E+00    2.8237287508761821E+00    1.5583106673612200E+01
Ga    4.9846223491527404E+00    4.5932877674161183E+00    1.6481978064885716E+01
N    6.4341065683292848E+00    3.7560160808878273E+00    1.7617510113992079E+01
N    3.2084676493561699E+00    7.6211558492436939E+00    2.3893468190135261E+00
N    3.2175748275080140E+00    5.6155173650385386E+00    5.1815233481785663E+00
Ga    3.2139608568539235E+00    7.4275526377545154E+00    5.8110052151162774E+00
N    3.2132723755461812E+00    7.4786874244674078E+00    7.8268411362667942E+00
Ga    3.2116813395578774E+00    5.6189880523742017E+00    8.4329682093808973E+00
N    3.2128360627264949E+00    5.6170966187917610E+00    1.0421406378639189E+01
Ga    3.2129286802307986E+00    7.4558970655385552E+00    1.1065247151562129E+01
N    3.2120489484772086E+00    7.4383190451550032E+00    1.3064724356304243E+01
Ga    3.2126974798151235E+00    5.6172487460111498E+00    1.3862454984885106E+01
N    3.2130879198424407E+00    5.6162746294928407E+00    1.6070559973934035E+01
Ga    3.2112910283087137E+00    7.6539404318198905E+00    1.6478668286764044E+01
Ga    3.2026008326492299E+00    9.3493747901261006E+00    1.2630918431645866E+00
N    1.7275555911374103E+00    1.0196603420618910E+01    2.5012167231143372E+00
Ga    1.5600629228019804E+00    8.3366845894687938E+00    3.2463125277635139E+00
N    1.6131227985331997E+00    8.4001315045456089E+00    5.2343279056594749E+00
Ga    1.5812525635583980E+00    1.0258532789116398E+01    5.7951275648455054E+00
N    1.5943660746414086E+00    1.0266508222957761E+01    7.7948312423931343E+00
Ga    1.6147330555829886E+00    8.4092172351897396E+00    8.4436423789823820E+00
N    1.6122756128105127E+00    8.4113862971820268E+00    1.0440651582307702E+01
Ga    1.5888302684518560E+00    1.0268134532559262E+01    1.1071380194790986E+01
N    1.5722570900406088E+00    1.0278630127447359E+01    1.3066430773517045E+01
Ga    1.6150442763358559E+00    8.4091413439630358E+00    1.3619158373580603E+01
N    1.5868889124477172E+00    8.3947473197496514E+00    1.5582854948833956E+01
Ga    1.7671357935826060E+00    1.0163860543012969E+01    1.6480289811747383E+01
N    3.2186494809234745E+00    9.3248087799104322E+00    1.7615167395401929E+01
N    9.6567479176520479E+00    1.8962623990013012E+00    2.7003978902064909E+00
Ga    9.6507532021632656E+00    2.7608470588924745E-02    3.3166116272604729E+00
N    9.6460209741291987E+00    6.3344633846397255E-02    5.2566504498319970E+00
Ga    9.6548168297628365E+00    1.8976641720207923E+00    5.9064704747685521E+00
N    9.6450751566799315E+00    1.9038058720510527E+00    7.8648227743290970E+00
Ga    9.6458103212426618E+00    2.8791419073400038E-02    8.4390469452770631E+00
N    9.6449236118593458E+00    3.3070636205714217E-02    1.0433545524402504E+01
Ga    9.6449607174344720E+00    1.9025606713906735E+00    1.1026546166532242E+01
N    9.6440349931964775E+00    1.9032328891900401E+00    1.2999932965979911E+01
Ga    9.6437591287409798E+00    3.4268483311482294E-02    1.3621746234500462E+01
N    9.6426885270584215E+00    6.4943824779514825E-02    1.5584625651803290E+01
Ga    9.6439326706442454E+00    1.9032287717346639E+00    1.5863324896890120E+01
N    7.9298713010943152E+00    4.6197034135648245E+00    2.5208480800948379E+00
Ga    8.0735741665922660E+00    2.8108269218980264E+00    3.3427667880868341E+00
N    8.0513531249409773E+00    2.8240059995223215E+00    5.2625976822063931E+00
Ga    8.0580047098471308E+00    4.7155046680966057E+00    5.8003121305628200E+00
N    8.0478195599798852E+00    4.6946397835469433E+00    7.7934877795232680E+00
Ga    8.0243181154128660E+00    2.8398281970593300E+00    8.4423638088366957E+00
N    8.0250628316283397E+00    2.8387961661688408E+00    1.0434481035574972E+01
Ga    8.0521832256833932E+00    4.6981777179505526E+00    1.1073470586795223E+01
N    8.0684740924830951E+00    4.7065736353154248E+00    1.3067631989815577E+01
Ga    8.0255798121104238E+00    2.8381687756617375E+00    1.3623098838984030E+01
N    8.0527458691975102E+00    2.8221494056291125E+00    1.5586391220756278E+01
Ga    7.8753779056509243E+00    4.5967597217655634E+00    1.6482189150858563E+01
N    6.4096449654896306E+00    7.4798715252327170E+00    2.5981662455697072E+00
Ga    6.3779571544659550E+00    5.7457439388550755E+00    3.2777838242630453E+00
N    6.4231509838984016E+00    5.6075595219314351E+00    5.2360768887475668E+00
Ga    6.4071069795208633E+00    7.4736679665135544E+00    5.8587800810276764E+00
N    6.4260640058730765E+00    7.4716473536920498E+00    7.8407352205377903E+00
Ga    6.4310293888319334E+00    5.6079882994468750E+00    8.4459036322899514E+00
N    6.4330797080301467E+00    5.6067891083205366E+00    1.0439870002130927E+01
Ga    6.4313194929689370E+00    7.4757690022035312E+00    1.1028974381043094E+01
N    6.4296720386499961E+00    7.4749492016217474E+00    1.3002685471971475E+01
Ga    6.4274528049279347E+00    5.6044271245912682E+00    1.3620548880184803E+01
N    6.4263280488261794E+00    5.6358888511215577E+00    1.5583414682429945E+01
Ga    6.4275635555332160E+00    7.4741762877262312E+00    1.5859591235708230E+01
N    4.6937846219607691E+00    1.0196823976030686E+01    2.4805040071383013E+00
Ga    4.8593497559509258E+00    8.3452605396382076E+00    3.2331569228736625E+00
N    4.8119704789974378E+00    8.4006638560582445E+00    5.2240022207785399E+00
Ga    4.8509660520901239E+00    1.0259890992696846E+01    5.7907069497464780E+00
N    4.8313843501736633E+00    1.0264683346174724E+01    7.7929977801728185E+00
Ga    4.8110879568692235E+00    8.4089011147551851E+00    8.4420619360011795E+00
N    4.8141555391259310E+00    8.4105571975692097E+00    1.0439331571350367E+01
Ga    4.8362725254912151E+00    1.0267566509972314E+01    1.1071464966094368E+01
N    4.8514030988288370E+00    1.0278363516997842E+01    1.3067006401839274E+01
Ga    4.8082964040117329E+00    8.4089528394981450E+00    1.3619942773281432E+01
N    4.8359638567933700E+00    8.3934453649840286E+00    1.5584683622066761E+01
Ga    4.6617431853887501E+00    1.0167346373765794E+01    1.6479952469751733E+01
O    6.4111612438969967E-01    4.0032015934459606E+00   -3.9554017900280386E-01
H    2.6798855929727683E+00    6.4487397768024142E+00   -2.3917224150262764E-01
C    1.0038598970490533E+00    2.7934717623691507E+00   -1.0959027722846775E+00
H    1.7171364064370684E+00    2.1817219333618563E+00   -5.1927046891855355E-01
H    1.1693100169406324E-01    2.1826848972722264E+00   -1.3213015897098317E+00
H    1.4743670747897786E+00    3.0836366530884063E+00   -2.0458979896198439E+00
Ga    3.1488474638167969E+00    5.6446648742006857E+00    2.2077252173366477E+00
O    2.8574112142934651E+00    5.5400273480954043E+00    6.8738619147756266E-02
H    2.0199159492417387E+00    4.9969483525943943E+00   -1.2959548623182798E-01
C    3.1342760262064147E+00    9.3469804430465384E+00   -6.6885758681759411E-01
H    9.6509076962479501E+00    1.8938530224260044E+00    1.6742944008029501E+00
H    4.0315343130171133E+00    9.3819926283064756E+00   -1.2881877355113671E+00
H    2.1895625187726337E+00    9.3348738147922958E+00   -1.2131056651744061E+00
     &END COORD
     &KIND C
       BASIS_SET DZVP-MOLOPT-SR-GTH-q4
       POTENTIAL GTH-PBE-q4
       &POTENTIAL
 2 2
  0.3384712400000000E+00 2 -0.8803673979999999E+01  0.1339210850000000E+01
 2
  0.3025757500000000E+00 1  0.9622486650000001E+01
  0.2915069400000000E+00 0
         # Potential name:  GTH-PBE-Q4  for symbol:  C
         # Potential read from the potential filename: GTH_POTENTIALS
       &END POTENTIAL
     &END KIND
     &KIND O
       BASIS_SET DZVP-MOLOPT-SR-GTH-q6
       POTENTIAL GTH-PBE-q6
       &POTENTIAL
 2 4
  0.2445543000000000E+00 2 -0.1666721480000000E+02  0.2487311320000000E+01
 2
  0.2209559200000000E+00 1  0.1833745811000000E+02
  0.2113324700000000E+00 0
         # Potential name:  GTH-PBE-Q6  for symbol:  O
         # Potential read from the potential filename: GTH_POTENTIALS
       &END POTENTIAL
     &END KIND
     &KIND H
       BASIS_SET DZVP-MOLOPT-SR-GTH-q1
       POTENTIAL GTH-PBE-q1
       &POTENTIAL
 1
  0.2000000000000000E+00 2 -0.4178900440000000E+01  0.7244633100000000E+00
 0
         # Potential name:  GTH-PBE-Q1  for symbol:  H
         # Potential read from the potential filename: GTH_POTENTIALS
       &END POTENTIAL
     &END KIND
     &KIND N
       BASIS_SET DZVP-MOLOPT-SR-GTH
       POTENTIAL GTH-PBE-q5
       &POTENTIAL
 2 3
  0.2837905100000000E+00 2 -0.1241522559000000E+02  0.1868095920000000E+01
 2
  0.2554050000000000E+00 1  0.1363026257000000E+02
  0.2454945300000000E+00 0
         # Potential name:  GTH-PBE-Q5  for symbol:  N
         # Potential read from the potential filename: GTH_POTENTIALS
       &END POTENTIAL
     &END KIND
     &KIND Ga
       BASIS_SET DZVP-MOLOPT-SR-GTH
       POTENTIAL GTH-PBE-q13
       &POTENTIAL
 2 1 10
  0.4900000000000000E+00 0
 3
  0.4167772300000000E+00 3  0.1047568975000000E+02 -0.4921768140000000E+01  0.8707055900000000E+00
  0.7770178090000000E+01 -0.2248152160000000E+01
  0.1784415450000000E+01
  0.5696265200000000E+00 2  0.1777985340000000E+01  0.1958597600000000E+00
 -0.2317443900000000E+00
  0.2381265000000000E+00 1 -0.1624868022000000E+02
         # Potential name:  GTH-PBE-Q13  for symbol:  GA
         # Potential read from the potential filename: GTH_POTENTIALS
       &END POTENTIAL
     &END KIND
     &TOPOLOGY
       NUMBER_OF_ATOMS  212
       MULTIPLE_UNIT_CELL  1 1 1
     &END TOPOLOGY
   &END SUBSYS
 &END FORCE_EVAL
