 # Version information for this restart file 
 # current date 2019-06-30 11:50:49.559
 # current working dir /scratch/rzk/rzk/GaN-carbene/443-adatoms-both-2x2/08-CH3O-H2O-H2C-H/02-Use-0701-H2CGa
 # Program compiled at                              Sun Apr  7 00:48:11 EDT 2019
 # Program compiled on                          beluga2.int.ets1.calculquebec.ca
 # Program compiled for                        Beluga-Linux-x86-64-intel-openmpi
 # Source code revision number                                         svn:18619
 &GLOBAL
   PRINT_LEVEL  MEDIUM
   PROJECT_NAME TEST
   RUN_TYPE  GEO_OPT
 &END GLOBAL
 &MOTION
   &GEO_OPT
     MAX_ITER  500
     STEP_START_VAL  79
   &END GEO_OPT
 &END MOTION
 &FORCE_EVAL
   METHOD  QS
   STRESS_TENSOR  ANALYTICAL
   &DFT
     BASIS_SET_FILE_NAME BASIS_MOLOPT
     POTENTIAL_FILE_NAME GTH_POTENTIALS
     UKS  T
     SURFACE_DIPOLE_CORRECTION  T
     SURF_DIP_DIR  Z
     &SCF
       MAX_SCF  80
       EPS_SCF     5.0000000000000004E-06
       &OT  T
         PRECONDITIONER  FULL_ALL
       &END OT
       &OUTER_SCF  T
         OPTIMIZER  NONE
         EPS_SCF     5.0000000000000004E-06
         MAX_SCF  4
       &END OUTER_SCF
       &PRINT
         &RESTART  OFF
           BACKUP_COPIES  1
           &EACH
             JUST_ENERGY  0
             QS_SCF  0
             MD  20
           &END EACH
         &END RESTART
       &END PRINT
     &END SCF
     &QS
       EPS_DEFAULT     1.0000000000000000E-14
       METHOD  GPW
     &END QS
     &MGRID
       NGRIDS  5
       CUTOFF     1.2000000000000000E+03
     &END MGRID
     &XC
       DENSITY_CUTOFF     1.0000000000000000E-10
       GRADIENT_CUTOFF     1.0000000000000000E-10
       TAU_CUTOFF     1.0000000000000000E-10
       &XC_FUNCTIONAL  NO_SHORTCUT
         &PBE  T
         &END PBE
       &END XC_FUNCTIONAL
       &VDW_POTENTIAL
         POTENTIAL_TYPE  PAIR_POTENTIAL
         &PAIR_POTENTIAL
           R_CUTOFF     1.0000000000000004E+01
           TYPE  DFTD3
           PARAMETER_FILE_NAME dftd3.dat
           REFERENCE_FUNCTIONAL PBE
           EPS_CN     9.9999999999999995E-07
           CALCULATE_C9_TERM  T
           REFERENCE_C9_TERM  T
           LONG_RANGE_CORRECTION  F
           VERBOSE_OUTPUT  F
         &END PAIR_POTENTIAL
       &END VDW_POTENTIAL
     &END XC
   &END DFT
   &SUBSYS
     &CELL
       A     1.2864472766435110E+01    0.0000000000000000E+00    0.0000000000000000E+00
       B    -6.4322363581020028E+00    1.1140960178524473E+01    0.0000000000000000E+00
       C     0.0000000000000000E+00    0.0000000000000000E+00    3.2000000000000000E+01
       MULTIPLE_UNIT_CELL  1 1 1
       &CELL_REF
         A     1.2982353780853531E+01    0.0000000000000000E+00    0.0000000000000000E+00
         B    -6.4911768904267628E+00    1.1243048175136114E+01    0.0000000000000000E+00
         C     0.0000000000000000E+00    0.0000000000000000E+00    3.2000000000000000E+01
         MULTIPLE_UNIT_CELL  1 1 1
       &END CELL_REF
     &END CELL
     &COORD
N   -3.9646208983754923E-03    2.0469388069660743E+00    2.4821217696211963E+00
Ga   -3.7644367882840091E-02    5.9188741433214849E-02    2.8309317446307691E+00
N   -5.6332758460844266E-03    4.8732287806680166E-02    5.0119599341418910E+00
Ga    4.5850146378102483E-03    1.8707912840977017E+00    5.8033530538758811E+00
N   -5.8042469963259947E-03    1.8906307443048145E+00    7.8007176427781362E+00
Ga   -4.2400840083877114E-03    4.5335638280409755E-02    8.4428202777300179E+00
N   -2.8259546155848681E-03    4.5961577804229825E-02    1.0419181522883344E+01
Ga   -2.0271619985050417E-03    1.8845009381790281E+00    1.1070932097651140E+01
N   -2.8431034511113614E-03    1.8657662202424428E+00    1.3066098413206042E+01
Ga   -1.3940323032522399E-03    4.5583990155565732E-02    1.3865482509279911E+01
N   -3.8797580870735837E-03    4.5075837720489093E-02    1.6071309537015946E+01
Ga   -2.4046950813039628E-03    2.0840322090763013E+00    1.6477982321029963E+01
Ga    5.3096000971954938E-02    3.7957968539579481E+00    1.3650696230710926E+00
N   -1.4817900009165641E+00    4.6163815348233230E+00    2.4886220725557973E+00
Ga   -1.5967175450952282E+00    2.8323369049709934E+00    3.3128339188472942E+00
N   -1.6234824506293524E+00    2.8249869539367198E+00    5.2519090075012969E+00
Ga   -1.6284166957394224E+00    4.7081856100444313E+00    5.8054280277233108E+00
N   -1.6242106067115198E+00    4.6921599020422518E+00    7.8006883821419475E+00
Ga   -1.5975530933113575E+00    2.8390719778368170E+00    8.4460484836517526E+00
N   -1.6000115064019684E+00    2.8384638810961533E+00    1.0437707832198665E+01
Ga   -1.6261729246907872E+00    4.6989079161608807E+00    1.1071461284966247E+01
N   -1.6432053280688514E+00    4.7067254637844345E+00    1.3066311020573588E+01
Ga   -1.5995340253370616E+00    2.8380277689905613E+00    1.3620766554493128E+01
N   -1.6274023029418681E+00    2.8222742382505022E+00    1.5584589155466482E+01
Ga   -1.4531312955325197E+00    4.5981325747486173E+00    1.6479002102242855E+01
N   -9.8888477166146488E-03    3.7546802984458290E+00    1.7611630586190660E+01
N   -3.2182387708309843E+00    7.5972830522054968E+00    2.5406210682595067E+00
Ga   -3.1806253273853708E+00    5.6103951235721876E+00    2.8575774721851830E+00
N   -3.2171993292568049E+00    5.6133441186002457E+00    5.0103096504620854E+00
Ga   -3.2184503329668877E+00    7.4476514633996143E+00    5.7931377492234617E+00
N   -3.2191203469779239E+00    7.4612528435059398E+00    7.7915083844629853E+00
Ga   -3.2183464094562622E+00    5.6175890187620912E+00    8.4448734369832632E+00
N   -3.2196952147439539E+00    5.6169957506320092E+00    1.0419599727942874E+01
Ga   -3.2192223627190981E+00    7.4583662176794370E+00    1.1065232491545521E+01
N   -3.2187377352441970E+00    7.4378409880123666E+00    1.3062262287345634E+01
Ga   -3.2180401525227498E+00    5.6180853521610308E+00    1.3865328229275759E+01
N   -3.2191056214308293E+00    5.6159763720243889E+00    1.6069632579661700E+01
Ga   -3.2188926041211245E+00    7.6530822272917280E+00    1.6478688082927249E+01
Ga   -3.2152854427840141E+00    9.3288726308999692E+00    1.5557736372646609E+00
N   -4.7220030009085283E+00    1.0199792650294995E+01    2.5280110462950605E+00
Ga   -4.9509113932911823E+00    8.3415089260468509E+00    3.2940561497523246E+00
N   -4.8332074498387039E+00    8.3994856646627181E+00    5.2517097681893512E+00
Ga   -4.8566588480679451E+00    1.0276387289920871E+01    5.7928927228198264E+00
N   -4.8369904392470797E+00    1.0265277917854267E+01    7.7926271656565387E+00
Ga   -4.8206094109352158E+00    8.4061751410508201E+00    8.4268543454571638E+00
N   -4.8160312493636654E+00    8.4081853912969589E+00    1.0426017984846220E+01
Ga   -4.8410412262892617E+00    1.0266389577960309E+01    1.1064863418320133E+01
N   -4.8575254407317816E+00    1.0276880204285035E+01    1.3061854674639893E+01
Ga   -4.8141275449315826E+00    8.4094997735271519E+00    1.3620334491557944E+01
N   -4.8415300323663768E+00    8.3928870806446323E+00    1.5584063085327561E+01
Ga   -4.6709963537151493E+00    1.0168536380535292E+01    1.6477800008168472E+01
N   -3.2263217805375324E+00    9.3260615122675379E+00    1.7612885218582036E+01
N    3.1948972990733924E+00    1.9187275346197650E+00    2.6009908510090196E+00
Ga    3.2064450355146081E+00    1.8338681240115290E-01    3.2947625871684667E+00
N    3.2131122906763516E+00    5.3360400225567775E-02    5.2528300238336199E+00
Ga    3.2092136227523573E+00    1.9158928623757867E+00    5.8739551398580057E+00
N    3.2159141134235045E+00    1.9054287991672672E+00    7.8509896999383004E+00
Ga    3.2131691498949815E+00    3.6956396602086959E-02    8.4318775542231794E+00
N    3.2134275672346648E+00    3.3157778065263314E-02    1.0428830356366376E+01
Ga    3.2126245722974933E+00    1.9004320652768996E+00    1.1029431165243922E+01
N    3.2142962748767379E+00    1.9017768624769793E+00    1.3002896247673636E+01
Ga    3.2142366384752035E+00    3.2248782060187976E-02    1.3620255935711116E+01
N    3.2155724068552405E+00    6.2941469600712993E-02    1.5583152537265144E+01
Ga    3.2136292495911380E+00    1.9018668912615790E+00    1.5858576796126714E+01
N    1.4877708073156115E+00    4.6268521865953529E+00    2.5189830807517293E+00
Ga    1.6860043181234108E+00    2.8140987191054592E+00    3.2883126328142387E+00
N    1.6016450694249862E+00    2.8318591608843877E+00    5.2585922169551607E+00
Ga    1.6480195506182487E+00    4.7134394918496820E+00    5.8163502541627725E+00
N    1.6026419788368420E+00    4.6864564448199832E+00    7.8301696123418107E+00
Ga    1.5942772792919360E+00    2.8370332324309260E+00    8.4438319694601454E+00
N    1.5945544085190719E+00    2.8334083617268888E+00    1.0439965786115359E+01
Ga    1.6208622536889188E+00    4.6981234727864951E+00    1.1062787674117617E+01
N    1.6374193025894734E+00    4.7066701973454830E+00    1.3062010437662469E+01
Ga    1.5948061639780957E+00    2.8390970904995032E+00    1.3618742292087372E+01
N    1.6227827440523008E+00    2.8237904272008083E+00    1.5582559159925790E+01
Ga    1.4417554130556329E+00    4.5944495909430998E+00    1.6479066866907896E+01
N    1.6001966542514588E-02    7.4637647607635662E+00    2.6166334378070100E+00
Ga    3.1959756212564742E-02    5.7116515198704487E+00    3.2931910905753683E+00
N   -4.1652765779198655E-03    5.6145946456461262E+00    5.2619014298510285E+00
Ga    1.6094030433253075E-02    7.4707514813820204E+00    5.8667199712031568E+00
N   -4.0303496416891846E-04    7.4750878452987992E+00    7.8493093193122085E+00
Ga   -3.3622449528313194E-03    5.6072103308528050E+00    8.4412116389660188E+00
N   -7.0857178762206395E-03    5.6065056384667651E+00    1.0438645357036860E+01
Ga   -4.9948614463841551E-03    7.4751328557628138E+00    1.1026633651859166E+01
N   -3.6339600992403641E-03    7.4747327768929308E+00    1.3001206130058195E+01
Ga   -1.4474135406799505E-03    5.6038832177451727E+00    1.3617789287998574E+01
N   -1.0614946324087934E-03    5.6353024875840179E+00    1.5581313712812147E+01
Ga   -2.9107090839167911E-03    7.4740937805586585E+00    1.5858668644720915E+01
N   -1.7166209559127106E+00    1.0200890930824166E+01    2.5387655425293287E+00
Ga   -1.4835398551190879E+00    8.3344616204724264E+00    3.2975890664701146E+00
N   -1.6052347723112881E+00    8.4009117090607486E+00    5.2552545547363998E+00
Ga   -1.5875122498329797E+00    1.0273500019724864E+01    5.7963462386511786E+00
N   -1.6005080554411546E+00    1.0266111685475856E+01    7.7941160057256438E+00
Ga   -1.6173590349788127E+00    8.4064489379997909E+00    8.4291566356350405E+00
N   -1.6229759497649139E+00    8.4091392636142430E+00    1.0427475779926539E+01
Ga   -1.5966672518199343E+00    1.0266939027021662E+01    1.1065217851331241E+01
N   -1.5786708079513425E+00    1.0277680376013187E+01    1.3061845211610693E+01
Ga   -1.6220862565202829E+00    8.4096612048953503E+00    1.3619599919824783E+01
N   -1.5954253618331962E+00    8.3950973680354739E+00    1.5582979727375099E+01
Ga   -1.7732309911432738E+00    1.0164931957534410E+01    1.6479033458220769E+01
N    6.4340124558998975E+00    2.0340895116453925E+00    2.5225241599968551E+00
Ga    6.4620494615043063E+00    1.7416043861266346E-02    2.8659997560856514E+00
N    6.4311690350427781E+00    4.8775872828188696E-02    5.0164861249590604E+00
Ga    6.4173199481012375E+00    1.8716973334364864E+00    5.8028510879478121E+00
N    6.4301228510001538E+00    1.8921160434815389E+00    7.7955116511894982E+00
Ga    6.4313351006350006E+00    4.5359105913955630E-02    8.4429528555293416E+00
N    6.4299369817503766E+00    4.7187485772627241E-02    1.0418876401793467E+01
Ga    6.4301198154512127E+00    1.8847528671887475E+00    1.1072899370924546E+01
N    6.4308680047303728E+00    1.8659176567711595E+00    1.3067682888002819E+01
Ga    6.4292088061655583E+00    4.5274520951823161E-02    1.3865989184570832E+01
N    6.4288495118470088E+00    4.4293750935487146E-02    1.6070538051251891E+01
Ga    6.4281593275421516E+00    2.0817506922578648E+00    1.6477723737568187E+01
Ga    6.4241135541243946E+00    3.7640063858654855E+00    1.5025074440590152E+00
N    4.9054935841793412E+00    4.6397787310081684E+00    2.4164947892693349E+00
Ga    4.6866850777294911E+00    2.8106744719411920E+00    3.2790815541319445E+00
N    4.8249993758401999E+00    2.8404535583385520E+00    5.2385050704639422E+00
Ga    4.7749787360561333E+00    4.7155396634965108E+00    5.8286625899649644E+00
N    4.8276752729618293E+00    4.6847568133799866E+00    7.8324042261667710E+00
Ga    4.8322065276893147E+00    2.8354554466298145E+00    8.4506274079614201E+00
N    4.8331585825850842E+00    2.8336249247296048E+00    1.0443381344829406E+01
Ga    4.8059198914051358E+00    4.6987809240169858E+00    1.1065610900644606E+01
N    4.7910678306509018E+00    4.7066289856896262E+00    1.3064306229281579E+01
Ga    4.8335868136539526E+00    2.8388873797857843E+00    1.3619085305404713E+01
N    4.8054591202978667E+00    2.8220027370954361E+00    1.5583863745685161E+01
Ga    4.9758241986381035E+00    4.5985947084290864E+00    1.6476979889063472E+01
N    6.4214312480233362E+00    3.7552412982674412E+00    1.7610619581232829E+01
N    3.2092627474731170E+00    7.6207860897235848E+00    2.3881600304609671E+00
N    3.2181103154519333E+00    5.6153167874160852E+00    5.1803735392274133E+00
Ga    3.2144056474284159E+00    7.4272480602249971E+00    5.8101320705009263E+00
N    3.2139775900360599E+00    7.4785783161575496E+00    7.8262677506853704E+00
Ga    3.2125345384533484E+00    5.6190770472316114E+00    8.4321979819926085E+00
N    3.2142990843266062E+00    5.6170288538491224E+00    1.0420709458228920E+01
Ga    3.2139397147139532E+00    7.4560099706040370E+00    1.1063507240769567E+01
N    3.2142027968621254E+00    7.4376307336859515E+00    1.3062958466055372E+01
Ga    3.2134212469188270E+00    5.6170021909054171E+00    1.3860517113226230E+01
N    3.2117921169655093E+00    5.6161176283752425E+00    1.6069681879512693E+01
Ga    3.2125007087219641E+00    7.6542932041260601E+00    1.6478598111796071E+01
Ga    3.2031360553612926E+00    9.3499178811207830E+00    1.2613576290444188E+00
N    1.7279302072786007E+00    1.0196532955143232E+01    2.4995621471297071E+00
Ga    1.5604136104871624E+00    8.3366500060616833E+00    3.2448502467483227E+00
N    1.6135265305442337E+00    8.4002884949803782E+00    5.2331774823642192E+00
Ga    1.5812232235703432E+00    1.0258786636673454E+01    5.7946579626388361E+00
N    1.5951002894230895E+00    1.0266213791673263E+01    7.7943062662056226E+00
Ga    1.6154785222781711E+00    8.4090357297349900E+00    8.4426896333034751E+00
N    1.6129478508146533E+00    8.4112742127083280E+00    1.0439974502110969E+01
Ga    1.5900650654933506E+00    1.0267912693652422E+01    1.1070668647851530E+01
N    1.5736429040679110E+00    1.0278819186001034E+01    1.3065911200287417E+01
Ga    1.6177465349338926E+00    8.4089762234443945E+00    1.3618142052032757E+01
N    1.5892327808876825E+00    8.3928889493598593E+00    1.5583029483756482E+01
Ga    1.7620966466536232E+00    1.0166723084355789E+01    1.6479439503242300E+01
N    3.2060229471632935E+00    9.3254473600818582E+00    1.7614231899154387E+01
N    9.6567431508225070E+00    1.8961894165957345E+00    2.7000826860792793E+00
Ga    9.6503597413975157E+00    2.7551896930095205E-02    3.3158778834715177E+00
N    9.6463736868846688E+00    6.2908340379128194E-02    5.2557746946697605E+00
Ga    9.6551001115332529E+00    1.8975645567202513E+00    5.9057924703712636E+00
N    9.6456009596433603E+00    1.9038013787420007E+00    7.8642249703424474E+00
Ga    9.6465173130189399E+00    2.8751409843509559E-02    8.4379146791309676E+00
N    9.6457158025697982E+00    3.3171209664219381E-02    1.0432439735157098E+01
Ga    9.6450100234797791E+00    1.9023803316668528E+00    1.1025929394635652E+01
N    9.6452851489115989E+00    1.9031313164129393E+00    1.2999557969529382E+01
Ga    9.6464598525720291E+00    3.3642540241134777E-02    1.3621540786080207E+01
N    9.6466916073992994E+00    6.4330172500776869E-02    1.5584702856602934E+01
Ga    9.6465399706696608E+00    1.9025907849730763E+00    1.5862311314220614E+01
N    7.9300534772811400E+00    4.6196845574009586E+00    2.5212103879985799E+00
Ga    8.0735005418416161E+00    2.8107020635151949E+00    3.3424904983668826E+00
N    8.0515502033454389E+00    2.8241473113108566E+00    5.2624091670624988E+00
Ga    8.0589525612075992E+00    4.7157472254910822E+00    5.8002706289629469E+00
N    8.0484476419536630E+00    4.6947523787729768E+00    7.7933941841131613E+00
Ga    8.0248951975017349E+00    2.8398024973592944E+00    8.4417092479318701E+00
N    8.0257791292912284E+00    2.8391278394538260E+00    1.0433676947502656E+01
Ga    8.0533402662728726E+00    4.6982204184358922E+00    1.1072451153902652E+01
N    8.0707593116557756E+00    4.7065758976992313E+00    1.3066891673157340E+01
Ga    8.0275884053788147E+00    2.8382665319804836E+00    1.3622174446083664E+01
N    8.0542172049815974E+00    2.8236449476454131E+00    1.5585753672162706E+01
Ga    7.8756090404945196E+00    4.5958274233040655E+00    1.6479092749250860E+01
N    6.4105828902640001E+00    7.4798789825944976E+00    2.5978386094433135E+00
Ga    6.3784372060258692E+00    5.7454457590548067E+00    3.2776975944634250E+00
N    6.4237717333028250E+00    5.6078244257127565E+00    5.2361359133340928E+00
Ga    6.4081365217181752E+00    7.4738088564358893E+00    5.8589995974107971E+00
N    6.4267911685819987E+00    7.4716311795304451E+00    7.8407940786835306E+00
Ga    6.4316968260670695E+00    5.6079614776293178E+00    8.4457350093303081E+00
N    6.4342303493540172E+00    5.6066458307570226E+00    1.0439681693986440E+01
Ga    6.4314429474415498E+00    7.4755788405230748E+00    1.1028266340145001E+01
N    6.4314688763033194E+00    7.4742033447843239E+00    1.3002220851478391E+01
Ga    6.4301481339279496E+00    5.6037685895661618E+00    1.3619051708298493E+01
N    6.4312015970311363E+00    5.6349933983790663E+00    1.5583097910169720E+01
Ga    6.4306757806639627E+00    7.4744640893895813E+00    1.5859931737778057E+01
N    4.6945343484127413E+00    1.0196819045236506E+01    2.4807928669502970E+00
Ga    4.8596342602326690E+00    8.3450063729284114E+00    3.2327156420445400E+00
N    4.8127107057575769E+00    8.4006899930280046E+00    5.2238545754925676E+00
Ga    4.8517423735129741E+00    1.0260189495653510E+01    5.7904801235493375E+00
N    4.8322860494834554E+00    1.0264650177000393E+01    7.7926416255364490E+00
Ga    4.8116462845623111E+00    8.4089206506112610E+00    8.4409025022924329E+00
N    4.8150089637892446E+00    8.4105971732904159E+00    1.0438009891829157E+01
Ga    4.8371834050241684E+00    1.0267511836547307E+01    1.1069755720813575E+01
N    4.8541386187350568E+00    1.0278537461850943E+01    1.3064943848767934E+01
Ga    4.8106057049531596E+00    8.4091187306772266E+00    1.3618861966850536E+01
N    4.8380688215594461E+00    8.3936371973773447E+00    1.5583074896397452E+01
Ga    4.6576954209813204E+00    1.0163614485638302E+01    1.6479624369211329E+01
O    6.3506960361364972E-01    4.0066345459567438E+00   -3.9591198704931874E-01
H    2.6932114773113320E+00    6.4427606487843416E+00   -2.5232320083735044E-01
C    1.0074471695349261E+00    2.7981953252025744E+00   -1.0934342508632371E+00
H    1.7176268908806311E+00    2.1876179880903819E+00   -5.1109819926909661E-01
H    1.2362732743904266E-01    2.1854555468507737E+00   -1.3271718707566684E+00
H    1.4855014178234665E+00    3.0909618226119324E+00   -2.0392510982982230E+00
Ga    3.1479558252744866E+00    5.6445218543227060E+00    2.2063561497266249E+00
O    2.8558264112216141E+00    5.5349172782600942E+00    6.6982086043912412E-02
H    2.0129202575938758E+00    4.9996967551758269E+00   -1.3071980198626049E-01
C    3.1401774641994931E+00    9.3384614364955230E+00   -6.7190199894042013E-01
H    9.6503713259204549E+00    1.8942841615986559E+00    1.6738309883300977E+00
H    4.0380102070064847E+00    9.3252343079431412E+00   -1.2899680652966665E+00
H    2.1955762993049603E+00    9.3692811656513157E+00   -1.2186832795308806E+00
     &END COORD
     &KIND C
       BASIS_SET DZVP-MOLOPT-SR-GTH-q4
       POTENTIAL GTH-PBE-q4
       &POTENTIAL
 2 2
  0.3384712400000000E+00 2 -0.8803673979999999E+01  0.1339210850000000E+01
 2
  0.3025757500000000E+00 1  0.9622486650000001E+01
  0.2915069400000000E+00 0
         # Potential name:  GTH-PBE-Q4  for symbol:  C
         # Potential read from the potential filename: GTH_POTENTIALS
       &END POTENTIAL
     &END KIND
     &KIND O
       BASIS_SET DZVP-MOLOPT-SR-GTH-q6
       POTENTIAL GTH-PBE-q6
       &POTENTIAL
 2 4
  0.2445543000000000E+00 2 -0.1666721480000000E+02  0.2487311320000000E+01
 2
  0.2209559200000000E+00 1  0.1833745811000000E+02
  0.2113324700000000E+00 0
         # Potential name:  GTH-PBE-Q6  for symbol:  O
         # Potential read from the potential filename: GTH_POTENTIALS
       &END POTENTIAL
     &END KIND
     &KIND H
       BASIS_SET DZVP-MOLOPT-SR-GTH-q1
       POTENTIAL GTH-PBE-q1
       &POTENTIAL
 1
  0.2000000000000000E+00 2 -0.4178900440000000E+01  0.7244633100000000E+00
 0
         # Potential name:  GTH-PBE-Q1  for symbol:  H
         # Potential read from the potential filename: GTH_POTENTIALS
       &END POTENTIAL
     &END KIND
     &KIND N
       BASIS_SET DZVP-MOLOPT-SR-GTH
       POTENTIAL GTH-PBE-q5
       &POTENTIAL
 2 3
  0.2837905100000000E+00 2 -0.1241522559000000E+02  0.1868095920000000E+01
 2
  0.2554050000000000E+00 1  0.1363026257000000E+02
  0.2454945300000000E+00 0
         # Potential name:  GTH-PBE-Q5  for symbol:  N
         # Potential read from the potential filename: GTH_POTENTIALS
       &END POTENTIAL
     &END KIND
     &KIND Ga
       BASIS_SET DZVP-MOLOPT-SR-GTH
       POTENTIAL GTH-PBE-q13
       &POTENTIAL
 2 1 10
  0.4900000000000000E+00 0
 3
  0.4167772300000000E+00 3  0.1047568975000000E+02 -0.4921768140000000E+01  0.8707055900000000E+00
  0.7770178090000000E+01 -0.2248152160000000E+01
  0.1784415450000000E+01
  0.5696265200000000E+00 2  0.1777985340000000E+01  0.1958597600000000E+00
 -0.2317443900000000E+00
  0.2381265000000000E+00 1 -0.1624868022000000E+02
         # Potential name:  GTH-PBE-Q13  for symbol:  GA
         # Potential read from the potential filename: GTH_POTENTIALS
       &END POTENTIAL
     &END KIND
     &TOPOLOGY
       NUMBER_OF_ATOMS  212
       MULTIPLE_UNIT_CELL  1 1 1
     &END TOPOLOGY
   &END SUBSYS
 &END FORCE_EVAL
