 # Version information for this restart file 
 # current date 2019-06-30 09:22:33.803
 # current working dir /scratch/rzk/rzk/GaN-carbene/443-adatoms-both-2x2/08-CH3O-H2O-H2C-H/02-Use-0701-H2CGa
 # Program compiled at                              Sun Apr  7 00:48:11 EDT 2019
 # Program compiled on                          beluga2.int.ets1.calculquebec.ca
 # Program compiled for                        Beluga-Linux-x86-64-intel-openmpi
 # Source code revision number                                         svn:18619
 &GLOBAL
   PRINT_LEVEL  MEDIUM
   PROJECT_NAME TEST
   RUN_TYPE  GEO_OPT
 &END GLOBAL
 &MOTION
   &GEO_OPT
     MAX_ITER  500
     STEP_START_VAL  53
   &END GEO_OPT
 &END MOTION
 &FORCE_EVAL
   METHOD  QS
   STRESS_TENSOR  ANALYTICAL
   &DFT
     BASIS_SET_FILE_NAME BASIS_MOLOPT
     POTENTIAL_FILE_NAME GTH_POTENTIALS
     UKS  T
     SURFACE_DIPOLE_CORRECTION  T
     SURF_DIP_DIR  Z
     &SCF
       MAX_SCF  80
       EPS_SCF     5.0000000000000004E-06
       &OT  T
         PRECONDITIONER  FULL_ALL
       &END OT
       &OUTER_SCF  T
         OPTIMIZER  NONE
         EPS_SCF     5.0000000000000004E-06
         MAX_SCF  4
       &END OUTER_SCF
       &PRINT
         &RESTART  OFF
           BACKUP_COPIES  1
           &EACH
             JUST_ENERGY  0
             QS_SCF  0
             MD  20
           &END EACH
         &END RESTART
       &END PRINT
     &END SCF
     &QS
       EPS_DEFAULT     1.0000000000000000E-14
       METHOD  GPW
     &END QS
     &MGRID
       NGRIDS  5
       CUTOFF     1.2000000000000000E+03
     &END MGRID
     &XC
       DENSITY_CUTOFF     1.0000000000000000E-10
       GRADIENT_CUTOFF     1.0000000000000000E-10
       TAU_CUTOFF     1.0000000000000000E-10
       &XC_FUNCTIONAL  NO_SHORTCUT
         &PBE  T
         &END PBE
       &END XC_FUNCTIONAL
       &VDW_POTENTIAL
         POTENTIAL_TYPE  PAIR_POTENTIAL
         &PAIR_POTENTIAL
           R_CUTOFF     1.0000000000000004E+01
           TYPE  DFTD3
           PARAMETER_FILE_NAME dftd3.dat
           REFERENCE_FUNCTIONAL PBE
           EPS_CN     9.9999999999999995E-07
           CALCULATE_C9_TERM  T
           REFERENCE_C9_TERM  T
           LONG_RANGE_CORRECTION  F
           VERBOSE_OUTPUT  F
         &END PAIR_POTENTIAL
       &END VDW_POTENTIAL
     &END XC
   &END DFT
   &SUBSYS
     &CELL
       A     1.2864472766435110E+01    0.0000000000000000E+00    0.0000000000000000E+00
       B    -6.4322363581020028E+00    1.1140960178524473E+01    0.0000000000000000E+00
       C     0.0000000000000000E+00    0.0000000000000000E+00    3.2000000000000000E+01
       MULTIPLE_UNIT_CELL  1 1 1
       &CELL_REF
         A     1.2982353780853531E+01    0.0000000000000000E+00    0.0000000000000000E+00
         B    -6.4911768904267628E+00    1.1243048175136114E+01    0.0000000000000000E+00
         C     0.0000000000000000E+00    0.0000000000000000E+00    3.2000000000000000E+01
         MULTIPLE_UNIT_CELL  1 1 1
       &END CELL_REF
     &END CELL
     &COORD
N   -1.5870675103805170E-02    2.0466313528603228E+00    2.5115753373959535E+00
Ga   -3.9679577713871143E-02    3.0022826901595103E-02    2.9016186362718437E+00
N   -4.8245896660526078E-03    4.4839085206630012E-02    5.0041300028355922E+00
Ga    3.9091928934530604E-03    1.8809924005483998E+00    5.7856598597428261E+00
N   -7.5699292538416816E-03    1.8919045917279362E+00    7.8038915727920815E+00
Ga   -7.3830777556013558E-03    4.8613553649564920E-02    8.4472430015485074E+00
N    8.9970361931708770E-04    4.8182911384007980E-02    1.0417468417568665E+01
Ga   -3.5155737154510913E-03    1.8785729553274473E+00    1.1050282001860126E+01
N   -3.6289775357364953E-03    1.8699195629933756E+00    1.3053698989689673E+01
Ga    6.8351622005127857E-03    4.4449827154513510E-02    1.3859398383822274E+01
N   -1.0060293259604936E-02    6.2726698157430580E-02    1.6032495001691803E+01
Ga   -6.0335142814914424E-03    2.0329639596036722E+00    1.6467674618894300E+01
Ga    9.0539628140256304E-02    3.7416651285387141E+00    1.4231431917208643E+00
N   -1.4986581692196523E+00    4.6070077372536389E+00    2.4855263082055066E+00
Ga   -1.5905414558202509E+00    2.8283480227471873E+00    3.3071006661566056E+00
N   -1.6343357881130602E+00    2.8220890865216299E+00    5.2516137638349418E+00
Ga   -1.6133157701906762E+00    4.7080291903180678E+00    5.7780364454174835E+00
N   -1.6318164136216071E+00    4.6986766568410543E+00    7.7946662861202602E+00
Ga   -1.6062589860549916E+00    2.8418342951487783E+00    8.4342968945231007E+00
N   -1.5984883566729675E+00    2.8421699034571426E+00    1.0434437482715907E+01
Ga   -1.6235245867939616E+00    4.6955470164901634E+00    1.1044960364705730E+01
N   -1.6397689059179708E+00    4.6968293022456935E+00    1.3048226780471937E+01
Ga   -1.5840277764273274E+00    2.8401630451436528E+00    1.3568103748343141E+01
N   -1.6452254487423383E+00    2.8360838687390353E+00    1.5545176171483760E+01
Ga   -1.4445023347961157E+00    4.5963131799445733E+00    1.6467011634785557E+01
N   -5.3428409479265590E-03    3.7312572940380919E+00    1.7566261349768300E+01
N   -3.2126142354468428E+00    7.6001299171049874E+00    2.5317953687275838E+00
Ga   -3.1668433924716157E+00    5.6078928649775106E+00    2.8629371219597419E+00
N   -3.2249076057296455E+00    5.6183942667540538E+00    4.9979819777382923E+00
Ga   -3.2166878520984379E+00    7.4654545429239025E+00    5.7769837543348608E+00
N   -3.2175291938470418E+00    7.4655015449392401E+00    7.7906538584706269E+00
Ga   -3.2210966068941698E+00    5.6193871125879049E+00    8.4354304191195020E+00
N   -3.2161177402628716E+00    5.6312223210487335E+00    1.0422793945306148E+01
Ga   -3.2115240891665406E+00    7.4707178907380518E+00    1.1065022835465879E+01
N   -3.2113007414393628E+00    7.4384151478417584E+00    1.3049311124647902E+01
Ga   -3.1754764573483438E+00    5.6435819384067747E+00    1.3824245989264435E+01
N   -3.1850472905510134E+00    5.5928385697931020E+00    1.6053206358968929E+01
Ga   -3.2031945674717823E+00    7.7758645351312721E+00    1.6539784144652717E+01
Ga   -3.2534556629628555E+00    9.3458273105583505E+00    1.6385270941040293E+00
N   -4.7055059607154455E+00    1.0195236764489906E+01    2.5544045417244949E+00
Ga   -4.9772671508104915E+00    8.3390440187500481E+00    3.2951964371420535E+00
N   -4.8244280098573791E+00    8.3985491025863297E+00    5.2616474118171483E+00
Ga   -4.8456946322890611E+00    1.0274895886627291E+01    5.7835069319493240E+00
N   -4.8351351464774401E+00    1.0274803303754632E+01    7.8013182820558500E+00
Ga   -4.8205962646368494E+00    8.4142704584162900E+00    8.4293322321075053E+00
N   -4.8078679501214880E+00    8.4199725731803028E+00    1.0437019719337622E+01
Ga   -4.8459847037125172E+00    1.0286394204681766E+01    1.1071059438699953E+01
N   -4.8526174821850834E+00    1.0285963625021052E+01    1.3055671854223570E+01
Ga   -4.8081266352422984E+00    8.4176187247880190E+00    1.3628455790860185E+01
N   -4.8657387002529262E+00    8.3442302837180691E+00    1.5524374972000036E+01
Ga   -4.5889096424275131E+00    1.0116138494554020E+01    1.6542445986813146E+01
N   -3.2147067312694997E+00    9.3331548436722667E+00    1.7695215181414753E+01
N    3.1967008690471679E+00    1.9115516429954975E+00    2.6471829454126308E+00
Ga    3.1987010360879653E+00    1.8870480559525377E-01    3.3017050152025811E+00
N    3.2222475372404564E+00    5.5410286483186869E-02    5.2699096128458427E+00
Ga    3.2085095443957172E+00    1.9256730561689848E+00    5.8687774466105749E+00
N    3.2213163491265733E+00    1.9099112995083860E+00    7.8607194269271341E+00
Ga    3.2142582570011289E+00    4.7683601195609264E-02    8.4452391556396886E+00
N    3.2205226385473966E+00    3.5011042578834264E-02    1.0442517906488636E+01
Ga    3.2134235460297766E+00    1.8990501859827125E+00    1.1033495450821640E+01
N    3.2259441502048425E+00    1.9144091955988152E+00    1.3015686003465870E+01
Ga    3.2172492704866005E+00    3.2440957277107572E-02    1.3630130916298663E+01
N    3.2319049540157776E+00    1.0251561508861222E-01    1.5526897160260038E+01
Ga    3.2061972053068692E+00    1.8681030414243738E+00    1.5881405436784593E+01
N    1.4812157260066565E+00    4.6164399489979440E+00    2.5311018748162981E+00
Ga    1.6925163240951404E+00    2.8026539474029928E+00    3.3016952742585031E+00
N    1.6029522870617072E+00    2.8299172132818406E+00    5.2744008769629334E+00
Ga    1.6507012206399987E+00    4.7253988028189964E+00    5.7826977791134349E+00
N    1.6076617225589533E+00    4.6968140436028252E+00    7.8227015200974188E+00
Ga    1.5978402520540769E+00    2.8469327442872356E+00    8.4319046835430882E+00
N    1.5969856839188159E+00    2.8388405473704417E+00    1.0440196981766858E+01
Ga    1.6199121651221082E+00    4.6993281713069397E+00    1.1045970093261378E+01
N    1.6394307714255727E+00    4.7027023129731278E+00    1.3048809791860533E+01
Ga    1.5878896375663667E+00    2.8428573255279943E+00    1.3566369274659753E+01
N    1.6280231953072735E+00    2.8533150423239571E+00    1.5547285042161315E+01
Ga    1.4209562519942627E+00    4.5916822137925903E+00    1.6463732566244428E+01
N   -1.1558880710663317E-03    7.4605873270793097E+00    2.6156642986309850E+00
Ga    2.5191466646543717E-02    5.7295006507766928E+00    3.2652054580525856E+00
N   -1.1300747087434336E-02    5.6132796993574807E+00    5.2519453602025363E+00
Ga    3.0271572842923956E-02    7.4696937384805189E+00    5.8141450913909969E+00
N   -4.3553192539480855E-03    7.4857790847631609E+00    7.8364253089043903E+00
Ga   -2.2526270572926356E-03    5.6111434396421807E+00    8.4069059754046620E+00
N   -5.5736773848566431E-03    5.6182509255130419E+00    1.0424307487392680E+01
Ga   -7.5478376275240570E-03    7.4863212122768692E+00    1.1009514862182447E+01
N   -8.3620831181883167E-04    7.4694148477500137E+00    1.2963576095015631E+01
Ga    2.9941495687158186E-03    5.6089625314207607E+00    1.3573397958239122E+01
N    4.5403137745756118E-03    5.6036659721781126E+00    1.5541927465768799E+01
Ga   -2.1503261116580501E-02    7.4831455781787577E+00    1.5856852755848776E+01
N   -1.7093318024211355E+00    1.0195144369783312E+01    2.5257348444756889E+00
Ga   -1.4517233579512381E+00    8.3138964235296378E+00    3.2910477628389367E+00
N   -1.6115156391941445E+00    8.4065032844700198E+00    5.2490252250590670E+00
Ga   -1.5935434520240657E+00    1.0267147738662437E+01    5.7742588774184247E+00
N   -1.5981941440394167E+00    1.0275859966194453E+01    7.7888534878648441E+00
Ga   -1.6170693561945484E+00    8.4170070451385204E+00    8.4220624819474281E+00
N   -1.6199937629376424E+00    8.4233555998145064E+00    1.0430216372420503E+01
Ga   -1.5929735272440460E+00    1.0278052797762033E+01    1.1068660300443236E+01
N   -1.5739621982148657E+00    1.0285362481155801E+01    1.3053905016512042E+01
Ga   -1.6051223875111964E+00    8.4094601089737271E+00    1.3638155760340160E+01
N   -1.5710061104882762E+00    8.3666624744378719E+00    1.5521652679807051E+01
Ga   -1.8645243866149668E+00    1.0091183116156424E+01    1.6533526117750569E+01
N    6.4377114300499167E+00    2.0280697489018937E+00    2.5211953208942424E+00
Ga    6.4538135733676905E+00    7.8257897967703785E-03    2.8719557914495937E+00
N    6.4287935458333498E+00    5.0937268765016565E-02    5.0022842256629092E+00
Ga    6.4113476580498139E+00    1.8839321183662616E+00    5.7941370283266043E+00
N    6.4282314318743792E+00    1.8946157506768455E+00    7.7955819421519870E+00
Ga    6.4339834785511565E+00    5.4025305228410786E-02    8.4383641473983193E+00
N    6.4290603901464074E+00    4.8100326574426915E-02    1.0424945919628891E+01
Ga    6.4398828358537346E+00    1.8828963158788166E+00    1.1047314803438049E+01
N    6.4340925878690216E+00    1.8605873225415450E+00    1.3096829601402490E+01
Ga    6.4239938520968733E+00    8.1269918898740500E-04    1.3854951724044898E+01
N    6.4413323404509102E+00    2.9935603481967762E-02    1.6077314143762003E+01
Ga    6.4244981420795240E+00    1.8469378130144998E+00    1.6376992677634771E+01
Ga    6.3911694142005047E+00    3.7769630754372527E+00    1.5524879808601080E+00
N    4.9225829042115121E+00    4.6280440310201101E+00    2.4437402441360758E+00
Ga    4.6669570996406078E+00    2.8098888490035550E+00    3.2823433606825447E+00
N    4.8337669289530067E+00    2.8406280828357149E+00    5.2474462263082380E+00
Ga    4.7689914832243101E+00    4.7223948049385918E+00    5.8177141333944506E+00
N    4.8274830963636628E+00    4.6907381831151778E+00    7.8331298303570565E+00
Ga    4.8357457251276044E+00    2.8493414245953894E+00    8.4419639993589239E+00
N    4.8398203811909033E+00    2.8376288679079176E+00    1.0454074337918547E+01
Ga    4.8051350366049839E+00    4.7016145746687776E+00    1.1047390454296655E+01
N    4.7864412428624776E+00    4.7028702192413538E+00    1.3094691607337394E+01
Ga    4.8291035678374765E+00    2.8336949589096756E+00    1.3583424359389603E+01
N    4.8509685362073025E+00    2.8657228654238227E+00    1.5649399518382218E+01
Ga    4.8049746951236907E+00    4.6891020706580591E+00    1.6380534663297571E+01
N    6.4377126343754858E+00    3.7321240925375982E+00    1.7490605887563401E+01
N    3.2123956136105418E+00    7.6169684559415698E+00    2.3593165771064459E+00
N    3.2254039474828877E+00    5.6157310713010835E+00    5.1293271583255047E+00
Ga    3.2181913888965283E+00    7.4394326079343385E+00    5.7636809763959018E+00
N    3.2133013658476939E+00    7.4836280014653820E+00    7.8142895929473513E+00
Ga    3.2173506112617352E+00    5.6303202522792022E+00    8.3991456633336767E+00
N    3.2158951658888091E+00    5.6280831775509181E+00    1.0415705882419857E+01
Ga    3.2137711383270933E+00    7.4684535406885564E+00    1.1051189184599227E+01
N    3.2109811043546821E+00    7.4433632460013852E+00    1.3062882803148652E+01
Ga    3.1774407244852489E+00    5.6368965276808254E+00    1.3811311998214560E+01
N    3.1851420883324568E+00    5.6055746366839783E+00    1.6065774339527309E+01
Ga    3.1980939502419861E+00    7.7385536701412798E+00    1.6522110328520622E+01
Ga    3.2522574262334101E+00    9.3501293050246019E+00    1.2922309996424082E+00
N    1.7196857317579330E+00    1.0208854800893013E+01    2.4590228500120084E+00
Ga    1.5480198326512369E+00    8.3190371437269395E+00    3.2295987384373679E+00
N    1.6084083004335765E+00    8.4070057511579002E+00    5.2155286620383903E+00
Ga    1.5901237621946840E+00    1.0235765037957284E+01    5.7616681922816975E+00
N    1.5885176491925339E+00    1.0275885212374765E+01    7.7813757375005652E+00
Ga    1.6223395129523452E+00    8.4170780569928780E+00    8.4002284518681023E+00
N    1.6114988135886261E+00    8.4220614243050242E+00    1.0427601129379644E+01
Ga    1.5928637109868324E+00    1.0282567321398506E+01    1.1050998794132674E+01
N    1.5786155552478580E+00    1.0282350067198580E+01    1.3065345183926970E+01
Ga    1.5978595818050949E+00    8.4000778224336212E+00    1.3611131237620942E+01
N    1.6064497113440650E+00    8.3808618401289827E+00    1.5561342725523716E+01
Ga    1.8125445974352656E+00    1.0117606517564921E+01    1.6521992105857173E+01
N    3.2126023199763147E+00    9.3362993860595473E+00    1.7632812704429323E+01
N    9.6450445679389585E+00    1.8934571824250059E+00    2.6912095180592890E+00
Ga    9.6629933750176420E+00    2.3513616421228720E-03    3.3061660170483993E+00
N    9.6385321187841306E+00    7.0605811242832370E-02    5.2473558290842552E+00
Ga    9.6519226669284564E+00    1.8918306737064043E+00    5.8877621032778942E+00
N    9.6386000972114037E+00    1.9062652589149698E+00    7.8668406774437400E+00
Ga    9.6444462722108675E+00    3.3224162162109723E-02    8.4185046872719749E+00
N    9.6440018838676043E+00    3.2636761029613326E-02    1.0430319969091574E+01
Ga    9.6463853594053450E+00    1.9019186080239441E+00    1.1016144608141595E+01
N    9.6386115971191444E+00    1.9106108681035245E+00    1.3023504972054797E+01
Ga    9.6440490880375016E+00    3.3214453036078055E-02    1.3609793125345441E+01
N    9.6184503547947173E+00    6.6437673582627324E-02    1.5567749901773471E+01
Ga    9.6522821926166475E+00    1.8746412130758610E+00    1.5892083230753341E+01
N    7.9275905175301151E+00    4.6148171583070852E+00    2.5269190718240457E+00
Ga    8.0637632315234740E+00    2.8063735998511721E+00    3.3335655853439952E+00
N    8.0442203114517987E+00    2.8247491744038307E+00    5.2546447047554752E+00
Ga    8.0406117707117577E+00    4.7147676538577858E+00    5.7927406061581381E+00
N    8.0507945385285318E+00    4.6996661499085404E+00    7.7964254237620079E+00
Ga    8.0222930593365831E+00    2.8441551010933344E+00    8.4392186425247537E+00
N    8.0240824435250815E+00    2.8415234643340765E+00    1.0444127965022993E+01
Ga    8.0632888789433323E+00    4.6921612484519155E+00    1.1043395475969467E+01
N    8.0811112120619182E+00    4.6980339266009725E+00    1.3095067544884795E+01
Ga    8.0292126473383778E+00    2.8285637838379700E+00    1.3583910717987273E+01
N    8.0097009843546196E+00    2.8448511741154952E+00    1.5649997913577891E+01
Ga    8.0674231831395229E+00    4.6996341531140748E+00    1.6382067913248015E+01
N    6.4233848521914707E+00    7.4754344365892553E+00    2.6329835161885642E+00
Ga    6.3744307998020124E+00    5.7811676114817319E+00    3.2663185974308573E+00
N    6.4269915035053371E+00    5.6031284013016984E+00    5.2351226003644271E+00
Ga    6.3932921685142610E+00    7.4791851604658373E+00    5.8356889198489403E+00
N    6.4331286376554404E+00    7.4774184918781215E+00    7.8499035556553656E+00
Ga    6.4285689454704000E+00    5.6084931022752285E+00    8.4309946421957545E+00
N    6.4385302855194961E+00    5.6130692600749237E+00    1.0449133787873160E+01
Ga    6.4390045646457521E+00    7.4890865078877367E+00    1.1027740824562976E+01
N    6.4337895271479955E+00    7.4591540712183741E+00    1.3008278851725398E+01
Ga    6.4283617823779737E+00    5.6067116249736264E+00    1.3585236166277380E+01
N    6.4153182124676347E+00    5.5610091947183564E+00    1.5651233257594951E+01
Ga    6.4348757269555295E+00    7.4953969296786616E+00    1.5897787842583176E+01
N    4.6856539090240705E+00    1.0196688349034719E+01    2.4691049182140077E+00
Ga    4.8810654379301930E+00    8.3517458572461418E+00    3.2148241430908464E+00
N    4.8182891419072700E+00    8.3998277317068251E+00    5.2130935343582108E+00
Ga    4.8379031502105745E+00    1.0235096894914230E+01    5.7555739921273865E+00
N    4.8341435465590763E+00    1.0274360629426283E+01    7.7849128929102047E+00
Ga    4.8078745146054782E+00    8.4148550025636428E+00    8.4117739841072616E+00
N    4.8177365857812449E+00    8.4202149251340987E+00    1.0439981956038110E+01
Ga    4.8444674942009591E+00    1.0289286006201804E+01    1.1054414234201978E+01
N    4.8469551783876677E+00    1.0285673522567368E+01    1.3069072850816299E+01
Ga    4.8137210324308999E+00    8.4086166596398009E+00    1.3611843925778654E+01
N    4.8144165947698951E+00    8.3526061211705311E+00    1.5569496407648758E+01
Ga    4.6315300199975171E+00    1.0143942696173299E+01    1.6527425713001950E+01
O    6.0319762662453480E-01    3.9438516594312807E+00   -3.2615094694477248E-01
H    2.6643108352506659E+00    6.4173805167490166E+00   -1.8486674930755051E-01
C    1.0191921463919564E+00    2.7852747007143526E+00   -1.0970563881338642E+00
H    1.7125395337200822E+00    2.1790412622246786E+00   -5.4424321450895430E-01
H    1.7497191817155444E-01    2.1860303679179576E+00   -1.3626846795868968E+00
H    1.4858784424578413E+00    3.1151537590043414E+00   -1.9933095455488157E+00
Ga    3.1519654050629899E+00    5.6437181302155697E+00    2.2964683212097836E+00
O    2.8246505770098094E+00    5.4839034292746085E+00    1.4606322094879742E-01
H    2.0538873240493754E+00    5.0133431512020223E+00   -9.1055600985086790E-02
C    3.1152783350346058E+00    9.4241865393842605E+00   -6.3304753882930020E-01
H    9.6376447780722412E+00    1.9089084496930127E+00    1.6945471462356811E+00
H    4.0663148879361364E+00    9.3041784736911914E+00   -1.3393183361622991E+00
H    2.2521155806653845E+00    9.3350226167765555E+00   -1.1913848583309907E+00
     &END COORD
     &KIND C
       BASIS_SET DZVP-MOLOPT-SR-GTH-q4
       POTENTIAL GTH-PBE-q4
       &POTENTIAL
 2 2
  0.3384712400000000E+00 2 -0.8803673979999999E+01  0.1339210850000000E+01
 2
  0.3025757500000000E+00 1  0.9622486650000001E+01
  0.2915069400000000E+00 0
         # Potential name:  GTH-PBE-Q4  for symbol:  C
         # Potential read from the potential filename: GTH_POTENTIALS
       &END POTENTIAL
     &END KIND
     &KIND O
       BASIS_SET DZVP-MOLOPT-SR-GTH-q6
       POTENTIAL GTH-PBE-q6
       &POTENTIAL
 2 4
  0.2445543000000000E+00 2 -0.1666721480000000E+02  0.2487311320000000E+01
 2
  0.2209559200000000E+00 1  0.1833745811000000E+02
  0.2113324700000000E+00 0
         # Potential name:  GTH-PBE-Q6  for symbol:  O
         # Potential read from the potential filename: GTH_POTENTIALS
       &END POTENTIAL
     &END KIND
     &KIND H
       BASIS_SET DZVP-MOLOPT-SR-GTH-q1
       POTENTIAL GTH-PBE-q1
       &POTENTIAL
 1
  0.2000000000000000E+00 2 -0.4178900440000000E+01  0.7244633100000000E+00
 0
         # Potential name:  GTH-PBE-Q1  for symbol:  H
         # Potential read from the potential filename: GTH_POTENTIALS
       &END POTENTIAL
     &END KIND
     &KIND N
       BASIS_SET DZVP-MOLOPT-SR-GTH
       POTENTIAL GTH-PBE-q5
       &POTENTIAL
 2 3
  0.2837905100000000E+00 2 -0.1241522559000000E+02  0.1868095920000000E+01
 2
  0.2554050000000000E+00 1  0.1363026257000000E+02
  0.2454945300000000E+00 0
         # Potential name:  GTH-PBE-Q5  for symbol:  N
         # Potential read from the potential filename: GTH_POTENTIALS
       &END POTENTIAL
     &END KIND
     &KIND Ga
       BASIS_SET DZVP-MOLOPT-SR-GTH
       POTENTIAL GTH-PBE-q13
       &POTENTIAL
 2 1 10
  0.4900000000000000E+00 0
 3
  0.4167772300000000E+00 3  0.1047568975000000E+02 -0.4921768140000000E+01  0.8707055900000000E+00
  0.7770178090000000E+01 -0.2248152160000000E+01
  0.1784415450000000E+01
  0.5696265200000000E+00 2  0.1777985340000000E+01  0.1958597600000000E+00
 -0.2317443900000000E+00
  0.2381265000000000E+00 1 -0.1624868022000000E+02
         # Potential name:  GTH-PBE-Q13  for symbol:  GA
         # Potential read from the potential filename: GTH_POTENTIALS
       &END POTENTIAL
     &END KIND
     &TOPOLOGY
       NUMBER_OF_ATOMS  212
       MULTIPLE_UNIT_CELL  1 1 1
     &END TOPOLOGY
   &END SUBSYS
 &END FORCE_EVAL
