 # Version information for this restart file 
 # current date 2019-06-30 08:57:47.820
 # current working dir /scratch/rzk/rzk/GaN-carbene/443-adatoms-both-2x2/08-CH3O-H2O-H2C-H/02-Use-0701-H2CGa
 # Program compiled at                              Sun Apr  7 00:48:11 EDT 2019
 # Program compiled on                          beluga2.int.ets1.calculquebec.ca
 # Program compiled for                        Beluga-Linux-x86-64-intel-openmpi
 # Source code revision number                                         svn:18619
 &GLOBAL
   PRINT_LEVEL  MEDIUM
   PROJECT_NAME TEST
   RUN_TYPE  GEO_OPT
 &END GLOBAL
 &MOTION
   &GEO_OPT
     MAX_ITER  500
     STEP_START_VAL  50
   &END GEO_OPT
 &END MOTION
 &FORCE_EVAL
   METHOD  QS
   STRESS_TENSOR  ANALYTICAL
   &DFT
     BASIS_SET_FILE_NAME BASIS_MOLOPT
     POTENTIAL_FILE_NAME GTH_POTENTIALS
     UKS  T
     SURFACE_DIPOLE_CORRECTION  T
     SURF_DIP_DIR  Z
     &SCF
       MAX_SCF  80
       EPS_SCF     5.0000000000000004E-06
       &OT  T
         PRECONDITIONER  FULL_ALL
       &END OT
       &OUTER_SCF  T
         OPTIMIZER  NONE
         EPS_SCF     5.0000000000000004E-06
         MAX_SCF  4
       &END OUTER_SCF
       &PRINT
         &RESTART  OFF
           BACKUP_COPIES  1
           &EACH
             JUST_ENERGY  0
             QS_SCF  0
             MD  20
           &END EACH
         &END RESTART
       &END PRINT
     &END SCF
     &QS
       EPS_DEFAULT     1.0000000000000000E-14
       METHOD  GPW
     &END QS
     &MGRID
       NGRIDS  5
       CUTOFF     1.2000000000000000E+03
     &END MGRID
     &XC
       DENSITY_CUTOFF     1.0000000000000000E-10
       GRADIENT_CUTOFF     1.0000000000000000E-10
       TAU_CUTOFF     1.0000000000000000E-10
       &XC_FUNCTIONAL  NO_SHORTCUT
         &PBE  T
         &END PBE
       &END XC_FUNCTIONAL
       &VDW_POTENTIAL
         POTENTIAL_TYPE  PAIR_POTENTIAL
         &PAIR_POTENTIAL
           R_CUTOFF     1.0000000000000004E+01
           TYPE  DFTD3
           PARAMETER_FILE_NAME dftd3.dat
           REFERENCE_FUNCTIONAL PBE
           EPS_CN     9.9999999999999995E-07
           CALCULATE_C9_TERM  T
           REFERENCE_C9_TERM  T
           LONG_RANGE_CORRECTION  F
           VERBOSE_OUTPUT  F
         &END PAIR_POTENTIAL
       &END VDW_POTENTIAL
     &END XC
   &END DFT
   &SUBSYS
     &CELL
       A     1.2864472766435110E+01    0.0000000000000000E+00    0.0000000000000000E+00
       B    -6.4322363581020028E+00    1.1140960178524473E+01    0.0000000000000000E+00
       C     0.0000000000000000E+00    0.0000000000000000E+00    3.2000000000000000E+01
       MULTIPLE_UNIT_CELL  1 1 1
       &CELL_REF
         A     1.2982353780853531E+01    0.0000000000000000E+00    0.0000000000000000E+00
         B    -6.4911768904267628E+00    1.1243048175136114E+01    0.0000000000000000E+00
         C     0.0000000000000000E+00    0.0000000000000000E+00    3.2000000000000000E+01
         MULTIPLE_UNIT_CELL  1 1 1
       &END CELL_REF
     &END CELL
     &COORD
N   -3.9779700199528119E-03    2.0463533036016552E+00    2.4811777003061781E+00
Ga   -3.9187632123623917E-02    5.9344445163562867E-02    2.8295107884726893E+00
N   -6.3376662182626957E-03    4.8808361427554403E-02    5.0124163745235393E+00
Ga    4.3636446449832412E-03    1.8708616302296055E+00    5.8032525232338532E+00
N   -6.4439361932655485E-03    1.8904352999984675E+00    7.8010215779592471E+00
Ga   -5.2046965483338826E-03    4.5207098432857570E-02    8.4436739853794052E+00
N   -4.1029794367996395E-03    4.6075155225564456E-02    1.0420192568971689E+01
Ga   -2.8617479834591336E-03    1.8843003562727949E+00    1.1072628824561008E+01
N   -4.9522505764473665E-03    1.8663008233544653E+00    1.3068049492130713E+01
Ga   -3.4098633021280855E-03    4.5836083309937853E-02    1.3864764932179625E+01
N   -3.1813147975993696E-03    4.5153124372213867E-02    1.6070992517729294E+01
Ga   -4.3385299290951218E-03    2.0844900674850977E+00    1.6479097486178638E+01
Ga    5.4974745587703017E-02    3.7957885311505541E+00    1.3646489584881334E+00
N   -1.4814220652345249E+00    4.6162932970007429E+00    2.4872814588156715E+00
Ga   -1.5960958168504968E+00    2.8323353005679657E+00    3.3121805476281834E+00
N   -1.6238136826013971E+00    2.8248814453314401E+00    5.2516159184177846E+00
Ga   -1.6283234614721445E+00    4.7078271578359745E+00    5.8056777200325138E+00
N   -1.6249779096353529E+00    4.6922671752204090E+00    7.8012168149746426E+00
Ga   -1.5979909936948100E+00    2.8391359839936494E+00    8.4466124935307860E+00
N   -1.6000735999902271E+00    2.8385613302557240E+00    1.0438283136599598E+01
Ga   -1.6273107937613065E+00    4.6988847191168297E+00    1.1072479210650489E+01
N   -1.6449418044731883E+00    4.7070198202963400E+00    1.3067363318741751E+01
Ga   -1.6021608646645822E+00    2.8384429922480612E+00    1.3621137907849249E+01
N   -1.6288708263217677E+00    2.8238340015788514E+00    1.5584689877493624E+01
Ga   -1.4494929779134107E+00    4.5948945679945226E+00    1.6479581934351668E+01
N    3.9911360470685445E-03    3.7566276807436458E+00    1.7613642163629855E+01
N   -3.2185027196113412E+00    7.5969149720574665E+00    2.5400500803475787E+00
Ga   -3.1806078247418230E+00    5.6101137613317524E+00    2.8573958526836551E+00
N   -3.2176631991882756E+00    5.6129202613133984E+00    5.0107507510980671E+00
Ga   -3.2191052479118554E+00    7.4475730659579114E+00    5.7933170142334021E+00
N   -3.2197166707722187E+00    7.4611070845120873E+00    7.7919100790227951E+00
Ga   -3.2192915436750948E+00    5.6174852471585597E+00    8.4456916742900159E+00
N   -3.2207471291628975E+00    5.6170364321947535E+00    1.0420519117901311E+01
Ga   -3.2204447463048482E+00    7.4582843472321114E+00    1.1066114829574502E+01
N   -3.2206619858253993E+00    7.4379807729934262E+00    1.3063535660400820E+01
Ga   -3.2203446133708624E+00    5.6175561433443510E+00    1.3866462196761384E+01
N   -3.2202696129328641E+00    5.6163751159102011E+00    1.6071194938262824E+01
Ga   -3.2209800922916774E+00    7.6520186091594296E+00    1.6477048295168629E+01
Ga   -3.2152659356049158E+00    9.3285821525232038E+00    1.5552207021717308E+00
N   -4.7230241085635498E+00    1.0199681093523838E+01    2.5269506892099303E+00
Ga   -4.9518096273205536E+00    8.3412510727553926E+00    3.2934226714874661E+00
N   -4.8339721891933811E+00    8.3993181326812625E+00    5.2514218250555276E+00
Ga   -4.8576777000133946E+00    1.0276275474392653E+01    5.7928595942673722E+00
N   -4.8378480739739045E+00    1.0265228908333361E+01    7.7928607365810567E+00
Ga   -4.8214024912488656E+00    8.4060220740129843E+00    8.4270182375970144E+00
N   -4.8166583778773555E+00    8.4085081096610050E+00    1.0426074286041020E+01
Ga   -4.8423659469248026E+00    1.0266514230321503E+01    1.1065157781341295E+01
N   -4.8596557030116605E+00    1.0276892050095901E+01    1.3062391615111226E+01
Ga   -4.8168334955382797E+00    8.4095587777950858E+00    1.3620179582538128E+01
N   -4.8446101986589465E+00    8.3953675274982142E+00    1.5583756121844290E+01
Ga   -4.6672287997186102E+00    1.0165554985250893E+01    1.6478131302899861E+01
N   -3.2126461050781789E+00    9.3259545814999125E+00    1.7610718994048248E+01
N    3.1947268590187585E+00    1.9186720470023015E+00    2.6003486675541794E+00
Ga    3.2059150774849283E+00    1.8311187588362457E-01    3.2942101254083132E+00
N    3.2123423301408631E+00    5.3247806325984852E-02    5.2526236782589404E+00
Ga    3.2086516889624295E+00    1.9159513373512516E+00    5.8737987189022922E+00
N    3.2152894606490974E+00    1.9050873239907371E+00    7.8512744774661503E+00
Ga    3.2124062921945464E+00    3.6615713186834487E-02    8.4324842464287251E+00
N    3.2123216917026203E+00    3.3009053626786057E-02    1.0429665054564174E+01
Ga    3.2122534649393728E+00    1.9003292396046021E+00    1.1030147452293125E+01
N    3.2118339490636565E+00    1.9016639282326433E+00    1.3003676767928303E+01
Ga    3.2114875172441502E+00    3.2493361471796323E-02    1.3619844615517970E+01
N    3.2094446961263108E+00    6.3589507207820084E-02    1.5583673792207305E+01
Ga    3.2117010698465660E+00    1.9033350603859085E+00    1.5859437696051563E+01
N    1.4882767694095700E+00    4.6273155243093882E+00    2.5191499846996410E+00
Ga    1.6855584684822276E+00    2.8138090080297506E+00    3.2877901189596752E+00
N    1.6012730912308339E+00    2.8317579146910568E+00    5.2580270063599786E+00
Ga    1.6475514276377312E+00    4.7130656706825027E+00    5.8166067444870873E+00
N    1.6016923515226000E+00    4.6861742144826106E+00    7.8306807114423389E+00
Ga    1.5935638534932293E+00    2.8367842397778764E+00    8.4447288687173376E+00
N    1.5937169412004062E+00    2.8331824121205593E+00    1.0441437206423222E+01
Ga    1.6200278894414510E+00    4.6978784698654712E+00    1.1065375519602735E+01
N    1.6351028324668737E+00    4.7069921363542093E+00    1.3065164705263665E+01
Ga    1.5923604952252435E+00    2.8392131868746158E+00    1.3619942447323199E+01
N    1.6191148737382077E+00    2.8221130983333240E+00    1.5585368044030700E+01
Ga    1.4483446140462586E+00    4.5992287771789657E+00    1.6478251146530187E+01
N    1.6441262364662073E-02    7.4636105479183161E+00    2.6169784121972204E+00
Ga    3.1895456606858892E-02    5.7114333222786682E+00    3.2933457814916687E+00
N   -4.4017411518434109E-03    5.6144205757819252E+00    5.2621325473034233E+00
Ga    1.5883220069116018E-02    7.4705307375663281E+00    5.8674559892851699E+00
N   -1.1734345785286632E-03    7.4749549331058862E+00    7.8501575675021709E+00
Ga   -4.1149753005890327E-03    5.6070381980359141E+00    8.4425986061839655E+00
N   -7.7659763527225213E-03    5.6063374789397944E+00    1.0440274302983775E+01
Ga   -5.3213083286934278E-03    7.4750622483903406E+00    1.1028123895141411E+01
N   -5.5406201184592177E-03    7.4748863615532546E+00    1.3002926227455635E+01
Ga   -4.1870438553576273E-03    5.6042647986478968E+00    1.3619575571222990E+01
N   -6.3574148695101345E-03    5.6354416557267486E+00    1.5583874580940268E+01
Ga   -4.5202583861048366E-03    7.4743879336793304E+00    1.5859219449196631E+01
N   -1.7165935295652850E+00    1.0200615995985292E+01    2.5384167962464081E+00
Ga   -1.4834929271302990E+00    8.3341149942079991E+00    3.2976508433118750E+00
N   -1.6056653335199496E+00    8.4006243427441305E+00    5.2556863674258780E+00
Ga   -1.5882447888234161E+00    1.0273311320772896E+01    5.7967938510738781E+00
N   -1.6012632914004494E+00    1.0265799432741687E+01    7.7945908541797335E+00
Ga   -1.6180867443488793E+00    8.4062385598644891E+00    8.4305520526581930E+00
N   -1.6236941824859017E+00    8.4089450316292762E+00    1.0429270206858712E+01
Ga   -1.5977356867642194E+00    1.0267082648180516E+01    1.1066482559058530E+01
N   -1.5805667377902766E+00    1.0277585202071865E+01    1.3063825254536589E+01
Ga   -1.6245011350492586E+00    8.4095172418458066E+00    1.3620011249824778E+01
N   -1.5973863403425779E+00    8.3933308675920415E+00    1.5585014331572017E+01
Ga   -1.7672665819558975E+00    1.0169868059033233E+01    1.6477028703409658E+01
N    6.4340056693322634E+00    2.0337970909339131E+00    2.5224623670323458E+00
Ga    6.4621714202609386E+00    1.7162046967671259E-02    2.8673162527369391E+00
N    6.4306990844819598E+00    4.9064682858330336E-02    5.0178558406517793E+00
Ga    6.4169386505123072E+00    1.8721352259681636E+00    5.8032650707855797E+00
N    6.4297230099524487E+00    1.8918926554694220E+00    7.7959074175062417E+00
Ga    6.4304678800107489E+00    4.5272809368416433E-02    8.4437889389120251E+00
N    6.4286645125393092E+00    4.7101717116715548E-02    1.0419540927392582E+01
Ga    6.4289237623209612E+00    1.8846455520260994E+00    1.1073787828191673E+01
N    6.4290814479620053E+00    1.8666284089573677E+00    1.3067813298105843E+01
Ga    6.4284179363313463E+00    4.6559244156613236E-02    1.3866544245342737E+01
N    6.4288956326482127E+00    4.6163328247500975E-02    1.6070706829239928E+01
Ga    6.4270186958394815E+00    2.0889043999458377E+00    1.6482640215401940E+01
Ga    6.4234948001160133E+00    3.7640501927596199E+00    1.5028200543682089E+00
N    4.9051463740480648E+00    4.6396214138899197E+00    2.4166569039493346E+00
Ga    4.6864081042818881E+00    2.8104670102625069E+00    3.2793304536034777E+00
N    4.8245702795932521E+00    2.8404498622192267E+00    5.2386568970308431E+00
Ga    4.7744466564319898E+00    4.7155267145096671E+00    5.8287497136416579E+00
N    4.8269424572584807E+00    4.6846574335939861E+00    7.8326383480123329E+00
Ga    4.8317141721015346E+00    2.8353183608240569E+00    8.4505670503520331E+00
N    4.8323085178578786E+00    2.8335693270704514E+00    1.0443103433852819E+01
Ga    4.8046045204822843E+00    4.6986732771194388E+00    1.1066312251138797E+01
N    4.7893730551519242E+00    4.7068562629368564E+00    1.3064090902841766E+01
Ga    4.8309579137519112E+00    2.8392141743463855E+00    1.3620071914000810E+01
N    4.8026706918194213E+00    2.8236272768696664E+00    1.5582839745311517E+01
Ga    4.9856554877537640E+00    4.5927904961651382E+00    1.6482522065628149E+01
N    6.4341011875860303E+00    3.7562365610527864E+00    1.7618907328884575E+01
N    3.2083954036271813E+00    7.6211774197253579E+00    2.3893697857359832E+00
N    3.2175029126887220E+00    5.6155047885746399E+00    5.1819298693555496E+00
Ga    3.2139398862580935E+00    7.4275317979330806E+00    5.8112406847663136E+00
N    3.2132843015713326E+00    7.4786238212447840E+00    7.8270537346949416E+00
Ga    3.2116569410644651E+00    5.6188652109909452E+00    8.4331006474209342E+00
N    3.2128388645691897E+00    5.6169949577722482E+00    1.0421533159777695E+01
Ga    3.2129588732590912E+00    7.4557282187054366E+00    1.1065360220426742E+01
N    3.2121161923300292E+00    7.4382969541472175E+00    1.3064867022044211E+01
Ga    3.2128883441098965E+00    5.6171076768678114E+00    1.3862388963181765E+01
N    3.2136408646647525E+00    5.6162589787849653E+00    1.6070644917985540E+01
Ga    3.2114444008141279E+00    7.6534690231000262E+00    1.6478439918122938E+01
Ga    3.2024629317819180E+00    9.3492724223172790E+00    1.2632468198932383E+00
N    1.7275978518108466E+00    1.0196514501105593E+01    2.5016070095020182E+00
Ga    1.5601450121421716E+00    8.3367075145783893E+00    3.2464947255049945E+00
N    1.6131648529990155E+00    8.4000909485672945E+00    5.2345401205445459E+00
Ga    1.5813598713321511E+00    1.0258529384483984E+01    5.7952259041426855E+00
N    1.5944125624486778E+00    1.0266434489296113E+01    7.7949866380105721E+00
Ga    1.6147566199616499E+00    8.4091460192674568E+00    8.4438336001555445E+00
N    1.6123252566383544E+00    8.4112932463553758E+00    1.0440872691894391E+01
Ga    1.5887871933595299E+00    1.0268088462472084E+01    1.1071400460260017E+01
N    1.5722246971079881E+00    1.0278642183479084E+01    1.3066514324584528E+01
Ga    1.6152191194213199E+00    8.4091647094850952E+00    1.3619071351712991E+01
N    1.5869789799959992E+00    8.3949220342579398E+00    1.5583000490993200E+01
Ga    1.7668572414310146E+00    1.0164212763238714E+01    1.6480123543327760E+01
N    3.2186943500816545E+00    9.3247381147071096E+00    1.7614782971385562E+01
N    9.6568794690060429E+00    1.8962876204444470E+00    2.7004136328987487E+00
Ga    9.6507466701114826E+00    2.7607699112983115E-02    3.3166517408877429E+00
N    9.6460772646778370E+00    6.3311569166405846E-02    5.2567360093781383E+00
Ga    9.6549231285822934E+00    1.8976369743386903E+00    5.9064361779903685E+00
N    9.6451342058320275E+00    1.9037626154947871E+00    7.8648560786947552E+00
Ga    9.6458418491769624E+00    2.8747758226472856E-02    8.4391311784766216E+00
N    9.6449191623726520E+00    3.3002875600096182E-02    1.0433688548937669E+01
Ga    9.6449378947060307E+00    1.9025416731294875E+00    1.1026516176895463E+01
N    9.6439934665890714E+00    1.9031718935172888E+00    1.2999952111370538E+01
Ga    9.6438002930703632E+00    3.4280452511681957E-02    1.3621660039027022E+01
N    9.6427556631578444E+00    6.4884290064631048E-02    1.5584735441230620E+01
Ga    9.6438966476199539E+00    1.9033869278116906E+00    1.5863394026195639E+01
N    7.9299004607165084E+00    4.6196470674720507E+00    2.5208731302763283E+00
Ga    8.0736919923227557E+00    2.8108137044892594E+00    3.3427625591373102E+00
N    8.0514204654947790E+00    2.8239893484974541E+00    5.2626449543733624E+00
Ga    8.0580119893517139E+00    4.7154412299925923E+00    5.8002925579174534E+00
N    8.0478200816288243E+00    4.6946141910258294E+00    7.7935307170549297E+00
Ga    8.0243588595439377E+00    2.8397805917672496E+00    8.4423349173326159E+00
N    8.0250071575347235E+00    2.8388229078395355E+00    1.0434546710756342E+01
Ga    8.0521208640218589E+00    4.6981810051827040E+00    1.1073561111949342E+01
N    8.0682763031009781E+00    4.7066071726304717E+00    1.3067596980015663E+01
Ga    8.0255338616789036E+00    2.8383027544108814E+00    1.3623071844890045E+01
N    8.0529089031653545E+00    2.8220766471767229E+00    1.5586156802029686E+01
Ga    7.8743630173284078E+00    4.5963009420508065E+00    1.6482738904805728E+01
N    6.4095263209865694E+00    7.4798437379547256E+00    2.5980448286945079E+00
Ga    6.3779544263985812E+00    5.7456428801751205E+00    3.2777889409288092E+00
N    6.4231858799659509E+00    5.6075663069419948E+00    5.2361447221363537E+00
Ga    6.4070416197111584E+00    7.4736792037955784E+00    5.8587057002900691E+00
N    6.4260256579803796E+00    7.4715756735265328E+00    7.8407114754133183E+00
Ga    6.4310216174163637E+00    5.6079265170669821E+00    8.4458669213196682E+00
N    6.4330487006948962E+00    5.6066865129611303E+00    1.0439887430008154E+01
Ga    6.4312232837939352E+00    7.4756535034959759E+00    1.1028928489212834E+01
N    6.4295426181217925E+00    7.4749614642001454E+00    1.3002630605473943E+01
Ga    6.4274133391971997E+00    5.6044358874876652E+00    1.3620560201373216E+01
N    6.4263287334484023E+00    5.6362108864000868E+00    1.5583163851105999E+01
Ga    6.4275523178273382E+00    7.4741353172119860E+00    1.5859446327542209E+01
N    4.6938422518754139E+00    1.0196834896050776E+01    2.4805239550923401E+00
Ga    4.8591964520973967E+00    8.3452497215475887E+00    3.2333258431371021E+00
N    4.8119136281706449E+00    8.4006746948309203E+00    5.2241231734937008E+00
Ga    4.8509817141460161E+00    1.0259926085873202E+01    5.7907818748802642E+00
N    4.8313819804635711E+00    1.0264605299782863E+01    7.7931217447166166E+00
Ga    4.8110748759347715E+00    8.4088388227805702E+00    8.4421158248265904E+00
N    4.8141041645260607E+00    8.4104453425472414E+00    1.0439396440934015E+01
Ga    4.8362676786245702E+00    1.0267443893671730E+01    1.1071438846601181E+01
N    4.8514130241693065E+00    1.0278275767767312E+01    1.3067058841518518E+01
Ga    4.8082961296737956E+00    8.4089087796971977E+00    1.3619898259312064E+01
N    4.8359486114905863E+00    8.3936624312149153E+00    1.5584769489883087E+01
Ga    4.6619806149408847E+00    1.0167501443272483E+01    1.6479678494059364E+01
O    6.4142032820526684E-01    4.0036078762184557E+00   -3.9601866963833804E-01
H    2.6803985102123771E+00    6.4493736227719749E+00   -2.4023603880392269E-01
C    1.0038046498621673E+00    2.7935586688100309E+00   -1.0959709347421198E+00
H    1.7171810681187347E+00    2.1817948623995251E+00   -5.1914672268392670E-01
H    1.1650110310372071E-01    2.1826248344812749E+00   -1.3209185948681561E+00
H    1.4743400926080614E+00    3.0834039352992639E+00   -2.0464028310563269E+00
Ga    3.1487007527774113E+00    5.6447768105759337E+00    2.2072958417364723E+00
O    2.8571360961950134E+00    5.5403958788834302E+00    6.8459570692123578E-02
H    2.0195270032938528E+00    4.9970987302063730E+00   -1.2995265471280776E-01
C    3.1341217270760073E+00    9.3468155812305547E+00   -6.6877955887702478E-01
H    9.6510043328769104E+00    1.8937826180264834E+00    1.6741815936525386E+00
H    4.0319279391992895E+00    9.3824604701921483E+00   -1.2880920225776566E+00
H    2.1887597387086317E+00    9.3343629258207894E+00   -1.2134334573003869E+00
     &END COORD
     &KIND C
       BASIS_SET DZVP-MOLOPT-SR-GTH-q4
       POTENTIAL GTH-PBE-q4
       &POTENTIAL
 2 2
  0.3384712400000000E+00 2 -0.8803673979999999E+01  0.1339210850000000E+01
 2
  0.3025757500000000E+00 1  0.9622486650000001E+01
  0.2915069400000000E+00 0
         # Potential name:  GTH-PBE-Q4  for symbol:  C
         # Potential read from the potential filename: GTH_POTENTIALS
       &END POTENTIAL
     &END KIND
     &KIND O
       BASIS_SET DZVP-MOLOPT-SR-GTH-q6
       POTENTIAL GTH-PBE-q6
       &POTENTIAL
 2 4
  0.2445543000000000E+00 2 -0.1666721480000000E+02  0.2487311320000000E+01
 2
  0.2209559200000000E+00 1  0.1833745811000000E+02
  0.2113324700000000E+00 0
         # Potential name:  GTH-PBE-Q6  for symbol:  O
         # Potential read from the potential filename: GTH_POTENTIALS
       &END POTENTIAL
     &END KIND
     &KIND H
       BASIS_SET DZVP-MOLOPT-SR-GTH-q1
       POTENTIAL GTH-PBE-q1
       &POTENTIAL
 1
  0.2000000000000000E+00 2 -0.4178900440000000E+01  0.7244633100000000E+00
 0
         # Potential name:  GTH-PBE-Q1  for symbol:  H
         # Potential read from the potential filename: GTH_POTENTIALS
       &END POTENTIAL
     &END KIND
     &KIND N
       BASIS_SET DZVP-MOLOPT-SR-GTH
       POTENTIAL GTH-PBE-q5
       &POTENTIAL
 2 3
  0.2837905100000000E+00 2 -0.1241522559000000E+02  0.1868095920000000E+01
 2
  0.2554050000000000E+00 1  0.1363026257000000E+02
  0.2454945300000000E+00 0
         # Potential name:  GTH-PBE-Q5  for symbol:  N
         # Potential read from the potential filename: GTH_POTENTIALS
       &END POTENTIAL
     &END KIND
     &KIND Ga
       BASIS_SET DZVP-MOLOPT-SR-GTH
       POTENTIAL GTH-PBE-q13
       &POTENTIAL
 2 1 10
  0.4900000000000000E+00 0
 3
  0.4167772300000000E+00 3  0.1047568975000000E+02 -0.4921768140000000E+01  0.8707055900000000E+00
  0.7770178090000000E+01 -0.2248152160000000E+01
  0.1784415450000000E+01
  0.5696265200000000E+00 2  0.1777985340000000E+01  0.1958597600000000E+00
 -0.2317443900000000E+00
  0.2381265000000000E+00 1 -0.1624868022000000E+02
         # Potential name:  GTH-PBE-Q13  for symbol:  GA
         # Potential read from the potential filename: GTH_POTENTIALS
       &END POTENTIAL
     &END KIND
     &TOPOLOGY
       NUMBER_OF_ATOMS  212
       MULTIPLE_UNIT_CELL  1 1 1
     &END TOPOLOGY
   &END SUBSYS
 &END FORCE_EVAL
