 # Version information for this restart file 
 # current date 2019-06-30 11:55:17.190
 # current working dir /scratch/rzk/rzk/GaN-carbene/443-adatoms-both-2x2/08-CH3O-H2O-H2C-H/02-Use-0701-H2CGa
 # Program compiled at                              Sun Apr  7 00:48:11 EDT 2019
 # Program compiled on                          beluga2.int.ets1.calculquebec.ca
 # Program compiled for                        Beluga-Linux-x86-64-intel-openmpi
 # Source code revision number                                         svn:18619
 &GLOBAL
   PRINT_LEVEL  MEDIUM
   PROJECT_NAME TEST
   RUN_TYPE  GEO_OPT
 &END GLOBAL
 &MOTION
   &GEO_OPT
     MAX_ITER  500
     STEP_START_VAL  81
   &END GEO_OPT
 &END MOTION
 &FORCE_EVAL
   METHOD  QS
   STRESS_TENSOR  ANALYTICAL
   &DFT
     BASIS_SET_FILE_NAME BASIS_MOLOPT
     POTENTIAL_FILE_NAME GTH_POTENTIALS
     UKS  T
     SURFACE_DIPOLE_CORRECTION  T
     SURF_DIP_DIR  Z
     &SCF
       MAX_SCF  80
       EPS_SCF     5.0000000000000004E-06
       &OT  T
         PRECONDITIONER  FULL_ALL
       &END OT
       &OUTER_SCF  T
         OPTIMIZER  NONE
         EPS_SCF     5.0000000000000004E-06
         MAX_SCF  4
       &END OUTER_SCF
       &PRINT
         &RESTART  OFF
           BACKUP_COPIES  1
           &EACH
             JUST_ENERGY  0
             QS_SCF  0
             MD  20
           &END EACH
         &END RESTART
       &END PRINT
     &END SCF
     &QS
       EPS_DEFAULT     1.0000000000000000E-14
       METHOD  GPW
     &END QS
     &MGRID
       NGRIDS  5
       CUTOFF     1.2000000000000000E+03
     &END MGRID
     &XC
       DENSITY_CUTOFF     1.0000000000000000E-10
       GRADIENT_CUTOFF     1.0000000000000000E-10
       TAU_CUTOFF     1.0000000000000000E-10
       &XC_FUNCTIONAL  NO_SHORTCUT
         &PBE  T
         &END PBE
       &END XC_FUNCTIONAL
       &VDW_POTENTIAL
         POTENTIAL_TYPE  PAIR_POTENTIAL
         &PAIR_POTENTIAL
           R_CUTOFF     1.0000000000000004E+01
           TYPE  DFTD3
           PARAMETER_FILE_NAME dftd3.dat
           REFERENCE_FUNCTIONAL PBE
           EPS_CN     9.9999999999999995E-07
           CALCULATE_C9_TERM  T
           REFERENCE_C9_TERM  T
           LONG_RANGE_CORRECTION  F
           VERBOSE_OUTPUT  F
         &END PAIR_POTENTIAL
       &END VDW_POTENTIAL
     &END XC
   &END DFT
   &SUBSYS
     &CELL
       A     1.2864472766435110E+01    0.0000000000000000E+00    0.0000000000000000E+00
       B    -6.4322363581020028E+00    1.1140960178524473E+01    0.0000000000000000E+00
       C     0.0000000000000000E+00    0.0000000000000000E+00    3.2000000000000000E+01
       MULTIPLE_UNIT_CELL  1 1 1
       &CELL_REF
         A     1.2982353780853531E+01    0.0000000000000000E+00    0.0000000000000000E+00
         B    -6.4911768904267628E+00    1.1243048175136114E+01    0.0000000000000000E+00
         C     0.0000000000000000E+00    0.0000000000000000E+00    3.2000000000000000E+01
         MULTIPLE_UNIT_CELL  1 1 1
       &END CELL_REF
     &END CELL
     &COORD
N   -4.0004478093458758E-03    2.0466211523423401E+00    2.4814013853172132E+00
Ga   -3.8154411826924799E-02    5.9339914216449949E-02    2.8304068362273869E+00
N   -5.5795366108818256E-03    4.8813002527839142E-02    5.0118114392508195E+00
Ga    4.9029173311498798E-03    1.8708661481845585E+00    5.8029736979808693E+00
N   -5.7640851351319329E-03    1.8904489447191477E+00    7.8003936788513446E+00
Ga   -4.2222954542583445E-03    4.5196457636565136E-02    8.4427789447028303E+00
N   -2.7784692223180728E-03    4.6017856296057390E-02    1.0419201139384549E+01
Ga   -1.7848765612787090E-03    1.8843137600000333E+00    1.1071593124570208E+01
N   -2.7521344597084790E-03    1.8661856288292766E+00    1.3066658287411984E+01
Ga   -1.8906616936661483E-03    4.5980917804523160E-02    1.3864757658526402E+01
N   -3.6191059812619381E-03    4.4962036343082733E-02    1.6070038698011441E+01
Ga   -2.1628881849671071E-03    2.0844452795545112E+00    1.6478147243165719E+01
Ga    5.3580899680778379E-02    3.7958453366670737E+00    1.3650482473856065E+00
N   -1.4816948204145612E+00    4.6163559876808735E+00    2.4878146762438256E+00
Ga   -1.5962420640729378E+00    2.8322649735982068E+00    3.3125498758346095E+00
N   -1.6233377678073770E+00    2.8248605253548464E+00    5.2516630280692160E+00
Ga   -1.6280434710503591E+00    4.7080142175457729E+00    5.8052252078924624E+00
N   -1.6241770302715191E+00    4.6921520065659514E+00    7.8005755163402037E+00
Ga   -1.5973541109774083E+00    2.8390250249934277E+00    8.4459164842626731E+00
N   -1.5995492597046417E+00    2.8382860627688120E+00    1.0437690431019144E+01
Ga   -1.6259140120562201E+00    4.6987346475543337E+00    1.1071773196054441E+01
N   -1.6427711868749000E+00    4.7068423378355613E+00    1.3066789697995237E+01
Ga   -1.5996060788538751E+00    2.8379361175938915E+00    1.3620529613784807E+01
N   -1.6271042662011810E+00    2.8218040627507288E+00    1.5584500229251322E+01
Ga   -1.4533041218902063E+00    4.5979691843968373E+00    1.6478145298746469E+01
N   -1.0201673386697153E-02    3.7556741466263568E+00    1.7612629155837386E+01
N   -3.2181071660917828E+00    7.5971999613757539E+00    2.5396664985027320E+00
Ga   -3.1804184298186198E+00    5.6103323275799939E+00    2.8573313485535303E+00
N   -3.2172411689144464E+00    5.6131663154456035E+00    5.0104603643604042E+00
Ga   -3.2185277503729122E+00    7.4476804511477379E+00    5.7929281017939092E+00
N   -3.2190169332439234E+00    7.4612043657084905E+00    7.7914007022129974E+00
Ga   -3.2183406361770044E+00    5.6175572770413629E+00    8.4448606783804028E+00
N   -3.2194311342793411E+00    5.6170022465893261E+00    1.0419699155119492E+01
Ga   -3.2192184051873260E+00    7.4584127200606378E+00    1.1065311720611454E+01
N   -3.2183705058931138E+00    7.4377677294021263E+00    1.3062432464902198E+01
Ga   -3.2184335159698070E+00    5.6176442187328171E+00    1.3865708172871669E+01
N   -3.2202290557686757E+00    5.6161129070842621E+00    1.6070129812317340E+01
Ga   -3.2186714437238919E+00    7.6537229405215790E+00    1.6478398078181943E+01
Ga   -3.2153408158146641E+00    9.3291264063227395E+00    1.5552347176116565E+00
N   -4.7224328800830593E+00    1.0199907562061792E+01    2.5271993179221695E+00
Ga   -4.9510642145353945E+00    8.3414745393985434E+00    3.2934106922730524E+00
N   -4.8332536191532149E+00    8.3994675379715318E+00    5.2512014669587472E+00
Ga   -4.8567624553120678E+00    1.0276301958370597E+01    5.7926038796925052E+00
N   -4.8369389611198308E+00    1.0265220014791344E+01    7.7923351000011918E+00
Ga   -4.8205858691431924E+00    8.4061284069832034E+00    8.4266842887632158E+00
N   -4.8159631284825215E+00    8.4083394167466210E+00    1.0425839269130277E+01
Ga   -4.8411018724964245E+00    1.0266519201300067E+01    1.1065063201492572E+01
N   -4.8575986293216129E+00    1.0276955220646931E+01    1.3062301976339683E+01
Ga   -4.8142733798202242E+00    8.4092304054742133E+00    1.3619938182396099E+01
N   -4.8423162752518545E+00    8.3930114285564219E+00    1.5584056994694274E+01
Ga   -4.6702321111513747E+00    1.0168323762558407E+01    1.6478369962530198E+01
N   -3.2263585499432370E+00    9.3253956856512783E+00    1.7613052910982702E+01
N    3.1948607267466227E+00    1.9187257202376919E+00    2.6005560368326517E+00
Ga    3.2064611326428114E+00    1.8319715323914773E-01    3.2942311763533132E+00
N    3.2130787939136747E+00    5.3319065065658429E-02    5.2524651524978276E+00
Ga    3.2093253409944196E+00    1.9159981517591189E+00    5.8734121502055343E+00
N    3.2161038224132348E+00    1.9051899247109674E+00    7.8506429443159114E+00
Ga    3.2132423826010728E+00    3.6698705150265763E-02    8.4317524870048874E+00
N    3.2133787769148729E+00    3.3061066467272283E-02    1.0428761529234345E+01
Ga    3.2125810615848760E+00    1.9003393941675779E+00    1.1029429467787317E+01
N    3.2138739099430262E+00    1.9018427601507544E+00    1.3002766453428213E+01
Ga    3.2144856959999619E+00    3.2447068700788444E-02    1.3619512057506375E+01
N    3.2150113126444038E+00    6.3442802509787524E-02    1.5582619601633381E+01
Ga    3.2133362586317085E+00    1.9026955922308537E+00    1.5858000551953493E+01
N    1.4880565436116291E+00    4.6270586102851796E+00    2.5186945209495932E+00
Ga    1.6857166322525203E+00    2.8140774905304848E+00    3.2876445443540283E+00
N    1.6018121762942477E+00    2.8317812286479440E+00    5.2578672358143344E+00
Ga    1.6482343088889482E+00    4.7131516017573887E+00    5.8160473287659622E+00
N    1.6026451299243265E+00    4.6863368108493519E+00    7.8299197928122934E+00
Ga    1.5943185125886952E+00    2.8368484695938267E+00    8.4435566107304627E+00
N    1.5944797714252137E+00    2.8333029700651955E+00    1.0439858858298031E+01
Ga    1.6211160028983778E+00    4.6979454292837106E+00    1.1063438604435071E+01
N    1.6371525050149218E+00    4.7067594036973270E+00    1.3062586157549475E+01
Ga    1.5947718732950951E+00    2.8393500151143045E+00    1.3618670475522084E+01
N    1.6219862512234222E+00    2.8235730039455986E+00    1.5582226324216556E+01
Ga    1.4418207841444100E+00    4.5939284307917427E+00    1.6478397404804401E+01
N    1.6519937817701082E-02    7.4636720719250791E+00    2.6164977931139313E+00
Ga    3.2102475503393985E-02    5.7115123468633699E+00    3.2931662843691698E+00
N   -3.8542300243984938E-03    5.6144658246584962E+00    5.2618615061912033E+00
Ga    1.6458256877257875E-02    7.4707376458742027E+00    5.8665875229311570E+00
N   -3.6127765973193441E-04    7.4750672251333921E+00    7.8492324442899601E+00
Ga   -3.2969405938079220E-03    5.6071235248904143E+00    8.4413392161052219E+00
N   -6.8034734248412264E-03    5.6064303699126805E+00    1.0438881215233135E+01
Ga   -4.8229018771102959E-03    7.4750992363526976E+00    1.1026873666890175E+01
N   -3.6014281171211997E-03    7.4746298755022904E+00    1.3001306012145649E+01
Ga   -1.1837354372333094E-03    5.6041704606159888E+00    1.3618425364509026E+01
N   -1.0690221035775348E-03    5.6350873806655901E+00    1.5581959478621902E+01
Ga   -2.6832905047047585E-03    7.4735663175152780E+00    1.5858038328951427E+01
N   -1.7161927460022854E+00    1.0200854067477104E+01    2.5379637851300241E+00
Ga   -1.4832666681616622E+00    8.3343739243234154E+00    3.2973392745865580E+00
N   -1.6051503572026593E+00    8.4008259632869109E+00    5.2552948300526188E+00
Ga   -1.5874788556837385E+00    1.0273490533380480E+01    5.7961805399416466E+00
N   -1.6003759985690469E+00    1.0266017387797689E+01    7.7938631554215023E+00
Ga   -1.6173302711628461E+00    8.4064252591435871E+00    8.4293901975522818E+00
N   -1.6228436265930963E+00    8.4091038898678736E+00    1.0427729595301912E+01
Ga   -1.5965321361354201E+00    1.0267096640075110E+01    1.1065182708846113E+01
N   -1.5784409869852103E+00    1.0277408962388874E+01    1.3061858269647875E+01
Ga   -1.6217088384719831E+00    8.4095469795450288E+00    1.3619142997132835E+01
N   -1.5948359687720024E+00    8.3945588294899771E+00    1.5582448106710517E+01
Ga   -1.7740990394987772E+00    1.0164293741818035E+01    1.6479115714581070E+01
N    6.4342205918842401E+00    2.0338531269008278E+00    2.5219371026266586E+00
Ga    6.4626421383054513E+00    1.7155343005276800E-02    2.8663945022773913E+00
N    6.4313958609480233E+00    4.9047045906595511E-02    5.0169405268056506E+00
Ga    6.4173628194982646E+00    1.8720366871721239E+00    5.8027095133160387E+00
N    6.4303083441166775E+00    1.8919290833982789E+00    7.7952835011306396E+00
Ga    6.4314196121419211E+00    4.5235903469927917E-02    8.4429090978258134E+00
N    6.4301624395021175E+00    4.7093746452945659E-02    1.0418716168155154E+01
Ga    6.4300321814495165E+00    1.8845619870674577E+00    1.1073106540397307E+01
N    6.4312389784371131E+00    1.8663265805801987E+00    1.3067391956660593E+01
Ga    6.4294088088439940E+00    4.5894861677589743E-02    1.3865703633561113E+01
N    6.4278503348482596E+00    4.4941404642489746E-02    1.6070312872102537E+01
Ga    6.4288232085549879E+00    2.0844555790827557E+00    1.6479126126211106E+01
Ga    6.4237283518923061E+00    3.7641436919209608E+00    1.5021206741433939E+00
N    4.9054571331890404E+00    4.6397533404910476E+00    2.4159316059698335E+00
Ga    4.6867694974406069E+00    2.8106796470902125E+00    3.2786159339579850E+00
N    4.8251625803310070E+00    2.8405091135230043E+00    5.2380433886882907E+00
Ga    4.7751236288018717E+00    4.7154607650429154E+00    5.8282325399521691E+00
N    4.8278126726512864E+00    4.6846133461958237E+00    7.8320455040002654E+00
Ga    4.8323816702189530E+00    2.8353306624677086E+00    8.4501702694516982E+00
N    4.8331766802135414E+00    2.8334957712904565E+00    1.0442900617860470E+01
Ga    4.8057799299213464E+00    4.6986396044674121E+00    1.1065995440609266E+01
N    4.7913325764535761E+00    4.7068051618928104E+00    1.3064419659875316E+01
Ga    4.8335110513690731E+00    2.8387719095054584E+00    1.3619512654100475E+01
N    4.8053561125335849E+00    2.8219305400760577E+00    1.5583913545128739E+01
Ga    4.9777765447505766E+00    4.5978613903561198E+00    1.6478187365612897E+01
N    6.4208731431018533E+00    3.7556526147300322E+00    1.7614103202622974E+01
N    3.2093370757385102E+00    7.6207225617902230E+00    2.3885561182052881E+00
N    3.2182269389918026E+00    5.6154102827197230E+00    5.1810000814932069E+00
Ga    3.2146272856073281E+00    7.4274555925647610E+00    5.8103300851246402E+00
N    3.2140327291797979E+00    7.4786079279248794E+00    7.8262142267690624E+00
Ga    3.2126200038504287E+00    5.6189532589553606E+00    8.4321424836760936E+00
N    3.2142971614783442E+00    5.6170957378375093E+00    1.0420600063301762E+01
Ga    3.2140335885474700E+00    7.4559082660800753E+00    1.1064183188838399E+01
N    3.2142948969400540E+00    7.4380745056629065E+00    1.3063654838865945E+01
Ga    3.2134727565297210E+00    5.6169680672573721E+00    1.3860892844290817E+01
N    3.2120547758400462E+00    5.6157177488360155E+00    1.6069729800658671E+01
Ga    3.2132273613415920E+00    7.6532761349877845E+00    1.6477273885653052E+01
Ga    3.2034344136106681E+00    9.3487310546580833E+00    1.2618669483065801E+00
N    1.7281484183170823E+00    1.0196484206391474E+01    2.4994593755849546E+00
Ga    1.5606589268623696E+00    8.3368006280509892E+00    3.2452258238483691E+00
N    1.6138572936519793E+00    8.4001705310414891E+00    5.2333801979369321E+00
Ga    1.5817828662959605E+00    1.0258579010456177E+01    5.7944112115257607E+00
N    1.5952406644346180E+00    1.0266348683266090E+01    7.7941132187859905E+00
Ga    1.6155343692659971E+00    8.4091376174255394E+00    8.4428759103365092E+00
N    1.6131486042617893E+00    8.4112164069585944E+00    1.0440108542467557E+01
Ga    1.5901466850349313E+00    1.0267888517455546E+01    1.1070989531025878E+01
N    1.5742416074194854E+00    1.0278575509959227E+01    1.3066440758057617E+01
Ga    1.6174931869487408E+00    8.4086308066706970E+00    1.3618050893857820E+01
N    1.5892657930294984E+00    8.3927014471935362E+00    1.5583133291768904E+01
Ga    1.7618593901547912E+00    1.0167487836448448E+01    1.6478113057845494E+01
N    3.2054536184711440E+00    9.3246808792427291E+00    1.7612038952835128E+01
N    9.6569510439363846E+00    1.8962763095825101E+00    2.7000389577761688E+00
Ga    9.6507459781068174E+00    2.7408630752455879E-02    3.3155645689602919E+00
N    9.6466146438555818E+00    6.3161813202314676E-02    5.2557025973884164E+00
Ga    9.6552685978797008E+00    1.8975462718301406E+00    5.9057798314266332E+00
N    9.6457262678861238E+00    1.9036957777233476E+00    7.8641718661618141E+00
Ga    9.6466659414533495E+00    2.8636743892837154E-02    8.4381980619092847E+00
N    9.6459305274509965E+00    3.2948048263747927E-02    1.0432765692615805E+01
Ga    9.6452766852505931E+00    1.9023144349056060E+00    1.1025913045486195E+01
N    9.6454679998531816E+00    1.9031117288199952E+00    1.2999341933397892E+01
Ga    9.6467000256300253E+00    3.4092194327763420E-02    1.3620950906652505E+01
N    9.6472182044008452E+00    6.4537767762003651E-02    1.5584045678253922E+01
Ga    9.6460707863269057E+00    1.9028650266993927E+00    1.5862264347959160E+01
N    7.9301121298230717E+00    4.6197141827496573E+00    2.5204371139232653E+00
Ga    8.0736533696670811E+00    2.8108694298430814E+00    3.3423731959929275E+00
N    8.0517209379880583E+00    2.8240950102943612E+00    5.2622798507720594E+00
Ga    8.0586396044751787E+00    4.7156498091770036E+00    5.7998789426039892E+00
N    8.0485506821972574E+00    4.6947006393858901E+00    7.7930415279452365E+00
Ga    8.0249874859850845E+00    2.8397949725564202E+00    8.4414743894649469E+00
N    8.0257606420528802E+00    2.8389515838343491E+00    1.0433546715491847E+01
Ga    8.0534060258897302E+00    4.6982076900386760E+00    1.1072562617268236E+01
N    8.0705836445371588E+00    4.7064154958665636E+00    1.3066596568441840E+01
Ga    8.0278472964992424E+00    2.8382996368854196E+00    1.3622283965324606E+01
N    8.0545197029380073E+00    2.8232526269692997E+00    1.5584841868696916E+01
Ga    7.8730531814696452E+00    4.5939907565527065E+00    1.6480044590588072E+01
N    6.4104218351117659E+00    7.4799421979645144E+00    2.5976425559777545E+00
Ga    6.3783023591619639E+00    5.7456157186470698E+00    3.2771201049018446E+00
N    6.4237115649768892E+00    5.6076935136666659E+00    5.2356172355217607E+00
Ga    6.4079919632189410E+00    7.4737297324013321E+00    5.8584448435166401E+00
N    6.4268807654701137E+00    7.4715781127649539E+00    7.8403560057307837E+00
Ga    6.4317858503176586E+00    5.6079559844646383E+00    8.4454030995146940E+00
N    6.4341141150037915E+00    5.6066787192228666E+00    1.0439434770625486E+01
Ga    6.4314964079711858E+00    7.4757506419651776E+00    1.1028303759256653E+01
N    6.4312496708369027E+00    7.4744521001117077E+00    1.3001985416027649E+01
Ga    6.4303294026279385E+00    5.6040666035289330E+00    1.3619896167796417E+01
N    6.4310314213156925E+00    5.6352029509029204E+00    1.5583082847893817E+01
Ga    6.4297989830908717E+00    7.4738107077808129E+00    1.5859055305895826E+01
N    4.6946233420545349E+00    1.0196632271156528E+01    2.4803107999282736E+00
Ga    4.8598708826017551E+00    8.3449507946459729E+00    3.2327645147252553E+00
N    4.8127486236254278E+00    8.4006294022736085E+00    5.2236507396994902E+00
Ga    4.8516933355871732E+00    1.0260008548447926E+01    5.7900339850736149E+00
N    4.8322828171418415E+00    1.0264727384871700E+01    7.7922595468811320E+00
Ga    4.8118164000711916E+00    8.4089859418226052E+00    8.4409928549667210E+00
N    4.8149038085182294E+00    8.4106721619131317E+00    1.0438109472047678E+01
Ga    4.8374822071381631E+00    1.0267550929981798E+01    1.1070318508999813E+01
N    4.8537181173888237E+00    1.0278270290474344E+01    1.3065541341759060E+01
Ga    4.8107588629157236E+00    8.4090859441260104E+00    1.3618600354400783E+01
N    4.8380590387033724E+00    8.3942055533438857E+00    1.5582550434752134E+01
Ga    4.6579856037387763E+00    1.0163675985972965E+01    1.6479122074602284E+01
O    6.3581445351969490E-01    4.0068186771038841E+00   -3.9623138555626075E-01
H    2.6908694800100648E+00    6.4443295905939193E+00   -2.5061856038564306E-01
C    1.0078887190017021E+00    2.7983741589040569E+00   -1.0939016281328768E+00
H    1.7180271704458954E+00    2.1881015249993951E+00   -5.1139562291345486E-01
H    1.2421563002660586E-01    2.1854481120211453E+00   -1.3273619655730178E+00
H    1.4862735775227010E+00    3.0908369707051802E+00   -2.0396034516548092E+00
Ga    3.1482308845696569E+00    5.6445274272414689E+00    2.2064647178099004E+00
O    2.8551975265646576E+00    5.5363351066562956E+00    6.7349383093857323E-02
H    2.0130289427936670E+00    4.9998869107168966E+00   -1.3043222323719014E-01
C    3.1399424896251671E+00    9.3377487452313179E+00   -6.7090091384822881E-01
H    9.6510665482677513E+00    1.8945325184108406E+00    1.6737615293882375E+00
H    4.0391486370058374E+00    9.3189766657101529E+00   -1.2877550295392366E+00
H    2.1960725480232037E+00    9.3726723594788197E+00   -1.2181197498139362E+00
     &END COORD
     &KIND C
       BASIS_SET DZVP-MOLOPT-SR-GTH-q4
       POTENTIAL GTH-PBE-q4
       &POTENTIAL
 2 2
  0.3384712400000000E+00 2 -0.8803673979999999E+01  0.1339210850000000E+01
 2
  0.3025757500000000E+00 1  0.9622486650000001E+01
  0.2915069400000000E+00 0
         # Potential name:  GTH-PBE-Q4  for symbol:  C
         # Potential read from the potential filename: GTH_POTENTIALS
       &END POTENTIAL
     &END KIND
     &KIND O
       BASIS_SET DZVP-MOLOPT-SR-GTH-q6
       POTENTIAL GTH-PBE-q6
       &POTENTIAL
 2 4
  0.2445543000000000E+00 2 -0.1666721480000000E+02  0.2487311320000000E+01
 2
  0.2209559200000000E+00 1  0.1833745811000000E+02
  0.2113324700000000E+00 0
         # Potential name:  GTH-PBE-Q6  for symbol:  O
         # Potential read from the potential filename: GTH_POTENTIALS
       &END POTENTIAL
     &END KIND
     &KIND H
       BASIS_SET DZVP-MOLOPT-SR-GTH-q1
       POTENTIAL GTH-PBE-q1
       &POTENTIAL
 1
  0.2000000000000000E+00 2 -0.4178900440000000E+01  0.7244633100000000E+00
 0
         # Potential name:  GTH-PBE-Q1  for symbol:  H
         # Potential read from the potential filename: GTH_POTENTIALS
       &END POTENTIAL
     &END KIND
     &KIND N
       BASIS_SET DZVP-MOLOPT-SR-GTH
       POTENTIAL GTH-PBE-q5
       &POTENTIAL
 2 3
  0.2837905100000000E+00 2 -0.1241522559000000E+02  0.1868095920000000E+01
 2
  0.2554050000000000E+00 1  0.1363026257000000E+02
  0.2454945300000000E+00 0
         # Potential name:  GTH-PBE-Q5  for symbol:  N
         # Potential read from the potential filename: GTH_POTENTIALS
       &END POTENTIAL
     &END KIND
     &KIND Ga
       BASIS_SET DZVP-MOLOPT-SR-GTH
       POTENTIAL GTH-PBE-q13
       &POTENTIAL
 2 1 10
  0.4900000000000000E+00 0
 3
  0.4167772300000000E+00 3  0.1047568975000000E+02 -0.4921768140000000E+01  0.8707055900000000E+00
  0.7770178090000000E+01 -0.2248152160000000E+01
  0.1784415450000000E+01
  0.5696265200000000E+00 2  0.1777985340000000E+01  0.1958597600000000E+00
 -0.2317443900000000E+00
  0.2381265000000000E+00 1 -0.1624868022000000E+02
         # Potential name:  GTH-PBE-Q13  for symbol:  GA
         # Potential read from the potential filename: GTH_POTENTIALS
       &END POTENTIAL
     &END KIND
     &TOPOLOGY
       NUMBER_OF_ATOMS  212
       MULTIPLE_UNIT_CELL  1 1 1
     &END TOPOLOGY
   &END SUBSYS
 &END FORCE_EVAL
