 # Version information for this restart file 
 # current date 2019-06-30 09:39:59.135
 # current working dir /scratch/rzk/rzk/GaN-carbene/443-adatoms-both-2x2/08-CH3O-H2O-H2C-H/02-Use-0701-H2CGa
 # Program compiled at                              Sun Apr  7 00:48:11 EDT 2019
 # Program compiled on                          beluga2.int.ets1.calculquebec.ca
 # Program compiled for                        Beluga-Linux-x86-64-intel-openmpi
 # Source code revision number                                         svn:18619
 &GLOBAL
   PRINT_LEVEL  MEDIUM
   PROJECT_NAME TEST
   RUN_TYPE  GEO_OPT
 &END GLOBAL
 &MOTION
   &GEO_OPT
     MAX_ITER  500
     STEP_START_VAL  54
   &END GEO_OPT
 &END MOTION
 &FORCE_EVAL
   METHOD  QS
   STRESS_TENSOR  ANALYTICAL
   &DFT
     BASIS_SET_FILE_NAME BASIS_MOLOPT
     POTENTIAL_FILE_NAME GTH_POTENTIALS
     UKS  T
     SURFACE_DIPOLE_CORRECTION  T
     SURF_DIP_DIR  Z
     &SCF
       MAX_SCF  80
       EPS_SCF     5.0000000000000004E-06
       &OT  T
         PRECONDITIONER  FULL_ALL
       &END OT
       &OUTER_SCF  T
         OPTIMIZER  NONE
         EPS_SCF     5.0000000000000004E-06
         MAX_SCF  4
       &END OUTER_SCF
       &PRINT
         &RESTART  OFF
           BACKUP_COPIES  1
           &EACH
             JUST_ENERGY  0
             QS_SCF  0
             MD  20
           &END EACH
         &END RESTART
       &END PRINT
     &END SCF
     &QS
       EPS_DEFAULT     1.0000000000000000E-14
       METHOD  GPW
     &END QS
     &MGRID
       NGRIDS  5
       CUTOFF     1.2000000000000000E+03
     &END MGRID
     &XC
       DENSITY_CUTOFF     1.0000000000000000E-10
       GRADIENT_CUTOFF     1.0000000000000000E-10
       TAU_CUTOFF     1.0000000000000000E-10
       &XC_FUNCTIONAL  NO_SHORTCUT
         &PBE  T
         &END PBE
       &END XC_FUNCTIONAL
       &VDW_POTENTIAL
         POTENTIAL_TYPE  PAIR_POTENTIAL
         &PAIR_POTENTIAL
           R_CUTOFF     1.0000000000000004E+01
           TYPE  DFTD3
           PARAMETER_FILE_NAME dftd3.dat
           REFERENCE_FUNCTIONAL PBE
           EPS_CN     9.9999999999999995E-07
           CALCULATE_C9_TERM  T
           REFERENCE_C9_TERM  T
           LONG_RANGE_CORRECTION  F
           VERBOSE_OUTPUT  F
         &END PAIR_POTENTIAL
       &END VDW_POTENTIAL
     &END XC
   &END DFT
   &SUBSYS
     &CELL
       A     1.2864472766435110E+01    0.0000000000000000E+00    0.0000000000000000E+00
       B    -6.4322363581020028E+00    1.1140960178524473E+01    0.0000000000000000E+00
       C     0.0000000000000000E+00    0.0000000000000000E+00    3.2000000000000000E+01
       MULTIPLE_UNIT_CELL  1 1 1
       &CELL_REF
         A     1.2982353780853531E+01    0.0000000000000000E+00    0.0000000000000000E+00
         B    -6.4911768904267628E+00    1.1243048175136114E+01    0.0000000000000000E+00
         C     0.0000000000000000E+00    0.0000000000000000E+00    3.2000000000000000E+01
         MULTIPLE_UNIT_CELL  1 1 1
       &END CELL_REF
     &END CELL
     &COORD
N   -1.1076657098171986E-02    2.0768185508230381E+00    2.4770071954194419E+00
Ga   -3.9594964632853093E-02    7.1904238185387062E-02    2.7983657672235358E+00
N   -1.5744288056669817E-02    5.1951565486661556E-02    5.0184375982916398E+00
Ga    4.8884723467374725E-03    1.8783145707055864E+00    5.7838693229019764E+00
N   -8.0034728855435753E-03    1.8858762938295288E+00    7.8115596908581715E+00
Ga   -1.3004333427106211E-02    4.7799105873475217E-02    8.4434805711594461E+00
N   -8.9814842067443140E-03    4.2106599904600743E-02    1.0430282415767104E+01
Ga   -6.3116153376685984E-03    1.8724684363201345E+00    1.1068768008323419E+01
N   -9.3814483756908488E-03    1.8667007835577880E+00    1.3087645229376243E+01
Ga   -3.1710279574071747E-03    4.8169631652436422E-02    1.3859405046805353E+01
N   -2.7755927014460800E-02    4.1657200147822149E-02    1.6053809566310374E+01
Ga   -2.8856417293676132E-03    2.0743506410065526E+00    1.6523347925516738E+01
Ga    4.8682560842085817E-02    3.8135647056012720E+00    1.3534386512908096E+00
N   -1.4620778043483222E+00    4.6165770200996601E+00    2.5075993713538294E+00
Ga   -1.5788534631461018E+00    2.8297871135896275E+00    3.3063922174958154E+00
N   -1.6231688862180187E+00    2.8303245594711637E+00    5.2577229888285428E+00
Ga   -1.6024007573783206E+00    4.6961924286257366E+00    5.8037685417432785E+00
N   -1.6275420957743549E+00    4.6932095953602166E+00    7.8211215397025935E+00
Ga   -1.5969628131920399E+00    2.8369197237614197E+00    8.4409032702158502E+00
N   -1.5965802724323666E+00    2.8451406685367315E+00    1.0458658141774940E+01
Ga   -1.6380346505858674E+00    4.6957531689583574E+00    1.1080799179034997E+01
N   -1.6511019430196265E+00    4.7068495835480828E+00    1.3090758168731455E+01
Ga   -1.6053136182459096E+00    2.8439483025283683E+00    1.3608828892963153E+01
N   -1.6143450658860901E+00    2.8437601595465085E+00    1.5613019889195447E+01
Ga   -1.4675463549891747E+00    4.6121222588523665E+00    1.6522225427369520E+01
N    2.4274984970441200E-03    3.7668829587465233E+00    1.7631225393723707E+01
N   -3.2084202316632546E+00    7.6039284737323092E+00    2.5463004650388723E+00
Ga   -3.1646459120109354E+00    5.6002633026350335E+00    2.8365146066040907E+00
N   -3.2123979396779254E+00    5.6109635833574671E+00    5.0180310587052412E+00
Ga   -3.2222162122953595E+00    7.4603998994401897E+00    5.7842575349950591E+00
N   -3.2237265611659103E+00    7.4466790338239894E+00    7.8021672435961227E+00
Ga   -3.2195473907733758E+00    5.6004827118406366E+00    8.4448385856220369E+00
N   -3.2264148330241973E+00    5.6090673158255679E+00    1.0433039878626774E+01
Ga   -3.2273479870855963E+00    7.4429856407288417E+00    1.1056339524448850E+01
N   -3.2336124432739690E+00    7.4308344525392407E+00    1.3059647525079125E+01
Ga   -3.2252258735637058E+00    5.6159094416468385E+00    1.3850474452862418E+01
N   -3.2776334922303167E+00    5.5802482655962908E+00    1.6069737556659792E+01
Ga   -3.2239253316881897E+00    7.6895224340053776E+00    1.6541834787481807E+01
Ga   -3.2240516458512971E+00    9.3367080470403057E+00    1.5405909482184867E+00
N   -4.7078815394620008E+00    1.0189947142800005E+01    2.5095514362396356E+00
Ga   -4.9771511412041791E+00    8.3511948494012156E+00    3.2849250461277548E+00
N   -4.8364205093593284E+00    8.3914541676100001E+00    5.2628770300460026E+00
Ga   -4.8643876217304607E+00    1.0274556963345391E+01    5.7651304336091753E+00
N   -4.8462710009340162E+00    1.0261036721793765E+01    7.7949336698549487E+00
Ga   -4.8277147098971378E+00    8.4016904747574745E+00    8.4136397893388324E+00
N   -4.8215372658153663E+00    8.3953316832877984E+00    1.0433832658389829E+01
Ga   -4.8569617487197796E+00    1.0265603021399016E+01    1.1044936123709929E+01
N   -4.8688423764774287E+00    1.0269529414354224E+01    1.3054606525701530E+01
Ga   -4.8379419139282955E+00    8.3963773850906591E+00    1.3617166484643416E+01
N   -4.8563919569362453E+00    8.3890792104496601E+00    1.5555545518240230E+01
Ga   -4.6316334915507857E+00    1.0149107405489977E+01    1.6545731698357386E+01
N   -3.2181667800255895E+00    9.3201869314326338E+00    1.7624380531759563E+01
N    3.1979729117157265E+00    1.9250284486260552E+00    2.5896732071238535E+00
Ga    3.1795891691242426E+00    1.9781193133100802E-01    3.2801123035312125E+00
N    3.2169957082940264E+00    5.2231875901310384E-02    5.2556917945661628E+00
Ga    3.1976031508887539E+00    1.9228127968667044E+00    5.8451880513404957E+00
N    3.2149722006978867E+00    1.9031054857574901E+00    7.8596734320781056E+00
Ga    3.2067359228786905E+00    3.3654831611241387E-02    8.4188572774332791E+00
N    3.2116334398077164E+00    2.7470282744903939E-02    1.0440149022595122E+01
Ga    3.2083732080071510E+00    1.9011288691732511E+00    1.1020411486098208E+01
N    3.2176102250643557E+00    1.9127319436450014E+00    1.3008086907752705E+01
Ga    3.2027667642267863E+00    4.1519209203647836E-02    1.3606883595722239E+01
N    3.2163540541076752E+00    7.7346484657579317E-02    1.5548014562500214E+01
Ga    3.2134393532834840E+00    1.8955316460872385E+00    1.5889070267118651E+01
N    1.4642875522447312E+00    4.6364228593594810E+00    2.5055460296585936E+00
Ga    1.6895307736560035E+00    2.8117264002260276E+00    3.2727563498859631E+00
N    1.5946857967043389E+00    2.8360253279139638E+00    5.2591139269193832E+00
Ga    1.6451298432788051E+00    4.7134653806229423E+00    5.8179250373901139E+00
N    1.6005474514750364E+00    4.6816528499022363E+00    7.8538933443724366E+00
Ga    1.5874918375098295E+00    2.8362579200378990E+00    8.4317456865627118E+00
N    1.5862662036482071E+00    2.8378940039765825E+00    1.0455662108131168E+01
Ga    1.6260900631497126E+00    4.6966979007956491E+00    1.1082117484096843E+01
N    1.6347050088157842E+00    4.7065164521012841E+00    1.3090881323480330E+01
Ga    1.5883359135506521E+00    2.8465631578017256E+00    1.3604831434926099E+01
N    1.5992514230383266E+00    2.8547009699984103E+00    1.5610697951150170E+01
Ga    1.4591918115688369E+00    4.6098156479446182E+00    1.6520484570536073E+01
N    1.7940369054094230E-02    7.4618705481749057E+00    2.6377444549202793E+00
Ga    4.6868147620621706E-02    5.7360186860372613E+00    3.3060524536607376E+00
N   -7.9767509697811958E-03    5.6144196722679682E+00    5.2778223193118636E+00
Ga    3.7424066578599043E-02    7.4657001235889959E+00    5.8522459323517380E+00
N   -3.0715959392543031E-04    7.4697870389395211E+00    7.8651344221987260E+00
Ga   -1.5811244457560371E-03    5.5942086829051760E+00    8.4380440181529188E+00
N   -1.0693257787936903E-02    5.5950205344019768E+00    1.0464725253741948E+01
Ga   -3.8217580583284286E-03    7.4683660089596984E+00    1.1022336071362599E+01
N    4.7875637540212256E-03    7.4738592629167471E+00    1.3013953928075109E+01
Ga   -4.9165092120174985E-03    5.5954978505050832E+00    1.3615897785892257E+01
N    3.8088456520562362E-03    5.6074961972181852E+00    1.5612014635917296E+01
Ga   -1.3519606746614964E-02    7.4833057376076386E+00    1.5893370015619050E+01
N   -1.7255555977783374E+00    1.0189478937345346E+01    2.5461944697380958E+00
Ga   -1.4567178517974340E+00    8.3228496054232437E+00    3.3074521300164799E+00
N   -1.6037725283811846E+00    8.3968267384368822E+00    5.2725989510413580E+00
Ga   -1.5932871434568154E+00    1.0269366464672395E+01    5.7875119164393798E+00
N   -1.5952790670317263E+00    1.0266085107339389E+01    7.8039600335973258E+00
Ga   -1.6184444615908209E+00    8.4003871077563961E+00    8.4246003628685546E+00
N   -1.6270797267479202E+00    8.3986579491849653E+00    1.0448831329057931E+01
Ga   -1.5924015809576055E+00    1.0267234505856573E+01    1.1047848391037027E+01
N   -1.5774746435018108E+00    1.0280977069136505E+01    1.3054437954298949E+01
Ga   -1.6268198140875778E+00    8.3989305077600989E+00    1.3619790592436495E+01
N   -1.5852551664551935E+00    8.3938464030761999E+00    1.5554162515249073E+01
Ga   -1.8098008793155691E+00    1.0151276808208518E+01    1.6545184015521400E+01
N    6.4453405624424081E+00    2.0493494293166328E+00    2.5396219620174159E+00
Ga    6.4801472565891904E+00    1.3014398135848875E-02    2.8512078839086588E+00
N    6.4290935019776985E+00    4.9189668415169613E-02    5.0255587432587259E+00
Ga    6.4188687710011827E+00    1.8789467897142964E+00    5.7978278035607715E+00
N    6.4307450017773897E+00    1.8887909144707187E+00    7.8060900667126889E+00
Ga    6.4405434657164795E+00    4.7750598812468251E-02    8.4452448499263859E+00
N    6.4296144904940640E+00    4.7978554576196507E-02    1.0436274496743433E+01
Ga    6.4305743709593068E+00    1.8813853511479592E+00    1.1058676387316547E+01
N    6.4287682203307641E+00    1.8797340636956843E+00    1.3081590416028840E+01
Ga    6.4239068418433245E+00    5.1896059143613296E-02    1.3837008792692270E+01
N    6.4547524689285263E+00    1.0764203766363115E-01    1.6045470156162953E+01
Ga    6.4255757449440072E+00    2.0969378130144998E+00    1.6485614431824636E+01
Ga    6.4291032628449223E+00    3.7553799310898994E+00    1.4850489541271399E+00
N    4.9127689581722676E+00    4.6421767044207050E+00    2.4128476726108707E+00
Ga    4.6720734567521713E+00    2.8117169873719199E+00    3.2698631663073652E+00
N    4.8301409555764359E+00    2.8354506491943265E+00    5.2452534390559098E+00
Ga    4.7659914937643340E+00    4.7198372891036939E+00    5.8289282963249498E+00
N    4.8294486631509912E+00    4.6812430456327663E+00    7.8506213599817016E+00
Ga    4.8331265696727517E+00    2.8368888026386587E+00    8.4363891586547819E+00
N    4.8379732510033495E+00    2.8375774254658199E+00    1.0457219563981694E+01
Ga    4.7999113650499803E+00    4.6994085660195548E+00    1.1068399362642248E+01
N    4.8049161817736108E+00    4.7055436408320768E+00    1.3084464746160588E+01
Ga    4.8323818156994767E+00    2.8536660575212927E+00    1.3586476564452012E+01
N    4.8161942194405292E+00    2.8396569165038050E+00    1.5595099092925073E+01
Ga    4.9961167909992739E+00    4.5944952996023076E+00    1.6477799202536801E+01
N    6.4367944391341085E+00    3.7686051799738705E+00    1.7719175728613415E+01
N    3.1976112631322597E+00    7.6223775552922612E+00    2.3724255789232496E+00
N    3.2106043428144173E+00    5.6159027392192229E+00    5.2054411252545183E+00
Ga    3.2113652055124087E+00    7.4353602549308526E+00    5.8140549847012259E+00
N    3.2136340175051497E+00    7.4743225961529305E+00    7.8517695340297404E+00
Ga    3.2107307392919089E+00    5.6107166874313874E+00    8.4300513049344463E+00
N    3.2143787606989176E+00    5.6110195637888012E+00    1.0438116969511812E+01
Ga    3.2170379149576664E+00    7.4413357364597141E+00    1.1073365291908766E+01
N    3.2204700464693037E+00    7.4391489229788821E+00    1.3085305375574185E+01
Ga    3.2124313012279040E+00    5.6115105304429660E+00    1.3813717265456585E+01
N    3.2704006248588127E+00    5.6071235516092193E+00    1.6078974299067177E+01
Ga    3.2236473586171561E+00    7.6532336067128606E+00    1.6479613629055386E+01
Ga    3.2216213450055355E+00    9.3347536883318760E+00    1.3133254227738755E+00
N    1.7244663295353564E+00    1.0193388721432951E+01    2.5326767905975935E+00
Ga    1.5600149560504455E+00    8.3288060834625917E+00    3.2634961464471965E+00
N    1.6140897590119727E+00    8.4007457246134045E+00    5.2550090231005129E+00
Ga    1.6020297200448586E+00    1.0241575848432229E+01    5.7885895358409600E+00
N    1.5954462105819736E+00    1.0264374018764395E+01    7.8112948678323111E+00
Ga    1.6217722662192218E+00    8.4060052780004106E+00    8.4418774482608185E+00
N    1.6177147140412622E+00    8.4064642809722852E+00    1.0465271117642581E+01
Ga    1.5845427115362842E+00    1.0273174986445628E+01    1.1061628259096665E+01
N    1.5722597189239313E+00    1.0282411996754352E+01    1.3079783275758748E+01
Ga    1.6263808703112494E+00    8.4048784698654195E+00    1.3602124186422747E+01
N    1.6132570038920451E+00    8.4083065087527817E+00    1.5588586912243388E+01
Ga    1.7636061154743430E+00    1.0178468063585861E+01    1.6488795825305807E+01
N    3.2207890881125167E+00    9.3237165053994442E+00    1.7575687359040579E+01
N    9.6641628629663234E+00    1.8978286128699475E+00    2.7033993470684194E+00
Ga    9.6543255216089481E+00    8.8484759692513473E-03    3.3204902599341808E+00
N    9.6459897384219389E+00    6.5573726073762245E-02    5.2677754578921228E+00
Ga    9.6652619473764876E+00    1.8902283349008528E+00    5.8930437171186867E+00
N    9.6470398100796348E+00    1.9009856266635183E+00    7.8752612373119799E+00
Ga    9.6477830283894388E+00    2.7565101064364640E-02    8.4402512396182630E+00
N    9.6429784380693082E+00    2.4068711932947916E-02    1.0455227265737468E+01
Ga    9.6422997447593684E+00    1.9006042712521247E+00    1.1017392630738691E+01
N    9.6339159533280760E+00    1.9012006974545752E+00    1.3022233104918675E+01
Ga    9.6490492320092827E+00    3.6731754326998677E-02    1.3602102242620521E+01
N    9.6339415742275758E+00    5.8599200364097694E-02    1.5588334545899169E+01
Ga    9.6443432030166125E+00    1.9045561412458480E+00    1.5894302874606360E+01
N    7.9295942020348846E+00    4.6092148425856427E+00    2.5345392499538257E+00
Ga    8.0805772237880316E+00    2.8064014631018517E+00    3.3407026981326311E+00
N    8.0541743873257179E+00    2.8234724571752854E+00    5.2687060604146509E+00
Ga    8.0434000507302503E+00    4.7067590770089209E+00    5.7961936242282874E+00
N    8.0488198004055853E+00    4.6955689331185093E+00    7.8058138237134944E+00
Ga    8.0275292618299936E+00    2.8375167772052436E+00    8.4395216619346787E+00
N    8.0157458778888575E+00    2.8457816780062695E+00    1.0454261680500315E+01
Ga    8.0509109137054242E+00    4.6951456736864827E+00    1.1066501019282567E+01
N    8.0482248690299976E+00    4.7056747523805678E+00    1.3085595556119994E+01
Ga    8.0224337297644670E+00    2.8505340610053622E+00    1.3591716314844025E+01
N    8.0442118210971607E+00    2.8281303915917761E+00    1.5600624564203242E+01
Ga    7.8756881766580404E+00    4.6088269497072645E+00    1.6479083751387947E+01
N    6.3992574789758647E+00    7.4736973040984198E+00    2.6118546542513754E+00
Ga    6.3723781501172461E+00    5.7585428171951065E+00    3.2767804889873093E+00
N    6.4285207646680433E+00    5.6068858070323842E+00    5.2509824974222017E+00
Ga    6.3844137136988914E+00    7.4811019670866292E+00    5.8344026686899433E+00
N    6.4244281910848278E+00    7.4666538426320166E+00    7.8472831146165616E+00
Ga    6.4269888362623346E+00    5.6007133864015053E+00    8.4321977095064486E+00
N    6.4319177646900618E+00    5.5976307127308678E+00    1.0451817381107249E+01
Ga    6.4227327293517522E+00    7.4697235588496262E+00    1.1024975161266154E+01
N    6.4138395451376926E+00    7.4644110805659780E+00    1.3001496190666350E+01
Ga    6.4220074567752317E+00    5.6080619145856669E+00    1.3597997378981001E+01
N    6.4180492133751512E+00    5.6262042241943400E+00    1.5598746013230361E+01
Ga    6.4303242932159117E+00    7.4827344631525294E+00    1.5865677382888531E+01
N    4.6928387262446751E+00    1.0199147242677606E+01    2.4802228321914539E+00
Ga    4.8493075105313874E+00    8.3489125482237991E+00    3.2489993065399205E+00
N    4.8055144894044579E+00    8.4029962674894580E+00    5.2379030202301875E+00
Ga    4.8392035332134906E+00    1.0247279845823806E+01    5.7802117788176668E+00
N    4.8315082408082031E+00    1.0262303305116177E+01    7.8090816416800219E+00
Ga    4.8058837821629483E+00    8.4056509815092770E+00    8.4309073665404721E+00
N    4.8088117079432990E+00    8.4024424490921437E+00    1.0451958868242183E+01
Ga    4.8413415341147088E+00    1.0267193499805964E+01    1.1058623483025972E+01
N    4.8484256687355556E+00    1.0270365577098891E+01    1.3079308225526045E+01
Ga    4.8121497230682158E+00    8.4012594946070447E+00    1.3609064552300513E+01
N    4.8182565445174976E+00    8.3930112670228585E+00    1.5586061793465031E+01
Ga    4.6705225824867584E+00    1.0170361897370460E+01    1.6476928843957246E+01
O    6.4866977924710345E-01    4.0181277802025352E+00   -4.0416822870108965E-01
H    2.7920806423288345E+00    6.4752399515796979E+00   -3.7816224180025682E-01
C    9.9470769751150356E-01    2.8022554254709169E+00   -1.1024711669568392E+00
H    1.7142898921642304E+00    2.1935879846925461E+00   -5.2264805738378539E-01
H    8.5437093834635977E-02    2.1758304815289260E+00   -1.2831741611413134E+00
H    1.4567500505307927E+00    3.0760518555053111E+00   -2.0799577078530662E+00
Ga    3.1269283809023101E+00    5.6597858242298642E+00    2.2225084081775637E+00
O    2.8057739902781700E+00    5.5168140070948288E+00    9.4572559281121529E-02
H    1.9895214692005334E+00    5.0116907887294504E+00   -1.4357301488579596E-01
C    3.0811867928119820E+00    9.4079398402605552E+00   -6.2518170346716884E-01
H    9.6541541176827224E+00    1.8958209656656662E+00    1.6807400765109139E+00
H    4.0872783140221864E+00    9.5172738879959038E+00   -1.3175754031779148E+00
H    2.1082153259254452E+00    9.1749948900334015E+00   -1.2250344004303722E+00
     &END COORD
     &KIND C
       BASIS_SET DZVP-MOLOPT-SR-GTH-q4
       POTENTIAL GTH-PBE-q4
       &POTENTIAL
 2 2
  0.3384712400000000E+00 2 -0.8803673979999999E+01  0.1339210850000000E+01
 2
  0.3025757500000000E+00 1  0.9622486650000001E+01
  0.2915069400000000E+00 0
         # Potential name:  GTH-PBE-Q4  for symbol:  C
         # Potential read from the potential filename: GTH_POTENTIALS
       &END POTENTIAL
     &END KIND
     &KIND O
       BASIS_SET DZVP-MOLOPT-SR-GTH-q6
       POTENTIAL GTH-PBE-q6
       &POTENTIAL
 2 4
  0.2445543000000000E+00 2 -0.1666721480000000E+02  0.2487311320000000E+01
 2
  0.2209559200000000E+00 1  0.1833745811000000E+02
  0.2113324700000000E+00 0
         # Potential name:  GTH-PBE-Q6  for symbol:  O
         # Potential read from the potential filename: GTH_POTENTIALS
       &END POTENTIAL
     &END KIND
     &KIND H
       BASIS_SET DZVP-MOLOPT-SR-GTH-q1
       POTENTIAL GTH-PBE-q1
       &POTENTIAL
 1
  0.2000000000000000E+00 2 -0.4178900440000000E+01  0.7244633100000000E+00
 0
         # Potential name:  GTH-PBE-Q1  for symbol:  H
         # Potential read from the potential filename: GTH_POTENTIALS
       &END POTENTIAL
     &END KIND
     &KIND N
       BASIS_SET DZVP-MOLOPT-SR-GTH
       POTENTIAL GTH-PBE-q5
       &POTENTIAL
 2 3
  0.2837905100000000E+00 2 -0.1241522559000000E+02  0.1868095920000000E+01
 2
  0.2554050000000000E+00 1  0.1363026257000000E+02
  0.2454945300000000E+00 0
         # Potential name:  GTH-PBE-Q5  for symbol:  N
         # Potential read from the potential filename: GTH_POTENTIALS
       &END POTENTIAL
     &END KIND
     &KIND Ga
       BASIS_SET DZVP-MOLOPT-SR-GTH
       POTENTIAL GTH-PBE-q13
       &POTENTIAL
 2 1 10
  0.4900000000000000E+00 0
 3
  0.4167772300000000E+00 3  0.1047568975000000E+02 -0.4921768140000000E+01  0.8707055900000000E+00
  0.7770178090000000E+01 -0.2248152160000000E+01
  0.1784415450000000E+01
  0.5696265200000000E+00 2  0.1777985340000000E+01  0.1958597600000000E+00
 -0.2317443900000000E+00
  0.2381265000000000E+00 1 -0.1624868022000000E+02
         # Potential name:  GTH-PBE-Q13  for symbol:  GA
         # Potential read from the potential filename: GTH_POTENTIALS
       &END POTENTIAL
     &END KIND
     &TOPOLOGY
       NUMBER_OF_ATOMS  212
       MULTIPLE_UNIT_CELL  1 1 1
     &END TOPOLOGY
   &END SUBSYS
 &END FORCE_EVAL
