 # Version information for this restart file 
 # current date 2019-06-30 11:53:11.297
 # current working dir /scratch/rzk/rzk/GaN-carbene/443-adatoms-both-2x2/08-CH3O-H2O-H2C-H/02-Use-0701-H2CGa
 # Program compiled at                              Sun Apr  7 00:48:11 EDT 2019
 # Program compiled on                          beluga2.int.ets1.calculquebec.ca
 # Program compiled for                        Beluga-Linux-x86-64-intel-openmpi
 # Source code revision number                                         svn:18619
 &GLOBAL
   PRINT_LEVEL  MEDIUM
   PROJECT_NAME TEST
   RUN_TYPE  GEO_OPT
 &END GLOBAL
 &MOTION
   &GEO_OPT
     MAX_ITER  500
     STEP_START_VAL  80
   &END GEO_OPT
 &END MOTION
 &FORCE_EVAL
   METHOD  QS
   STRESS_TENSOR  ANALYTICAL
   &DFT
     BASIS_SET_FILE_NAME BASIS_MOLOPT
     POTENTIAL_FILE_NAME GTH_POTENTIALS
     UKS  T
     SURFACE_DIPOLE_CORRECTION  T
     SURF_DIP_DIR  Z
     &SCF
       MAX_SCF  80
       EPS_SCF     5.0000000000000004E-06
       &OT  T
         PRECONDITIONER  FULL_ALL
       &END OT
       &OUTER_SCF  T
         OPTIMIZER  NONE
         EPS_SCF     5.0000000000000004E-06
         MAX_SCF  4
       &END OUTER_SCF
       &PRINT
         &RESTART  OFF
           BACKUP_COPIES  1
           &EACH
             JUST_ENERGY  0
             QS_SCF  0
             MD  20
           &END EACH
         &END RESTART
       &END PRINT
     &END SCF
     &QS
       EPS_DEFAULT     1.0000000000000000E-14
       METHOD  GPW
     &END QS
     &MGRID
       NGRIDS  5
       CUTOFF     1.2000000000000000E+03
     &END MGRID
     &XC
       DENSITY_CUTOFF     1.0000000000000000E-10
       GRADIENT_CUTOFF     1.0000000000000000E-10
       TAU_CUTOFF     1.0000000000000000E-10
       &XC_FUNCTIONAL  NO_SHORTCUT
         &PBE  T
         &END PBE
       &END XC_FUNCTIONAL
       &VDW_POTENTIAL
         POTENTIAL_TYPE  PAIR_POTENTIAL
         &PAIR_POTENTIAL
           R_CUTOFF     1.0000000000000004E+01
           TYPE  DFTD3
           PARAMETER_FILE_NAME dftd3.dat
           REFERENCE_FUNCTIONAL PBE
           EPS_CN     9.9999999999999995E-07
           CALCULATE_C9_TERM  T
           REFERENCE_C9_TERM  T
           LONG_RANGE_CORRECTION  F
           VERBOSE_OUTPUT  F
         &END PAIR_POTENTIAL
       &END VDW_POTENTIAL
     &END XC
   &END DFT
   &SUBSYS
     &CELL
       A     1.2864472766435110E+01    0.0000000000000000E+00    0.0000000000000000E+00
       B    -6.4322363581020028E+00    1.1140960178524473E+01    0.0000000000000000E+00
       C     0.0000000000000000E+00    0.0000000000000000E+00    3.2000000000000000E+01
       MULTIPLE_UNIT_CELL  1 1 1
       &CELL_REF
         A     1.2982353780853531E+01    0.0000000000000000E+00    0.0000000000000000E+00
         B    -6.4911768904267628E+00    1.1243048175136114E+01    0.0000000000000000E+00
         C     0.0000000000000000E+00    0.0000000000000000E+00    3.2000000000000000E+01
         MULTIPLE_UNIT_CELL  1 1 1
       &END CELL_REF
     &END CELL
     &COORD
N   -4.0121387774291785E-03    2.0466758264267746E+00    2.4815960358225859E+00
Ga   -3.8117167297860216E-02    5.9293667051026094E-02    2.8305229621589869E+00
N   -5.6244862898703766E-03    4.8835493250117955E-02    5.0118753820418398E+00
Ga    4.7647445417794585E-03    1.8709048206858989E+00    5.8030365157339814E+00
N   -5.8059016895775310E-03    1.8905166195363881E+00    7.8004626089800437E+00
Ga   -4.2318516564364252E-03    4.5264772268248196E-02    8.4427937574659229E+00
N   -2.7844610760970191E-03    4.5991356497671020E-02    1.0419228903448101E+01
Ga   -1.8335101223166744E-03    1.8843640924719001E+00    1.1071384221263008E+01
N   -2.7999984353656829E-03    1.8660707749769194E+00    1.3066602749875448E+01
Ga   -1.7550458265098042E-03    4.5701313331065710E-02    1.3864533587359205E+01
N   -3.7191391820229581E-03    4.5019487017655221E-02    1.6070338457440883E+01
Ga   -2.1012922607372055E-03    2.0842131735796001E+00    1.6477996095356655E+01
Ga    5.3569962836516161E-02    3.7958164454329615E+00    1.3651884939192644E+00
N   -1.4817458489223476E+00    4.6163324363308895E+00    2.4879879641537404E+00
Ga   -1.5963483867532571E+00    2.8322542862317079E+00    3.3125637397156074E+00
N   -1.6234293614884006E+00    2.8248964979272655E+00    5.2517128341561419E+00
Ga   -1.6281446065705099E+00    4.7080421138368500E+00    5.8052408636501935E+00
N   -1.6242054978645724E+00    4.6921453602790049E+00    7.8005667454630023E+00
Ga   -1.5974555841682070E+00    2.8390359801748604E+00    8.4459074177225979E+00
N   -1.5996809220176305E+00    2.8383176648546238E+00    1.0437689826543480E+01
Ga   -1.6259908864680450E+00    4.6988343304576325E+00    1.1071615029236057E+01
N   -1.6428839943855735E+00    4.7068040240898439E+00    1.3066697193876664E+01
Ga   -1.5995448217551707E+00    2.8379712861698398E+00    1.3620440613113029E+01
N   -1.6271546408553088E+00    2.8217590780829576E+00    1.5584546122700294E+01
Ga   -1.4534451731873663E+00    4.5980689578448839E+00    1.6478175383135650E+01
N   -1.0191295712499578E-02    3.7556254107638991E+00    1.7611295260284571E+01
N   -3.2181607093992737E+00    7.5972127945860564E+00    2.5398625621486839E+00
Ga   -3.1805237728392823E+00    5.6102429706337418E+00    2.8573692024581687E+00
N   -3.2172662999150607E+00    5.6131704750494080E+00    5.0104656730865997E+00
Ga   -3.2185186681329765E+00    7.4476371819737075E+00    5.7929826323353781E+00
N   -3.2190341817095178E+00    7.4612096460516488E+00    7.7914172285980934E+00
Ga   -3.2183641836035188E+00    5.6175391199086864E+00    8.4448025437040179E+00
N   -3.2194842723726311E+00    5.6170398319263271E+00    1.0419612543779355E+01
Ga   -3.2191769233822072E+00    7.4584222370103177E+00    1.1065271373267930E+01
N   -3.2184395779318273E+00    7.4378724388920432E+00    1.3062268521363428E+01
Ga   -3.2184092010051599E+00    5.6179479477967371E+00    1.3865267839000918E+01
N   -3.2201523106696914E+00    5.6161251119087154E+00    1.6070220603482653E+01
Ga   -3.2186171158726822E+00    7.6538526184964244E+00    1.6478307257613377E+01
Ga   -3.2153661178329811E+00    9.3290864812574927E+00    1.5554785274370548E+00
N   -4.7223442078290097E+00    1.0199919705915894E+01    2.5273549931072457E+00
Ga   -4.9510989794727358E+00    8.3414889422274747E+00    3.2935265556045716E+00
N   -4.8332583614908327E+00    8.3994650745069155E+00    5.2513431235790220E+00
Ga   -4.8567497827051618E+00    1.0276367081234609E+01    5.7926509103678860E+00
N   -4.8369430821556216E+00    1.0265252062574351E+01    7.7924079991220436E+00
Ga   -4.8206074502577962E+00    8.4061116057967489E+00    8.4267013722183410E+00
N   -4.8159723338677081E+00    8.4082828171719228E+00    1.0425847171681985E+01
Ga   -4.8410279262511642E+00    1.0266451503462646E+01    1.1065010399465992E+01
N   -4.8574998587539984E+00    1.0276919835965327E+01    1.3062154369078916E+01
Ga   -4.8141755679066396E+00    8.4093062620385091E+00    1.3619919898372284E+01
N   -4.8420871306857363E+00    8.3928934739834791E+00    1.5584057098547520E+01
Ga   -4.6704480532178509E+00    1.0168320567646083E+01    1.6478114344923764E+01
N   -3.2266309149322301E+00    9.3257876021981865E+00    1.7613227601548594E+01
N    3.1948569785790868E+00    1.9188058879308980E+00    2.6007218101191274E+00
Ga    3.2064156775192596E+00    1.8333333124583076E-01    3.2943169540187673E+00
N    3.2130992991785066E+00    5.3408463381188473E-02    5.2525827803896998E+00
Ga    3.2093049015202433E+00    1.9161005540596385E+00    5.8735312978876104E+00
N    3.2160726003365681E+00    1.9052797881558508E+00    7.8507015076199647E+00
Ga    3.2132447038984950E+00    3.6834351447882406E-02    8.4317671964915100E+00
N    3.2134230672774988E+00    3.3085790974643876E-02    1.0428776503375758E+01
Ga    3.2125891164022993E+00    1.9003662830562933E+00    1.1029369757126178E+01
N    3.2139611119193305E+00    1.9018476882372133E+00    1.3002836184796884E+01
Ga    3.2144337640240828E+00    3.2332957341874469E-02    1.3619658728215539E+01
N    3.2151515575202136E+00    6.3327647267887227E-02    1.5582791746790038E+01
Ga    3.2134141991437919E+00    1.9024281677008315E+00    1.5858207742350086E+01
N    1.4879953829903410E+00    4.6270020522817017E+00    2.5188227583107907E+00
Ga    1.6857569587257208E+00    2.8141106222493137E+00    3.2878361314785756E+00
N    1.6017256782822320E+00    2.8318237660111851E+00    5.2580894184269882E+00
Ga    1.6482221379846509E+00    4.7132827566356585E+00    5.8160536159001301E+00
N    1.6026330632477173E+00    4.6863854822302304E+00    7.8299520305990606E+00
Ga    1.5943248209350052E+00    2.8369065771406019E+00    8.4435530844166191E+00
N    1.5944800698453760E+00    2.8333379899191837E+00    1.0439844848892429E+01
Ga    1.6210423679646642E+00    4.6980233993952663E+00    1.1063200773659082E+01
N    1.6372255597802627E+00    4.7067669577701379E+00    1.3062525760838318E+01
Ga    1.5947294744384060E+00    2.8392675132456922E+00    1.3618562196837532E+01
N    1.6221851848377249E+00    2.8235801854789555E+00    1.5582251917409016E+01
Ga    1.4420690603308433E+00    4.5940341323044755E+00    1.6478405976942184E+01
N    1.6406714316163654E-02    7.4636595524550806E+00    2.6165714633029729E+00
Ga    3.2078890720189226E-02    5.7115306110911952E+00    3.2931547917192479E+00
N   -3.9549551626435744E-03    5.6144630685268639E+00    5.2619089300111561E+00
Ga    1.6439255036976404E-02    7.4706932279609353E+00    5.8666115557734706E+00
N   -3.8059593123448770E-04    7.4750788142655802E+00    7.8492419225057812E+00
Ga   -3.3290325092740986E-03    5.6071397948267609E+00    8.4412277447531956E+00
N   -6.8775806850991184E-03    5.6064937108025363E+00    1.0438772786168025E+01
Ga   -4.9081718197711245E-03    7.4751230052207793E+00    1.1026863677923540E+01
N   -3.5138685767260062E-03    7.4746191832799580E+00    1.3001323675152088E+01
Ga   -1.2874036015389631E-03    5.6040959401223027E+00    1.3618190961859003E+01
N   -9.5249770109604695E-04    5.6351903308581601E+00    1.5582044139358841E+01
Ga   -2.6011243608227083E-03    7.4738476586480607E+00    1.5857765597871438E+01
N   -1.7162982420319541E+00    1.0200899293661283E+01    2.5381045063632928E+00
Ga   -1.4832718135046832E+00    8.3343572069031477E+00    3.2973418065419828E+00
N   -1.6051602479326748E+00    8.4008576930892573E+00    5.2553292147974160E+00
Ga   -1.5874554928851674E+00    1.0273551422237166E+01    5.7962363181738263E+00
N   -1.6003902152154230E+00    1.0266058064202742E+01    7.7939412445949374E+00
Ga   -1.6173340967751499E+00    8.4064289201887199E+00    8.4293069628763480E+00
N   -1.6228568607554954E+00    8.4091122787707722E+00    1.0427629070750555E+01
Ga   -1.5965328099078648E+00    1.0267022246479554E+01    1.1065165317661069E+01
N   -1.5785621772072176E+00    1.0277439481833991E+01    1.3061791549139013E+01
Ga   -1.6217970710515459E+00    8.4095517693122463E+00    1.3619079952010443E+01
N   -1.5948955567687353E+00    8.3945419666294541E+00    1.5582347252774968E+01
Ga   -1.7739946711579195E+00    1.0164192480269161E+01    1.6478929942338976E+01
N    6.4341721209221330E+00    2.0340010423409924E+00    2.5220782922959772E+00
Ga    6.4625248244453841E+00    1.7294719545946153E-02    2.8663013504732922E+00
N    6.4313804996360506E+00    4.9039659759311995E-02    5.0168944340274848E+00
Ga    6.4173716000242509E+00    1.8720345160510239E+00    5.8027709640868270E+00
N    6.4302788987430093E+00    1.8919899055057723E+00    7.7953344631241359E+00
Ga    6.4314072166518859E+00    4.5341301145886935E-02    8.4428860501882284E+00
N    6.4301269220470489E+00    4.7105245049670515E-02    1.0418720148885798E+01
Ga    6.4300900123076934E+00    1.8845991909556548E+00    1.1072936273882549E+01
N    6.4311928926852726E+00    1.8662307325303786E+00    1.3067395281144798E+01
Ga    6.4293297872083626E+00    4.5642213029330699E-02    1.3865398797355326E+01
N    6.4279219134380972E+00    4.4926950330992178E-02    1.6070335170084768E+01
Ga    6.4287255759098700E+00    2.0843009648920754E+00    1.6479039759323772E+01
Ga    6.4237973476566337E+00    3.7642046441913308E+00    1.5022577155047927E+00
N    4.9055227423303087E+00    4.6397357487552267E+00    2.4160509685061515E+00
Ga    4.6867045290241922E+00    2.8107824554602363E+00    3.2787653704817603E+00
N    4.8251594717362618E+00    2.8405255513845487E+00    5.2382020037606356E+00
Ga    4.7750511111060501E+00    4.7155198536595497E+00    5.8283074835254043E+00
N    4.8277893324610339E+00    4.6846432176970536E+00    7.8321083223961807E+00
Ga    4.8323721522875616E+00    2.8353814939271116E+00    8.4501869582556921E+00
N    4.8331813476338148E+00    2.8335017173918677E+00    1.0442942436392430E+01
Ga    4.8058738267865486E+00    4.6986870287636986E+00    1.1065769660554642E+01
N    4.7912696711618867E+00    4.7067797211418894E+00    1.3064354395749264E+01
Ga    4.8335887897174032E+00    2.8387657631041789E+00    1.3619353983098081E+01
N    4.8052807369942849E+00    2.8217858177653161E+00    1.5583840791917115E+01
Ga    4.9774716986379399E+00    4.5979000383529014E+00    1.6478030381310674E+01
N    6.4205375282068458E+00    3.7557345032880378E+00    1.7612578300882426E+01
N    3.2093405679770202E+00    7.6206747400471881E+00    2.3885574099236622E+00
N    3.2182025822169784E+00    5.6153921534353080E+00    5.1808789933854182E+00
Ga    3.2145415994367741E+00    7.4273381578304685E+00    5.8102759166449598E+00
N    3.2139915344584287E+00    7.4786232236704162E+00    7.8262692340183255E+00
Ga    3.2126284207304763E+00    5.6189767848397221E+00    8.4320297762523886E+00
N    3.2143064015833440E+00    5.6171246324501967E+00    1.0420567384317108E+01
Ga    3.2140240400347331E+00    7.4559694772175655E+00    1.1064016872438975E+01
N    3.2142735696718439E+00    7.4380425853089189E+00    1.3063459165763730E+01
Ga    3.2135126923670945E+00    5.6171554451799688E+00    1.3860683178178826E+01
N    3.2120226606786755E+00    5.6158004880632708E+00    1.6069832762546202E+01
Ga    3.2132332619679782E+00    7.6533686420032234E+00    1.6477306267787121E+01
Ga    3.2035268414833342E+00    9.3489432619291151E+00    1.2619830224878947E+00
N    1.7281152602143359E+00    1.0196533055152907E+01    2.4994647618221491E+00
Ga    1.5606066247547976E+00    8.3367037874995322E+00    3.2451346601011872E+00
N    1.6137763305866739E+00    8.4002457141547886E+00    5.2333744821557033E+00
Ga    1.5816352848917854E+00    1.0258637459173825E+01    5.7945446518639754E+00
N    1.5952092204078416E+00    1.0266325321682901E+01    7.7942318639954058E+00
Ga    1.6155005704771175E+00    8.4091030499869852E+00    8.4428029615890665E+00
N    1.6130862155254648E+00    8.4112344541556787E+00    1.0440085242983528E+01
Ga    1.5901095775765477E+00    1.0267901983717591E+01    1.1070910829751403E+01
N    1.5741952385373441E+00    1.0278651441908798E+01    1.3066289145838597E+01
Ga    1.6176448235459644E+00    8.4088062529740881E+00    1.3617970310856510E+01
N    1.5895975503801030E+00    8.3927379301309060E+00    1.5583131776334637E+01
Ga    1.7616861875763641E+00    1.0167391433438549E+01    1.6478209954771604E+01
N    3.2053128135059064E+00    9.3248377590612321E+00    1.7613375347003355E+01
N    9.6568733052436198E+00    1.8962676950680830E+00    2.7000874788564806E+00
Ga    9.6506898825043326E+00    2.7466294801630740E-02    3.3156895504987869E+00
N    9.6465171509212624E+00    6.3139617998985736E-02    5.2558127073193921E+00
Ga    9.6552036004284219E+00    1.8975848748009776E+00    5.9057705474386930E+00
N    9.6456631259903460E+00    1.9037473250510417E+00    7.8641650565741994E+00
Ga    9.6466057145944912E+00    2.8750399442437360E-02    8.4381137671393578E+00
N    9.6458552331577909E+00    3.3004329213135064E-02    1.0432719570137435E+01
Ga    9.6451515240009211E+00    1.9023447267099238E+00    1.1025883865356457E+01
N    9.6454908546028637E+00    1.9030891202188491E+00    1.2999475799789385E+01
Ga    9.6466480107033661E+00    3.3899768209525290E-02    1.3621025036336096E+01
N    9.6472635717196162E+00    6.4260384444399105E-02    1.5584147712762672E+01
Ga    9.6461475705452617E+00    1.9026075330515211E+00    1.5862205495131315E+01
N    7.9300360939458621E+00    4.6196545918075422E+00    2.5206628351987304E+00
Ga    8.0736350991368440E+00    2.8108423459847494E+00    3.3424469423258754E+00
N    8.0516900675967378E+00    2.8241067472031167E+00    5.2623481694574199E+00
Ga    8.0586639668110998E+00    4.7156386942957544E+00    5.7999704929234364E+00
N    8.0485349712562275E+00    4.6946970292423398E+00    7.7930913435788796E+00
Ga    8.0249388026475597E+00    2.8398081051822852E+00    8.4414776256041382E+00
N    8.0257658148138002E+00    2.8389695199565419E+00    1.0433513904262194E+01
Ga    8.0533803594263098E+00    4.6982069894967715E+00    1.1072349310796870E+01
N    8.0706334811120257E+00    4.7064206373793001E+00    1.3066525560593464E+01
Ga    8.0278040842061706E+00    2.8382702031807683E+00    1.3622096243687047E+01
N    8.0546676879658961E+00    2.8232376593416366E+00    1.5584724385956770E+01
Ga    7.8732589836103708E+00    4.5940571130318721E+00    1.6480098336832871E+01
N    6.4104250219183445E+00    7.4798836536882254E+00    2.5977609166341091E+00
Ga    6.3782914942295408E+00    5.7455644877184309E+00    3.2772890958232068E+00
N    6.4237283276588348E+00    5.6076713267009550E+00    5.2357780691842395E+00
Ga    6.4079563040539558E+00    7.4736717318258208E+00    5.8585550325642375E+00
N    6.4268691284682138E+00    7.4715661926894050E+00    7.8404398095576768E+00
Ga    6.4317676484164119E+00    5.6079130513512485E+00    8.4453900017773638E+00
N    6.4341530661300874E+00    5.6066947144758119E+00    1.0439385785986817E+01
Ga    6.4314702963462818E+00    7.4756880938928685E+00    1.1028269765245177E+01
N    6.4312947301332963E+00    7.4743925748872471E+00    1.3002020200103287E+01
Ga    6.4303391857420831E+00    5.6040111094297922E+00    1.3619645470655767E+01
N    6.4311993611895675E+00    5.6353176039595443E+00    1.5583130701741840E+01
Ga    6.4299163567511242E+00    7.4740904048095276E+00    1.5858820690636707E+01
N    4.6945801936340317E+00    1.0196690235295051E+01    2.4805014438736799E+00
Ga    4.8598310537073006E+00    8.3449422810869756E+00    3.2328143763453827E+00
N    4.8126977113132341E+00    8.4006733260292066E+00    5.2237943458929994E+00
Ga    4.8516751040080095E+00    1.0260079573197945E+01    5.7901697937067889E+00
N    4.8322527779626432E+00    1.0264731234115160E+01    7.7924016038710544E+00
Ga    4.8117934145224215E+00    8.4089330396289395E+00    8.4409119110577304E+00
N    4.8149084662889328E+00    8.4106548143521813E+00    1.0438040517082245E+01
Ga    4.8373734852375971E+00    1.0267506457581984E+01    1.1070139221737984E+01
N    4.8537190085654958E+00    1.0278346669640122E+01    1.3065348814305434E+01
Ga    4.8106882883885724E+00    8.4091564145476525E+00    1.3618502226685145E+01
N    4.8379126071684997E+00    8.3941838843656331E+00    1.5582442049785648E+01
Ga    4.6580131597221799E+00    1.0163486983673613E+01    1.6479059376418167E+01
O    6.3587081371683407E-01    4.0066722113581292E+00   -3.9596479580298793E-01
H    2.6914656954951335E+00    6.4437250637294881E+00   -2.5117258164749146E-01
C    1.0078204243758391E+00    2.7982834545524078E+00   -1.0938408728460949E+00
H    1.7179453579120378E+00    2.1878332060184658E+00   -5.1157202838559446E-01
H    1.2413976480550164E-01    2.1855341650443880E+00   -1.3273826158888151E+00
H    1.4859981645590090E+00    3.0907822908468514E+00   -2.0395166952954273E+00
Ga    3.1481958510722068E+00    5.6445023309328448E+00    2.2066290820709060E+00
O    2.8552158865813393E+00    5.5359580125668737E+00    6.7590357274452006E-02
H    2.0130327198916733E+00    4.9998385951351381E+00   -1.3043774545794248E-01
C    3.1398752769146534E+00    9.3381766767012699E+00   -6.7089202379637869E-01
H    9.6508667743935117E+00    1.8942114335862594E+00    1.6738811624189527E+00
H    4.0389272331335144E+00    9.3203999921057044E+00   -1.2881644122122824E+00
H    2.1960236153626442E+00    9.3718661955322293E+00   -1.2179128071537213E+00
     &END COORD
     &KIND C
       BASIS_SET DZVP-MOLOPT-SR-GTH-q4
       POTENTIAL GTH-PBE-q4
       &POTENTIAL
 2 2
  0.3384712400000000E+00 2 -0.8803673979999999E+01  0.1339210850000000E+01
 2
  0.3025757500000000E+00 1  0.9622486650000001E+01
  0.2915069400000000E+00 0
         # Potential name:  GTH-PBE-Q4  for symbol:  C
         # Potential read from the potential filename: GTH_POTENTIALS
       &END POTENTIAL
     &END KIND
     &KIND O
       BASIS_SET DZVP-MOLOPT-SR-GTH-q6
       POTENTIAL GTH-PBE-q6
       &POTENTIAL
 2 4
  0.2445543000000000E+00 2 -0.1666721480000000E+02  0.2487311320000000E+01
 2
  0.2209559200000000E+00 1  0.1833745811000000E+02
  0.2113324700000000E+00 0
         # Potential name:  GTH-PBE-Q6  for symbol:  O
         # Potential read from the potential filename: GTH_POTENTIALS
       &END POTENTIAL
     &END KIND
     &KIND H
       BASIS_SET DZVP-MOLOPT-SR-GTH-q1
       POTENTIAL GTH-PBE-q1
       &POTENTIAL
 1
  0.2000000000000000E+00 2 -0.4178900440000000E+01  0.7244633100000000E+00
 0
         # Potential name:  GTH-PBE-Q1  for symbol:  H
         # Potential read from the potential filename: GTH_POTENTIALS
       &END POTENTIAL
     &END KIND
     &KIND N
       BASIS_SET DZVP-MOLOPT-SR-GTH
       POTENTIAL GTH-PBE-q5
       &POTENTIAL
 2 3
  0.2837905100000000E+00 2 -0.1241522559000000E+02  0.1868095920000000E+01
 2
  0.2554050000000000E+00 1  0.1363026257000000E+02
  0.2454945300000000E+00 0
         # Potential name:  GTH-PBE-Q5  for symbol:  N
         # Potential read from the potential filename: GTH_POTENTIALS
       &END POTENTIAL
     &END KIND
     &KIND Ga
       BASIS_SET DZVP-MOLOPT-SR-GTH
       POTENTIAL GTH-PBE-q13
       &POTENTIAL
 2 1 10
  0.4900000000000000E+00 0
 3
  0.4167772300000000E+00 3  0.1047568975000000E+02 -0.4921768140000000E+01  0.8707055900000000E+00
  0.7770178090000000E+01 -0.2248152160000000E+01
  0.1784415450000000E+01
  0.5696265200000000E+00 2  0.1777985340000000E+01  0.1958597600000000E+00
 -0.2317443900000000E+00
  0.2381265000000000E+00 1 -0.1624868022000000E+02
         # Potential name:  GTH-PBE-Q13  for symbol:  GA
         # Potential read from the potential filename: GTH_POTENTIALS
       &END POTENTIAL
     &END KIND
     &TOPOLOGY
       NUMBER_OF_ATOMS  212
       MULTIPLE_UNIT_CELL  1 1 1
     &END TOPOLOGY
   &END SUBSYS
 &END FORCE_EVAL
