 # Version information for this restart file 
 # current date 2019-07-21 23:45:22.445
 # current working dir /lustre04/scratch/rzk/rzk/GaN-carbene/443-adatoms-both-2x2/12-CH3O-H2C-H/02-Start-Intermediate-0904
 # Program compiled at                              Sun Apr  7 00:48:11 EDT 2019
 # Program compiled on                          beluga2.int.ets1.calculquebec.ca
 # Program compiled for                        Beluga-Linux-x86-64-intel-openmpi
 # Source code revision number                                         svn:18619
 &GLOBAL
   PRINT_LEVEL  MEDIUM
   PROJECT_NAME TEST
   RUN_TYPE  GEO_OPT
 &END GLOBAL
 &MOTION
   &GEO_OPT
     MAX_ITER  500
     STEP_START_VAL  14
   &END GEO_OPT
 &END MOTION
 &FORCE_EVAL
   METHOD  QS
   STRESS_TENSOR  ANALYTICAL
   &DFT
     BASIS_SET_FILE_NAME BASIS_MOLOPT
     POTENTIAL_FILE_NAME GTH_POTENTIALS
     UKS  T
     SURFACE_DIPOLE_CORRECTION  T
     SURF_DIP_DIR  Z
     &SCF
       MAX_SCF  80
       EPS_SCF     5.0000000000000004E-06
       &OT  T
         PRECONDITIONER  FULL_ALL
       &END OT
       &OUTER_SCF  T
         OPTIMIZER  NONE
         EPS_SCF     5.0000000000000004E-06
         MAX_SCF  4
       &END OUTER_SCF
       &PRINT
         &RESTART  OFF
           BACKUP_COPIES  1
           &EACH
             JUST_ENERGY  0
             QS_SCF  0
             MD  20
           &END EACH
         &END RESTART
       &END PRINT
     &END SCF
     &QS
       EPS_DEFAULT     1.0000000000000000E-14
       METHOD  GPW
     &END QS
     &MGRID
       NGRIDS  5
       CUTOFF     1.2000000000000000E+03
     &END MGRID
     &XC
       DENSITY_CUTOFF     1.0000000000000000E-10
       GRADIENT_CUTOFF     1.0000000000000000E-10
       TAU_CUTOFF     1.0000000000000000E-10
       &XC_FUNCTIONAL  NO_SHORTCUT
         &PBE  T
         &END PBE
       &END XC_FUNCTIONAL
       &VDW_POTENTIAL
         POTENTIAL_TYPE  PAIR_POTENTIAL
         &PAIR_POTENTIAL
           R_CUTOFF     1.0000000000000004E+01
           TYPE  DFTD3
           PARAMETER_FILE_NAME dftd3.dat
           REFERENCE_FUNCTIONAL PBE
           EPS_CN     9.9999999999999995E-07
           CALCULATE_C9_TERM  T
           REFERENCE_C9_TERM  T
           LONG_RANGE_CORRECTION  F
           VERBOSE_OUTPUT  F
         &END PAIR_POTENTIAL
       &END VDW_POTENTIAL
     &END XC
   &END DFT
   &SUBSYS
     &CELL
       A     1.2864472766435110E+01    0.0000000000000000E+00    0.0000000000000000E+00
       B    -6.4322363581020028E+00    1.1140960178524473E+01    0.0000000000000000E+00
       C     0.0000000000000000E+00    0.0000000000000000E+00    3.2000000000000000E+01
       MULTIPLE_UNIT_CELL  1 1 1
       &CELL_REF
         A     1.2982353780853531E+01    0.0000000000000000E+00    0.0000000000000000E+00
         B    -6.4911768904267628E+00    1.1243048175136114E+01    0.0000000000000000E+00
         C     0.0000000000000000E+00    0.0000000000000000E+00    3.2000000000000000E+01
         MULTIPLE_UNIT_CELL  1 1 1
       &END CELL_REF
     &END CELL
     &COORD
N    6.5308306901910265E-02    2.1329078800734456E+00    2.5505605968313638E+00
Ga    5.5417857159462770E-02    1.7154629702830812E-01    2.8725762888207265E+00
N    7.5505598161357851E-02    1.3090141583969267E-01    5.0504894992416007E+00
Ga    6.9119631609113358E-02    1.9578771341106711E+00    5.8289440196440570E+00
N    7.3264405955843506E-02    1.9742442153472868E+00    7.8301889896846326E+00
Ga    7.2331083965246942E-02    1.2865585637188603E-01    8.4837585347445046E+00
N    7.4537507475860354E-02    1.2691865271600589E-01    1.0456685856129630E+01
Ga    7.6418874667156175E-02    1.9639358351835683E+00    1.1123721820791520E+01
N    7.4752667956780441E-02    1.9457502724360647E+00    1.3112458188881023E+01
Ga    7.5014444892209944E-02    1.2610590205262814E-01    1.3930063858543964E+01
N    7.4490427293448472E-02    1.2531806199218840E-01    1.6118933326593012E+01
Ga    7.3816546201162528E-02    2.1736187681455310E+00    1.6539576528685497E+01
Ga    4.1299066752456010E-02    3.8327432573338558E+00    1.3853914818432225E+00
N   -1.4038905304939784E+00    4.7112971878119634E+00    2.5496425378856897E+00
Ga   -1.6307722610485684E+00    2.8791341334899077E+00    3.2998166187938631E+00
N   -1.5481709171730562E+00    2.9110910711462528E+00    5.2751358572346518E+00
Ga   -1.5676984496544866E+00    4.7723184405985135E+00    5.8731280687146468E+00
N   -1.5426625504046501E+00    4.7707550906035010E+00    7.8580776935224215E+00
Ga   -1.5212405255933212E+00    2.9127934159858602E+00    8.4965038947502762E+00
N   -1.5197404737725457E+00    2.9180521857306272E+00    1.0482130353910094E+01
Ga   -1.5511940210196238E+00    4.7760236744104478E+00    1.1129276874162990E+01
N   -1.5670197871709675E+00    4.7872022447638951E+00    1.3115948218858488E+01
Ga   -1.5242387846888252E+00    2.9170763591500011E+00    1.3675458098787246E+01
N   -1.5535396907332808E+00    2.9016727550242001E+00    1.5631562860418219E+01
Ga   -1.3632715514002658E+00    4.6686052355259982E+00    1.6541257047986026E+01
N    7.9030558092940351E-02    3.8353945658754398E+00    1.7671737615660504E+01
N   -3.1262019494775153E+00    7.6793900978202627E+00    2.5840556175852432E+00
Ga   -3.1151504296039607E+00    5.6598003442616003E+00    2.9525017955005888E+00
N   -3.1236930944791692E+00    5.7108673413163524E+00    5.1025310749966444E+00
Ga   -3.1489706860838664E+00    7.5218552195925916E+00    5.8763197166518255E+00
N   -3.1407978048574621E+00    7.5482952862494574E+00    7.8566140597019007E+00
Ga   -3.1465024115133224E+00    5.6964050859065534E+00    8.4980277065009204E+00
N   -3.1421701552954335E+00    5.6976794822593604E+00    1.0466894876612344E+01
Ga   -3.1470700798255469E+00    7.5367310350552970E+00    1.1125539001799668E+01
N   -3.1435564906398370E+00    7.5169830046136203E+00    1.3113845488292073E+01
Ga   -3.1427644573817672E+00    5.6966629201085128E+00    1.3928786983921533E+01
N   -3.1419768515533568E+00    5.6954321157504335E+00    1.6121129602086317E+01
Ga   -3.1431625099394171E+00    7.7379623997996108E+00    1.6538069625629898E+01
Ga   -3.1544484791253424E+00    9.4149400925503155E+00    1.5549359455308833E+00
N   -4.6499905062800293E+00    1.0290253834856211E+01    2.5628388001910092E+00
Ga   -4.8560274462874169E+00    8.4228246368665296E+00    3.3310781597716130E+00
N   -4.7476216890144673E+00    8.4806228920797277E+00    5.2869355915497955E+00
Ga   -4.7826333406533461E+00    1.0358690359334133E+01    5.8387189145565399E+00
N   -4.7593164045255678E+00    1.0346851401180183E+01    7.8311910585508731E+00
Ga   -4.7487820286894333E+00    8.4890812997475074E+00    8.4779703243822517E+00
N   -4.7408176330309573E+00    8.4902488430995042E+00    1.0468719716533430E+01
Ga   -4.7663899960692380E+00    1.0348627535072504E+01    1.1118867647446210E+01
N   -4.7820030879247497E+00    1.0357434753949899E+01    1.3108853921736095E+01
Ga   -4.7401571728906244E+00    8.4892510478435383E+00    1.3675063222143988E+01
N   -4.7656882072741542E+00    8.4739795134244407E+00    1.5632966941480841E+01
Ga   -4.5876359310113815E+00    1.0244128891756073E+01    1.6537917300390511E+01
N   -3.1389327141968151E+00    9.4072630792064498E+00    1.7678822963693179E+01
N    3.2879432101839936E+00    2.0119568163755726E+00    2.6159061165736630E+00
Ga    3.2732889099084872E+00    2.5306012494608393E-01    3.3256255865138371E+00
N    3.2922991613228212E+00    1.3314745220050062E-01    5.2849934459498895E+00
Ga    3.2964085566087418E+00    2.0019061476591848E+00    5.8946174067160761E+00
N    3.2968629690482123E+00    1.9885391298689512E+00    7.8719188413180703E+00
Ga    3.2849347540057265E+00    1.2365927054065154E-01    8.4865437463766682E+00
N    3.2888168073157513E+00    1.1737337533737989E-01    1.0474091986860209E+01
Ga    3.2912623571529571E+00    1.9851949544409921E+00    1.1078865391567138E+01
N    3.2913689384587990E+00    1.9835053172098616E+00    1.3044208507532076E+01
Ga    3.2886574295067339E+00    1.1428701739429102E-01    1.3675797540456328E+01
N    3.2881095387798083E+00    1.4317566721435818E-01    1.5633766209042413E+01
Ga    3.2916368627091717E+00    1.9824665128720194E+00    1.5913243314699347E+01
N    1.5402630048661476E+00    4.7168004053137098E+00    2.5782116367666439E+00
Ga    1.7522876306825623E+00    2.8873644275075838E+00    3.3123874773663147E+00
N    1.6851453379543033E+00    2.9159298792862298E+00    5.2867909757040197E+00
Ga    1.6964170305714825E+00    4.7699442475580227E+00    5.8823828324770373E+00
N    1.6892969230085304E+00    4.7743229044358175E+00    7.8587135828147527E+00
Ga    1.6742005494833809E+00    2.9098602025995581E+00    8.4829929307722889E+00
N    1.6730074107340551E+00    2.9157064219409392E+00    1.0472396159723971E+01
Ga    1.7017219234536698E+00    4.7742995989251513E+00    1.1123916655985097E+01
N    1.7163604263108547E+00    4.7867248142542858E+00    1.3112537200815908E+01
Ga    1.6717648077155918E+00    2.9179239160272834E+00    1.3676100680934933E+01
N    1.7014304298292890E+00    2.8999323297915458E+00    1.5632421645258844E+01
Ga    1.5162947022160271E+00    4.6715767591241244E+00    1.6540261198200533E+01
N    8.0154617864546446E-02    7.5478241133387689E+00    2.7825614079279148E+00
Ga    5.3508201426884804E-02    5.6826381219409727E+00    3.3992279620679238E+00
N    6.9997585876660037E-02    5.7130121115653507E+00    5.3319422639267291E+00
Ga    7.1713472816299459E-02    7.5492097250847436E+00    5.9886687530748715E+00
N    7.2319212173635072E-02    7.5549029216037260E+00    7.9355732722765566E+00
Ga    7.1179225438234919E-02    5.6792682673291672E+00    8.5131826019214021E+00
N    7.4848031879329743E-02    5.6827474950852102E+00    1.0492302893760208E+01
Ga    7.5794578635920026E-02    7.5542061636454010E+00    1.1089186846797334E+01
N    7.4130882154032698E-02    7.5542794305118104E+00    1.3051557662759892E+01
Ga    7.4783961395684065E-02    5.6835480244744536E+00    1.3676540707682262E+01
N    7.2531359725684877E-02    5.7167724433108988E+00    1.5632511084484280E+01
Ga    7.3069747856284520E-02    7.5536676729626011E+00    1.5914578900584964E+01
N   -1.6408661480622901E+00    1.0267128034189867E+01    2.5901350083430601E+00
Ga   -1.5117295276438314E+00    8.4653801532622595E+00    3.4121713253076695E+00
N   -1.5227336574870165E+00    8.4765999722456868E+00    5.3313337377970109E+00
Ga   -1.5156002318258994E+00    1.0360079563004877E+01    5.8834193447396030E+00
N   -1.5292642553861784E+00    1.0343691354925362E+01    7.8625612997209409E+00
Ga   -1.5505006681933147E+00    8.4925321683453348E+00    8.5170053696345285E+00
N   -1.5461674738187419E+00    8.4913346426937544E+00    1.0495112961136295E+01
Ga   -1.5204865652462902E+00    1.0353692756103063E+01    1.1128580604869205E+01
N   -1.5023365642073365E+00    1.0359630126181566E+01    1.3116018898158011E+01
Ga   -1.5461995609205423E+00    8.4893520122359352E+00    1.3676715926236987E+01
N   -1.5203068141673188E+00    8.4729055297673632E+00    1.5635927414429709E+01
Ga   -1.6956137067651000E+00    1.0246060729867992E+01    1.6537966072692733E+01
N    6.5858625847839454E+00    2.0044318169259987E+00    2.5568036284141638E+00
Ga    6.5307106628967331E+00    1.1678749742157130E-01    2.9803246952681244E+00
N    6.5003311413744012E+00    1.0456975432113366E-01    5.1219821865544084E+00
Ga    6.5022079072382626E+00    1.9549701557235590E+00    5.8523446552964709E+00
N    6.4983024992519312E+00    1.9738687468727565E+00    7.8425297414285389E+00
Ga    6.5056753872295019E+00    1.3167358176173177E-01    8.5037634904046406E+00
N    6.5071981956166347E+00    1.2863615407008352E-01    1.0470465329445421E+01
Ga    6.5082741218158038E+00    1.9711495598565625E+00    1.1120070426496152E+01
N    6.5070095284593403E+00    1.9483638231170755E+00    1.3110040690015037E+01
Ga    6.5073178257822519E+00    1.2827500109569911E-01    1.3928662963133801E+01
N    6.5069546122887827E+00    1.2583515775246187E-01    1.6121007867774139E+01
Ga    6.5054913600852124E+00    2.1676969089827494E+00    1.6537038609946872E+01
Ga    8.3784051691018977E+00    2.9131073393233491E+00    7.5589282551733161E-01
N    4.8519916008936326E+00    5.0291058341064954E+00    2.3495082605252131E+00
Ga    4.9374639460499132E+00    2.6145152680065955E+00    3.2302415158311257E+00
N    4.9090219513133029E+00    2.9145270840959911E+00    5.2012122766451618E+00
Ga    4.8996539609036880E+00    4.7765397739709581E+00    5.8030732788752113E+00
N    4.8931099770654729E+00    4.7717980306825005E+00    7.8049891025356581E+00
Ga    4.9061939898284512E+00    2.9216745100429393E+00    8.4849174898165209E+00
N    4.9086944067156173E+00    2.9213907498142038E+00    1.0472307565489379E+01
Ga    4.8853930467745306E+00    4.7786353054730224E+00    1.1122574134995762E+01
N    4.8672793382137716E+00    4.7875625667431745E+00    1.3110900168857547E+01
Ga    4.9099561224610939E+00    2.9189606868211326E+00    1.3673795454508353E+01
N    4.8834849202927115E+00    2.9034732660877780E+00    1.5631780474957768E+01
Ga    5.0613866913144978E+00    4.6732738265364855E+00    1.6536051770688193E+01
N    6.5102602996645880E+00    3.8366335255764681E+00    1.7678227675500395E+01
N    3.2606336564542477E+00    7.6903951061868563E+00    2.6125932646804424E+00
N    3.2737143118877658E+00    5.7042831449531048E+00    5.1076584037847628E+00
Ga    3.3011170672308272E+00    7.5352599587779334E+00    5.8780577414314168E+00
N    3.2919890437752555E+00    7.5446732995564343E+00    7.8549937558240126E+00
Ga    3.2990635295056432E+00    5.6922694916129366E+00    8.4911596451745570E+00
N    3.2936955963419092E+00    5.6960121775599752E+00    1.0460607384398623E+01
Ga    3.2977784496640106E+00    7.5355071618313891E+00    1.1123234254004327E+01
N    3.2927772730006013E+00    7.5161305427313545E+00    1.3112047983740398E+01
Ga    3.2916949707415886E+00    5.6968859296055392E+00    1.3929874693487678E+01
N    3.2910229222472918E+00    5.6956206950704589E+00    1.6119443536354769E+01
Ga    3.2905041119484855E+00    7.7433254989414007E+00    1.6539894105032207E+01
Ga    3.2937134124955758E+00    9.4078859751601325E+00    1.4433623731581140E+00
N    1.7768088195834724E+00    1.0265914102605356E+01    2.5758732849408563E+00
Ga    1.6640393293647355E+00    8.4970498175739042E+00    3.4143274018785270E+00
N    1.6674806400195987E+00    8.4773745079512555E+00    5.3384390854570860E+00
Ga    1.6636171737274370E+00    1.0368649411649159E+01    5.8813981818120240E+00
N    1.6784655369557859E+00    1.0346510969762289E+01    7.8623616096588442E+00
Ga    1.6981108906987807E+00    8.4915646699704617E+00    8.5127025776577288E+00
N    1.6969345916698813E+00    8.4894925577103546E+00    1.0492108211470061E+01
Ga    1.6697827985307854E+00    1.0351328244420518E+01    1.1129538103239621E+01
N    1.6505247469126938E+00    1.0358727190437921E+01    1.3116156275072013E+01
Ga    1.6947391293589700E+00    8.4886144039642222E+00    1.3676676080802308E+01
N    1.6639273632529858E+00    8.4720809352251933E+00    1.5632394487424463E+01
Ga    1.8526935451644759E+00    1.0239838001880427E+01    1.6540849600006712E+01
N    3.2962647803734022E+00    9.4067405160980186E+00    1.7671514765253104E+01
N    9.6483166887675242E+00    2.0429390938726604E+00    2.6247435423198389E+00
Ga    9.7029111276262476E+00    2.5825330014382075E-01    3.2937882404884311E+00
N    9.7163088707703835E+00    1.4201671092758247E-01    5.2658025967318487E+00
Ga    9.7271405392796417E+00    1.9873193010969166E+00    5.9320977369280534E+00
N    9.7254712350394676E+00    1.9826577610211327E+00    7.9010519841926286E+00
Ga    9.7312516456082161E+00    1.1737506046684602E-01    8.4984852414684635E+00
N    9.7266156343615648E+00    1.1355683703648294E-01    1.0483071234949898E+01
Ga    9.7220294420563356E+00    1.9858833930076127E+00    1.1076721341200564E+01
N    9.7208905959552752E+00    1.9846818519926690E+00    1.3042707121629869E+01
Ga    9.7236051668628267E+00    1.1565410172705064E-01    1.3675591266077657E+01
N    9.7211077889945230E+00    1.4723521685075758E-01    1.5631904776005657E+01
Ga    9.7206504767759689E+00    1.9837085915313450E+00    1.5916265517171050E+01
N    8.1339970021112880E+00    4.6803195905251149E+00    2.5278965684948158E+00
Ga    8.0978781769549286E+00    2.9222634456490524E+00    3.4015505818496625E+00
N    8.1160617929846666E+00    2.9130042801334342E+00    5.3449402581659680E+00
Ga    8.1312621272442609E+00    4.7990994478831954E+00    5.8322562834836402E+00
N    8.1200098183030729E+00    4.7840099429471570E+00    7.8316025891762555E+00
Ga    8.1030312724123501E+00    2.9232774841476314E+00    8.4739882773298891E+00
N    8.1034663816998869E+00    2.9205055841029819E+00    1.0468036357878079E+01
Ga    8.1276777271350991E+00    4.7769725927061506E+00    1.1118904914177584E+01
N    8.1459981485360249E+00    4.7871558331073691E+00    1.3109264386736367E+01
Ga    8.1035155668818124E+00    2.9191521762133910E+00    1.3674782916804856E+01
N    8.1282089892614486E+00    2.9033644750562342E+00    1.5633885517996154E+01
Ga    7.9536220463922831E+00    4.6755998158519594E+00    1.6537341590644978E+01
N    6.5088355978205028E+00    7.5572006582284663E+00    2.6139542509118181E+00
Ga    6.6582233068851515E+00    5.7534141434077410E+00    3.1453793041622045E+00
N    6.5077215855499571E+00    5.6847465150316374E+00    5.1736040517361488E+00
Ga    6.5017140966503986E+00    7.5260004572353818E+00    5.8754267105575337E+00
N    6.5066820901751710E+00    7.5457746832121648E+00    7.8599628447649446E+00
Ga    6.5050878334032527E+00    5.6866739228158378E+00    8.4792054043471801E+00
N    6.5048602460747311E+00    5.6851900293705402E+00    1.0469043723167687E+01
Ga    6.5081332496794611E+00    7.5539071099832809E+00    1.1075268880432541E+01
N    6.5076643260398619E+00    7.5531624057899487E+00    1.3041788242398324E+01
Ga    6.5069731667457154E+00    5.6844564886556075E+00    1.3673687772612210E+01
N    6.5058091807839924E+00    5.7129687848915456E+00    1.5632048381795480E+01
Ga    6.5077431856402184E+00    7.5519816116079479E+00    1.5914755956954222E+01
N    4.7826895002140200E+00    1.0292841690636989E+01    2.5618466261002131E+00
Ga    4.9925666109522515E+00    8.4289809996131311E+00    3.3093629987937523E+00
N    4.8974358127099471E+00    8.4818112932699741E+00    5.2783489379318578E+00
Ga    4.9240520252189626E+00    1.0361606341058463E+01    5.8235469109959110E+00
N    4.9071037279135856E+00    1.0345430102148816E+01    7.8252990631622055E+00
Ga    4.8998823616270339E+00    8.4902601202398102E+00    8.4774955637998151E+00
N    4.8922342461149526E+00    8.4895616886255709E+00    1.0469052320787961E+01
Ga    4.9178164512048355E+00    1.0347066261305631E+01    1.1123842667407621E+01
N    4.9318525940475189E+00    1.0357070321900483E+01    1.3112511126941456E+01
Ga    4.8893415884482749E+00    8.4880062803158864E+00    1.3676156989679006E+01
N    4.9179141854739736E+00    8.4699121446283545E+00    1.5632525240360410E+01
Ga    4.7334391871227961E+00    1.0243029073170881E+01    1.6539382318776862E+01
O    1.1006368491728546E-01    3.9276772372639401E+00   -4.2455035261192642E-01
C    6.4943960081140162E-01    2.7946207627295294E+00   -1.1226854039381728E+00
H    1.6206258244581757E+00    2.4649327634497196E+00   -7.1750710423425512E-01
H   -4.0440977200870733E-02    1.9354315118760910E+00   -1.1027213775798943E+00
H    7.9647953504930691E-01    3.0967739765071221E+00   -2.1701191233200281E+00
Ga    3.1179397106027653E+00    5.7595179556127469E+00    3.0744202257128390E+00
H    8.3455158023493889E-02    7.5469299189076429E+00    1.7555243757086449E+00
C    4.8687541728057679E+00    4.7537722737061072E+00    1.0889719617598128E+00
H    5.8305163060365830E+00    4.7010228411595865E+00    5.3996168823615964E-01
H    3.9354632973273898E+00    4.5761217893570922E+00    5.2564287945266575E-01
     &END COORD
     &KIND C
       BASIS_SET DZVP-MOLOPT-SR-GTH-q4
       POTENTIAL GTH-PBE-q4
       &POTENTIAL
 2 2
  0.3384712400000000E+00 2 -0.8803673979999999E+01  0.1339210850000000E+01
 2
  0.3025757500000000E+00 1  0.9622486650000001E+01
  0.2915069400000000E+00 0
         # Potential name:  GTH-PBE-Q4  for symbol:  C
         # Potential read from the potential filename: GTH_POTENTIALS
       &END POTENTIAL
     &END KIND
     &KIND O
       BASIS_SET DZVP-MOLOPT-SR-GTH-q6
       POTENTIAL GTH-PBE-q6
       &POTENTIAL
 2 4
  0.2445543000000000E+00 2 -0.1666721480000000E+02  0.2487311320000000E+01
 2
  0.2209559200000000E+00 1  0.1833745811000000E+02
  0.2113324700000000E+00 0
         # Potential name:  GTH-PBE-Q6  for symbol:  O
         # Potential read from the potential filename: GTH_POTENTIALS
       &END POTENTIAL
     &END KIND
     &KIND H
       BASIS_SET DZVP-MOLOPT-SR-GTH-q1
       POTENTIAL GTH-PBE-q1
       &POTENTIAL
 1
  0.2000000000000000E+00 2 -0.4178900440000000E+01  0.7244633100000000E+00
 0
         # Potential name:  GTH-PBE-Q1  for symbol:  H
         # Potential read from the potential filename: GTH_POTENTIALS
       &END POTENTIAL
     &END KIND
     &KIND N
       BASIS_SET DZVP-MOLOPT-SR-GTH
       POTENTIAL GTH-PBE-q5
       &POTENTIAL
 2 3
  0.2837905100000000E+00 2 -0.1241522559000000E+02  0.1868095920000000E+01
 2
  0.2554050000000000E+00 1  0.1363026257000000E+02
  0.2454945300000000E+00 0
         # Potential name:  GTH-PBE-Q5  for symbol:  N
         # Potential read from the potential filename: GTH_POTENTIALS
       &END POTENTIAL
     &END KIND
     &KIND Ga
       BASIS_SET DZVP-MOLOPT-SR-GTH
       POTENTIAL GTH-PBE-q13
       &POTENTIAL
 2 1 10
  0.4900000000000000E+00 0
 3
  0.4167772300000000E+00 3  0.1047568975000000E+02 -0.4921768140000000E+01  0.8707055900000000E+00
  0.7770178090000000E+01 -0.2248152160000000E+01
  0.1784415450000000E+01
  0.5696265200000000E+00 2  0.1777985340000000E+01  0.1958597600000000E+00
 -0.2317443900000000E+00
  0.2381265000000000E+00 1 -0.1624868022000000E+02
         # Potential name:  GTH-PBE-Q13  for symbol:  GA
         # Potential read from the potential filename: GTH_POTENTIALS
       &END POTENTIAL
     &END KIND
     &TOPOLOGY
       NUMBER_OF_ATOMS  209
       MULTIPLE_UNIT_CELL  1 1 1
     &END TOPOLOGY
   &END SUBSYS
 &END FORCE_EVAL
