 # Version information for this restart file 
 # current date 2019-07-22 09:49:42.906
 # current working dir /lustre04/scratch/rzk/rzk/GaN-carbene/443-adatoms-both-2x2/12-CH3O-H2C-H/02-Start-Intermediate-0904
 # Program compiled at                              Sun Apr  7 00:48:11 EDT 2019
 # Program compiled on                          beluga2.int.ets1.calculquebec.ca
 # Program compiled for                        Beluga-Linux-x86-64-intel-openmpi
 # Source code revision number                                         svn:18619
 &GLOBAL
   PRINT_LEVEL  MEDIUM
   PROJECT_NAME TEST
   RUN_TYPE  GEO_OPT
 &END GLOBAL
 &MOTION
   &GEO_OPT
     MAX_ITER  500
     STEP_START_VAL  137
   &END GEO_OPT
 &END MOTION
 &FORCE_EVAL
   METHOD  QS
   STRESS_TENSOR  ANALYTICAL
   &DFT
     BASIS_SET_FILE_NAME BASIS_MOLOPT
     POTENTIAL_FILE_NAME GTH_POTENTIALS
     UKS  T
     SURFACE_DIPOLE_CORRECTION  T
     SURF_DIP_DIR  Z
     &SCF
       MAX_SCF  80
       EPS_SCF     5.0000000000000004E-06
       &OT  T
         PRECONDITIONER  FULL_ALL
       &END OT
       &OUTER_SCF  T
         OPTIMIZER  NONE
         EPS_SCF     5.0000000000000004E-06
         MAX_SCF  4
       &END OUTER_SCF
       &PRINT
         &RESTART  OFF
           BACKUP_COPIES  1
           &EACH
             JUST_ENERGY  0
             QS_SCF  0
             MD  20
           &END EACH
         &END RESTART
       &END PRINT
     &END SCF
     &QS
       EPS_DEFAULT     1.0000000000000000E-14
       METHOD  GPW
     &END QS
     &MGRID
       NGRIDS  5
       CUTOFF     1.2000000000000000E+03
     &END MGRID
     &XC
       DENSITY_CUTOFF     1.0000000000000000E-10
       GRADIENT_CUTOFF     1.0000000000000000E-10
       TAU_CUTOFF     1.0000000000000000E-10
       &XC_FUNCTIONAL  NO_SHORTCUT
         &PBE  T
         &END PBE
       &END XC_FUNCTIONAL
       &VDW_POTENTIAL
         POTENTIAL_TYPE  PAIR_POTENTIAL
         &PAIR_POTENTIAL
           R_CUTOFF     1.0000000000000004E+01
           TYPE  DFTD3
           PARAMETER_FILE_NAME dftd3.dat
           REFERENCE_FUNCTIONAL PBE
           EPS_CN     9.9999999999999995E-07
           CALCULATE_C9_TERM  T
           REFERENCE_C9_TERM  T
           LONG_RANGE_CORRECTION  F
           VERBOSE_OUTPUT  F
         &END PAIR_POTENTIAL
       &END VDW_POTENTIAL
     &END XC
   &END DFT
   &SUBSYS
     &CELL
       A     1.2864472766435110E+01    0.0000000000000000E+00    0.0000000000000000E+00
       B    -6.4322363581020028E+00    1.1140960178524473E+01    0.0000000000000000E+00
       C     0.0000000000000000E+00    0.0000000000000000E+00    3.2000000000000000E+01
       MULTIPLE_UNIT_CELL  1 1 1
       &CELL_REF
         A     1.2982353780853531E+01    0.0000000000000000E+00    0.0000000000000000E+00
         B    -6.4911768904267628E+00    1.1243048175136114E+01    0.0000000000000000E+00
         C     0.0000000000000000E+00    0.0000000000000000E+00    3.2000000000000000E+01
         MULTIPLE_UNIT_CELL  1 1 1
       &END CELL_REF
     &END CELL
     &COORD
N    6.1284905606626458E-02    2.1301093673433487E+00    2.5797905828781720E+00
Ga    3.3386256574733861E-02    1.6324501448436099E-01    2.8990186624180514E+00
N    6.6552027129437683E-02    1.3218223763439946E-01    5.0759935002617027E+00
Ga    6.2080501835617766E-02    1.9565058536384159E+00    5.8491048139478004E+00
N    6.2255036296074165E-02    1.9760610298756438E+00    7.8492376531349519E+00
Ga    5.8676451837475968E-02    1.2925193477105237E-01    8.4911601527596154E+00
N    6.1631655975514239E-02    1.2889594682191594E-01    1.0467918772656397E+01
Ga    6.3154952717362683E-02    1.9671353708581958E+00    1.1120813897530324E+01
N    6.2763891355869753E-02    1.9494242029734059E+00    1.3116502020614606E+01
Ga    6.1158316924432930E-02    1.2811050546241398E-01    1.3916557746043145E+01
N    6.3462456729741962E-02    1.2832889958979263E-01    1.6120775539103455E+01
Ga    6.2259145861219105E-02    2.1638744244829868E+00    1.6526458887569383E+01
Ga    5.0551869290178561E-02    3.8388309667448435E+00    1.4111762811927031E+00
N   -1.4164581861716183E+00    4.7103071401025973E+00    2.5673730431289168E+00
Ga   -1.5994243625844138E+00    2.8923932050456864E+00    3.3530884651535060E+00
N   -1.5568438836883565E+00    2.9140081728025926E+00    5.3059269978392605E+00
Ga   -1.5763203946504041E+00    4.7840678325355528E+00    5.8889421749610262E+00
N   -1.5503572952486726E+00    4.7737309686448004E+00    7.8738818583668255E+00
Ga   -1.5377639602143249E+00    2.9134820607207672E+00    8.4938155805803337E+00
N   -1.5342169991640613E+00    2.9183060803098373E+00    1.0487285563949234E+01
Ga   -1.5636867959711513E+00    4.7777165260326990E+00    1.1122117881384940E+01
N   -1.5781699875330817E+00    4.7895521212537453E+00    1.3117167557329131E+01
Ga   -1.5356030735019603E+00    2.9206962313382951E+00    1.3670587177579923E+01
N   -1.5608831859121761E+00    2.9073148781525444E+00    1.5634164526534237E+01
Ga   -1.3855886628350855E+00    4.6781508899349049E+00    1.6527463224787997E+01
N    7.0891318004517173E-02    3.8387455502315841E+00    1.7661727031504338E+01
N   -3.1367887632045806E+00    7.6860157983867659E+00    2.6004989695230276E+00
Ga   -3.1326011367347859E+00    5.6700767539024950E+00    2.9640695477172589E+00
N   -3.1230470667076040E+00    5.7186178127571354E+00    5.1276308328770304E+00
Ga   -3.1602172756711280E+00    7.5229627476418308E+00    5.8885762393671524E+00
N   -3.1533659630611250E+00    7.5506077659179178E+00    7.8726869851147852E+00
Ga   -3.1639476715469130E+00    5.6941592098691878E+00    8.4931069329229167E+00
N   -3.1561076857611172E+00    5.6981635501691921E+00    1.0470228428411037E+01
Ga   -3.1596067056880361E+00    7.5373018761680610E+00    1.1121485848432231E+01
N   -3.1554763248790465E+00    7.5196800406666879E+00    1.3117061480068966E+01
Ga   -3.1561862699096586E+00    5.6986009466530225E+00    1.3915963915527842E+01
N   -3.1533142989289944E+00    5.6990006874385370E+00    1.6120974358128102E+01
Ga   -3.1546033646435934E+00    7.7369977132431869E+00    1.6528896690456190E+01
Ga   -3.1668443582700450E+00    9.4133764566845439E+00    1.5944154394342522E+00
N   -4.6647246693481357E+00    1.0286580319376654E+01    2.5790835910732026E+00
Ga   -4.8803834402132065E+00    8.4208608613898122E+00    3.3457149909248933E+00
N   -4.7585028102662781E+00    8.4823437080231763E+00    5.3047691546307139E+00
Ga   -4.7940485720333150E+00    1.0355466019175719E+01    5.8564422057472481E+00
N   -4.7723892437130120E+00    1.0347154911065214E+01    7.8515857590921687E+00
Ga   -4.7636046366501734E+00    8.4876338719469810E+00    8.4835837765033428E+00
N   -4.7546821665741721E+00    8.4909355995896654E+00    1.0479709559972644E+01
Ga   -4.7788577685197255E+00    1.0349265503765825E+01    1.1118928096355297E+01
N   -4.7942157692170468E+00    1.0360267722962316E+01    1.3114620764251223E+01
Ga   -4.7530491255334475E+00    8.4914863727523233E+00    1.3670413710135815E+01
N   -4.7785548775243454E+00    8.4779363786165050E+00    1.5634024298521050E+01
Ga   -4.6003747323515478E+00    1.0249200861549614E+01    1.6529272185260336E+01
N   -3.1464865803679385E+00    9.4106408253892013E+00    1.7659832699908172E+01
N    3.2696452045396533E+00    2.0037672485741460E+00    2.6479312112527174E+00
Ga    3.2521889616625201E+00    2.4742220260925762E-01    3.3482551838292038E+00
N    3.2787367346187777E+00    1.3042317601876541E-01    5.3085145842002381E+00
Ga    3.2853755458057914E+00    2.0008003764766271E+00    5.9122013639005386E+00
N    3.2837272660256867E+00    1.9876942354685385E+00    7.8901659797240047E+00
Ga    3.2729391106843519E+00    1.2285536062758490E-01    8.4949734623331530E+00
N    3.2764510248684382E+00    1.1851382148361554E-01    1.0486927345094877E+01
Ga    3.2813267445649257E+00    1.9880296339784314E+00    1.1077603513112823E+01
N    3.2791125678454986E+00    1.9869338233236085E+00    1.3050225983274776E+01
Ga    3.2770186556987606E+00    1.1753109280460292E-01    1.3671222195007298E+01
N    3.2757610257175842E+00    1.4878390461370636E-01    1.5634509030174803E+01
Ga    3.2784992412918941E+00    1.9871726011556810E+00    1.5913457932377826E+01
N    1.5324516960473220E+00    4.7177315029676645E+00    2.5810762042725615E+00
Ga    1.7470751332349699E+00    2.8872709821466618E+00    3.3355888018998114E+00
N    1.6734748873496081E+00    2.9179192929625577E+00    5.3090779049320096E+00
Ga    1.6935505825436119E+00    4.7773630030713585E+00    5.8822408140244544E+00
N    1.6790668865884060E+00    4.7771994050627624E+00    7.8662961618770550E+00
Ga    1.6632193628196132E+00    2.9151315366364057E+00    8.4884243936150980E+00
N    1.6610573081844660E+00    2.9187215920700855E+00    1.0483080466342708E+01
Ga    1.6907222976961620E+00    4.7777477918130415E+00    1.1121811464533737E+01
N    1.7039254843444180E+00    4.7896348855526716E+00    1.3117263938712219E+01
Ga    1.6600133861496140E+00    2.9207530362877532E+00    1.3671339261371708E+01
N    1.6856014038187090E+00    2.9054369133106261E+00    1.5635915579665092E+01
Ga    1.5180202310437456E+00    4.6829497569016052E+00    1.6527071034535798E+01
N    6.8427295456379877E-02    7.5552326769474583E+00    2.7832212820777156E+00
Ga    4.5081666640479502E-02    5.6944612336666456E+00    3.4052655198982897E+00
N    6.2118197874625608E-02    5.7157642287444199E+00    5.3390026929088377E+00
Ga    6.9200515827797321E-02    7.5565695506055794E+00    5.9825453331718075E+00
N    6.2949044059049733E-02    7.5578554849969830E+00    7.9372322236950126E+00
Ga    6.3483604329485563E-02    5.6845782447178435E+00    8.5132684200019870E+00
N    6.3970938830421847E-02    5.6863794368855984E+00    1.0499509562708612E+01
Ga    6.4651223485851117E-02    7.5564253450524461E+00    1.1089847308028393E+01
N    6.3039886742797271E-02    7.5566965503063299E+00    1.3059431712856798E+01
Ga    6.2292768119597948E-02    5.6855758106779737E+00    1.3671949516196763E+01
N    6.0638623202311261E-02    5.7168029138072933E+00    1.5635871460433984E+01
Ga    6.3038672174683563E-02    7.5571127458243499E+00    1.5909601071153824E+01
N   -1.6572627617975568E+00    1.0264717003380499E+01    2.6058135076887403E+00
Ga   -1.5191570681918534E+00    8.4676220225051662E+00    3.4282618887458685E+00
N   -1.5340107814298301E+00    8.4786126256487027E+00    5.3459656429759388E+00
Ga   -1.5239739900743099E+00    1.0361122984334903E+01    5.8961436444109978E+00
N   -1.5422216532743751E+00    1.0343936969114264E+01    7.8782400898126363E+00
Ga   -1.5598687928731998E+00    8.4913126584991030E+00    8.5177000986988851E+00
N   -1.5567008426863858E+00    8.4909831797752773E+00    1.0503034266724253E+01
Ga   -1.5310122570407769E+00    1.0354691898714611E+01    1.1124701189112153E+01
N   -1.5138492922631710E+00    1.0362048495861547E+01    1.3119425038379216E+01
Ga   -1.5585444387343492E+00    8.4922605580549675E+00    1.3672250527407451E+01
N   -1.5301337389948158E+00    8.4756406974232288E+00    1.5637040599594943E+01
Ga   -1.7007318621586598E+00    1.0254088465871858E+01    1.6528287595411875E+01
N    6.5365651092236776E+00    1.9678740297684532E+00    2.5802180152356398E+00
Ga    6.5316754915284863E+00    1.0669124196914313E-01    2.9853191848174228E+00
N    6.4891634273108396E+00    9.5839789308279105E-02    5.1449153148252336E+00
Ga    6.5138532106814768E+00    1.9588752991983611E+00    5.8306447574322933E+00
N    6.4944226410081889E+00    1.9766023611414345E+00    7.8370483108176954E+00
Ga    6.4966819294182416E+00    1.3546459871634869E-01    8.4975739868822355E+00
N    6.4955075815625234E+00    1.3057531508213194E-01    1.0472833511690983E+01
Ga    6.4956108594146409E+00    1.9724829412706495E+00    1.1116386637898461E+01
N    6.4944801304525610E+00    1.9505874763850861E+00    1.3113108012327018E+01
Ga    6.4964466421261928E+00    1.3142076855806573E-01    1.3919043290115875E+01
N    6.4965133413697895E+00    1.2980966113963968E-01    1.6121603540877508E+01
Ga    6.4952172057306212E+00    2.1709372609761299E+00    1.6532496343209644E+01
Ga    9.3932688135848892E+00    2.2811478898329112E+00    6.4696126451200431E-01
N    4.8539788730015587E+00    5.0066252590547204E+00    2.3649115508087331E+00
Ga    4.9212743821537028E+00    2.5796231212084599E+00    3.2769443373118330E+00
N    4.8945804149643681E+00    2.9111613476879921E+00    5.2325144199580791E+00
Ga    4.8843165112374702E+00    4.7816002044615207E+00    5.7987576173432425E+00
N    4.8793728113971229E+00    4.7735172637478529E+00    7.8119124365359216E+00
Ga    4.9006748155780224E+00    2.9234150592920449E+00    8.4761683867552389E+00
N    4.8979155013013651E+00    2.9220313084108316E+00    1.0474424768107051E+01
Ga    4.8757214945471690E+00    4.7791803898605494E+00    1.1115977828423912E+01
N    4.8556153049798878E+00    4.7896022331401804E+00    1.3111745346794601E+01
Ga    4.8982223639527920E+00    2.9220291007128365E+00    1.3670867892429435E+01
N    4.8692389020640778E+00    2.9066905442026769E+00    1.5632598047274580E+01
Ga    5.0531157285333093E+00    4.6762992961881853E+00    1.6533256188070347E+01
N    6.5015398626925061E+00    3.8393382962183167E+00    1.7665817626496413E+01
N    3.2483244841513303E+00    7.7005517453265382E+00    2.5962574289870206E+00
N    3.2611445235938055E+00    5.7050162217503333E+00    5.0993704944379985E+00
Ga    3.2877145341763589E+00    7.5373664362024027E+00    5.8646076797616384E+00
N    3.2783352848953586E+00    7.5461347651308071E+00    7.8541566813478587E+00
Ga    3.2897303951384202E+00    5.6956455880247869E+00    8.4891263834894790E+00
N    3.2826211547987425E+00    5.6983644727766460E+00    1.0465766832237959E+01
Ga    3.2853782912872163E+00    7.5377593342886851E+00    1.1119783924698195E+01
N    3.2800930891525795E+00    7.5198465540648938E+00    1.3114899611483182E+01
Ga    3.2815545563587984E+00    5.7004040654909982E+00    1.3917164781154851E+01
N    3.2811612916631576E+00    5.6998039509276754E+00    1.6120890376286134E+01
Ga    3.2798974770909388E+00    7.7422650893334382E+00    1.6533609434812860E+01
Ga    3.2988509761490881E+00    9.4096996528189720E+00    1.3186873500441461E+00
N    1.7680848620715919E+00    1.0281348530545841E+01    2.5748528501737922E+00
Ga    1.6694471404477527E+00    8.5182695850104775E+00    3.3866388394830524E+00
N    1.6568432234209243E+00    8.4803670413549526E+00    5.3266309667716687E+00
Ga    1.6507180771931378E+00    1.0361088275163649E+01    5.8821853447188790E+00
N    1.6684152667232004E+00    1.0344596187780844E+01    7.8694895746648328E+00
Ga    1.6877786493484876E+00    8.4915627830932330E+00    8.5099209490661210E+00
N    1.6842475462950974E+00    8.4905428604499456E+00    1.0496868333718872E+01
Ga    1.6576332305653290E+00    1.0353248480134486E+01    1.1123229844279312E+01
N    1.6390561536815311E+00    1.0360958564604786E+01    1.3117095529178499E+01
Ga    1.6838830652165448E+00    8.4926464223751736E+00    1.3672808574392040E+01
N    1.6544475830028693E+00    8.4772462119551424E+00    1.5634662026255715E+01
Ga    1.8375676896629674E+00    1.0247113011558923E+01    1.6533550725100380E+01
N    3.2866584700159769E+00    9.4100927785532491E+00    1.7670848534427659E+01
N    9.6966850825448958E+00    2.0081990210958849E+00    2.6303480766939864E+00
Ga    9.7005076910435175E+00    1.9432856922741748E-01    3.3180771471369011E+00
N    9.7060055097522095E+00    1.4196405977422552E-01    5.2829114929849146E+00
Ga    9.6937113848239651E+00    1.9947242704409438E+00    5.9149136388538759E+00
N    9.7094610155928578E+00    1.9859734485992231E+00    7.8956593251444431E+00
Ga    9.7170715833082646E+00    1.2198374304128985E-01    8.4927731562670523E+00
N    9.7136001115638866E+00    1.1715400956769174E-01    1.0486007156732741E+01
Ga    9.7090067013850323E+00    1.9868959847885082E+00    1.1077098480160192E+01
N    9.7102886651267717E+00    1.9865271811651752E+00    1.3050232702076956E+01
Ga    9.7108456397241767E+00    1.1701345257575975E-01    1.3671594139264563E+01
N    9.7104627659287495E+00    1.4861552083733115E-01    1.5633279867962589E+01
Ga    9.7109826651506541E+00    1.9864315848176590E+00    1.5911250349468204E+01
N    8.1285930747647175E+00    4.7391830681547056E+00    2.5655418530073200E+00
Ga    8.0540229739347993E+00    2.9488765384714806E+00    3.2442381101464561E+00
N    8.1111927532585852E+00    2.9090661649404765E+00    5.2585302983196023E+00
Ga    8.1203675953035113E+00    4.7833305604661502E+00    5.7960593068768231E+00
N    8.1089145103213269E+00    4.7781068594658160E+00    7.8204114705879526E+00
Ga    8.0915051052095581E+00    2.9260136303228204E+00    8.4738050431884258E+00
N    8.0923249753566857E+00    2.9216955268460247E+00    1.0474952032704765E+01
Ga    8.1137294267258451E+00    4.7789634867965374E+00    1.1115438518174953E+01
N    8.1326641749631463E+00    4.7895853019707912E+00    1.3112244392407280E+01
Ga    8.0908355073582801E+00    2.9215829191552758E+00    1.3670786329314190E+01
N    8.1202299300051894E+00    2.9057270526569257E+00    1.5633736357093330E+01
Ga    7.9422393065859671E+00    4.6792657599242391E+00    1.6532582193801826E+01
N    6.4843844895499414E+00    7.5669437637124943E+00    2.6384416304462879E+00
Ga    6.6383971203212235E+00    5.7614683321997546E+00    3.1481268190108773E+00
N    6.4898604726377913E+00    5.6890282810237878E+00    5.1898577160097989E+00
Ga    6.4836458434799624E+00    7.5271984212308967E+00    5.8747264791815521E+00
N    6.4938408810298176E+00    7.5485979374766465E+00    7.8681478526583915E+00
Ga    6.4952587143547156E+00    5.6847558169832748E+00    8.4667905748703269E+00
N    6.4938901196869141E+00    5.6865905124924341E+00    1.0468651323916612E+01
Ga    6.4934205082710168E+00    7.5534711983754619E+00    1.1072659168533187E+01
N    6.4941680270058777E+00    7.5558299116002843E+00    1.3046328904716127E+01
Ga    6.4938780357404555E+00    5.6873034104785507E+00    1.3670250804988489E+01
N    6.4937732727826569E+00    5.7196131381732664E+00    1.5632290918060024E+01
Ga    6.4943103560486257E+00    7.5572549480987350E+00    1.5914184303189218E+01
N    4.7801791972576870E+00    1.0297865972876441E+01    2.5686643089072625E+00
Ga    4.9597751614594525E+00    8.4418279417376301E+00    3.2993494493767161E+00
N    4.8836649772005813E+00    8.4864207769675506E+00    5.2849728956236923E+00
Ga    4.9111130980980064E+00    1.0357491687250391E+01    5.8338309676581890E+00
N    4.8945367889469154E+00    1.0348017074243463E+01    7.8385954455919213E+00
Ga    4.8853316911268294E+00    8.4895313128237895E+00    8.4742452009964619E+00
N    4.8786948725448740E+00    8.4912098651460504E+00    1.0473580933020420E+01
Ga    4.9027847507711293E+00    1.0348205220571524E+01    1.1119191973023767E+01
N    4.9179311112537762E+00    1.0359309398150600E+01    1.3114502815426157E+01
Ga    4.8763906637948606E+00    8.4910696809459232E+00    1.3671666118552553E+01
N    4.9039224003637560E+00    8.4765022116043482E+00    1.5634382096742291E+01
Ga    4.7265620516717197E+00    1.0249990189066084E+01    1.6532880434585927E+01
O   -1.5360802830272595E-02    3.7801374245551704E+00   -4.0430012272613447E-01
C    6.6890786764164989E-01    2.6802052646477921E+00   -1.0271874588022287E+00
H    1.7390685778803485E+00    2.6467264816085287E+00   -7.6836912744064134E-01
H    2.2532575334563529E-01    1.7083887122849133E+00   -7.5643439129497336E-01
H    5.7865585973522105E-01    2.8119702286194852E+00   -2.1143249053625737E+00
Ga    3.1180862207973963E+00    5.7925864123412785E+00    3.0400722867527366E+00
H    5.6225779782866414E-02    7.5514798180127363E+00    1.7566069842006751E+00
C    4.9071812380306090E+00    4.5098055779374828E+00    1.1751217582301319E+00
H    5.8714652883853828E+00    4.2173699839532945E+00    7.3520420482232862E-01
H    3.9987358754764601E+00    4.3373130691505670E+00    5.8128358663463819E-01
     &END COORD
     &KIND C
       BASIS_SET DZVP-MOLOPT-SR-GTH-q4
       POTENTIAL GTH-PBE-q4
       &POTENTIAL
 2 2
  0.3384712400000000E+00 2 -0.8803673979999999E+01  0.1339210850000000E+01
 2
  0.3025757500000000E+00 1  0.9622486650000001E+01
  0.2915069400000000E+00 0
         # Potential name:  GTH-PBE-Q4  for symbol:  C
         # Potential read from the potential filename: GTH_POTENTIALS
       &END POTENTIAL
     &END KIND
     &KIND O
       BASIS_SET DZVP-MOLOPT-SR-GTH-q6
       POTENTIAL GTH-PBE-q6
       &POTENTIAL
 2 4
  0.2445543000000000E+00 2 -0.1666721480000000E+02  0.2487311320000000E+01
 2
  0.2209559200000000E+00 1  0.1833745811000000E+02
  0.2113324700000000E+00 0
         # Potential name:  GTH-PBE-Q6  for symbol:  O
         # Potential read from the potential filename: GTH_POTENTIALS
       &END POTENTIAL
     &END KIND
     &KIND H
       BASIS_SET DZVP-MOLOPT-SR-GTH-q1
       POTENTIAL GTH-PBE-q1
       &POTENTIAL
 1
  0.2000000000000000E+00 2 -0.4178900440000000E+01  0.7244633100000000E+00
 0
         # Potential name:  GTH-PBE-Q1  for symbol:  H
         # Potential read from the potential filename: GTH_POTENTIALS
       &END POTENTIAL
     &END KIND
     &KIND N
       BASIS_SET DZVP-MOLOPT-SR-GTH
       POTENTIAL GTH-PBE-q5
       &POTENTIAL
 2 3
  0.2837905100000000E+00 2 -0.1241522559000000E+02  0.1868095920000000E+01
 2
  0.2554050000000000E+00 1  0.1363026257000000E+02
  0.2454945300000000E+00 0
         # Potential name:  GTH-PBE-Q5  for symbol:  N
         # Potential read from the potential filename: GTH_POTENTIALS
       &END POTENTIAL
     &END KIND
     &KIND Ga
       BASIS_SET DZVP-MOLOPT-SR-GTH
       POTENTIAL GTH-PBE-q13
       &POTENTIAL
 2 1 10
  0.4900000000000000E+00 0
 3
  0.4167772300000000E+00 3  0.1047568975000000E+02 -0.4921768140000000E+01  0.8707055900000000E+00
  0.7770178090000000E+01 -0.2248152160000000E+01
  0.1784415450000000E+01
  0.5696265200000000E+00 2  0.1777985340000000E+01  0.1958597600000000E+00
 -0.2317443900000000E+00
  0.2381265000000000E+00 1 -0.1624868022000000E+02
         # Potential name:  GTH-PBE-Q13  for symbol:  GA
         # Potential read from the potential filename: GTH_POTENTIALS
       &END POTENTIAL
     &END KIND
     &TOPOLOGY
       NUMBER_OF_ATOMS  209
       MULTIPLE_UNIT_CELL  1 1 1
     &END TOPOLOGY
   &END SUBSYS
 &END FORCE_EVAL
