 # Version information for this restart file 
 # current date 2019-07-22 09:47:00.515
 # current working dir /lustre04/scratch/rzk/rzk/GaN-carbene/443-adatoms-both-2x2/12-CH3O-H2C-H/02-Start-Intermediate-0904
 # Program compiled at                              Sun Apr  7 00:48:11 EDT 2019
 # Program compiled on                          beluga2.int.ets1.calculquebec.ca
 # Program compiled for                        Beluga-Linux-x86-64-intel-openmpi
 # Source code revision number                                         svn:18619
 &GLOBAL
   PRINT_LEVEL  MEDIUM
   PROJECT_NAME TEST
   RUN_TYPE  GEO_OPT
 &END GLOBAL
 &MOTION
   &GEO_OPT
     MAX_ITER  500
     STEP_START_VAL  136
   &END GEO_OPT
 &END MOTION
 &FORCE_EVAL
   METHOD  QS
   STRESS_TENSOR  ANALYTICAL
   &DFT
     BASIS_SET_FILE_NAME BASIS_MOLOPT
     POTENTIAL_FILE_NAME GTH_POTENTIALS
     UKS  T
     SURFACE_DIPOLE_CORRECTION  T
     SURF_DIP_DIR  Z
     &SCF
       MAX_SCF  80
       EPS_SCF     5.0000000000000004E-06
       &OT  T
         PRECONDITIONER  FULL_ALL
       &END OT
       &OUTER_SCF  T
         OPTIMIZER  NONE
         EPS_SCF     5.0000000000000004E-06
         MAX_SCF  4
       &END OUTER_SCF
       &PRINT
         &RESTART  OFF
           BACKUP_COPIES  1
           &EACH
             JUST_ENERGY  0
             QS_SCF  0
             MD  20
           &END EACH
         &END RESTART
       &END PRINT
     &END SCF
     &QS
       EPS_DEFAULT     1.0000000000000000E-14
       METHOD  GPW
     &END QS
     &MGRID
       NGRIDS  5
       CUTOFF     1.2000000000000000E+03
     &END MGRID
     &XC
       DENSITY_CUTOFF     1.0000000000000000E-10
       GRADIENT_CUTOFF     1.0000000000000000E-10
       TAU_CUTOFF     1.0000000000000000E-10
       &XC_FUNCTIONAL  NO_SHORTCUT
         &PBE  T
         &END PBE
       &END XC_FUNCTIONAL
       &VDW_POTENTIAL
         POTENTIAL_TYPE  PAIR_POTENTIAL
         &PAIR_POTENTIAL
           R_CUTOFF     1.0000000000000004E+01
           TYPE  DFTD3
           PARAMETER_FILE_NAME dftd3.dat
           REFERENCE_FUNCTIONAL PBE
           EPS_CN     9.9999999999999995E-07
           CALCULATE_C9_TERM  T
           REFERENCE_C9_TERM  T
           LONG_RANGE_CORRECTION  F
           VERBOSE_OUTPUT  F
         &END PAIR_POTENTIAL
       &END VDW_POTENTIAL
     &END XC
   &END DFT
   &SUBSYS
     &CELL
       A     1.2864472766435110E+01    0.0000000000000000E+00    0.0000000000000000E+00
       B    -6.4322363581020028E+00    1.1140960178524473E+01    0.0000000000000000E+00
       C     0.0000000000000000E+00    0.0000000000000000E+00    3.2000000000000000E+01
       MULTIPLE_UNIT_CELL  1 1 1
       &CELL_REF
         A     1.2982353780853531E+01    0.0000000000000000E+00    0.0000000000000000E+00
         B    -6.4911768904267628E+00    1.1243048175136114E+01    0.0000000000000000E+00
         C     0.0000000000000000E+00    0.0000000000000000E+00    3.2000000000000000E+01
         MULTIPLE_UNIT_CELL  1 1 1
       &END CELL_REF
     &END CELL
     &COORD
N    6.0740338755380416E-02    2.1300609166485103E+00    2.5786617287673459E+00
Ga    3.4581487295205542E-02    1.6352014264786219E-01    2.8972889560544868E+00
N    6.6572366063583827E-02    1.3203388848927955E-01    5.0746256588423257E+00
Ga    6.2191605316643132E-02    1.9557904382863684E+00    5.8479397752423665E+00
N    6.2315226128795122E-02    1.9759969487143443E+00    7.8487752954164201E+00
Ga    5.8575478110136706E-02    1.2913137341552344E-01    8.4911234873098795E+00
N    6.1386392396982480E-02    1.2882834169827337E-01    1.0468145704426476E+01
Ga    6.2721486113435060E-02    1.9670944988923724E+00    1.1120921445345715E+01
N    6.2232438556893400E-02    1.9491298610241288E+00    1.3116246090625145E+01
Ga    6.1344596061072933E-02    1.2793312593716824E-01    1.3915787222134352E+01
N    6.2282578611977620E-02    1.2753300769287335E-01    1.6120237286110797E+01
Ga    6.2143206279262335E-02    2.1642653509442398E+00    1.6527152911495197E+01
Ga    5.0342163003773609E-02    3.8383160034379769E+00    1.4102356379367686E+00
N   -1.4155893982572993E+00    4.7095641170405473E+00    2.5659659675506972E+00
Ga   -1.5993929992697886E+00    2.8922027636047147E+00    3.3525609174768385E+00
N   -1.5568095604187244E+00    2.9138187838447891E+00    5.3058935751598844E+00
Ga   -1.5762513694024687E+00    4.7837789903020456E+00    5.8885985507669556E+00
N   -1.5505801378090611E+00    4.7737015139797219E+00    7.8742409010729784E+00
Ga   -1.5379131995173605E+00    2.9132636982837830E+00    8.4936327426445892E+00
N   -1.5344360270261133E+00    2.9184522529871542E+00    1.0487168513430049E+01
Ga   -1.5639391329835359E+00    4.7776418173660131E+00    1.1122137517636951E+01
N   -1.5789894104919884E+00    4.7892869843271368E+00    1.3116653185029337E+01
Ga   -1.5360138320321017E+00    2.9205107876831433E+00    1.3670658259952745E+01
N   -1.5623145997040473E+00    2.9066040668515871E+00    1.5633987596875208E+01
Ga   -1.3843593958470193E+00    4.6778424516653763E+00    1.6527620046268037E+01
N    7.0971863861125972E-02    3.8380163508391227E+00    1.7657978537574646E+01
N   -3.1369097545892788E+00    7.6858267242275655E+00    2.5998576348696831E+00
Ga   -3.1319555299053436E+00    5.6693918063517881E+00    2.9617368573923049E+00
N   -3.1227679134468569E+00    5.7185513538369834E+00    5.1267989358773454E+00
Ga   -3.1605337475714892E+00    7.5227592205833833E+00    5.8880232891574789E+00
N   -3.1535638617472972E+00    7.5504727629185968E+00    7.8727666666220042E+00
Ga   -3.1641767883422105E+00    5.6939615610422178E+00    8.4931612137039583E+00
N   -3.1563719846887022E+00    5.6978507605056485E+00    1.0470359647618727E+01
Ga   -3.1595324702410714E+00    7.5370229282473007E+00    1.1121475970250732E+01
N   -3.1559943794174843E+00    7.5194896471704471E+00    1.3116539332818745E+01
Ga   -3.1559711352820758E+00    5.6988158962667175E+00    1.3915496377684665E+01
N   -3.1535423552194608E+00    5.6985413175592257E+00    1.6120023149238470E+01
Ga   -3.1541986823761827E+00    7.7354738079945182E+00    1.6527085798385407E+01
Ga   -3.1670405331860749E+00    9.4141312791107445E+00    1.5927927006983860E+00
N   -4.6649539211878253E+00    1.0286767518977676E+01    2.5783170620916733E+00
Ga   -4.8800255214834207E+00    8.4220780128411690E+00    3.3442527028856923E+00
N   -4.7585658689440127E+00    8.4825933369869251E+00    5.3038383786787398E+00
Ga   -4.7946175335577932E+00    1.0356000488150759E+01    5.8548112124500156E+00
N   -4.7724742085765808E+00    1.0347035449736756E+01    7.8509447059721662E+00
Ga   -4.7639161512770443E+00    8.4876337337630616E+00    8.4835361708195300E+00
N   -4.7548221198639551E+00    8.4906076363370175E+00    1.0479961136495225E+01
Ga   -4.7791824690230307E+00    1.0349049109193027E+01    1.1118858989084250E+01
N   -4.7944497575101739E+00    1.0359543443354845E+01    1.3114110046459174E+01
Ga   -4.7531804963421447E+00    8.4911543910705465E+00    1.3670096324131830E+01
N   -4.7784832143546252E+00    8.4774688805339444E+00    1.5633368196143985E+01
Ga   -4.6011917453689426E+00    1.0248351211703147E+01    1.6528324145425685E+01
N   -3.1460126843387579E+00    9.4092776097190907E+00    1.7660323309492046E+01
N    3.2703459020743391E+00    2.0037244168402109E+00    2.6470622386676137E+00
Ga    3.2516360234024062E+00    2.4687264476729925E-01    3.3463537687717135E+00
N    3.2782388770297435E+00    1.3049961207739977E-01    5.3073570513675588E+00
Ga    3.2848171697546649E+00    2.0003664475134206E+00    5.9114595831182770E+00
N    3.2836103143286794E+00    1.9877287207773817E+00    7.8902849923473211E+00
Ga    3.2725851062336924E+00    1.2270735543276516E-01    8.4950172215375570E+00
N    3.2762227342746750E+00    1.1828579330749822E-01    1.0487110435361496E+01
Ga    3.2806243983529408E+00    1.9878531248322728E+00    1.1077045916896424E+01
N    3.2790146881275546E+00    1.9867741562619139E+00    1.3049985852673142E+01
Ga    3.2764807690147948E+00    1.1708084614624525E-01    1.3670919625089484E+01
N    3.2754908685979998E+00    1.4743801299722673E-01    1.5634285689407722E+01
Ga    3.2795513320859282E+00    1.9866008402722950E+00    1.5912811735577773E+01
N    1.5315159821036108E+00    4.7176711830063205E+00    2.5801409608853518E+00
Ga    1.7471835318881934E+00    2.8870176156932774E+00    3.3339943587932810E+00
N    1.6735374755416010E+00    2.9179168732894687E+00    5.3083667921413396E+00
Ga    1.6939344441324040E+00    4.7772729004469037E+00    5.8813427690054141E+00
N    1.6790398839605940E+00    4.7770599449194577E+00    7.8661142793996497E+00
Ga    1.6629665242000322E+00    2.9149903333679084E+00    8.4886454904183850E+00
N    1.6605546047828408E+00    2.9187996193919794E+00    1.0483314164252178E+01
Ga    1.6902686745141824E+00    4.7777298654705431E+00    1.1121729995750744E+01
N    1.7036609424738489E+00    4.7893443934103299E+00    1.3116740205261040E+01
Ga    1.6593111701040664E+00    2.9205282977391596E+00    1.3671540022842899E+01
N    1.6864499229553465E+00    2.9047296587721680E+00    1.5635777729337210E+01
Ga    1.5167575783896334E+00    4.6829276159535409E+00    1.6527030923942661E+01
N    6.8597516631062769E-02    7.5553385113866467E+00    2.7825358835720158E+00
Ga    4.4865886016756507E-02    5.6949815747612318E+00    3.4041222531056547E+00
N    6.2372331311358109E-02    5.7156494213948124E+00    5.3386689429046532E+00
Ga    6.9166462880076204E-02    7.5562134185979275E+00    5.9826941399117830E+00
N    6.2873683255849563E-02    7.5576939402093828E+00    7.9379016329316459E+00
Ga    6.3291391920223677E-02    5.6843556671625075E+00    8.5133535353120227E+00
N    6.3598081191037409E-02    5.6861886687812904E+00    1.0499696096393262E+01
Ga    6.4288499417191003E-02    7.5560580881185828E+00    1.1089761590843960E+01
N    6.2535788638783174E-02    7.5564225424238414E+00    1.3059309317739732E+01
Ga    6.1713113279154873E-02    5.6849477814006919E+00    1.3671841014732973E+01
N    6.0174343195737563E-02    5.7175253317145120E+00    1.5634663279615051E+01
Ga    6.2496939794212905E-02    7.5573974098774146E+00    1.5910106621922919E+01
N   -1.6573441791453976E+00    1.0264537417053294E+01    2.6054831725124692E+00
Ga   -1.5190841769735131E+00    8.4675784344662262E+00    3.4271476718010208E+00
N   -1.5340727526025808E+00    8.4785240931834149E+00    5.3457533031222955E+00
Ga   -1.5245988368996610E+00    1.0361434304185419E+01    5.8950451456979414E+00
N   -1.5424394014922627E+00    1.0344063012664908E+01    7.8778603946082288E+00
Ga   -1.5600217379845911E+00    8.4913780200349667E+00    8.5179318137433242E+00
N   -1.5567756987095114E+00    8.4906027535550095E+00    1.0503178556588022E+01
Ga   -1.5312122331980020E+00    1.0354176627731572E+01    1.1124510487207139E+01
N   -1.5145029760550148E+00    1.0361565802363984E+01    1.3118708731292157E+01
Ga   -1.5593220766805245E+00    8.4919976181233725E+00    1.3671939215309290E+01
N   -1.5308526829315698E+00    8.4756472252647903E+00    1.5636156895804101E+01
Ga   -1.6996146788598103E+00    1.0253287321390685E+01    1.6527253878352003E+01
N    6.5364561001847585E+00    1.9682192550221493E+00    2.5784271402614904E+00
Ga    6.5310300145754292E+00    1.0642277658196421E-01    2.9833765903188469E+00
N    6.4890021928091235E+00    9.5521526813936733E-02    5.1440937992317490E+00
Ga    6.5136866923942067E+00    1.9584436318561471E+00    5.8303071442529086E+00
N    6.4941387122451655E+00    1.9766555315667531E+00    7.8372804582280731E+00
Ga    6.4963525478821653E+00    1.3549446938550080E-01    8.4978296877507056E+00
N    6.4952443032827576E+00    1.3053497826448424E-01    1.0473097956097329E+01
Ga    6.4954321889448545E+00    1.9721509364797520E+00    1.1116467267949337E+01
N    6.4942819035977992E+00    1.9506265167100010E+00    1.3112887013106674E+01
Ga    6.4956534830853991E+00    1.3059016035698731E-01    1.3917722412485974E+01
N    6.4970932224454954E+00    1.2897073256459937E-01    1.6120532465276103E+01
Ga    6.4948811306786238E+00    2.1689622293733923E+00    1.6532444411780638E+01
Ga    9.3890106887611928E+00    2.2831744406728935E+00    6.4460472981544725E-01
N    4.8541088059469262E+00    5.0080574411420606E+00    2.3624837345055725E+00
Ga    4.9216690424077845E+00    2.5794881504749547E+00    3.2753984007731836E+00
N    4.8943202309046665E+00    2.9110578282191413E+00    5.2320570731894680E+00
Ga    4.8839147467330291E+00    4.7820291173336438E+00    5.7975482583190381E+00
N    4.8794052044768277E+00    4.7733466991960665E+00    7.8114350597356683E+00
Ga    4.9005182451321003E+00    2.9233377581299833E+00    8.4764025836560641E+00
N    4.8977079919024789E+00    2.9219118161099877E+00    1.0474748466045353E+01
Ga    4.8751645325049653E+00    4.7791412402855569E+00    1.1116053869747688E+01
N    4.8555336747115412E+00    4.7894634225703578E+00    1.3111538792778862E+01
Ga    4.8979550750879577E+00    2.9219466452246063E+00    1.3671053644983662E+01
N    4.8699265467650550E+00    2.9072323006602652E+00    1.5633093238337306E+01
Ga    5.0512156403816384E+00    4.6765237800465940E+00    1.6533129761738579E+01
N    6.5016052285513428E+00    3.8379545288861379E+00    1.7669020558409827E+01
N    3.2479504413734759E+00    7.7008644104791912E+00    2.5961628629836979E+00
N    3.2609457207397305E+00    5.7053016899320772E+00    5.0982466295038531E+00
Ga    3.2882748136824693E+00    7.5369800946729226E+00    5.8642303259958481E+00
N    3.2784456498992087E+00    7.5460369140399504E+00    7.8543907130065120E+00
Ga    3.2896349358429000E+00    5.6955498157792785E+00    8.4893091169347930E+00
N    3.2823680455744393E+00    5.6980819690474842E+00    1.0465972919571165E+01
Ga    3.2847669666604333E+00    7.5375087375653207E+00    1.1119788259650969E+01
N    3.2800526317471075E+00    7.5194755008638881E+00    1.3114646195613641E+01
Ga    3.2807240262059802E+00    5.6999977167435141E+00    1.3917238531686019E+01
N    3.2807783458199338E+00    5.7001542071562641E+00    1.6120076661928607E+01
Ga    3.2790223337952895E+00    7.7425019369135768E+00    1.6534765965666569E+01
Ga    3.2976039494593885E+00    9.4099215319071039E+00    1.3199777524571208E+00
N    1.7688801535537528E+00    1.0280784243155049E+01    2.5735242048726050E+00
Ga    1.6689173287614727E+00    8.5179087551859212E+00    3.3860498895914040E+00
N    1.6571370954852742E+00    8.4802018405551749E+00    5.3266712208947977E+00
Ga    1.6507643750841108E+00    1.0361401006423920E+01    5.8819821781993511E+00
N    1.6680623134291319E+00    1.0344715274154678E+01    7.8698999278558439E+00
Ga    1.6877380810620353E+00    8.4915783838868251E+00    8.5101783738954424E+00
N    1.6836913196565255E+00    8.4902617109875465E+00    1.0497157408521144E+01
Ga    1.6572139841036801E+00    1.0352902435251595E+01    1.1123059063443103E+01
N    1.6387729238249518E+00    1.0360862045508906E+01    1.3116558852915437E+01
Ga    1.6835957647904249E+00    8.4924321369955678E+00    1.3673133697818203E+01
N    1.6536826751867302E+00    8.4769737218646330E+00    1.5634029598879232E+01
Ga    1.8382160706599067E+00    1.0245332839381483E+01    1.6535480232986039E+01
N    3.2862670065361135E+00    9.4084473092798593E+00    1.7670571954430546E+01
N    9.6972967182929413E+00    2.0088235317473928E+00    2.6291082847895439E+00
Ga    9.7012216315050619E+00    1.9509679216543555E-01    3.3170659699074734E+00
N    9.7062983883967586E+00    1.4153934929948828E-01    5.2828185408020198E+00
Ga    9.6940011631140734E+00    1.9944119296052665E+00    5.9152756113726301E+00
N    9.7088770597832479E+00    1.9859637193362107E+00    7.8963137310322606E+00
Ga    9.7169975348732240E+00    1.2184187044820162E-01    8.4928623548350330E+00
N    9.7131463488410130E+00    1.1710996257802249E-01    1.0486158952741881E+01
Ga    9.7089726280166442E+00    1.9869241190881346E+00    1.1076413053707792E+01
N    9.7095628626483297E+00    1.9865997226544783E+00    1.3049634165005608E+01
Ga    9.7106772059857800E+00    1.1707670478002628E-01    1.3671696163693577E+01
N    9.7099599337991247E+00    1.4859452578869795E-01    1.5633053267875798E+01
Ga    9.7094689604904687E+00    1.9861293924279408E+00    1.5912185060789287E+01
N    8.1283984965232410E+00    4.7394437728875172E+00    2.5644193872732521E+00
Ga    8.0545016487057044E+00    2.9488447312961319E+00    3.2440359835026378E+00
N    8.1111993847405230E+00    2.9090059876220726E+00    5.2589283651689138E+00
Ga    8.1205561962715951E+00    4.7835124354072400E+00    5.7954131745267254E+00
N    8.1086529376059531E+00    4.7777600673704796E+00    7.8203424956103058E+00
Ga    8.0911122721008244E+00    2.9259415323113975E+00    8.4738436361522869E+00
N    8.0919082279454315E+00    2.9216759923646438E+00    1.0475075625211529E+01
Ga    8.1137765177058654E+00    4.7788300190431272E+00    1.1115612024065268E+01
N    8.1324082832858977E+00    4.7894119831135589E+00    1.3112106155945609E+01
Ga    8.0906282898915496E+00    2.9215618520827431E+00    1.3671069833823488E+01
N    8.1189413165101900E+00    2.9061178526863647E+00    1.5634290248894789E+01
Ga    7.9433472182197162E+00    4.6794387645186877E+00    1.6532026354441232E+01
N    6.4855913809151229E+00    7.5670321769275937E+00    2.6369844027926472E+00
Ga    6.6385640558300540E+00    5.7614858307205630E+00    3.1465965041884583E+00
N    6.4900070679095885E+00    5.6893115301967603E+00    5.1890313529116119E+00
Ga    6.4838386428193937E+00    7.5274236234934042E+00    5.8744250614413343E+00
N    6.4934680922822947E+00    7.5482456882822966E+00    7.8683648347623638E+00
Ga    6.4952335742533531E+00    5.6845848530645275E+00    8.4669339739412628E+00
N    6.4936410148429919E+00    5.6862723820617509E+00    1.0469008520968684E+01
Ga    6.4932940265994414E+00    7.5533786142830790E+00    1.1072554106339721E+01
N    6.4939815108776253E+00    7.5551952496006898E+00    1.3046428527255847E+01
Ga    6.4937448510083522E+00    5.6868182237715574E+00    1.3670727466347845E+01
N    6.4934006636370034E+00    5.7177879206538300E+00    1.5632507649882323E+01
Ga    6.4943513423238208E+00    7.5558045304713302E+00    1.5912332575217890E+01
N    4.7806421313259593E+00    1.0298401318334163E+01    2.5677008552948557E+00
Ga    4.9610987878225226E+00    8.4420187977133825E+00    3.2969358627112264E+00
N    4.8840176881989361E+00    8.4863120790274795E+00    5.2837053845309851E+00
Ga    4.9118473860394527E+00    1.0357705613014270E+01    5.8329628588155993E+00
N    4.8943745745842806E+00    1.0347771486158447E+01    7.8384073146880526E+00
Ga    4.8853386016864526E+00    8.4895270279707660E+00    8.4747249670880134E+00
N    4.8784051921820737E+00    8.4908592618562118E+00    1.0474206423478011E+01
Ga    4.9025148802857403E+00    1.0348160991230763E+01    1.1119139060009340E+01
N    4.9178151379183088E+00    1.0358982746595251E+01    1.3114271996418063E+01
Ga    4.8762470942491722E+00    8.4908361582377321E+00    1.3672087009230541E+01
N    4.9043114290816225E+00    8.4754927786186354E+00    1.5634268817809453E+01
Ga    4.7248417987376898E+00    1.0248279256631974E+01    1.6534696896175358E+01
O   -1.5968862445433985E-02    3.7811627150784495E+00   -4.0513944323534840E-01
C    6.6888088231977350E-01    2.6810654065910917E+00   -1.0273432835563063E+00
H    1.7411981456971928E+00    2.6498763392281997E+00   -7.6943385705432854E-01
H    2.2544891273658360E-01    1.7084776310135308E+00   -7.5452828085932810E-01
H    5.7706879109641107E-01    2.8112427395432631E+00   -2.1154241273149652E+00
Ga    3.1172651122188149E+00    5.7916499318645940E+00    3.0385462498133293E+00
H    5.6196076765798963E-02    7.5520535533998405E+00    1.7560128948792477E+00
C    4.9077186300839450E+00    4.5113637618304843E+00    1.1735698950526818E+00
H    5.8722525157537548E+00    4.2199414024364472E+00    7.3404047262657235E-01
H    3.9993003737860624E+00    4.3374649447839264E+00    5.8003064231369439E-01
     &END COORD
     &KIND C
       BASIS_SET DZVP-MOLOPT-SR-GTH-q4
       POTENTIAL GTH-PBE-q4
       &POTENTIAL
 2 2
  0.3384712400000000E+00 2 -0.8803673979999999E+01  0.1339210850000000E+01
 2
  0.3025757500000000E+00 1  0.9622486650000001E+01
  0.2915069400000000E+00 0
         # Potential name:  GTH-PBE-Q4  for symbol:  C
         # Potential read from the potential filename: GTH_POTENTIALS
       &END POTENTIAL
     &END KIND
     &KIND O
       BASIS_SET DZVP-MOLOPT-SR-GTH-q6
       POTENTIAL GTH-PBE-q6
       &POTENTIAL
 2 4
  0.2445543000000000E+00 2 -0.1666721480000000E+02  0.2487311320000000E+01
 2
  0.2209559200000000E+00 1  0.1833745811000000E+02
  0.2113324700000000E+00 0
         # Potential name:  GTH-PBE-Q6  for symbol:  O
         # Potential read from the potential filename: GTH_POTENTIALS
       &END POTENTIAL
     &END KIND
     &KIND H
       BASIS_SET DZVP-MOLOPT-SR-GTH-q1
       POTENTIAL GTH-PBE-q1
       &POTENTIAL
 1
  0.2000000000000000E+00 2 -0.4178900440000000E+01  0.7244633100000000E+00
 0
         # Potential name:  GTH-PBE-Q1  for symbol:  H
         # Potential read from the potential filename: GTH_POTENTIALS
       &END POTENTIAL
     &END KIND
     &KIND N
       BASIS_SET DZVP-MOLOPT-SR-GTH
       POTENTIAL GTH-PBE-q5
       &POTENTIAL
 2 3
  0.2837905100000000E+00 2 -0.1241522559000000E+02  0.1868095920000000E+01
 2
  0.2554050000000000E+00 1  0.1363026257000000E+02
  0.2454945300000000E+00 0
         # Potential name:  GTH-PBE-Q5  for symbol:  N
         # Potential read from the potential filename: GTH_POTENTIALS
       &END POTENTIAL
     &END KIND
     &KIND Ga
       BASIS_SET DZVP-MOLOPT-SR-GTH
       POTENTIAL GTH-PBE-q13
       &POTENTIAL
 2 1 10
  0.4900000000000000E+00 0
 3
  0.4167772300000000E+00 3  0.1047568975000000E+02 -0.4921768140000000E+01  0.8707055900000000E+00
  0.7770178090000000E+01 -0.2248152160000000E+01
  0.1784415450000000E+01
  0.5696265200000000E+00 2  0.1777985340000000E+01  0.1958597600000000E+00
 -0.2317443900000000E+00
  0.2381265000000000E+00 1 -0.1624868022000000E+02
         # Potential name:  GTH-PBE-Q13  for symbol:  GA
         # Potential read from the potential filename: GTH_POTENTIALS
       &END POTENTIAL
     &END KIND
     &TOPOLOGY
       NUMBER_OF_ATOMS  209
       MULTIPLE_UNIT_CELL  1 1 1
     &END TOPOLOGY
   &END SUBSYS
 &END FORCE_EVAL
