 # Version information for this restart file 
 # current date 2019-07-21 23:59:56.330
 # current working dir /lustre04/scratch/rzk/rzk/GaN-carbene/443-adatoms-both-2x2/12-CH3O-H2C-H/02-Start-Intermediate-0904
 # Program compiled at                              Sun Apr  7 00:48:11 EDT 2019
 # Program compiled on                          beluga2.int.ets1.calculquebec.ca
 # Program compiled for                        Beluga-Linux-x86-64-intel-openmpi
 # Source code revision number                                         svn:18619
 &GLOBAL
   PRINT_LEVEL  MEDIUM
   PROJECT_NAME TEST
   RUN_TYPE  GEO_OPT
 &END GLOBAL
 &MOTION
   &GEO_OPT
     MAX_ITER  500
     STEP_START_VAL  16
   &END GEO_OPT
 &END MOTION
 &FORCE_EVAL
   METHOD  QS
   STRESS_TENSOR  ANALYTICAL
   &DFT
     BASIS_SET_FILE_NAME BASIS_MOLOPT
     POTENTIAL_FILE_NAME GTH_POTENTIALS
     UKS  T
     SURFACE_DIPOLE_CORRECTION  T
     SURF_DIP_DIR  Z
     &SCF
       MAX_SCF  80
       EPS_SCF     5.0000000000000004E-06
       &OT  T
         PRECONDITIONER  FULL_ALL
       &END OT
       &OUTER_SCF  T
         OPTIMIZER  NONE
         EPS_SCF     5.0000000000000004E-06
         MAX_SCF  4
       &END OUTER_SCF
       &PRINT
         &RESTART  OFF
           BACKUP_COPIES  1
           &EACH
             JUST_ENERGY  0
             QS_SCF  0
             MD  20
           &END EACH
         &END RESTART
       &END PRINT
     &END SCF
     &QS
       EPS_DEFAULT     1.0000000000000000E-14
       METHOD  GPW
     &END QS
     &MGRID
       NGRIDS  5
       CUTOFF     1.2000000000000000E+03
     &END MGRID
     &XC
       DENSITY_CUTOFF     1.0000000000000000E-10
       GRADIENT_CUTOFF     1.0000000000000000E-10
       TAU_CUTOFF     1.0000000000000000E-10
       &XC_FUNCTIONAL  NO_SHORTCUT
         &PBE  T
         &END PBE
       &END XC_FUNCTIONAL
       &VDW_POTENTIAL
         POTENTIAL_TYPE  PAIR_POTENTIAL
         &PAIR_POTENTIAL
           R_CUTOFF     1.0000000000000004E+01
           TYPE  DFTD3
           PARAMETER_FILE_NAME dftd3.dat
           REFERENCE_FUNCTIONAL PBE
           EPS_CN     9.9999999999999995E-07
           CALCULATE_C9_TERM  T
           REFERENCE_C9_TERM  T
           LONG_RANGE_CORRECTION  F
           VERBOSE_OUTPUT  F
         &END PAIR_POTENTIAL
       &END VDW_POTENTIAL
     &END XC
   &END DFT
   &SUBSYS
     &CELL
       A     1.2864472766435110E+01    0.0000000000000000E+00    0.0000000000000000E+00
       B    -6.4322363581020028E+00    1.1140960178524473E+01    0.0000000000000000E+00
       C     0.0000000000000000E+00    0.0000000000000000E+00    3.2000000000000000E+01
       MULTIPLE_UNIT_CELL  1 1 1
       &CELL_REF
         A     1.2982353780853531E+01    0.0000000000000000E+00    0.0000000000000000E+00
         B    -6.4911768904267628E+00    1.1243048175136114E+01    0.0000000000000000E+00
         C     0.0000000000000000E+00    0.0000000000000000E+00    3.2000000000000000E+01
         MULTIPLE_UNIT_CELL  1 1 1
       &END CELL_REF
     &END CELL
     &COORD
N    6.3711019484416598E-02    2.1316376245611557E+00    2.5547384927462882E+00
Ga    4.0843005149572627E-02    1.6300939136853584E-01    2.8764372887412968E+00
N    7.6855384134467977E-02    1.3145575643432370E-01    5.0560320955323919E+00
Ga    6.9301661885203175E-02    1.9593595766658110E+00    5.8251367115687982E+00
N    7.4007725068162139E-02    1.9764275407279814E+00    7.8336650798011034E+00
Ga    7.0367211441380320E-02    1.3032883839603340E-01    8.4783932132695359E+00
N    7.4410086860754815E-02    1.2808830115862371E-01    1.0459726190316916E+01
Ga    7.6203954460427603E-02    1.9642595514442029E+00    1.1118178861377819E+01
N    7.5089820062341744E-02    1.9472835645117577E+00    1.3114797935660700E+01
Ga    7.5158147477433226E-02    1.2666937360397423E-01    1.3919517406827945E+01
N    7.5825889063021235E-02    1.2599280159261009E-01    1.6121973778287515E+01
Ga    7.3613264618716603E-02    2.1663311401206218E+00    1.6530917546722542E+01
Ga    5.1524403752352003E-02    3.8370401959201459E+00    1.3903284906122124E+00
N   -1.4102601465032976E+00    4.7140783966305264E+00    2.5496119906562074E+00
Ga   -1.6325462482475883E+00    2.8810444652704437E+00    3.3008932730555505E+00
N   -1.5478764322861145E+00    2.9123364835301193E+00    5.2815721539370228E+00
Ga   -1.5656084657949227E+00    4.7734984015271769E+00    5.8733160166642735E+00
N   -1.5407648389336046E+00    4.7717046095988929E+00    7.8653579127063740E+00
Ga   -1.5222816745778829E+00    2.9126998190035089E+00    8.4911990650194316E+00
N   -1.5208462943269994E+00    2.9171650626965633E+00    1.0485309718935380E+01
Ga   -1.5507344044796767E+00    4.7758573689110833E+00    1.1123184226905813E+01
N   -1.5656670392945167E+00    4.7865594557472519E+00    1.3117740121419169E+01
Ga   -1.5228038662553274E+00    2.9177521900687871E+00    1.3669759878966561E+01
N   -1.5509128280230753E+00    2.9032771800916248E+00    1.5633276893793097E+01
Ga   -1.3692472362939616E+00    4.6729536947522137E+00    1.6531792108177445E+01
N    8.1151880914796290E-02    3.8350491983656907E+00    1.7662312447618753E+01
N   -3.1282270969052086E+00    7.6814973002234579E+00    2.5848028093606978E+00
Ga   -3.1135043390185388E+00    5.6636341021137264E+00    2.9507434397876064E+00
N   -3.1199049654261470E+00    5.7113654100034932E+00    5.1112841290602029E+00
Ga   -3.1486397804250426E+00    7.5223355161184573E+00    5.8740469015853378E+00
N   -3.1429428870088194E+00    7.5476098213413048E+00    7.8624291087345108E+00
Ga   -3.1462779381046548E+00    5.6957841557199753E+00    8.4962812290233103E+00
N   -3.1426293443247824E+00    5.6970170800900224E+00    1.0471875185059346E+01
Ga   -3.1466235132095219E+00    7.5363627270926701E+00    1.1121071054763032E+01
N   -3.1432324142541854E+00    7.5183321617692123E+00    1.3116708121429701E+01
Ga   -3.1425446267090433E+00    5.6969674813109812E+00    1.3919242894530912E+01
N   -3.1419259473110874E+00    5.6964578639290000E+00    1.6123105221321154E+01
Ga   -3.1435175965918583E+00    7.7352078779552889E+00    1.6530139560331964E+01
Ga   -3.1528737985745772E+00    9.4180992269138244E+00    1.5479234710005580E+00
N   -4.6517348530716411E+00    1.0290510138462434E+01    2.5617135720554622E+00
Ga   -4.8589816639957650E+00    8.4299848680604832E+00    3.3299346217470682E+00
N   -4.7462364234853531E+00    8.4841151538153774E+00    5.2932053492545688E+00
Ga   -4.7853117631479378E+00    1.0358191986871860E+01    5.8422201355221874E+00
N   -4.7607922922636661E+00    1.0345604816645974E+01    7.8406674132254821E+00
Ga   -4.7506335420273409E+00    8.4874459048887161E+00    8.4776019166135388E+00
N   -4.7417544090776858E+00    8.4894436788781942E+00    1.0475832069607423E+01
Ga   -4.7667799703407399E+00    1.0349047407616411E+01    1.1114458904507865E+01
N   -4.7811928516637430E+00    1.0357755302948505E+01    1.3111816151812413E+01
Ga   -4.7397789095378648E+00    8.4902718183294059E+00    1.3669467260763724E+01
N   -4.7670271234631878E+00    8.4756235873024934E+00    1.5633364490251529E+01
Ga   -4.5888962304869896E+00    1.0245940133327212E+01    1.6530868963279378E+01
N   -3.1365651586843817E+00    9.4071952976640940E+00    1.7662897160493497E+01
N    3.2890616619572852E+00    2.0064859531744106E+00    2.6259995871849604E+00
Ga    3.2658506312998172E+00    2.4452762348493640E-01    3.3315494506839025E+00
N    3.2894872957017878E+00    1.3080155381781783E-01    5.2948941188519072E+00
Ga    3.2942898589693694E+00    2.0008347526620964E+00    5.8989762417615372E+00
N    3.2953498007892335E+00    1.9873423148508884E+00    7.8797393563242490E+00
Ga    3.2841635040134736E+00    1.2141612622168006E-01    8.4849631854539496E+00
N    3.2888148808605417E+00    1.1683562638527199E-01    1.0480471992380069E+01
Ga    3.2913048853364111E+00    1.9845788460117195E+00    1.1075344549711179E+01
N    3.2910267092687788E+00    1.9839246239203119E+00    1.3049205622146502E+01
Ga    3.2888540160096924E+00    1.1416917244941945E-01    1.3670495070197479E+01
N    3.2874768942730981E+00    1.4511598767854986E-01    1.5634172809933695E+01
Ga    3.2908886639766304E+00    1.9834654437555042E+00    1.5913676333704027E+01
N    1.5346488640627090E+00    4.7165887602792385E+00    2.5826305782085859E+00
Ga    1.7539431938896124E+00    2.8840015690999015E+00    3.3144416188075967E+00
N    1.6861632544692788E+00    2.9172347276781379E+00    5.2922873355057982E+00
Ga    1.7005983991773796E+00    4.7727355919903713E+00    5.8789797726335813E+00
N    1.6900877962218461E+00    4.7743918968883561E+00    7.8631806608292250E+00
Ga    1.6729015301084600E+00    2.9112122828209901E+00    8.4812293074548482E+00
N    1.6729667591954052E+00    2.9157677635319801E+00    1.0478602705676090E+01
Ga    1.7011001195484554E+00    4.7742428514532520E+00    1.1119640410896077E+01
N    1.7147721392383384E+00    4.7859463197155465E+00    1.3115971727411283E+01
Ga    1.6713744075290127E+00    2.9178889079386918E+00    1.3671510405264069E+01
N    1.6990850946303004E+00    2.9019164625576308E+00    1.5635681732018654E+01
Ga    1.5232730054883947E+00    4.6772074850120626E+00    1.6531390118581175E+01
N    7.6837036249769397E-02    7.5507395074059334E+00    2.7836954040797348E+00
Ga    4.4724882131757938E-02    5.6868845003184862E+00    3.3989489470513590E+00
N    7.0511251645496334E-02    5.7125711725738979E+00    5.3355711363726614E+00
Ga    7.6334904423146888E-02    7.5525687609239940E+00    5.9777822161438685E+00
N    7.2952961372085692E-02    7.5554901424832499E+00    7.9333762713085347E+00
Ga    7.2797028471079092E-02    5.6818311672038542E+00    8.5081206829655951E+00
N    7.4988996827841450E-02    5.6843486650095310E+00    1.0496303862962550E+01
Ga    7.5473289674257080E-02    7.5541602151879905E+00    1.1086595488137609E+01
N    7.4552692255693193E-02    7.5541077157160208E+00    1.3057930834576922E+01
Ga    7.4429191241823456E-02    5.6823665495143318E+00    1.3671908249379879E+01
N    7.2556984773576000E-02    5.7160816516829218E+00    1.5635024995524367E+01
Ga    7.3744264691914363E-02    7.5548852300285017E+00    1.5911017858420433E+01
N   -1.6407886706792643E+00    1.0269250042693093E+01    2.5961294411997304E+00
Ga   -1.5141775205033505E+00    8.4674983399829795E+00    3.4108555339249187E+00
N   -1.5235476007946498E+00    8.4762446438921639E+00    5.3332635782423319E+00
Ga   -1.5144080989349211E+00    1.0357846919020092E+01    5.8820379183385381E+00
N   -1.5307077132121911E+00    1.0341929427333689E+01    7.8667326416548224E+00
Ga   -1.5498473114043567E+00    8.4895063004350781E+00    8.5106495376197167E+00
N   -1.5450902331995680E+00    8.4887575573973049E+00    1.0497565792923593E+01
Ga   -1.5203623031534974E+00    1.0351818867023992E+01    1.1122414031544276E+01
N   -1.5029105847250985E+00    1.0359034573748207E+01    1.3117458573958082E+01
Ga   -1.5470596466765401E+00    8.4902730900144991E+00    1.3671866708176134E+01
N   -1.5189923370803378E+00    8.4738705672012120E+00    1.5637180455195084E+01
Ga   -1.6920855224195046E+00    1.0249638372307667E+01    1.6530239185358734E+01
N    6.5861105911627575E+00    1.9987958411707236E+00    2.5704443026081534E+00
Ga    6.5467302363022535E+00    1.0731936313323089E-01    2.9702738671493787E+00
N    6.5015591174893510E+00    1.0221279341802988E-01    5.1273514496786552E+00
Ga    6.5038120294641271E+00    1.9494364581197563E+00    5.8600579022023274E+00
N    6.4993372863657415E+00    1.9724577062733946E+00    7.8530420485219983E+00
Ga    6.5063631718458703E+00    1.2801353840867835E-01    8.4985373844939200E+00
N    6.5067592526164644E+00    1.2725349048188861E-01    1.0472798706022516E+01
Ga    6.5070957118873229E+00    1.9691042403182952E+00    1.1115695019207868E+01
N    6.5065954268531199E+00    1.9488058070219005E+00    1.3112852881825985E+01
Ga    6.5072479819371969E+00    1.2826265206764612E-01    1.3919904265579705E+01
N    6.5067274870327356E+00    1.2688688646379423E-01    1.6122736287844010E+01
Ga    6.5053562703180132E+00    2.1651423169012385E+00    1.6530274277167482E+01
Ga    8.4586996711896791E+00    2.9147363345025146E+00    7.7265198566675564E-01
N    4.8502316980302869E+00    5.0376075105243237E+00    2.3387590785339833E+00
Ga    4.9385011770882734E+00    2.5862003319601641E+00    3.2489802840032520E+00
N    4.9093375710401501E+00    2.9074173031983657E+00    5.2115534761974782E+00
Ga    4.8973324221331245E+00    4.7793162245991283E+00    5.7883538754575241E+00
N    4.8931301975929040E+00    4.7715615442580015E+00    7.8038947562151204E+00
Ga    4.9065316195918198E+00    2.9237887866412837E+00    8.4805341199036217E+00
N    4.9082863808504502E+00    2.9211158731693163E+00    1.0476007674179490E+01
Ga    4.8848680904469619E+00    4.7774456919999171E+00    1.1120103429119386E+01
N    4.8681862184637463E+00    4.7865647380893028E+00    1.3114367503282249E+01
Ga    4.9102006536172640E+00    2.9186339467485691E+00    1.3670190267377386E+01
N    4.8817095006849653E+00    2.9039220685617346E+00    1.5633224815924907E+01
Ga    5.0604072563446687E+00    4.6751008231727393E+00    1.6529406644200723E+01
N    6.5120304599163168E+00    3.8369127156996110E+00    1.7662670966487418E+01
N    3.2551665860285461E+00    7.6983180298437599E+00    2.6155446228797867E+00
N    3.2699058437595734E+00    5.7044376639975027E+00    5.1039679160762894E+00
Ga    3.2980132697118161E+00    7.5369302453110922E+00    5.8689045147421410E+00
N    3.2892451718932829E+00    7.5449100403076352E+00    7.8561271229307454E+00
Ga    3.3009524208550363E+00    5.6919782449282179E+00    8.4873064788013988E+00
N    3.2940639567601107E+00    5.6949590845758413E+00    1.0464414637300010E+01
Ga    3.2963307949121488E+00    7.5357657460231380E+00    1.1117506391822165E+01
N    3.2922811130261023E+00    7.5175820615645117E+00    1.3114360703324593E+01
Ga    3.2918667733158085E+00    5.6970442170998457E+00    1.3920472047641148E+01
N    3.2920340998144164E+00    5.6956603075238581E+00    1.6122307005400859E+01
Ga    3.2903006623170743E+00    7.7371380337671987E+00    1.6530802413345775E+01
Ga    3.3093741691950083E+00    9.4325793124921731E+00    1.3912540839892444E+00
N    1.7828102172288585E+00    1.0271255858475035E+01    2.5700134904766592E+00
Ga    1.6728073904321252E+00    8.5107840599860225E+00    3.3972124676594233E+00
N    1.6664266376404246E+00    8.4803548894828413E+00    5.3324873756653375E+00
Ga    1.6672434874126669E+00    1.0364824755200226E+01    5.8701031405333710E+00
N    1.6782408025075040E+00    1.0344606745736073E+01    7.8619253017708148E+00
Ga    1.6961334345282668E+00    8.4914873702834353E+00    8.5063510337010779E+00
N    1.6942545418181629E+00    8.4892238617518867E+00    1.0494046589305292E+01
Ga    1.6686667351817759E+00    1.0351006605581425E+01    1.1123191885489630E+01
N    1.6515811737825103E+00    1.0358659414703165E+01    1.3117322494956946E+01
Ga    1.6959409024267058E+00    8.4900465124465043E+00    1.3671085673611110E+01
N    1.6659244004388691E+00    8.4747314767128099E+00    1.5634434192710282E+01
Ga    1.8475028791473105E+00    1.0244187687721242E+01    1.6531130288683144E+01
N    3.2982671541773665E+00    9.4070744188330373E+00    1.7661866901236245E+01
N    9.6430239257068120E+00    2.0475251276088495E+00    2.6377449304300158E+00
Ga    9.7026846815202639E+00    2.4824113366661638E-01    3.2853049811126218E+00
N    9.7159277577844350E+00    1.4421792360750041E-01    5.2687427795096484E+00
Ga    9.7238133570157697E+00    1.9862006007410988E+00    5.9278128540788435E+00
N    9.7232590642188264E+00    1.9829285717659324E+00    7.9035282789580661E+00
Ga    9.7287388193642155E+00    1.1709756190095832E-01    8.4914641975931708E+00
N    9.7247666653134317E+00    1.1431095036823874E-01    1.0484541222708163E+01
Ga    9.7228298681020107E+00    1.9845486086927835E+00    1.1074047289732787E+01
N    9.7224006782747043E+00    1.9842703756352784E+00    1.3049091732758727E+01
Ga    9.7239485977759834E+00    1.1466202013287706E-01    1.3669314622719478E+01
N    9.7213828212248412E+00    1.4523360150189701E-01    1.5633150808037909E+01
Ga    9.7219496961112224E+00    1.9835803995908048E+00    1.5912336414234549E+01
N    8.1408342337826785E+00    4.6846752313726148E+00    2.5406569785956092E+00
Ga    8.0836363458569025E+00    2.9264967186056956E+00    3.4068303592452414E+00
N    8.1119638835053980E+00    2.9145000562484125E+00    5.3529916671171378E+00
Ga    8.1315611028325563E+00    4.7997325611628519E+00    5.8345058084635140E+00
N    8.1196156139267170E+00    4.7817616619441550E+00    7.8389828959650796E+00
Ga    8.1031740777038923E+00    2.9222495372043626E+00    8.4763976005236010E+00
N    8.1042178182800377E+00    2.9192146058787389E+00    1.0476459465727268E+01
Ga    8.1271267789508066E+00    4.7771716121808625E+00    1.1115570700360781E+01
N    8.1452325686844400E+00    4.7871053563135879E+00    1.3112936217278536E+01
Ga    8.1030812347147751E+00    2.9194943023834026E+00    1.3669810798803841E+01
N    8.1299465332375185E+00    2.9027615967977196E+00    1.5635576906739017E+01
Ga    7.9563718217421942E+00    4.6785942217680292E+00    1.6530141487719447E+01
N    6.5071900650414385E+00    7.5591888256042647E+00    2.6366562954411243E+00
Ga    6.6553972614537606E+00    5.7545464975357943E+00    3.1389093405683752E+00
N    6.5110511652783156E+00    5.6854800651773330E+00    5.1741630002733334E+00
Ga    6.5010265107746248E+00    7.5285474836096054E+00    5.8733833755435896E+00
N    6.5053956524525516E+00    7.5465434639912701E+00    7.8645677510819523E+00
Ga    6.5020296579862746E+00    5.6863321521488936E+00    8.4753428980749064E+00
N    6.5038002654090343E+00    5.6851795220532004E+00    1.0472731758368116E+01
Ga    6.5063294694926661E+00    7.5542529086202945E+00    1.1072268757134715E+01
N    6.5070017848623172E+00    7.5537567698202635E+00    1.3047086354901040E+01
Ga    6.5070901031221098E+00    5.6845131400184394E+00    1.3669223369354564E+01
N    6.5048188567427037E+00    5.7155379165402369E+00    1.5632773746455644E+01
Ga    6.5069101739388993E+00    7.5537308732374200E+00    1.5912427964695350E+01
N    4.7780058899628077E+00    1.0288614475416496E+01    2.5711160197185228E+00
Ga    4.9782310881710057E+00    8.4273871159658054E+00    3.3077531766265422E+00
N    4.8978607742722904E+00    8.4818372979622900E+00    5.2863899387323201E+00
Ga    4.9186641779127447E+00    1.0360566911942733E+01    5.8176342404301282E+00
N    4.9049382618142348E+00    1.0348058281339245E+01    7.8283934426839723E+00
Ga    4.8973319454638631E+00    8.4916258598781340E+00    8.4719067882823165E+00
N    4.8911697511057302E+00    8.4901790314581280E+00    1.0472222828999355E+01
Ga    4.9170526873124150E+00    1.0348190162117401E+01    1.1116338667512716E+01
N    4.9311640041114222E+00    1.0357762669380207E+01    1.3113495053224135E+01
Ga    4.8883902702408051E+00    8.4896363444479963E+00    1.3669972171041858E+01
N    4.9152304801089191E+00    8.4729719486199535E+00    1.5634955419808543E+01
Ga    4.7398228097243980E+00    1.0248016965583782E+01    1.6530272696257121E+01
O    1.0279530472698040E-01    3.9239449357216460E+00   -4.2307810496270143E-01
C    6.4938967111002410E-01    2.7915092204854632E+00   -1.1182438401478259E+00
H    1.6229269570220153E+00    2.4685620693711794E+00   -7.1241098206985687E-01
H   -3.5621401749714475E-02    1.9284415490320335E+00   -1.0944036667290511E+00
H    7.9485014699631995E-01    3.0907526541051444E+00   -2.1668571794151301E+00
Ga    3.1022023144792810E+00    5.7862793672020505E+00    3.0586921339438025E+00
H    8.0690046026579851E-02    7.5465111564225973E+00    1.7578195470625613E+00
C    4.8754971652708310E+00    4.7334356049118860E+00    1.0851603468388855E+00
H    5.8301442711410765E+00    4.5945691544217269E+00    5.5407943390426750E-01
H    3.9446992388504571E+00    4.6219040545841992E+00    5.0040883773210931E-01
     &END COORD
     &KIND C
       BASIS_SET DZVP-MOLOPT-SR-GTH-q4
       POTENTIAL GTH-PBE-q4
       &POTENTIAL
 2 2
  0.3384712400000000E+00 2 -0.8803673979999999E+01  0.1339210850000000E+01
 2
  0.3025757500000000E+00 1  0.9622486650000001E+01
  0.2915069400000000E+00 0
         # Potential name:  GTH-PBE-Q4  for symbol:  C
         # Potential read from the potential filename: GTH_POTENTIALS
       &END POTENTIAL
     &END KIND
     &KIND O
       BASIS_SET DZVP-MOLOPT-SR-GTH-q6
       POTENTIAL GTH-PBE-q6
       &POTENTIAL
 2 4
  0.2445543000000000E+00 2 -0.1666721480000000E+02  0.2487311320000000E+01
 2
  0.2209559200000000E+00 1  0.1833745811000000E+02
  0.2113324700000000E+00 0
         # Potential name:  GTH-PBE-Q6  for symbol:  O
         # Potential read from the potential filename: GTH_POTENTIALS
       &END POTENTIAL
     &END KIND
     &KIND H
       BASIS_SET DZVP-MOLOPT-SR-GTH-q1
       POTENTIAL GTH-PBE-q1
       &POTENTIAL
 1
  0.2000000000000000E+00 2 -0.4178900440000000E+01  0.7244633100000000E+00
 0
         # Potential name:  GTH-PBE-Q1  for symbol:  H
         # Potential read from the potential filename: GTH_POTENTIALS
       &END POTENTIAL
     &END KIND
     &KIND N
       BASIS_SET DZVP-MOLOPT-SR-GTH
       POTENTIAL GTH-PBE-q5
       &POTENTIAL
 2 3
  0.2837905100000000E+00 2 -0.1241522559000000E+02  0.1868095920000000E+01
 2
  0.2554050000000000E+00 1  0.1363026257000000E+02
  0.2454945300000000E+00 0
         # Potential name:  GTH-PBE-Q5  for symbol:  N
         # Potential read from the potential filename: GTH_POTENTIALS
       &END POTENTIAL
     &END KIND
     &KIND Ga
       BASIS_SET DZVP-MOLOPT-SR-GTH
       POTENTIAL GTH-PBE-q13
       &POTENTIAL
 2 1 10
  0.4900000000000000E+00 0
 3
  0.4167772300000000E+00 3  0.1047568975000000E+02 -0.4921768140000000E+01  0.8707055900000000E+00
  0.7770178090000000E+01 -0.2248152160000000E+01
  0.1784415450000000E+01
  0.5696265200000000E+00 2  0.1777985340000000E+01  0.1958597600000000E+00
 -0.2317443900000000E+00
  0.2381265000000000E+00 1 -0.1624868022000000E+02
         # Potential name:  GTH-PBE-Q13  for symbol:  GA
         # Potential read from the potential filename: GTH_POTENTIALS
       &END POTENTIAL
     &END KIND
     &TOPOLOGY
       NUMBER_OF_ATOMS  209
       MULTIPLE_UNIT_CELL  1 1 1
     &END TOPOLOGY
   &END SUBSYS
 &END FORCE_EVAL
