 # Version information for this restart file 
 # current date 2019-07-22 10:00:38.157
 # current working dir /lustre04/scratch/rzk/rzk/GaN-carbene/443-adatoms-both-2x2/12-CH3O-H2C-H/02-Start-Intermediate-0904
 # Program compiled at                              Sun Apr  7 00:48:11 EDT 2019
 # Program compiled on                          beluga2.int.ets1.calculquebec.ca
 # Program compiled for                        Beluga-Linux-x86-64-intel-openmpi
 # Source code revision number                                         svn:18619
 &GLOBAL
   PRINT_LEVEL  MEDIUM
   PROJECT_NAME TEST
   RUN_TYPE  GEO_OPT
 &END GLOBAL
 &MOTION
   &GEO_OPT
     MAX_ITER  500
     STEP_START_VAL  139
   &END GEO_OPT
 &END MOTION
 &FORCE_EVAL
   METHOD  QS
   STRESS_TENSOR  ANALYTICAL
   &DFT
     BASIS_SET_FILE_NAME BASIS_MOLOPT
     POTENTIAL_FILE_NAME GTH_POTENTIALS
     UKS  T
     SURFACE_DIPOLE_CORRECTION  T
     SURF_DIP_DIR  Z
     &SCF
       MAX_SCF  80
       EPS_SCF     5.0000000000000004E-06
       &OT  T
         PRECONDITIONER  FULL_ALL
       &END OT
       &OUTER_SCF  T
         OPTIMIZER  NONE
         EPS_SCF     5.0000000000000004E-06
         MAX_SCF  4
       &END OUTER_SCF
       &PRINT
         &RESTART  OFF
           BACKUP_COPIES  1
           &EACH
             JUST_ENERGY  0
             QS_SCF  0
             MD  20
           &END EACH
         &END RESTART
       &END PRINT
     &END SCF
     &QS
       EPS_DEFAULT     1.0000000000000000E-14
       METHOD  GPW
     &END QS
     &MGRID
       NGRIDS  5
       CUTOFF     1.2000000000000000E+03
     &END MGRID
     &XC
       DENSITY_CUTOFF     1.0000000000000000E-10
       GRADIENT_CUTOFF     1.0000000000000000E-10
       TAU_CUTOFF     1.0000000000000000E-10
       &XC_FUNCTIONAL  NO_SHORTCUT
         &PBE  T
         &END PBE
       &END XC_FUNCTIONAL
       &VDW_POTENTIAL
         POTENTIAL_TYPE  PAIR_POTENTIAL
         &PAIR_POTENTIAL
           R_CUTOFF     1.0000000000000004E+01
           TYPE  DFTD3
           PARAMETER_FILE_NAME dftd3.dat
           REFERENCE_FUNCTIONAL PBE
           EPS_CN     9.9999999999999995E-07
           CALCULATE_C9_TERM  T
           REFERENCE_C9_TERM  T
           LONG_RANGE_CORRECTION  F
           VERBOSE_OUTPUT  F
         &END PAIR_POTENTIAL
       &END VDW_POTENTIAL
     &END XC
   &END DFT
   &SUBSYS
     &CELL
       A     1.2864472766435110E+01    0.0000000000000000E+00    0.0000000000000000E+00
       B    -6.4322363581020028E+00    1.1140960178524473E+01    0.0000000000000000E+00
       C     0.0000000000000000E+00    0.0000000000000000E+00    3.2000000000000000E+01
       MULTIPLE_UNIT_CELL  1 1 1
       &CELL_REF
         A     1.2982353780853531E+01    0.0000000000000000E+00    0.0000000000000000E+00
         B    -6.4911768904267628E+00    1.1243048175136114E+01    0.0000000000000000E+00
         C     0.0000000000000000E+00    0.0000000000000000E+00    3.2000000000000000E+01
         MULTIPLE_UNIT_CELL  1 1 1
       &END CELL_REF
     &END CELL
     &COORD
N    6.0198966573647220E-02    2.1298289707433620E+00    2.5780986634787295E+00
Ga    3.4227414167743088E-02    1.6333421027815365E-01    2.8969985175497790E+00
N    6.5777876800367507E-02    1.3156716477329819E-01    5.0741740968965914E+00
Ga    6.1444308561849063E-02    1.9551660794762293E+00    5.8471689913494167E+00
N    6.1489181203800453E-02    1.9754407677752666E+00    7.8478879578646712E+00
Ga    5.7742796636776970E-02    1.2846074792339604E-01    8.4900280337528500E+00
N    6.0469414103448194E-02    1.2793900059691021E-01    1.0467265250697983E+01
Ga    6.1764479922074372E-02    1.9662045793486331E+00    1.1119982491670717E+01
N    6.1309219626854990E-02    1.9478810187536135E+00    1.3115442568399706E+01
Ga    6.0443584023287963E-02    1.2690332753314504E-01    1.3915910038025507E+01
N    6.1581798639411149E-02    1.2650020905158862E-01    1.6119957945535770E+01
Ga    6.1311392467494112E-02    2.1638649815198043E+00    1.6527995545274500E+01
Ga    4.9441478005907501E-02    3.8383485079913782E+00    1.4092128066941880E+00
N   -1.4163139009110712E+00    4.7094592582211625E+00    2.5656593251912598E+00
Ga   -1.6002052650095608E+00    2.8917621081756693E+00    3.3516903147075405E+00
N   -1.5575124154814848E+00    2.9132733654899954E+00    5.3050861764858022E+00
Ga   -1.5770549202088846E+00    4.7831741476270020E+00    5.8879404630950845E+00
N   -1.5513733464935235E+00    4.7729369580750296E+00    7.8734401456507053E+00
Ga   -1.5388155747415531E+00    2.9124489762830361E+00    8.4926855398881695E+00
N   -1.5354883846572174E+00    2.9175218399553033E+00    1.0486387492405688E+01
Ga   -1.5649624022367206E+00    4.7767478448278258E+00    1.1121135354156506E+01
N   -1.5799898512636177E+00    4.7880119215354693E+00    1.3115757939320677E+01
Ga   -1.5367700972764684E+00    2.9193411997864467E+00    1.3670024334112810E+01
N   -1.5632772573169231E+00    2.9050830565666645E+00    1.5633381319582709E+01
Ga   -1.3838923999995643E+00    4.6755640753431402E+00    1.6528596911655843E+01
N    7.0056578553437013E-02    3.8362527030720313E+00    1.7659816039300505E+01
N   -3.1377640374573454E+00    7.6861391699630799E+00    2.5996279792157639E+00
Ga   -3.1327103717529456E+00    5.6691729281622942E+00    2.9615345485873661E+00
N   -3.1236256904729678E+00    5.7183412991783502E+00    5.1265026332476014E+00
Ga   -3.1613578047871531E+00    7.5225734484226727E+00    5.8876994193410761E+00
N   -3.1543446612306290E+00    7.5499666008631037E+00    7.8722112821910173E+00
Ga   -3.1650373126350848E+00    5.6933135348490609E+00    8.4921478076460613E+00
N   -3.1573783029321176E+00    5.6969921534605357E+00    1.0469408911844500E+01
Ga   -3.1605378443278451E+00    7.5360506621878134E+00    1.1120501729545150E+01
N   -3.1571015286877535E+00    7.5183990711708342E+00    1.3115753812772477E+01
Ga   -3.1569291502585139E+00    5.6975657769304382E+00    1.3914682971643446E+01
N   -3.1541394142139514E+00    5.6968229454572334E+00    1.6119712969518130E+01
Ga   -3.1550308108318159E+00    7.7340238835258734E+00    1.6526109670218947E+01
Ga   -3.1678890776494346E+00    9.4144204506843057E+00    1.5921219047678523E+00
N   -4.6654999457824937E+00    1.0286751689253142E+01    2.5778704167931639E+00
Ga   -4.8811003640319672E+00    8.4225260382956240E+00    3.3441270672308905E+00
N   -4.7593868301727174E+00    8.4823187337349371E+00    5.3034726331694921E+00
Ga   -4.7953706481041118E+00    1.0355782155148210E+01    5.8544569858498337E+00
N   -4.7731488296047058E+00    1.0346427687631303E+01    7.8502467833861926E+00
Ga   -4.7649199846851031E+00    8.4869868027621251E+00    8.4827086202080046E+00
N   -4.7558350809416670E+00    8.4897102990172542E+00    1.0479338667683512E+01
Ga   -4.7801618575975233E+00    1.0348191170214285E+01    1.1118039944162389E+01
N   -4.7954940052549961E+00    1.0358358705689215E+01    1.3113550029356958E+01
Ga   -4.7542103179290383E+00    8.4900004093684238E+00    1.3669346711853864E+01
N   -4.7795895112499025E+00    8.4759584120740197E+00    1.5632779678525862E+01
Ga   -4.6022989932482599E+00    1.0247155225597458E+01    1.6527177289163184E+01
N   -3.1473505891872495E+00    9.4078680349372927E+00    1.7658925210509466E+01
N    3.2698876354500079E+00    2.0035460198311141E+00    2.6464850898393864E+00
Ga    3.2509485781767520E+00    2.4685916102511893E-01    3.3461814695229197E+00
N    3.2777018703378169E+00    1.2994873289024048E-01    5.3068598992735527E+00
Ga    3.2843463944893871E+00    1.9998968492427571E+00    5.9105418993492229E+00
N    3.2829585942883641E+00    1.9871757572798814E+00    7.8891944694711640E+00
Ga    3.2718420884929187E+00    1.2218860127154660E-01    8.4940692766202677E+00
N    3.2752882472746983E+00    1.1746225083999702E-01    1.0486394608377402E+01
Ga    3.2797795141727555E+00    1.9870104787116472E+00    1.1076042537819447E+01
N    3.2781994626774305E+00    1.9854925353468136E+00    1.3049236062632183E+01
Ga    3.2754454185434954E+00    1.1577821991673920E-01    1.3670135555396064E+01
N    3.2747532652317743E+00    1.4616983907164260E-01    1.5633683924153740E+01
Ga    3.2780906542946688E+00    1.9852241375744661E+00    1.5911685572340788E+01
N    1.5308284627289306E+00    4.7174199943170834E+00    2.5795802541982935E+00
Ga    1.7466300979643958E+00    2.8867436310884398E+00    3.3334061064953788E+00
N    1.6727590490696593E+00    2.9174509063391620E+00    5.3076933478535908E+00
Ga    1.6932926977919045E+00    4.7768082479968719E+00    5.8806961201029369E+00
N    1.6781626626436852E+00    4.7763260667173739E+00    7.8653386548600475E+00
Ga    1.6622409895027985E+00    2.9142613092796270E+00    8.4875536197508357E+00
N    1.6596986870932582E+00    2.9178881425067780E+00    1.0482483739305065E+01
Ga    1.6893037106431272E+00    4.7768676979674094E+00    1.1120688704832514E+01
N    1.7027118671716608E+00    4.7880378869035285E+00    1.3115794013310119E+01
Ga    1.6583637082086289E+00    2.9192875254439459E+00    1.3671026073479068E+01
N    1.6856655103395057E+00    2.9033672287801893E+00    1.5635202303552809E+01
Ga    1.5146865178064981E+00    4.6806537317798735E+00    1.6528029992793382E+01
N    6.7771939213497098E-02    7.5551321558666604E+00    2.7817286524144067E+00
Ga    4.4196376378973418E-02    5.6947780729786279E+00    3.4038806024115633E+00
N    6.1576058267386789E-02    5.7152082847209860E+00    5.3382710148407115E+00
Ga    6.8544075003787064E-02    7.5560335863941823E+00    5.9818625970668053E+00
N    6.2079077806620156E-02    7.5571411568537794E+00    7.9369661355825523E+00
Ga    6.2514204800758130E-02    5.6837719452633335E+00    8.5122967848665123E+00
N    6.2575460085112181E-02    5.6852874206659036E+00    1.0498624939743925E+01
Ga    6.3221831717294202E-02    7.5551388402235817E+00    1.1088484489282516E+01
N    6.1556840944128062E-02    7.5551783867066193E+00    1.3058405412776359E+01
Ga    6.0772548698944169E-02    5.6834351277495454E+00    1.3671116993342842E+01
N    5.9441005760830452E-02    5.7160749699760354E+00    1.5634042076449916E+01
Ga    6.1591325364620600E-02    7.5554482953979356E+00    1.5909644818411850E+01
N   -1.6580839395675551E+00    1.0264642224988251E+01    2.6047629550601896E+00
Ga   -1.5194418866943531E+00    8.4678855729538078E+00    3.4268018291327711E+00
N   -1.5348561878963756E+00    8.4783921724269149E+00    5.3453061537480462E+00
Ga   -1.5250671488906631E+00    1.0361375253422667E+01    5.8946918868053437E+00
N   -1.5431834090829271E+00    1.0343463811169656E+01    7.8772100192032921E+00
Ga   -1.5607520476999941E+00    8.4907871154924965E+00    8.5170393051399262E+00
N   -1.5578497675452290E+00    8.4897833358863046E+00    1.0502365406951940E+01
Ga   -1.5320997080356011E+00    1.0353371466056053E+01    1.1123394697720968E+01
N   -1.5156338758138128E+00    1.0360373553632272E+01    1.3117869785721618E+01
Ga   -1.5603535971321461E+00    8.4907991872243382E+00    1.3670892401357385E+01
N   -1.5314722385243351E+00    8.4740456296492450E+00    1.5635260593510743E+01
Ga   -1.7009188062344158E+00    1.0251457616341581E+01    1.6526196239291835E+01
N    6.5361121578395984E+00    1.9681647661168857E+00    2.5777082720612792E+00
Ga    6.5303367709843787E+00    1.0637256527726754E-01    2.9830425700052694E+00
N    6.4884637890227177E+00    9.5313252214477714E-02    5.1434205413198839E+00
Ga    6.5132526391618990E+00    1.9581083074325036E+00    5.8294726283824270E+00
N    6.4934331201830799E+00    1.9760866610845111E+00    7.8363752414681942E+00
Ga    6.4955949275765335E+00    1.3489701019082093E-01    8.4966861191995822E+00
N    6.4942577266783310E+00    1.2973088508473077E-01    1.0472075039336307E+01
Ga    6.4944391174853111E+00    1.9711930800996658E+00    1.1115376835902785E+01
N    6.4932425269894232E+00    1.9495669303920333E+00    1.3112217832641784E+01
Ga    6.4944583554644177E+00    1.2939259602111852E-01    1.3916833052610517E+01
N    6.4960838671856829E+00    1.2748070200170883E-01    1.6120306638072559E+01
Ga    6.4939286171488781E+00    2.1663598399445969E+00    1.6530062945835727E+01
Ga    9.3856090192043418E+00    2.2693841619479209E+00    6.4282228957924559E-01
N    4.8539069417142038E+00    5.0077197152024322E+00    2.3620461500339847E+00
Ga    4.9211394659482401E+00    2.5802017659658869E+00    3.2740895188397774E+00
N    4.8938725922666046E+00    2.9107020929533070E+00    5.2311526401535104E+00
Ga    4.8831086555629080E+00    4.7816150203808139E+00    5.7971190069836558E+00
N    4.8785566601184094E+00    4.7726561744222193E+00    7.8108776105013389E+00
Ga    4.8997712711353376E+00    2.9226762017523265E+00    8.4753944468071598E+00
N    4.8968502214800402E+00    2.9210186260105369E+00    1.0474009285225877E+01
Ga    4.8741290642768655E+00    4.7781672381803304E+00    1.1115136914983262E+01
N    4.8545355712150187E+00    4.7881878160244007E+00    1.3111007813132405E+01
Ga    4.8969182529909636E+00    2.9207278102389047E+00    1.3670232920817909E+01
N    4.8690705883874674E+00    2.9057145162853204E+00    1.5632716746056607E+01
Ga    5.0491736315877995E+00    4.6756525336173587E+00    1.6530699831541288E+01
N    6.5006874469531661E+00    3.8367311813214080E+00    1.7665598562667320E+01
N    3.2474001663942706E+00    7.7003667924903123E+00    2.5951054749452607E+00
N    3.2601627345586164E+00    5.7049865179963222E+00    5.0979292431465115E+00
Ga    3.2874401281492998E+00    7.5366446130605071E+00    5.8639067882900910E+00
N    3.2775173616363666E+00    7.5454210597951370E+00    7.8537759475341486E+00
Ga    3.2887332155926172E+00    5.6948565777030540E+00    8.4882353425709578E+00
N    3.2814428812386272E+00    5.6971295147516958E+00    1.0465052352990705E+01
Ga    3.2836767766423423E+00    7.5364929148172095E+00    1.1118690092122991E+01
N    3.2790893273654000E+00    7.5181394816798077E+00    1.3113943171777963E+01
Ga    3.2795090595600178E+00    5.6985428430169396E+00    1.3916920013950124E+01
N    3.2796502699762149E+00    5.6982081506766251E+00    1.6120120535024949E+01
Ga    3.2780162604698342E+00    7.7403969903779153E+00    1.6533476826304419E+01
Ga    3.2978793908964574E+00    9.4099261291403966E+00    1.3172916019039327E+00
N    1.7680693504791789E+00    1.0280729271660819E+01    2.5726759721481054E+00
Ga    1.6681994303519978E+00    8.5176957957067572E+00    3.3850396048421656E+00
N    1.6564907799435979E+00    8.4800245391411924E+00    5.3258169727817917E+00
Ga    1.6500805428019674E+00    1.0361124817100777E+01    5.8814408499016446E+00
N    1.6672867552997057E+00    1.0344050371157733E+01    7.8691156474541595E+00
Ga    1.6868681064122686E+00    8.4909716793808006E+00    8.5091882557198240E+00
N    1.6826553218984674E+00    8.4894175580080091E+00    1.0496230221319731E+01
Ga    1.6561618102598807E+00    1.0352052247388292E+01    1.1121931161527195E+01
N    1.6377112415530770E+00    1.0359659212190701E+01    1.3115883266761998E+01
Ga    1.6826792644348125E+00    8.4911467429643981E+00    1.3672140314079288E+01
N    1.6526972841386223E+00    8.4752648799223067E+00    1.5633469738519876E+01
Ga    1.8373016143253600E+00    1.0243602015563360E+01    1.6534139326435319E+01
N    3.2858327034856449E+00    9.4070030291630538E+00    1.7667657028212755E+01
N    9.6961850327906838E+00    2.0078622473359005E+00    2.6288258788602787E+00
Ga    9.7004066016861117E+00    1.9436545535696623E-01    3.3170934054780914E+00
N    9.7057135568548869E+00    1.4106123495824174E-01    5.2822878486708786E+00
Ga    9.6932862283025063E+00    1.9939170256065850E+00    5.9142901195112785E+00
N    9.7080965574049731E+00    1.9852942307320207E+00    7.8953303551123657E+00
Ga    9.7161461971122058E+00    1.2121491122424340E-01    8.4917232912615166E+00
N    9.7121389161363982E+00    1.1628450096461973E-01    1.0485304661331714E+01
Ga    9.7078773516491168E+00    1.9860136334571499E+00    1.1075543825228985E+01
N    9.7084764686118401E+00    1.9852505912524274E+00    1.3049079585109505E+01
Ga    9.7096888780478334E+00    1.1552983531738141E-01    1.3670880295959513E+01
N    9.7088926895753733E+00    1.4705938679872135E-01    1.5632708919373103E+01
Ga    9.7090048772026005E+00    1.9847073777923780E+00    1.5911210553219556E+01
N    8.1273671699758960E+00    4.7394658055451808E+00    2.5642442637356671E+00
Ga    8.0537632385034286E+00    2.9489190611266416E+00    3.2434772058016974E+00
N    8.1106634349558284E+00    2.9087439001491493E+00    5.2581696211847726E+00
Ga    8.1197803315268757E+00    4.7830808023272011E+00    5.7951379042590991E+00
N    8.1077171534550931E+00    4.7770938543153560E+00    7.8199252823188949E+00
Ga    8.0904097287193188E+00    2.9251629972431812E+00    8.4728935711545308E+00
N    8.0908858872797325E+00    2.9207836739152189E+00    1.0474372119239298E+01
Ga    8.1128485912534458E+00    4.7779287040933838E+00    1.1114605350543949E+01
N    8.1312064080705504E+00    4.7880923417443508E+00    1.3111473573508940E+01
Ga    8.0895191593615809E+00    2.9203274659423943E+00    1.3670089605700193E+01
N    8.1178630322909644E+00    2.9044716576306131E+00    1.5633789203273942E+01
Ga    7.9435129043321995E+00    4.6786059466077381E+00    1.6529680649772789E+01
N    6.4847689747842887E+00    7.5667261328720858E+00    2.6366776069878020E+00
Ga    6.6375201289024774E+00    5.7610903253800068E+00    3.1468275514284638E+00
N    6.4892594842676443E+00    5.6891276231840404E+00    5.1889938608349402E+00
Ga    6.4828990367905366E+00    7.5272419755522302E+00    5.8740080208481755E+00
N    6.4925456468061471E+00    7.5476375621632004E+00    7.8677565152955076E+00
Ga    6.4942533775948039E+00    5.6839986097229351E+00    8.4661252213117617E+00
N    6.4926393815587549E+00    5.6852947585285012E+00    1.0468411271311300E+01
Ga    6.4922889009289468E+00    7.5523416189176711E+00    1.1071569585481441E+01
N    6.4929695686794187E+00    7.5538427627445275E+00    1.3045753853605248E+01
Ga    6.4926321499041721E+00    5.6854991304630564E+00    1.3669850602102803E+01
N    6.4922871142529885E+00    5.7163011038315110E+00    1.5632209392073966E+01
Ga    6.4933091838081660E+00    7.5545926431988866E+00    1.5911610826915902E+01
N    4.7799986744928260E+00    1.0298118572915060E+01    2.5671763128940763E+00
Ga    4.9600675747832819E+00    8.4417001230889355E+00    3.2966474921630731E+00
N    4.8831003412195706E+00    8.4860767911294666E+00    5.2831985189916661E+00
Ga    4.9112607498817749E+00    1.0357339002912131E+01    5.8326408137646899E+00
N    4.8934895296442349E+00    1.0347069453237264E+01    7.8378196225789027E+00
Ga    4.8844213822391129E+00    8.4888683043349076E+00    8.4738431761767625E+00
N    4.8774484396461508E+00    8.4899110706060750E+00    1.0473588486335142E+01
Ga    4.9015315523264640E+00    1.0347305551154518E+01    1.1118207222015807E+01
N    4.9169318439418532E+00    1.0357778613011615E+01    1.3113768791348745E+01
Ga    4.8752030820410610E+00    8.4895531799337842E+00    1.3671341118438258E+01
N    4.9031666210083085E+00    8.4739108560137293E+00    1.5633857832608477E+01
Ga    4.7247645489084773E+00    1.0247272412339715E+01    1.6533306047287624E+01
O   -1.8039025235952189E-02    3.7782166166518261E+00   -4.0628422369912515E-01
C    6.7065619862336767E-01    2.6796805477330796E+00   -1.0271229879873713E+00
H    1.7457768750108971E+00    2.6612685670714469E+00   -7.7905164797684390E-01
H    2.3936335871647574E-01    1.7049016128812013E+00   -7.4141880245099034E-01
H    5.6652823748808090E-01    2.8008026854927643E+00   -2.1154454012048216E+00
Ga    3.1169779096146728E+00    5.7908525978912646E+00    3.0382067538376329E+00
H    5.5894022396540281E-02    7.5517228251542550E+00    1.7547818450914152E+00
C    4.9082404956539660E+00    4.5148790935426959E+00    1.1710949812176894E+00
H    5.8733491371150457E+00    4.2261623183018253E+00    7.3057222946412892E-01
H    3.9997247230844319E+00    4.3429483393898574E+00    5.7650511363404677E-01
     &END COORD
     &KIND C
       BASIS_SET DZVP-MOLOPT-SR-GTH-q4
       POTENTIAL GTH-PBE-q4
       &POTENTIAL
 2 2
  0.3384712400000000E+00 2 -0.8803673979999999E+01  0.1339210850000000E+01
 2
  0.3025757500000000E+00 1  0.9622486650000001E+01
  0.2915069400000000E+00 0
         # Potential name:  GTH-PBE-Q4  for symbol:  C
         # Potential read from the potential filename: GTH_POTENTIALS
       &END POTENTIAL
     &END KIND
     &KIND O
       BASIS_SET DZVP-MOLOPT-SR-GTH-q6
       POTENTIAL GTH-PBE-q6
       &POTENTIAL
 2 4
  0.2445543000000000E+00 2 -0.1666721480000000E+02  0.2487311320000000E+01
 2
  0.2209559200000000E+00 1  0.1833745811000000E+02
  0.2113324700000000E+00 0
         # Potential name:  GTH-PBE-Q6  for symbol:  O
         # Potential read from the potential filename: GTH_POTENTIALS
       &END POTENTIAL
     &END KIND
     &KIND H
       BASIS_SET DZVP-MOLOPT-SR-GTH-q1
       POTENTIAL GTH-PBE-q1
       &POTENTIAL
 1
  0.2000000000000000E+00 2 -0.4178900440000000E+01  0.7244633100000000E+00
 0
         # Potential name:  GTH-PBE-Q1  for symbol:  H
         # Potential read from the potential filename: GTH_POTENTIALS
       &END POTENTIAL
     &END KIND
     &KIND N
       BASIS_SET DZVP-MOLOPT-SR-GTH
       POTENTIAL GTH-PBE-q5
       &POTENTIAL
 2 3
  0.2837905100000000E+00 2 -0.1241522559000000E+02  0.1868095920000000E+01
 2
  0.2554050000000000E+00 1  0.1363026257000000E+02
  0.2454945300000000E+00 0
         # Potential name:  GTH-PBE-Q5  for symbol:  N
         # Potential read from the potential filename: GTH_POTENTIALS
       &END POTENTIAL
     &END KIND
     &KIND Ga
       BASIS_SET DZVP-MOLOPT-SR-GTH
       POTENTIAL GTH-PBE-q13
       &POTENTIAL
 2 1 10
  0.4900000000000000E+00 0
 3
  0.4167772300000000E+00 3  0.1047568975000000E+02 -0.4921768140000000E+01  0.8707055900000000E+00
  0.7770178090000000E+01 -0.2248152160000000E+01
  0.1784415450000000E+01
  0.5696265200000000E+00 2  0.1777985340000000E+01  0.1958597600000000E+00
 -0.2317443900000000E+00
  0.2381265000000000E+00 1 -0.1624868022000000E+02
         # Potential name:  GTH-PBE-Q13  for symbol:  GA
         # Potential read from the potential filename: GTH_POTENTIALS
       &END POTENTIAL
     &END KIND
     &TOPOLOGY
       NUMBER_OF_ATOMS  209
       MULTIPLE_UNIT_CELL  1 1 1
     &END TOPOLOGY
   &END SUBSYS
 &END FORCE_EVAL
