 # Version information for this restart file 
 # current date 2019-07-22 06:14:37.390
 # current working dir /lustre04/scratch/rzk/rzk/GaN-carbene/443-adatoms-both-2x2/12-CH3O-H2C-H/02-Start-Intermediate-0904
 # Program compiled at                              Sun Apr  7 00:48:11 EDT 2019
 # Program compiled on                          beluga2.int.ets1.calculquebec.ca
 # Program compiled for                        Beluga-Linux-x86-64-intel-openmpi
 # Source code revision number                                         svn:18619
 &GLOBAL
   PRINT_LEVEL  MEDIUM
   PROJECT_NAME TEST
   RUN_TYPE  GEO_OPT
 &END GLOBAL
 &MOTION
   &GEO_OPT
     MAX_ITER  500
     STEP_START_VAL  94
   &END GEO_OPT
 &END MOTION
 &FORCE_EVAL
   METHOD  QS
   STRESS_TENSOR  ANALYTICAL
   &DFT
     BASIS_SET_FILE_NAME BASIS_MOLOPT
     POTENTIAL_FILE_NAME GTH_POTENTIALS
     UKS  T
     SURFACE_DIPOLE_CORRECTION  T
     SURF_DIP_DIR  Z
     &SCF
       MAX_SCF  80
       EPS_SCF     5.0000000000000004E-06
       &OT  T
         PRECONDITIONER  FULL_ALL
       &END OT
       &OUTER_SCF  T
         OPTIMIZER  NONE
         EPS_SCF     5.0000000000000004E-06
         MAX_SCF  4
       &END OUTER_SCF
       &PRINT
         &RESTART  OFF
           BACKUP_COPIES  1
           &EACH
             JUST_ENERGY  0
             QS_SCF  0
             MD  20
           &END EACH
         &END RESTART
       &END PRINT
     &END SCF
     &QS
       EPS_DEFAULT     1.0000000000000000E-14
       METHOD  GPW
     &END QS
     &MGRID
       NGRIDS  5
       CUTOFF     1.2000000000000000E+03
     &END MGRID
     &XC
       DENSITY_CUTOFF     1.0000000000000000E-10
       GRADIENT_CUTOFF     1.0000000000000000E-10
       TAU_CUTOFF     1.0000000000000000E-10
       &XC_FUNCTIONAL  NO_SHORTCUT
         &PBE  T
         &END PBE
       &END XC_FUNCTIONAL
       &VDW_POTENTIAL
         POTENTIAL_TYPE  PAIR_POTENTIAL
         &PAIR_POTENTIAL
           R_CUTOFF     1.0000000000000004E+01
           TYPE  DFTD3
           PARAMETER_FILE_NAME dftd3.dat
           REFERENCE_FUNCTIONAL PBE
           EPS_CN     9.9999999999999995E-07
           CALCULATE_C9_TERM  T
           REFERENCE_C9_TERM  T
           LONG_RANGE_CORRECTION  F
           VERBOSE_OUTPUT  F
         &END PAIR_POTENTIAL
       &END VDW_POTENTIAL
     &END XC
   &END DFT
   &SUBSYS
     &CELL
       A     1.2864472766435110E+01    0.0000000000000000E+00    0.0000000000000000E+00
       B    -6.4322363581020028E+00    1.1140960178524473E+01    0.0000000000000000E+00
       C     0.0000000000000000E+00    0.0000000000000000E+00    3.2000000000000000E+01
       MULTIPLE_UNIT_CELL  1 1 1
       &CELL_REF
         A     1.2982353780853531E+01    0.0000000000000000E+00    0.0000000000000000E+00
         B    -6.4911768904267628E+00    1.1243048175136114E+01    0.0000000000000000E+00
         C     0.0000000000000000E+00    0.0000000000000000E+00    3.2000000000000000E+01
         MULTIPLE_UNIT_CELL  1 1 1
       &END CELL_REF
     &END CELL
     &COORD
N    6.1666170920084723E-02    2.1294960147565765E+00    2.5829035373107656E+00
Ga    3.4223442146689938E-02    1.6297657237426885E-01    2.9013553092552602E+00
N    6.7373480321673590E-02    1.3191529535771432E-01    5.0773756546565307E+00
Ga    6.2518914427709918E-02    1.9562115133028590E+00    5.8496723049365107E+00
N    6.3432648388088944E-02    1.9764925790530516E+00    7.8502626776188986E+00
Ga    6.0048246810120678E-02    1.2972739692702992E-01    8.4925055660975346E+00
N    6.3699899206584379E-02    1.2988887726539955E-01    1.0469357975754276E+01
Ga    6.4969029327827471E-02    1.9684089982337187E+00    1.1121293705531771E+01
N    6.5481003377525770E-02    1.9506822392431937E+00    1.3116768768231944E+01
Ga    6.5492244646582515E-02    1.3011567569030397E-01    1.3916984649964071E+01
N    6.5883659892317481E-02    1.3230977689066484E-01    1.6121836314690604E+01
Ga    6.5620251238736257E-02    2.1724802980121241E+00    1.6528966331176878E+01
Ga    5.2867820850160861E-02    3.8369191795374080E+00    1.4136926500568383E+00
N   -1.4148391379210685E+00    4.7092748184281827E+00    2.5690936375380589E+00
Ga   -1.5994216749681485E+00    2.8919716519005632E+00    3.3540882655448905E+00
N   -1.5562958870729009E+00    2.9138040245373413E+00    5.3073635357250373E+00
Ga   -1.5754361588995911E+00    4.7835286419325040E+00    5.8903392962961014E+00
N   -1.5492016733948870E+00    4.7741294423322929E+00    7.8756070397750522E+00
Ga   -1.5366601968533460E+00    2.9139563592667082E+00    8.4950122637521517E+00
N   -1.5324777820136186E+00    2.9198536305372071E+00    1.0488538934545220E+01
Ga   -1.5619269466044321E+00    4.7790023110248896E+00    1.1124305811847035E+01
N   -1.5762476494138220E+00    4.7911910099280979E+00    1.3119800955033019E+01
Ga   -1.5324358853017357E+00    2.9214724467296960E+00    1.3672223796721100E+01
N   -1.5565407637026241E+00    2.9058054882575060E+00    1.5636604384846656E+01
Ga   -1.3904630463715066E+00    4.6852787442177517E+00    1.6528298221477232E+01
N    6.5018195928002898E-02    3.8533639180152317E+00    1.7659431914414967E+01
N   -3.1362810290779204E+00    7.6855111949678401E+00    2.6034654663689909E+00
Ga   -3.1310900330504405E+00    5.6690082100599550E+00    2.9648813035785526E+00
N   -3.1219396365553536E+00    5.7184124719124023E+00    5.1289760336882111E+00
Ga   -3.1595315712614886E+00    7.5225957391811029E+00    5.8902164073640364E+00
N   -3.1521613911508952E+00    7.5507886916484646E+00    7.8745446708689455E+00
Ga   -3.1626322421684536E+00    5.6942881480689618E+00    8.4947875297104343E+00
N   -3.1541997956340011E+00    5.6989244506652721E+00    1.0471845382548489E+01
Ga   -3.1575195218984975E+00    7.5381650647557885E+00    1.1122868929101914E+01
N   -3.1530496579924487E+00    7.5209700078218038E+00    1.3117600613417139E+01
Ga   -3.1544645298101348E+00    5.7014853468425812E+00    1.3919562688407911E+01
N   -3.1527329146632992E+00    5.7031093666314856E+00    1.6122777142433769E+01
Ga   -3.1515870467636233E+00    7.7484038996874531E+00    1.6534895787888466E+01
Ga   -3.1663484391331824E+00    9.4133503362066620E+00    1.5984434095739839E+00
N   -4.6641250230702731E+00    1.0286407986831653E+01    2.5821706019917134E+00
Ga   -4.8791655250735433E+00    8.4215108140319419E+00    3.3478001695659945E+00
N   -4.7576045612771276E+00    8.4824790288309071E+00    5.3067838277220840E+00
Ga   -4.7934683672422223E+00    1.0355802456371755E+01    5.8573118162932767E+00
N   -4.7709775608078235E+00    1.0347587841292565E+01    7.8528353473592896E+00
Ga   -4.7623306961165319E+00    8.4881372485039748E+00    8.4852310774811830E+00
N   -4.7526509221363193E+00    8.4919189057781335E+00    1.0481264168617157E+01
Ga   -4.7766288782074424E+00    1.0350278301456278E+01    1.1120377020500573E+01
N   -4.7910135973341026E+00    1.0360996626644637E+01    1.3115927572742766E+01
Ga   -4.7500078752009776E+00    8.4919192553594769E+00    1.3672636254590573E+01
N   -4.7747098376039450E+00    8.4775579443770397E+00    1.5635085943948678E+01
Ga   -4.5998046765293701E+00    1.0251933318258194E+01    1.6534039995337821E+01
N   -3.1501450958470296E+00    9.4242933604078978E+00    1.7670188396920238E+01
N    3.2707373121205983E+00    2.0032951413279245E+00    2.6510192006514934E+00
Ga    3.2521267887336172E+00    2.4638499500123917E-01    3.3498294899230547E+00
N    3.2792213395049337E+00    1.3041466157740933E-01    5.3101842925240721E+00
Ga    3.2858447657031955E+00    2.0004176269481397E+00    5.9139309064442713E+00
N    3.2850970532684585E+00    1.9882586456640714E+00    7.8919814144415241E+00
Ga    3.2741931886449707E+00    1.2341611384743570E-01    8.4968560171467509E+00
N    3.2784510430837228E+00    1.1989343125962339E-01    1.0488819645408034E+01
Ga    3.2827300595599409E+00    1.9898436790308669E+00    1.1078313922498022E+01
N    3.2816048860098821E+00    1.9886561751468097E+00    1.3050805692289275E+01
Ga    3.2800778819459162E+00    1.1896283527544366E-01    1.3673520536328628E+01
N    3.2797242474907793E+00    1.5066544646925512E-01    1.5637054121888376E+01
Ga    3.2823145591088503E+00    1.9886013144608463E+00    1.5915427212684104E+01
N    1.5326242741598120E+00    4.7171144383724792E+00    2.5850827468121769E+00
Ga    1.7476255477653042E+00    2.8867932555466571E+00    3.3379823884042912E+00
N    1.6743168080471296E+00    2.9178393908010039E+00    5.3115912159924719E+00
Ga    1.6943547256612861E+00    4.7772975297957982E+00    5.8842089080416331E+00
N    1.6803715537183408E+00    4.7777626389642842E+00    7.8682650871129596E+00
Ga    1.6643171952866438E+00    2.9155547118734333E+00    8.4898710033100553E+00
N    1.6624653902134368E+00    2.9201795121031817E+00    1.0484052922944805E+01
Ga    1.6924018766288120E+00    4.7789323089709645E+00    1.1122701731909748E+01
N    1.7066216881504845E+00    4.7907622681511386E+00    1.3118192666343415E+01
Ga    1.6627954755174859E+00    2.9215040517307305E+00    1.3672878717252425E+01
N    1.6876273990880184E+00    2.9062570776710830E+00    1.5636697161155460E+01
Ga    1.5208060826042880E+00    4.6847506386594278E+00    1.6528523319268615E+01
N    6.8910698737668918E-02    7.5542098152661170E+00    2.7863306455963044E+00
Ga    4.5350342939847507E-02    5.6940176431847824E+00    3.4076679036653572E+00
N    6.2977224949795421E-02    5.7153237812139004E+00    5.3415257757237136E+00
Ga    6.9931439687056160E-02    7.5559255007383825E+00    5.9846535142517290E+00
N    6.4224746584454401E-02    7.5582721548462173E+00    7.9395951836509511E+00
Ga    6.4466923411177005E-02    5.6849962055679226E+00    8.5150693603738716E+00
N    6.5498291593456825E-02    5.6879440256240779E+00    1.0501774393619741E+01
Ga    6.5964574029284614E-02    7.5581128194640357E+00    1.1091562819293166E+01
N    6.5585508734253450E-02    7.5581059756659661E+00    1.3061464410845200E+01
Ga    6.5287026365547798E-02    5.6863147470142916E+00    1.3674162872750566E+01
N    6.5948465081803118E-02    5.7196050854667426E+00    1.5639281015998733E+01
Ga    6.5512663929173487E-02    7.5593606976776035E+00    1.5913047781166414E+01
N   -1.6569263263051315E+00    1.0263927131270156E+01    2.6093642701832809E+00
Ga   -1.5181729381925371E+00    8.4664770862456074E+00    3.4302927649786144E+00
N   -1.5332539645022687E+00    8.4783341626822768E+00    5.3483177052840851E+00
Ga   -1.5239276088143341E+00    1.0360971358598995E+01    5.8972873553197926E+00
N   -1.5409557700614638E+00    1.0344517849377565E+01    7.8796054429324256E+00
Ga   -1.5586800594532908E+00    8.4918212687028554E+00    8.5194635122688283E+00
N   -1.5550285623645006E+00    8.4920311961484529E+00    1.0504430495893601E+01
Ga   -1.5291334613229934E+00    1.0355535638511544E+01    1.1126135008587626E+01
N   -1.5117499054143124E+00    1.0362965282582232E+01    1.3120177927832554E+01
Ga   -1.5565672956864021E+00    8.4932514557716576E+00    1.3674489070393358E+01
N   -1.5281045249354730E+00    8.4762845060832746E+00    1.5636939105252697E+01
Ga   -1.7005144407408033E+00    1.0253582220989983E+01    1.6533685085733048E+01
N    6.5373763016759634E+00    1.9675186139835730E+00    2.5830336547144874E+00
Ga    6.5322792917360237E+00    1.0563924308101183E-01    2.9877804354751363E+00
N    6.4897316952142248E+00    9.5418083678697627E-02    5.1469458376367720E+00
Ga    6.5143666489658676E+00    1.9586589578561420E+00    5.8329864612486260E+00
N    6.4956261088473459E+00    1.9769518349069040E+00    7.8389877031658655E+00
Ga    6.4980051691342569E+00    1.3584212448701136E-01    8.4991897774407281E+00
N    6.4973525786245405E+00    1.3152279725378183E-01    1.0474266571162044E+01
Ga    6.4976231857037927E+00    1.9735105054044029E+00    1.1116991131739891E+01
N    6.4969906776104258E+00    1.9520387499837868E+00    1.3112877603920229E+01
Ga    6.4966999494344986E+00    1.3386385276193427E-01    1.3920296536636284E+01
N    6.4971461239935184E+00    1.3446667015480804E-01    1.6122365838211913E+01
Ga    6.4976365678181871E+00    2.1825605860943060E+00    1.6538848802732861E+01
Ga    9.3749900342364949E+00    2.2950304532228403E+00    6.5029383380899874E-01
N    4.8543983664593160E+00    5.0106863078150310E+00    2.3662729021124322E+00
Ga    4.9222908276621657E+00    2.5779846847428147E+00    3.2793492310431258E+00
N    4.8951727150346889E+00    2.9109857099866367E+00    5.2347993251047082E+00
Ga    4.8852804578308477E+00    4.7820019116725847E+00    5.7999695548933774E+00
N    4.8810337483374235E+00    4.7738864241798762E+00    7.8132064512543487E+00
Ga    4.9020593987467755E+00    2.9239483795251351E+00    8.4777928651457444E+00
N    4.8998922865897763E+00    2.9231982000858636E+00    1.0475645481370298E+01
Ga    4.8778322427013139E+00    4.7802707096808081E+00    1.1117276753709632E+01
N    4.8587878025451827E+00    4.7907201158588606E+00    1.3112945673043038E+01
Ga    4.9011748115161726E+00    2.9225780004960900E+00    1.3672898383229226E+01
N    4.8734917847588539E+00    2.9064820905847739E+00    1.5634029627195485E+01
Ga    5.0532905644015074E+00    4.6795159359945364E+00    1.6538041181613309E+01
N    6.4984203121342672E+00    3.8527282588111342E+00    1.7674643954407312E+01
N    3.2484804689073532E+00    7.7001510128658106E+00    2.6008826802116380E+00
N    3.2617496330735678E+00    5.7050665901655497E+00    5.1021298215824080E+00
Ga    3.2887008166731504E+00    7.5371106331461997E+00    5.8666530533096353E+00
N    3.2796477885883539E+00    7.5465186482518769E+00    7.8563197563644795E+00
Ga    3.2913843237884088E+00    5.6959524752634332E+00    8.4907723881483275E+00
N    3.2846311770893415E+00    5.6991118702393324E+00    1.0467249717443607E+01
Ga    3.2870637404377416E+00    7.5387307753818087E+00    1.1119899504513899E+01
N    3.2829797081605552E+00    7.5206615432128183E+00    1.3115312820750578E+01
Ga    3.2843743503411797E+00    5.7009552846564899E+00    1.3917967899326889E+01
N    3.2835311619717733E+00    5.7026899508972555E+00    1.6122163471983015E+01
Ga    3.2826575658047576E+00    7.7448951226358780E+00    1.6531452164644406E+01
Ga    3.2991199337849353E+00    9.4076452125914134E+00    1.3220266914283256E+00
N    1.7685923395307996E+00    1.0280215300414051E+01    2.5777536742994327E+00
Ga    1.6690469243799646E+00    8.5173058447715295E+00    3.3887407984620346E+00
N    1.6575646348073856E+00    8.4800809520817602E+00    5.3291643934160140E+00
Ga    1.6519495221664262E+00    1.0361134804333037E+01    5.8838626299392249E+00
N    1.6696389726119498E+00    1.0345180901970663E+01    7.8713589333779108E+00
Ga    1.6890589156214233E+00    8.4921626505967183E+00    8.5115728122504439E+00
N    1.6856660600870339E+00    8.4917232037156847E+00    1.0498653323724650E+01
Ga    1.6592314018176502E+00    1.0354431507736425E+01    1.1124599676760857E+01
N    1.6411470864405875E+00    1.0362520110749911E+01    1.3119374733023479E+01
Ga    1.6869773736386200E+00    8.4932086221616796E+00    1.3673800143353004E+01
N    1.6603558613204086E+00    8.4766609576585790E+00    1.5637256231184855E+01
Ga    1.8277047916795977E+00    1.0255849738277464E+01    1.6530033682969357E+01
N    3.2814375131497258E+00    9.4251938953414101E+00    1.7665126909969256E+01
N    9.6966862832771454E+00    2.0089461430417881E+00    2.6319558070842128E+00
Ga    9.7008019043338294E+00    1.9507332485998299E-01    3.3188365634087829E+00
N    9.7068143340362987E+00    1.4185328368998643E-01    5.2846055220463697E+00
Ga    9.6950683136687417E+00    1.9943998421251898E+00    5.9168062611525185E+00
N    9.7103072774351737E+00    1.9865235472486871E+00    7.8975634015294576E+00
Ga    9.7183702890457546E+00    1.2277367114239014E-01    8.4942865597770716E+00
N    9.7150167686069810E+00    1.1880043889818896E-01    1.0487820763868845E+01
Ga    9.7105089472718884E+00    1.9890699061800230E+00    1.1077438883461232E+01
N    9.7126207173364314E+00    1.9882719108621829E+00    1.3051004398773195E+01
Ga    9.7139942721922221E+00    1.1856360059968650E-01    1.3672126188508665E+01
N    9.7154563457469383E+00    1.4947876003033872E-01    1.5637019598958791E+01
Ga    9.7130293211363998E+00    1.9885617351837368E+00    1.5914624633075190E+01
N    8.1291178843109844E+00    4.7387847287988665E+00    2.5677481225219871E+00
Ga    8.0547471528651240E+00    2.9487172152223300E+00    3.2481694353894945E+00
N    8.1119066867464387E+00    2.9092542954505345E+00    5.2621151219411164E+00
Ga    8.1213027807743661E+00    4.7841012120916497E+00    5.7977886527569185E+00
N    8.1101501173789394E+00    4.7785179754894358E+00    7.8219466171590977E+00
Ga    8.0927344568477526E+00    2.9267262673397205E+00    8.4748801831320026E+00
N    8.0937299675834922E+00    2.9231747530244174E+00    1.0475576589453102E+01
Ga    8.1156938693425982E+00    4.7800942595198901E+00    1.1116839038115765E+01
N    8.1353203754259091E+00    4.7910814994140054E+00    1.3113345197633420E+01
Ga    8.0929957412917357E+00    2.9227830537706367E+00    1.3672589883131794E+01
N    8.1216908514199382E+00    2.9061171931447656E+00    1.5634014684631120E+01
Ga    7.9432434466195243E+00    4.6801745766346778E+00    1.6537981326989147E+01
N    6.4858930310026626E+00    7.5675043056425588E+00    2.6414844944159253E+00
Ga    6.6390572768667324E+00    5.7615476899213078E+00    3.1489175766237101E+00
N    6.4909095850140357E+00    5.6892646149693862E+00    5.1912842473663607E+00
Ga    6.4847688405058239E+00    7.5270999620170551E+00    5.8766771937294093E+00
N    6.4949363336837571E+00    7.5489919726253802E+00    7.8700656768054582E+00
Ga    6.4968597455626877E+00    5.6853184631069862E+00    8.4683165248325434E+00
N    6.4958084742565987E+00    5.6880648046504030E+00    1.0470354781831510E+01
Ga    6.4951587743054686E+00    7.5553237962736919E+00    1.1073498931217699E+01
N    6.4965037109917141E+00    7.5573315175479969E+00    1.3047242790111671E+01
Ga    6.4970658360027915E+00    5.6886051026758153E+00    1.3672855238550317E+01
N    6.4972762436825402E+00    5.7221063143265534E+00    1.5634929038793658E+01
Ga    6.4976626571800811E+00    7.5585531575002163E+00    1.5915478036240966E+01
N    4.7808821526204115E+00    1.0297879135200430E+01    2.5723920150550139E+00
Ga    4.9608745691772000E+00    8.4418354095241366E+00    3.3012502918201103E+00
N    4.8847202337861102E+00    8.4864293336079690E+00    5.2873487689087657E+00
Ga    4.9121574715381815E+00    1.0358120011984505E+01    5.8350711611618600E+00
N    4.8956449208796249E+00    1.0348716177008852E+01    7.8400182016235052E+00
Ga    4.8866752964723457E+00    8.4903484657787445E+00    8.4754752909242068E+00
N    4.8802008357388544E+00    8.4924291687682896E+00    1.0474680844646031E+01
Ga    4.9046166486996876E+00    1.0349524398952971E+01    1.1119456641971404E+01
N    4.9211089756796520E+00    1.0360611580893904E+01    1.3115549956296302E+01
Ga    4.8794467726884614E+00    8.4917275394980578E+00    1.3672190663046758E+01
N    4.9042906604787717E+00    8.4777437118653260E+00    1.5635389331884531E+01
Ga    4.7349273784246675E+00    1.0254304880690134E+01    1.6530200653476275E+01
O   -8.0297217813438682E-03    3.7837546859928088E+00   -4.0153931160168155E-01
C    6.6753943821458450E-01    2.6802950099437237E+00   -1.0278122492605068E+00
H    1.7362211753771912E+00    2.6311159155232740E+00   -7.6149412440062514E-01
H    2.0851361183028347E-01    1.7120593894530525E+00   -7.6863819626315633E-01
H    5.8699566052368168E-01    2.8218889307992607E+00   -2.1151022281952336E+00
Ga    3.1177494042535057E+00    5.7920404670347496E+00    3.0436279912236550E+00
H    5.5829637918542348E-02    7.5502000265291755E+00    1.7601570388963141E+00
C    4.9050730191457959E+00    4.5112669527475395E+00    1.1782953777141030E+00
H    5.8686531915242739E+00    4.2216335453732778E+00    7.3581060040139179E-01
H    3.9952310052236482E+00    4.3355334513640278E+00    5.8778352066501194E-01
     &END COORD
     &KIND C
       BASIS_SET DZVP-MOLOPT-SR-GTH-q4
       POTENTIAL GTH-PBE-q4
       &POTENTIAL
 2 2
  0.3384712400000000E+00 2 -0.8803673979999999E+01  0.1339210850000000E+01
 2
  0.3025757500000000E+00 1  0.9622486650000001E+01
  0.2915069400000000E+00 0
         # Potential name:  GTH-PBE-Q4  for symbol:  C
         # Potential read from the potential filename: GTH_POTENTIALS
       &END POTENTIAL
     &END KIND
     &KIND O
       BASIS_SET DZVP-MOLOPT-SR-GTH-q6
       POTENTIAL GTH-PBE-q6
       &POTENTIAL
 2 4
  0.2445543000000000E+00 2 -0.1666721480000000E+02  0.2487311320000000E+01
 2
  0.2209559200000000E+00 1  0.1833745811000000E+02
  0.2113324700000000E+00 0
         # Potential name:  GTH-PBE-Q6  for symbol:  O
         # Potential read from the potential filename: GTH_POTENTIALS
       &END POTENTIAL
     &END KIND
     &KIND H
       BASIS_SET DZVP-MOLOPT-SR-GTH-q1
       POTENTIAL GTH-PBE-q1
       &POTENTIAL
 1
  0.2000000000000000E+00 2 -0.4178900440000000E+01  0.7244633100000000E+00
 0
         # Potential name:  GTH-PBE-Q1  for symbol:  H
         # Potential read from the potential filename: GTH_POTENTIALS
       &END POTENTIAL
     &END KIND
     &KIND N
       BASIS_SET DZVP-MOLOPT-SR-GTH
       POTENTIAL GTH-PBE-q5
       &POTENTIAL
 2 3
  0.2837905100000000E+00 2 -0.1241522559000000E+02  0.1868095920000000E+01
 2
  0.2554050000000000E+00 1  0.1363026257000000E+02
  0.2454945300000000E+00 0
         # Potential name:  GTH-PBE-Q5  for symbol:  N
         # Potential read from the potential filename: GTH_POTENTIALS
       &END POTENTIAL
     &END KIND
     &KIND Ga
       BASIS_SET DZVP-MOLOPT-SR-GTH
       POTENTIAL GTH-PBE-q13
       &POTENTIAL
 2 1 10
  0.4900000000000000E+00 0
 3
  0.4167772300000000E+00 3  0.1047568975000000E+02 -0.4921768140000000E+01  0.8707055900000000E+00
  0.7770178090000000E+01 -0.2248152160000000E+01
  0.1784415450000000E+01
  0.5696265200000000E+00 2  0.1777985340000000E+01  0.1958597600000000E+00
 -0.2317443900000000E+00
  0.2381265000000000E+00 1 -0.1624868022000000E+02
         # Potential name:  GTH-PBE-Q13  for symbol:  GA
         # Potential read from the potential filename: GTH_POTENTIALS
       &END POTENTIAL
     &END KIND
     &TOPOLOGY
       NUMBER_OF_ATOMS  209
       MULTIPLE_UNIT_CELL  1 1 1
     &END TOPOLOGY
   &END SUBSYS
 &END FORCE_EVAL
