 # Version information for this restart file 
 # current date 2019-07-22 06:19:23.635
 # current working dir /lustre04/scratch/rzk/rzk/GaN-carbene/443-adatoms-both-2x2/12-CH3O-H2C-H/02-Start-Intermediate-0904
 # Program compiled at                              Sun Apr  7 00:48:11 EDT 2019
 # Program compiled on                          beluga2.int.ets1.calculquebec.ca
 # Program compiled for                        Beluga-Linux-x86-64-intel-openmpi
 # Source code revision number                                         svn:18619
 &GLOBAL
   PRINT_LEVEL  MEDIUM
   PROJECT_NAME TEST
   RUN_TYPE  GEO_OPT
 &END GLOBAL
 &MOTION
   &GEO_OPT
     MAX_ITER  500
     STEP_START_VAL  95
   &END GEO_OPT
 &END MOTION
 &FORCE_EVAL
   METHOD  QS
   STRESS_TENSOR  ANALYTICAL
   &DFT
     BASIS_SET_FILE_NAME BASIS_MOLOPT
     POTENTIAL_FILE_NAME GTH_POTENTIALS
     UKS  T
     SURFACE_DIPOLE_CORRECTION  T
     SURF_DIP_DIR  Z
     &SCF
       MAX_SCF  80
       EPS_SCF     5.0000000000000004E-06
       &OT  T
         PRECONDITIONER  FULL_ALL
       &END OT
       &OUTER_SCF  T
         OPTIMIZER  NONE
         EPS_SCF     5.0000000000000004E-06
         MAX_SCF  4
       &END OUTER_SCF
       &PRINT
         &RESTART  OFF
           BACKUP_COPIES  1
           &EACH
             JUST_ENERGY  0
             QS_SCF  0
             MD  20
           &END EACH
         &END RESTART
       &END PRINT
     &END SCF
     &QS
       EPS_DEFAULT     1.0000000000000000E-14
       METHOD  GPW
     &END QS
     &MGRID
       NGRIDS  5
       CUTOFF     1.2000000000000000E+03
     &END MGRID
     &XC
       DENSITY_CUTOFF     1.0000000000000000E-10
       GRADIENT_CUTOFF     1.0000000000000000E-10
       TAU_CUTOFF     1.0000000000000000E-10
       &XC_FUNCTIONAL  NO_SHORTCUT
         &PBE  T
         &END PBE
       &END XC_FUNCTIONAL
       &VDW_POTENTIAL
         POTENTIAL_TYPE  PAIR_POTENTIAL
         &PAIR_POTENTIAL
           R_CUTOFF     1.0000000000000004E+01
           TYPE  DFTD3
           PARAMETER_FILE_NAME dftd3.dat
           REFERENCE_FUNCTIONAL PBE
           EPS_CN     9.9999999999999995E-07
           CALCULATE_C9_TERM  T
           REFERENCE_C9_TERM  T
           LONG_RANGE_CORRECTION  F
           VERBOSE_OUTPUT  F
         &END PAIR_POTENTIAL
       &END VDW_POTENTIAL
     &END XC
   &END DFT
   &SUBSYS
     &CELL
       A     1.2864472766435110E+01    0.0000000000000000E+00    0.0000000000000000E+00
       B    -6.4322363581020028E+00    1.1140960178524473E+01    0.0000000000000000E+00
       C     0.0000000000000000E+00    0.0000000000000000E+00    3.2000000000000000E+01
       MULTIPLE_UNIT_CELL  1 1 1
       &CELL_REF
         A     1.2982353780853531E+01    0.0000000000000000E+00    0.0000000000000000E+00
         B    -6.4911768904267628E+00    1.1243048175136114E+01    0.0000000000000000E+00
         C     0.0000000000000000E+00    0.0000000000000000E+00    3.2000000000000000E+01
         MULTIPLE_UNIT_CELL  1 1 1
       &END CELL_REF
     &END CELL
     &COORD
N    6.1412949976346901E-02    2.1293686378203684E+00    2.5829338094805236E+00
Ga    3.3814630056170844E-02    1.6268220312016660E-01    2.9018876943214029E+00
N    6.7030533081940652E-02    1.3181022526982555E-01    5.0775193218059789E+00
Ga    6.2358126586773061E-02    1.9560447853449925E+00    5.8498490723415104E+00
N    6.3264694767389967E-02    1.9763817778576163E+00    7.8504006647780775E+00
Ga    5.9899153300488311E-02    1.2957326118283627E-01    8.4923219464473565E+00
N    6.3539042119627076E-02    1.2977219317709715E-01    1.0469338576780968E+01
Ga    6.4836976702427482E-02    1.9682520344037395E+00    1.1121374064595338E+01
N    6.5371525427735153E-02    1.9505229039579968E+00    1.3116921299650450E+01
Ga    6.5347346237693241E-02    1.3011403360883081E-01    1.3917247874695628E+01
N    6.5812591843119800E-02    1.3215474390363247E-01    1.6122044800826416E+01
Ga    6.5640995773486602E-02    2.1726714126525550E+00    1.6529408849132768E+01
Ga    5.2712994224000290E-02    3.8370026454603030E+00    1.4139814884392792E+00
N   -1.4150633481347994E+00    4.7092320915446324E+00    2.5690112719195954E+00
Ga   -1.5996792170651477E+00    2.8919320903298709E+00    3.3542478989389535E+00
N   -1.5564853603482147E+00    2.9135928935593740E+00    5.3074305622783555E+00
Ga   -1.5756533067556093E+00    4.7833944867944220E+00    5.8903046137163431E+00
N   -1.5493021820488582E+00    4.7740718311751316E+00    7.8756357903259531E+00
Ga   -1.5368301055725229E+00    2.9138622935882235E+00    8.4948903292006399E+00
N   -1.5325564080724046E+00    2.9197667693911242E+00    1.0488575454139790E+01
Ga   -1.5620629349422441E+00    4.7789361299663460E+00    1.1124314247567051E+01
N   -1.5763417913527569E+00    4.7910310911037595E+00    1.3119927342610278E+01
Ga   -1.5325016343661715E+00    2.9213131012807412E+00    1.3672182939252062E+01
N   -1.5567564822131652E+00    2.9054904469459335E+00    1.5636529282416735E+01
Ga   -1.3902108827553146E+00    4.6848262259688553E+00    1.6528671844780476E+01
N    6.5075634795214679E-02    3.8531528582924106E+00    1.7659811540028695E+01
N   -3.1364578980827678E+00    7.6853216263928443E+00    2.6033761552607477E+00
Ga   -3.1313656557511425E+00    5.6689055220663329E+00    2.9650205388991973E+00
N   -3.1220384299446540E+00    5.7184596687424012E+00    5.1289486780891647E+00
Ga   -3.1596566428892410E+00    7.5225666824695958E+00    5.8902531823114126E+00
N   -3.1522622853290834E+00    7.5507141609370736E+00    7.8745614659914382E+00
Ga   -3.1627960053411623E+00    5.6942702879548577E+00    8.4945533951477614E+00
N   -3.1542742098213026E+00    5.6988340155289636E+00    1.0471713556949991E+01
Ga   -3.1576372938190005E+00    7.5380506220426300E+00    1.1122749604459562E+01
N   -3.1531592761097142E+00    7.5208031985262007E+00    1.3117648118385620E+01
Ga   -3.1544057144990645E+00    5.7013579944883723E+00    1.3919758067987676E+01
N   -3.1528034667779181E+00    5.7030566432066756E+00    1.6122811546096514E+01
Ga   -3.1514986394261832E+00    7.7481549500375060E+00    1.6535292937208848E+01
Ga   -3.1664174123050728E+00    9.4134188344864569E+00    1.5983569373311028E+00
N   -4.6644076055496004E+00    1.0286444839546439E+01    2.5821271076300873E+00
Ga   -4.8794334060456368E+00    8.4214766590420673E+00    3.3479189046576714E+00
N   -4.7577946233763901E+00    8.4823284667727048E+00    5.3069439144130834E+00
Ga   -4.7937818717436729E+00    1.0355683378865383E+01    5.8574505977544860E+00
N   -4.7711248599164406E+00    1.0347442928507915E+01    7.8530046141288556E+00
Ga   -4.7624491121855952E+00    8.4879780061361778E+00    8.4850544351565027E+00
N   -4.7528000284727190E+00    8.4918468420502204E+00    1.0481285987991981E+01
Ga   -4.7768044308905440E+00    1.0350186897136084E+01    1.1120379459925232E+01
N   -4.7912552049727894E+00    1.0360952430449158E+01    1.3116046976015836E+01
Ga   -4.7500316675506591E+00    8.4918978318629943E+00    1.3672560513943976E+01
N   -4.7747125350239124E+00    8.4774770587364827E+00    1.5635207741614208E+01
Ga   -4.5999108357249536E+00    1.0251859381866229E+01    1.6534424525747458E+01
N   -3.1502133049628815E+00    9.4240814504392265E+00    1.7670643386528308E+01
N    3.2704996236293935E+00    2.0032932361008275E+00    2.6507792234407881E+00
Ga    3.2521689359538293E+00    2.4642404415406721E-01    3.3498952880358326E+00
N    3.2791154793933042E+00    1.3023522281675398E-01    5.3103886812614718E+00
Ga    3.2857844767429070E+00    2.0004486012102793E+00    5.9138583265680476E+00
N    3.2849519966991156E+00    1.9881395090893130E+00    7.8920188047823139E+00
Ga    3.2741203792181430E+00    1.2322236494006952E-01    8.4966726473745542E+00
N    3.2782507950617221E+00    1.1976302547055469E-01    1.0488809384517348E+01
Ga    3.2825265922238720E+00    1.9896977404629130E+00    1.1078264208157481E+01
N    3.2815180383981484E+00    1.9884901601285521E+00    1.3050922570036754E+01
Ga    3.2799114025302138E+00    1.1876479444431765E-01    1.3673529960827604E+01
N    3.2797693028264239E+00    1.5037333769934966E-01    1.5637236265266690E+01
Ga    3.2822643202110928E+00    1.9883947148917542E+00    1.5915552393423706E+01
N    1.5326168536883700E+00    4.7172241403187698E+00    2.5850231537716022E+00
Ga    1.7475362909727277E+00    2.8867370550181151E+00    3.3380634142118835E+00
N    1.6740510656950864E+00    2.9178708552221564E+00    5.3117050759836619E+00
Ga    1.6942763070692726E+00    4.7773502517403053E+00    5.8843025289892230E+00
N    1.6801714920966562E+00    4.7777112153919017E+00    7.8683710177685420E+00
Ga    1.6641577362038953E+00    2.9154748028523403E+00    8.4897435581885965E+00
N    1.6622652749836566E+00    2.9200991501775597E+00    1.0484098536132061E+01
Ga    1.6922241745245585E+00    4.7788468141521587E+00    1.1122738748935610E+01
N    1.7065924286953071E+00    4.7906563068863139E+00    1.3118321579570143E+01
Ga    1.6626355769716161E+00    2.9214027261267534E+00    1.3672816486332581E+01
N    1.6877782255895546E+00    2.9060209853575931E+00    1.5636579646495761E+01
Ga    1.5205766013764332E+00    4.6842706323001106E+00    1.6528872462758333E+01
N    6.8738071485435981E-02    7.5542511595287385E+00    2.7863642652507474E+00
Ga    4.5160188767116416E-02    5.6939220285256740E+00    3.4077664963072412E+00
N    6.2794676628101759E-02    5.7153550891324780E+00    5.3416618886887992E+00
Ga    6.9956821282936912E-02    7.5560501645387408E+00    5.9847275927175270E+00
N    6.4083439747565599E-02    7.5582108653733489E+00    7.9396551464274374E+00
Ga    6.4330006593482453E-02    5.6850199932279999E+00    8.5150352848117219E+00
N    6.5351165529119376E-02    5.6878460516378055E+00    1.0501852640789796E+01
Ga    6.5846582725481204E-02    7.5579967280816192E+00    1.1091554774489341E+01
N    6.5600569681577431E-02    7.5580320853667349E+00    1.3061708234432780E+01
Ga    6.5222349621648787E-02    5.6861186803430064E+00    1.3674159511155352E+01
N    6.5997920367395685E-02    5.7195946770029815E+00    1.5639320750474537E+01
Ga    6.5410684915195014E-02    7.5592638695468954E+00    1.5913298541140430E+01
N   -1.6567213820243782E+00    1.0264032148565535E+01    2.6092518541256666E+00
Ga   -1.5184755488662902E+00    8.4666489413306181E+00    3.4304192211734597E+00
N   -1.5333327811074742E+00    8.4782002153294567E+00    5.3484370418712315E+00
Ga   -1.5237752056209886E+00    1.0360897561850512E+01    5.8972823407210662E+00
N   -1.5410785904719897E+00    1.0344358911138258E+01    7.8795826267173306E+00
Ga   -1.5588089725476741E+00    8.4917437531126456E+00    8.5193100285670411E+00
N   -1.5551243216431765E+00    8.4918790505600938E+00    1.0504438069889293E+01
Ga   -1.5292897633961096E+00    1.0355404947104184E+01    1.1125926611930074E+01
N   -1.5117761326444972E+00    1.0362898998291849E+01    1.3120198585280880E+01
Ga   -1.5566891318401366E+00    8.4931294097443875E+00    1.3674399306980243E+01
N   -1.5281526736541717E+00    8.4762702829037551E+00    1.5636956941162172E+01
Ga   -1.7005095938753567E+00    1.0253343224057355E+01    1.6534053930954816E+01
N    6.5371893081141517E+00    1.9672466375275572E+00    2.5828628009525243E+00
Ga    6.5323359559298018E+00    1.0569311429311527E-01    2.9883887909855869E+00
N    6.4897449547820409E+00    9.5312535077697588E-02    5.1469773009840862E+00
Ga    6.5144508147847375E+00    1.9585467556646410E+00    5.8324861283179903E+00
N    6.4955068893738392E+00    1.9767931148868170E+00    7.8386916992208109E+00
Ga    6.4978637379229953E+00    1.3569112014373313E-01    8.4988247468940283E+00
N    6.4972453632739411E+00    1.3136453537563952E-01    1.0474117787172062E+01
Ga    6.4974664674832621E+00    1.9733351673078341E+00    1.1116819866474778E+01
N    6.4969117704447550E+00    1.9518879421950057E+00    1.3112990710504766E+01
Ga    6.4966138037136005E+00    1.3366178634123332E-01    1.3920492502027598E+01
N    6.4970587587341599E+00    1.3433929244272491E-01    1.6122598653456588E+01
Ga    6.4975897617716809E+00    2.1818718449989754E+00    1.6538466069901084E+01
Ga    9.3803908715901798E+00    2.2885839665285719E+00    6.4964604893653755E-01
N    4.8542066628098341E+00    5.0103674083518852E+00    2.3664284103879973E+00
Ga    4.9221904137628059E+00    2.5777836636193561E+00    3.2792191009071483E+00
N    4.8951458131413528E+00    2.9110112557641501E+00    5.2347781397618292E+00
Ga    4.8850362862442784E+00    4.7819931911945313E+00    5.7998475407519949E+00
N    4.8808483447669744E+00    4.7738625277589515E+00    7.8131701120848627E+00
Ga    4.9020139195345651E+00    2.9238301121646346E+00    8.4775033017410397E+00
N    4.8997227697367558E+00    2.9231222439679572E+00    1.0475603137692783E+01
Ga    4.8776177652311912E+00    4.7802126743441171E+00    1.1117217715984308E+01
N    4.8585400504643088E+00    4.7906669944242157E+00    1.3113081668506981E+01
Ga    4.9009970065012682E+00    2.9224854384384580E+00    1.3672783449672229E+01
N    4.8735266118019762E+00    2.9063236880441581E+00    1.5634097288509645E+01
Ga    5.0526649214593311E+00    4.6794625432391221E+00    1.6537535300864935E+01
N    6.4983838200762607E+00    3.8525716537499184E+00    1.7673690195867991E+01
N    3.2483097769530493E+00    7.7002790394150544E+00    2.6006773793856701E+00
N    3.2615398221048997E+00    5.7052429924655499E+00    5.1021769566149562E+00
Ga    3.2885247314142636E+00    7.5372296289038418E+00    5.8667041795295454E+00
N    3.2794311192824637E+00    7.5465034450820241E+00    7.8563439138751114E+00
Ga    3.2911832628149704E+00    5.6959688568412998E+00    8.4906151289534186E+00
N    3.2844313146740505E+00    5.6990404467850686E+00    1.0467242573677582E+01
Ga    3.2868940123714241E+00    7.5386050955542716E+00    1.1119978715411188E+01
N    3.2828841904551727E+00    7.5204824539329271E+00    1.3115594768343293E+01
Ga    3.2840820767972483E+00    5.7008135557906892E+00    1.3918300195619848E+01
N    3.2834756497007671E+00    5.7025839717895979E+00    1.6122391805953310E+01
Ga    3.2825242097072178E+00    7.7442060446255381E+00    1.6531345605611524E+01
Ga    3.2989339312577575E+00    9.4074928947238483E+00    1.3233176458057003E+00
N    1.7684877490272788E+00    1.0280282518835474E+01    2.5776820584381381E+00
Ga    1.6689778646751017E+00    8.5174563199271702E+00    3.3889201875818635E+00
N    1.6574950488195319E+00    8.4801181732714728E+00    5.3291877321363863E+00
Ga    1.6517366724698734E+00    1.0361065046449292E+01    5.8838627739334877E+00
N    1.6694841134844933E+00    1.0345001210252864E+01    7.8712904975047362E+00
Ga    1.6888684600107460E+00    8.4920940024495000E+00    8.5114287672522870E+00
N    1.6855478730518163E+00    8.4916067193947296E+00    1.0498703828080121E+01
Ga    1.6590984315660324E+00    1.0354307373495283E+01    1.1124536457240049E+01
N    1.6410861703797930E+00    1.0362392525698549E+01    1.3119581093283664E+01
Ga    1.6869781337287650E+00    8.4930868072250938E+00    1.3673834015903813E+01
N    1.6604198516365416E+00    8.4766184072896742E+00    1.5637528999571922E+01
Ga    1.8273900417144513E+00    1.0255758660429212E+01    1.6529895622006592E+01
N    3.2814797489937670E+00    9.4248500685131269E+00    1.7664461932504917E+01
N    9.6967068962826630E+00    2.0084568519418431E+00    2.6318586434245073E+00
Ga    9.7007009027012749E+00    1.9471518667755625E-01    3.3194804747123663E+00
N    9.7066794515033745E+00    1.4165513979147853E-01    5.2848057324119742E+00
Ga    9.6946657353213279E+00    1.9942694969325778E+00    5.9166026298425693E+00
N    9.7101866606082421E+00    1.9863843949291700E+00    7.8974703962249295E+00
Ga    9.7181292904277186E+00    1.2259860274915059E-01    8.4940347791755855E+00
N    9.7149357991074439E+00    1.1862279737352657E-01    1.0487785449662937E+01
Ga    9.7104829723114072E+00    1.9888833228589931E+00    1.1077429031192084E+01
N    9.7125136030990777E+00    1.9879796927885156E+00    1.3051192855981364E+01
Ga    9.7139569842968516E+00    1.1834562537672599E-01    1.3672231718012094E+01
N    9.7152620606401570E+00    1.4913915099033187E-01    1.5637361081919163E+01
Ga    9.7129567060563406E+00    1.9883815957079320E+00    1.5914786568797426E+01
N    8.1288023327789727E+00    4.7391126913952375E+00    2.5677630080171721E+00
Ga    8.0545507969978196E+00    2.9486553633344510E+00    3.2471710318796547E+00
N    8.1118450649046530E+00    2.9090380959700393E+00    5.2616634347686437E+00
Ga    8.1211978194389207E+00    4.7837060258391855E+00    5.7972749565825881E+00
N    8.1100028459205884E+00    4.7784423174366450E+00    7.8217007642702390E+00
Ga    8.0925406862240052E+00    2.9265908472359232E+00    8.4745449726283173E+00
N    8.0936602703016085E+00    2.9230730588630363E+00    1.0475549016142939E+01
Ga    8.1156647797811718E+00    4.7800807088182307E+00    1.1116765259061847E+01
N    8.1352419570165964E+00    4.7909509505684404E+00    1.3113480215053450E+01
Ga    8.0930131501023492E+00    2.9226295398183022E+00    1.3672495621393780E+01
N    8.1215304209969776E+00    2.9058600306114251E+00    1.5634084743838908E+01
Ga    7.9437907643883934E+00    4.6801433296409281E+00    1.6537534244395655E+01
N    6.4856128113319471E+00    7.5676829140465651E+00    2.6413604693081494E+00
Ga    6.6386758576724700E+00    5.7618446422445713E+00    3.1489958069093800E+00
N    6.4907355498292274E+00    5.6893415787154362E+00    5.1913977389560637E+00
Ga    6.4843754949292416E+00    7.5272275754784657E+00    5.8766521042559576E+00
N    6.4947456707652078E+00    7.5489028298184166E+00    7.8700771494968089E+00
Ga    6.4967221209834589E+00    5.6852432308046001E+00    8.4681472861824219E+00
N    6.4956592011374399E+00    5.6879775046091963E+00    1.0470388705800138E+01
Ga    6.4949975729491873E+00    7.5552925805762241E+00    1.1073453794051185E+01
N    6.4962872476627647E+00    7.5572685091508793E+00    1.3047537436638558E+01
Ga    6.4969194580247080E+00    5.6884522531491726E+00    1.3672744449650230E+01
N    6.4971113551930113E+00    5.7218653504450581E+00    1.5635099026246568E+01
Ga    6.4976279611455015E+00    7.5584583331647979E+00    1.5915519857391097E+01
N    4.7806140491696194E+00    1.0297836642941853E+01    2.5723859608687651E+00
Ga    4.9608259563823385E+00    8.4418914068612114E+00    3.3015564841090606E+00
N    4.8843837685215510E+00    8.4864108793146720E+00    5.2873918422667021E+00
Ga    4.9119160336312202E+00    1.0357859848755602E+01    5.8352950192370221E+00
N    4.8954679856489323E+00    1.0348574038196379E+01    7.8401750436423043E+00
Ga    4.8864689888203943E+00    8.4902147571244271E+00    8.4753373776743146E+00
N    4.8799909045310566E+00    8.4923851837809181E+00    1.0474770704448122E+01
Ga    4.9045404422827552E+00    1.0349452752557553E+01    1.1119608653527576E+01
N    4.9210009848792335E+00    1.0360485323289396E+01    1.3115857500598253E+01
Ga    4.8791845467973936E+00    8.4916995678199925E+00    1.3672222395162340E+01
N    4.9040398290789371E+00    8.4776000116827053E+00    1.5635725493173963E+01
Ga    4.7352055586183992E+00    1.0254356868810344E+01    1.6530105877786706E+01
O   -8.5290354378046145E-03    3.7825496039636008E+00   -4.0115690039985702E-01
C    6.6782477582721878E-01    2.6794025871008085E+00   -1.0270906545094760E+00
H    1.7369946709412829E+00    2.6330579026708074E+00   -7.6254192709464286E-01
H    2.1138717632048101E-01    1.7107083369450713E+00   -7.6499633205917117E-01
H    5.8507813857502955E-01    2.8192403794189169E+00   -2.1141519633190682E+00
Ga    3.1177643695240063E+00    5.7921953361487066E+00    3.0438060044975859E+00
H    5.5706458782771376E-02    7.5501337807054156E+00    1.7602769855723615E+00
C    4.9049245482763437E+00    4.5121140534379727E+00    1.1781677418569210E+00
H    5.8683982718299195E+00    4.2237871176790573E+00    7.3511489844953604E-01
H    3.9950207165793299E+00    4.3355969294683572E+00    5.8813993616804738E-01
     &END COORD
     &KIND C
       BASIS_SET DZVP-MOLOPT-SR-GTH-q4
       POTENTIAL GTH-PBE-q4
       &POTENTIAL
 2 2
  0.3384712400000000E+00 2 -0.8803673979999999E+01  0.1339210850000000E+01
 2
  0.3025757500000000E+00 1  0.9622486650000001E+01
  0.2915069400000000E+00 0
         # Potential name:  GTH-PBE-Q4  for symbol:  C
         # Potential read from the potential filename: GTH_POTENTIALS
       &END POTENTIAL
     &END KIND
     &KIND O
       BASIS_SET DZVP-MOLOPT-SR-GTH-q6
       POTENTIAL GTH-PBE-q6
       &POTENTIAL
 2 4
  0.2445543000000000E+00 2 -0.1666721480000000E+02  0.2487311320000000E+01
 2
  0.2209559200000000E+00 1  0.1833745811000000E+02
  0.2113324700000000E+00 0
         # Potential name:  GTH-PBE-Q6  for symbol:  O
         # Potential read from the potential filename: GTH_POTENTIALS
       &END POTENTIAL
     &END KIND
     &KIND H
       BASIS_SET DZVP-MOLOPT-SR-GTH-q1
       POTENTIAL GTH-PBE-q1
       &POTENTIAL
 1
  0.2000000000000000E+00 2 -0.4178900440000000E+01  0.7244633100000000E+00
 0
         # Potential name:  GTH-PBE-Q1  for symbol:  H
         # Potential read from the potential filename: GTH_POTENTIALS
       &END POTENTIAL
     &END KIND
     &KIND N
       BASIS_SET DZVP-MOLOPT-SR-GTH
       POTENTIAL GTH-PBE-q5
       &POTENTIAL
 2 3
  0.2837905100000000E+00 2 -0.1241522559000000E+02  0.1868095920000000E+01
 2
  0.2554050000000000E+00 1  0.1363026257000000E+02
  0.2454945300000000E+00 0
         # Potential name:  GTH-PBE-Q5  for symbol:  N
         # Potential read from the potential filename: GTH_POTENTIALS
       &END POTENTIAL
     &END KIND
     &KIND Ga
       BASIS_SET DZVP-MOLOPT-SR-GTH
       POTENTIAL GTH-PBE-q13
       &POTENTIAL
 2 1 10
  0.4900000000000000E+00 0
 3
  0.4167772300000000E+00 3  0.1047568975000000E+02 -0.4921768140000000E+01  0.8707055900000000E+00
  0.7770178090000000E+01 -0.2248152160000000E+01
  0.1784415450000000E+01
  0.5696265200000000E+00 2  0.1777985340000000E+01  0.1958597600000000E+00
 -0.2317443900000000E+00
  0.2381265000000000E+00 1 -0.1624868022000000E+02
         # Potential name:  GTH-PBE-Q13  for symbol:  GA
         # Potential read from the potential filename: GTH_POTENTIALS
       &END POTENTIAL
     &END KIND
     &TOPOLOGY
       NUMBER_OF_ATOMS  209
       MULTIPLE_UNIT_CELL  1 1 1
     &END TOPOLOGY
   &END SUBSYS
 &END FORCE_EVAL
