 # Version information for this restart file 
 # current date 2019-07-22 00:05:26.634
 # current working dir /lustre04/scratch/rzk/rzk/GaN-carbene/443-adatoms-both-2x2/12-CH3O-H2C-H/02-Start-Intermediate-0904
 # Program compiled at                              Sun Apr  7 00:48:11 EDT 2019
 # Program compiled on                          beluga2.int.ets1.calculquebec.ca
 # Program compiled for                        Beluga-Linux-x86-64-intel-openmpi
 # Source code revision number                                         svn:18619
 &GLOBAL
   PRINT_LEVEL  MEDIUM
   PROJECT_NAME TEST
   RUN_TYPE  GEO_OPT
 &END GLOBAL
 &MOTION
   &GEO_OPT
     MAX_ITER  500
     STEP_START_VAL  17
   &END GEO_OPT
 &END MOTION
 &FORCE_EVAL
   METHOD  QS
   STRESS_TENSOR  ANALYTICAL
   &DFT
     BASIS_SET_FILE_NAME BASIS_MOLOPT
     POTENTIAL_FILE_NAME GTH_POTENTIALS
     UKS  T
     SURFACE_DIPOLE_CORRECTION  T
     SURF_DIP_DIR  Z
     &SCF
       MAX_SCF  80
       EPS_SCF     5.0000000000000004E-06
       &OT  T
         PRECONDITIONER  FULL_ALL
       &END OT
       &OUTER_SCF  T
         OPTIMIZER  NONE
         EPS_SCF     5.0000000000000004E-06
         MAX_SCF  4
       &END OUTER_SCF
       &PRINT
         &RESTART  OFF
           BACKUP_COPIES  1
           &EACH
             JUST_ENERGY  0
             QS_SCF  0
             MD  20
           &END EACH
         &END RESTART
       &END PRINT
     &END SCF
     &QS
       EPS_DEFAULT     1.0000000000000000E-14
       METHOD  GPW
     &END QS
     &MGRID
       NGRIDS  5
       CUTOFF     1.2000000000000000E+03
     &END MGRID
     &XC
       DENSITY_CUTOFF     1.0000000000000000E-10
       GRADIENT_CUTOFF     1.0000000000000000E-10
       TAU_CUTOFF     1.0000000000000000E-10
       &XC_FUNCTIONAL  NO_SHORTCUT
         &PBE  T
         &END PBE
       &END XC_FUNCTIONAL
       &VDW_POTENTIAL
         POTENTIAL_TYPE  PAIR_POTENTIAL
         &PAIR_POTENTIAL
           R_CUTOFF     1.0000000000000004E+01
           TYPE  DFTD3
           PARAMETER_FILE_NAME dftd3.dat
           REFERENCE_FUNCTIONAL PBE
           EPS_CN     9.9999999999999995E-07
           CALCULATE_C9_TERM  T
           REFERENCE_C9_TERM  T
           LONG_RANGE_CORRECTION  F
           VERBOSE_OUTPUT  F
         &END PAIR_POTENTIAL
       &END VDW_POTENTIAL
     &END XC
   &END DFT
   &SUBSYS
     &CELL
       A     1.2864472766435110E+01    0.0000000000000000E+00    0.0000000000000000E+00
       B    -6.4322363581020028E+00    1.1140960178524473E+01    0.0000000000000000E+00
       C     0.0000000000000000E+00    0.0000000000000000E+00    3.2000000000000000E+01
       MULTIPLE_UNIT_CELL  1 1 1
       &CELL_REF
         A     1.2982353780853531E+01    0.0000000000000000E+00    0.0000000000000000E+00
         B    -6.4911768904267628E+00    1.1243048175136114E+01    0.0000000000000000E+00
         C     0.0000000000000000E+00    0.0000000000000000E+00    3.2000000000000000E+01
         MULTIPLE_UNIT_CELL  1 1 1
       &END CELL_REF
     &END CELL
     &COORD
N    6.3977172213164957E-02    2.1343663509734059E+00    2.5614765955986138E+00
Ga    3.3685654981776322E-02    1.6323808266397791E-01    2.8804191993950319E+00
N    7.7964280502013247E-02    1.3208536055604003E-01    5.0598585382613388E+00
Ga    6.8640671973520834E-02    1.9594603220981841E+00    5.8248829188045557E+00
N    7.3446009403291976E-02    1.9767216579710207E+00    7.8364177758023077E+00
Ga    6.8370048789635068E-02    1.3026590671976016E-01    8.4772903849210568E+00
N    7.3370699607369416E-02    1.2802601420801027E-01    1.0461728226850036E+01
Ga    7.5976835636326151E-02    1.9645080019040138E+00    1.1115918311201789E+01
N    7.5281972715524739E-02    1.9476456623183980E+00    1.3115395185273210E+01
Ga    7.5148928501806531E-02    1.2674018209843499E-01    1.3911072990827380E+01
N    7.5339763146171468E-02    1.2666073269161710E-01    1.6121614193199488E+01
Ga    7.3706724434171020E-02    2.1637984918665096E+00    1.6525604057599129E+01
Ga    6.1466228335649548E-02    3.8397611631971289E+00    1.3920334075546874E+00
N   -1.4105504869512315E+00    4.7181970632885939E+00    2.5521838645347308E+00
Ga   -1.6311666468707060E+00    2.8850425213785025E+00    3.3009603924583222E+00
N   -1.5483517490470349E+00    2.9137102105348802E+00    5.2830061376854003E+00
Ga   -1.5664275317856071E+00    4.7751813588676288E+00    5.8739008736715626E+00
N   -1.5410968590537784E+00    4.7721544069185224E+00    7.8683394955889208E+00
Ga   -1.5224692157587445E+00    2.9130706944920495E+00    8.4898858376600987E+00
N   -1.5212868620828617E+00    2.9169846848999512E+00    1.0487109751057963E+01
Ga   -1.5503909831899241E+00    4.7758458767207204E+00    1.1120259365094196E+01
N   -1.5652066091993946E+00    4.7866117921728755E+00    1.3117766903397946E+01
Ga   -1.5225822037583914E+00    2.9179347547348935E+00    1.3667702503904193E+01
N   -1.5499522953057336E+00    2.9043467295375915E+00    1.5633769117563347E+01
Ga   -1.3717349595662098E+00    4.6751190829448745E+00    1.6525998422081297E+01
N    8.1938877489065004E-02    3.8353339393477950E+00    1.7661965034884084E+01
N   -3.1300122906615448E+00    7.6816925105057807E+00    2.5856304534069490E+00
Ga   -3.1142537774406915E+00    5.6649854269383146E+00    2.9525318172222517E+00
N   -3.1209316555782665E+00    5.7124335311374947E+00    5.1167678766006874E+00
Ga   -3.1492115857137688E+00    7.5221232301837366E+00    5.8751846819222457E+00
N   -3.1435980109010759E+00    7.5473777649505580E+00    7.8657333930010935E+00
Ga   -3.1469270794648931E+00    5.6958961363725589E+00    8.4960587890080266E+00
N   -3.1431780811680423E+00    5.6966460483129042E+00    1.0474061505808626E+01
Ga   -3.1471081081339518E+00    7.5363344190966775E+00    1.1118976090105543E+01
N   -3.1432661052438595E+00    7.5187090889708976E+00    1.3117352301908124E+01
Ga   -3.1424055425000907E+00    5.6970211501435895E+00    1.3912384170977170E+01
N   -3.1414885055899386E+00    5.6969078521184029E+00    1.6122601161775130E+01
Ga   -3.1431689304568997E+00    7.7343666849605723E+00    1.6524954482171744E+01
Ga   -3.1538707251475131E+00    9.4193764054212483E+00    1.5508687693452496E+00
N   -4.6544041217847028E+00    1.0287806997294815E+01    2.5655522761610823E+00
Ga   -4.8630850001220818E+00    8.4281954497119571E+00    3.3302097373345876E+00
N   -4.7460294458329697E+00    8.4846699358457087E+00    5.2964188923890845E+00
Ga   -4.7865226165657058E+00    1.0357804101335478E+01    5.8460773625015419E+00
N   -4.7618673736164352E+00    1.0345032670939728E+01    7.8461869184474331E+00
Ga   -4.7522787496693324E+00    8.4860664454782917E+00    8.4771506399006942E+00
N   -4.7426851313106280E+00    8.4884875197816463E+00    1.0478043557468322E+01
Ga   -4.7672206381630273E+00    1.0348388290784595E+01    1.1111915469363675E+01
N   -4.7812157772303943E+00    1.0357828660278072E+01    1.3112004592102178E+01
Ga   -4.7404587266190292E+00    8.4904017039544453E+00    1.3667180921389773E+01
N   -4.7679709215878150E+00    8.4761315811700939E+00    1.5633042468550395E+01
Ga   -4.5890005340520954E+00    1.0246624325653961E+01    1.6525924684080717E+01
N   -3.1352913139061118E+00    9.4071530181724370E+00    1.7655814332983848E+01
N    3.2879393297580410E+00    2.0043028780275103E+00    2.6343579321206336E+00
Ga    3.2634060317798070E+00    2.4166333267208490E-01    3.3357477628362502E+00
N    3.2887344799938640E+00    1.2877311742203454E-01    5.3004711371337772E+00
Ga    3.2940911354492877E+00    1.9993057296033807E+00    5.9021656702687402E+00
N    3.2950258310112646E+00    1.9866534493151162E+00    7.8841266647345822E+00
Ga    3.2837844491814656E+00    1.2048088169678943E-01    8.4851803619988377E+00
N    3.2886604639207615E+00    1.1623333706225801E-01    1.0483048073446609E+01
Ga    3.2912064031761075E+00    1.9843219512894970E+00    1.1074204721440955E+01
N    3.2909485514295396E+00    1.9841671995888801E+00    1.3050740740635279E+01
Ga    3.2888355263994766E+00    1.1466912603260007E-01    1.3668251719984694E+01
N    3.2872863380994159E+00    1.4654875120831717E-01    1.5633905010198278E+01
Ga    3.2900569470658936E+00    1.9843775296210642E+00    1.5912057867634546E+01
N    1.5348386352833399E+00    4.7167792348475306E+00    2.5843234852516810E+00
Ga    1.7549626045347551E+00    2.8842343825518806E+00    3.3199318730233895E+00
N    1.6865674931261141E+00    2.9162497128777716E+00    5.2984134241256440E+00
Ga    1.7036830536792691E+00    4.7742018798578911E+00    5.8756825131612436E+00
N    1.6904878552941094E+00    4.7745813805921546E+00    7.8638549850749042E+00
Ga    1.6723803625937037E+00    2.9120733461899815E+00    8.4800293144354040E+00
N    1.6727088128094740E+00    2.9158526230922162E+00    1.0480480914179905E+01
Ga    1.7011698565999944E+00    4.7746243118364315E+00    1.1116965646574405E+01
N    1.7147495837404907E+00    4.7862799424847333E+00    1.3116197561827830E+01
Ga    1.6716041196922167E+00    2.9181728015071795E+00    1.3669495724577823E+01
N    1.6980751301105093E+00    2.9030647516159305E+00    1.5636502777026660E+01
Ga    1.5259362385457060E+00    4.6795765214867675E+00    1.6525985397235665E+01
N    7.7753580454477417E-02    7.5532242717407092E+00    2.7813000830830839E+00
Ga    4.6007185963465043E-02    5.6908316807653012E+00    3.4004078965409623E+00
N    7.0140482097059323E-02    5.7132600241380054E+00    5.3379646942304273E+00
Ga    7.8329366118651614E-02    7.5552776870723166E+00    5.9741711163975051E+00
N    7.2232767547342980E-02    7.5556334570881694E+00    7.9334410878904755E+00
Ga    7.3785239590734630E-02    5.6823594655125733E+00    8.5058186826306699E+00
N    7.5101834820387556E-02    5.6845490362242401E+00    1.0497402836560600E+01
Ga    7.5374167120002195E-02    7.5538811052890740E+00    1.1084462757185058E+01
N    7.4786673719637639E-02    7.5543566549914125E+00    1.3058980415926788E+01
Ga    7.4550273139504408E-02    5.6826887731939104E+00    1.3669884584521235E+01
N    7.2438988827341816E-02    5.7161672990467167E+00    1.5635567458652362E+01
Ga    7.4182704374960259E-02    7.5554429102824994E+00    1.5907848412499785E+01
N   -1.6408758785390658E+00    1.0269963075527501E+01    2.5968754592202856E+00
Ga   -1.5133084208718608E+00    8.4680649135155299E+00    3.4091310321879051E+00
N   -1.5250598416837793E+00    8.4762956214526319E+00    5.3331968039843067E+00
Ga   -1.5136075314251027E+00    1.0357197923382264E+01    5.8834117579593279E+00
N   -1.5316755715813963E+00    1.0340373884387228E+01    7.8700883258542547E+00
Ga   -1.5501138457326620E+00    8.4880493640420784E+00    8.5093539736671389E+00
N   -1.5453777188330080E+00    8.4874975726500494E+00    1.0499208092267910E+01
Ga   -1.5209227979129689E+00    1.0350358063856136E+01    1.1120040451174921E+01
N   -1.5030828140594021E+00    1.0358670993330401E+01    1.3117884378768233E+01
Ga   -1.5467984367782561E+00    8.4902818964184128E+00    1.3669850401646398E+01
N   -1.5177519982725995E+00    8.4739615585894583E+00    1.5636910705214747E+01
Ga   -1.6905077887289381E+00    1.0250810537746679E+01    1.6524938433297137E+01
N    6.5871227357331232E+00    1.9977344300167306E+00    2.5794542656133190E+00
Ga    6.5533660880233464E+00    1.0628718854530733E-01    2.9685100093349157E+00
N    6.4998881436467357E+00    1.0230199489444100E-01    5.1342103349171699E+00
Ga    6.5029514818727776E+00    1.9469968267840052E+00    5.8645827756030746E+00
N    6.4985326723980279E+00    1.9714306047756145E+00    7.8585216700226939E+00
Ga    6.5064715193810700E+00    1.2570998979135647E-01    8.4977414610296762E+00
N    6.5063817852729215E+00    1.2592569630523484E-01    1.0474945180872037E+01
Ga    6.5066624075613113E+00    1.9684635142277283E+00    1.1113638092485020E+01
N    6.5064058072626407E+00    1.9486601593556747E+00    1.3113665824663592E+01
Ga    6.5073512958626623E+00    1.2808256314854310E-01    1.3912774360089371E+01
N    6.5073939015769602E+00    1.2721143370049484E-01    1.6121900513364146E+01
Ga    6.5060461000775112E+00    2.1650810672633694E+00    1.6525738850434259E+01
Ga    8.5266673543612139E+00    2.9141063461208581E+00    7.9367252748199335E-01
N    4.8462365474273881E+00    5.0433702810182144E+00    2.3296732054406077E+00
Ga    4.9385477561909621E+00    2.5787512880653027E+00    3.2558077166913968E+00
N    4.9089007964853506E+00    2.9054015418397103E+00    5.2187829683765870E+00
Ga    4.8949338727486280E+00    4.7794119485159889E+00    5.7867724616196003E+00
N    4.8929654513893510E+00    4.7711618912180223E+00    7.8066772292546212E+00
Ga    4.9059213313959438E+00    2.9244559738637639E+00    8.4803309920215764E+00
N    4.9079518901229333E+00    2.9211504815495473E+00    1.0478770101748363E+01
Ga    4.8845819713094816E+00    4.7774819109445197E+00    1.1118041896574232E+01
N    4.8682170199141312E+00    4.7866628926142010E+00    1.3114771053371417E+01
Ga    4.9098285038448708E+00    2.9185306116349481E+00    1.3668779714349851E+01
N    4.8805939980829693E+00    2.9042653161806609E+00    1.5633569068939599E+01
Ga    5.0609033213769532E+00    4.6757732538903500E+00    1.6525732518448851E+01
N    6.5136913699987735E+00    3.8371891010093169E+00    1.7656594545421576E+01
N    3.2559223082483717E+00    7.7024543290744383E+00    2.6092936867152448E+00
N    3.2710245963604616E+00    5.7030640037302671E+00    5.1021196057737903E+00
Ga    3.2970878595820912E+00    7.5371008259911028E+00    5.8619539221223338E+00
N    3.2883745556902069E+00    7.5448975438370018E+00    7.8546736082264230E+00
Ga    3.3011739091794530E+00    5.6932026430334064E+00    8.4838896193525208E+00
N    3.2942637640662040E+00    5.6955187128753506E+00    1.0464611725842628E+01
Ga    3.2961446246520070E+00    7.5363001910724909E+00    1.1113938244142785E+01
N    3.2921473994731323E+00    7.5181836972797358E+00    1.3113657602178980E+01
Ga    3.2918994283548821E+00    5.6974233683120152E+00    1.3912700499768381E+01
N    3.2917599891144653E+00    5.6968672894870505E+00    1.6121696357598481E+01
Ga    3.2905099324764482E+00    7.7348018109008940E+00    1.6524679905482536E+01
Ga    3.3265097065388787E+00    9.4482843143395598E+00    1.3337035337345498E+00
N    1.7827694187029171E+00    1.0278468695273162E+01    2.5693766827759514E+00
Ga    1.6814055752004620E+00    8.5193399568439911E+00    3.3829761236554603E+00
N    1.6652016298958841E+00    8.4813719448018183E+00    5.3273541901178882E+00
Ga    1.6664474038091917E+00    1.0363618319452163E+01    5.8665756598136332E+00
N    1.6782314619360650E+00    1.0343713719961112E+01    7.8635450372970226E+00
Ga    1.6963123064184125E+00    8.4903576578786950E+00    8.5025769482689562E+00
N    1.6938187459657839E+00    8.4884378681064874E+00    1.0494361303456456E+01
Ga    1.6688127534716590E+00    1.0349900729683469E+01    1.1119883600261167E+01
N    1.6520990087625576E+00    1.0358288827420870E+01    1.3116940240686326E+01
Ga    1.6958994393768525E+00    8.4900711977200984E+00    1.3668622503708294E+01
N    1.6665197019851432E+00    8.4758336740083262E+00    1.5634361818269458E+01
Ga    1.8453152609172017E+00    1.0246395196496930E+01    1.6524479364088180E+01
N    3.2993587282031922E+00    9.4073487450986750E+00    1.7660659012697483E+01
N    9.6401205523503535E+00    2.0524918029678378E+00    2.6392118728710789E+00
Ga    9.6988592958744935E+00    2.4357039543121142E-01    3.2813784998870954E+00
N    9.7154621450973586E+00    1.4701578888314851E-01    5.2702709677997452E+00
Ga    9.7244952527711597E+00    1.9858882970007210E+00    5.9277757363662893E+00
N    9.7230239206468774E+00    1.9835908607014430E+00    7.9064511147907535E+00
Ga    9.7280827448767013E+00    1.1694264948513267E-01    8.4883918950245558E+00
N    9.7241190082452320E+00    1.1432750940286919E-01    1.0485561708934242E+01
Ga    9.7226684181050995E+00    1.9841537274189700E+00    1.1072451676292424E+01
N    9.7228359490229543E+00    1.9840384280367280E+00    1.3050536437314125E+01
Ga    9.7240695828543302E+00    1.1471006838778576E-01    1.3666641579191017E+01
N    9.7216072714455279E+00    1.4519471198300390E-01    1.5632784124943955E+01
Ga    9.7226885897435729E+00    1.9840081144242334E+00    1.5908762415468878E+01
N    8.1410854132428803E+00    4.6822998580777035E+00    2.5469213298714015E+00
Ga    8.0777498063724646E+00    2.9259218609238342E+00    3.4165028534920681E+00
N    8.1107775362514420E+00    2.9154868784008392E+00    5.3626524338274084E+00
Ga    8.1297185687135354E+00    4.8023604078225022E+00    5.8357633297004528E+00
N    8.1185804477140593E+00    4.7829830822063375E+00    7.8425997626890487E+00
Ga    8.1029382169173072E+00    2.9227295157858380E+00    8.4759204450729673E+00
N    8.1041347915403588E+00    2.9190853495365405E+00    1.0478815974248041E+01
Ga    8.1261076333816646E+00    4.7771663516317648E+00    1.1113887297158634E+01
N    8.1447256608238270E+00    4.7873212357337511E+00    1.3113906150568608E+01
Ga    8.1032243435484439E+00    2.9192704585565239E+00    1.3667746210326357E+01
N    8.1314596016917324E+00    2.9026261386212844E+00    1.5635258024822734E+01
Ga    7.9574423669402172E+00    4.6795454352206995E+00    1.6525535274355200E+01
N    6.4999848255041410E+00    7.5588601409624676E+00    2.6433534439293198E+00
Ga    6.6487777522807816E+00    5.7505660653615989E+00    3.1355140188896322E+00
N    6.5083208388723008E+00    5.6837207632392603E+00    5.1764557015284041E+00
Ga    6.4986455328149839E+00    7.5286196338194848E+00    5.8693684482966715E+00
N    6.5048747119391637E+00    7.5457894406117090E+00    7.8648930586248378E+00
Ga    6.5001072898046903E+00    5.6867587306534437E+00    8.4740215689521516E+00
N    6.5031552511923385E+00    5.6852932683952861E+00    1.0474545974977872E+01
Ga    6.5050135441944690E+00    7.5541420987899448E+00    1.1070139334756012E+01
N    6.5061657789669987E+00    7.5541330459907758E+00    1.3047592798497844E+01
Ga    6.5067022731648825E+00    5.6853496643113148E+00    1.3667832396710565E+01
N    6.5044132684221259E+00    5.7177019530956246E+00    1.5632879453393821E+01
Ga    6.5060722714737436E+00    7.5552562957872391E+00    1.5910510585914961E+01
N    4.7745049078344532E+00    1.0292298262560243E+01    2.5724370705948139E+00
Ga    4.9659153390580926E+00    8.4314297951289650E+00    3.3030525476048269E+00
N    4.8980341592272438E+00    8.4823801065925633E+00    5.2884071475390320E+00
Ga    4.9174014654033593E+00    1.0360046653671018E+01    5.8144207024924990E+00
N    4.9039261979210442E+00    1.0348179638610537E+01    7.8295937862569582E+00
Ga    4.8959659356258616E+00    8.4909598028916662E+00    8.4667293971152997E+00
N    4.8905498476041611E+00    8.4899830861031749E+00    1.0471346839144115E+01
Ga    4.9157791265319410E+00    1.0347294787106218E+01    1.1112649658686253E+01
N    4.9307583403841075E+00    1.0357527939263791E+01    1.3112870966286415E+01
Ga    4.8881358916610447E+00    8.4898913897325770E+00    1.3667280219126020E+01
N    4.9142432753852248E+00    8.4745093273529690E+00    1.5634665573280818E+01
Ga    4.7426357015993492E+00    1.0250313603770778E+01    1.6524148653860280E+01
O    9.6025631209047543E-02    3.9195762698724743E+00   -4.2305166344110839E-01
C    6.4921930910528036E-01    2.7876627975404071E+00   -1.1144946472318720E+00
H    1.6258202404318904E+00    2.4716739203834619E+00   -7.0805497595326883E-01
H   -3.2094308821500654E-02    1.9205610028560200E+00   -1.0889345841838964E+00
H    7.9217015457824524E-01    3.0877804349653606E+00   -2.1640002902236053E+00
Ga    3.1080873788184151E+00    5.7985061164994161E+00    3.0452867306715352E+00
H    7.2862913116715153E-02    7.5446378312235165E+00    1.7543023149336632E+00
C    4.8724132292876012E+00    4.7221726285573444E+00    1.0825686210417580E+00
H    5.8322952830453261E+00    4.5060872114656068E+00    5.7200621277605435E-01
H    3.9503664037671578E+00    4.6507801364983807E+00    4.8209913109015501E-01
     &END COORD
     &KIND C
       BASIS_SET DZVP-MOLOPT-SR-GTH-q4
       POTENTIAL GTH-PBE-q4
       &POTENTIAL
 2 2
  0.3384712400000000E+00 2 -0.8803673979999999E+01  0.1339210850000000E+01
 2
  0.3025757500000000E+00 1  0.9622486650000001E+01
  0.2915069400000000E+00 0
         # Potential name:  GTH-PBE-Q4  for symbol:  C
         # Potential read from the potential filename: GTH_POTENTIALS
       &END POTENTIAL
     &END KIND
     &KIND O
       BASIS_SET DZVP-MOLOPT-SR-GTH-q6
       POTENTIAL GTH-PBE-q6
       &POTENTIAL
 2 4
  0.2445543000000000E+00 2 -0.1666721480000000E+02  0.2487311320000000E+01
 2
  0.2209559200000000E+00 1  0.1833745811000000E+02
  0.2113324700000000E+00 0
         # Potential name:  GTH-PBE-Q6  for symbol:  O
         # Potential read from the potential filename: GTH_POTENTIALS
       &END POTENTIAL
     &END KIND
     &KIND H
       BASIS_SET DZVP-MOLOPT-SR-GTH-q1
       POTENTIAL GTH-PBE-q1
       &POTENTIAL
 1
  0.2000000000000000E+00 2 -0.4178900440000000E+01  0.7244633100000000E+00
 0
         # Potential name:  GTH-PBE-Q1  for symbol:  H
         # Potential read from the potential filename: GTH_POTENTIALS
       &END POTENTIAL
     &END KIND
     &KIND N
       BASIS_SET DZVP-MOLOPT-SR-GTH
       POTENTIAL GTH-PBE-q5
       &POTENTIAL
 2 3
  0.2837905100000000E+00 2 -0.1241522559000000E+02  0.1868095920000000E+01
 2
  0.2554050000000000E+00 1  0.1363026257000000E+02
  0.2454945300000000E+00 0
         # Potential name:  GTH-PBE-Q5  for symbol:  N
         # Potential read from the potential filename: GTH_POTENTIALS
       &END POTENTIAL
     &END KIND
     &KIND Ga
       BASIS_SET DZVP-MOLOPT-SR-GTH
       POTENTIAL GTH-PBE-q13
       &POTENTIAL
 2 1 10
  0.4900000000000000E+00 0
 3
  0.4167772300000000E+00 3  0.1047568975000000E+02 -0.4921768140000000E+01  0.8707055900000000E+00
  0.7770178090000000E+01 -0.2248152160000000E+01
  0.1784415450000000E+01
  0.5696265200000000E+00 2  0.1777985340000000E+01  0.1958597600000000E+00
 -0.2317443900000000E+00
  0.2381265000000000E+00 1 -0.1624868022000000E+02
         # Potential name:  GTH-PBE-Q13  for symbol:  GA
         # Potential read from the potential filename: GTH_POTENTIALS
       &END POTENTIAL
     &END KIND
     &TOPOLOGY
       NUMBER_OF_ATOMS  209
       MULTIPLE_UNIT_CELL  1 1 1
     &END TOPOLOGY
   &END SUBSYS
 &END FORCE_EVAL
