 # Version information for this restart file 
 # current date 2019-07-22 06:08:28.832
 # current working dir /lustre04/scratch/rzk/rzk/GaN-carbene/443-adatoms-both-2x2/12-CH3O-H2C-H/02-Start-Intermediate-0904
 # Program compiled at                              Sun Apr  7 00:48:11 EDT 2019
 # Program compiled on                          beluga2.int.ets1.calculquebec.ca
 # Program compiled for                        Beluga-Linux-x86-64-intel-openmpi
 # Source code revision number                                         svn:18619
 &GLOBAL
   PRINT_LEVEL  MEDIUM
   PROJECT_NAME TEST
   RUN_TYPE  GEO_OPT
 &END GLOBAL
 &MOTION
   &GEO_OPT
     MAX_ITER  500
     STEP_START_VAL  93
   &END GEO_OPT
 &END MOTION
 &FORCE_EVAL
   METHOD  QS
   STRESS_TENSOR  ANALYTICAL
   &DFT
     BASIS_SET_FILE_NAME BASIS_MOLOPT
     POTENTIAL_FILE_NAME GTH_POTENTIALS
     UKS  T
     SURFACE_DIPOLE_CORRECTION  T
     SURF_DIP_DIR  Z
     &SCF
       MAX_SCF  80
       EPS_SCF     5.0000000000000004E-06
       &OT  T
         PRECONDITIONER  FULL_ALL
       &END OT
       &OUTER_SCF  T
         OPTIMIZER  NONE
         EPS_SCF     5.0000000000000004E-06
         MAX_SCF  4
       &END OUTER_SCF
       &PRINT
         &RESTART  OFF
           BACKUP_COPIES  1
           &EACH
             JUST_ENERGY  0
             QS_SCF  0
             MD  20
           &END EACH
         &END RESTART
       &END PRINT
     &END SCF
     &QS
       EPS_DEFAULT     1.0000000000000000E-14
       METHOD  GPW
     &END QS
     &MGRID
       NGRIDS  5
       CUTOFF     1.2000000000000000E+03
     &END MGRID
     &XC
       DENSITY_CUTOFF     1.0000000000000000E-10
       GRADIENT_CUTOFF     1.0000000000000000E-10
       TAU_CUTOFF     1.0000000000000000E-10
       &XC_FUNCTIONAL  NO_SHORTCUT
         &PBE  T
         &END PBE
       &END XC_FUNCTIONAL
       &VDW_POTENTIAL
         POTENTIAL_TYPE  PAIR_POTENTIAL
         &PAIR_POTENTIAL
           R_CUTOFF     1.0000000000000004E+01
           TYPE  DFTD3
           PARAMETER_FILE_NAME dftd3.dat
           REFERENCE_FUNCTIONAL PBE
           EPS_CN     9.9999999999999995E-07
           CALCULATE_C9_TERM  T
           REFERENCE_C9_TERM  T
           LONG_RANGE_CORRECTION  F
           VERBOSE_OUTPUT  F
         &END PAIR_POTENTIAL
       &END VDW_POTENTIAL
     &END XC
   &END DFT
   &SUBSYS
     &CELL
       A     1.2864472766435110E+01    0.0000000000000000E+00    0.0000000000000000E+00
       B    -6.4322363581020028E+00    1.1140960178524473E+01    0.0000000000000000E+00
       C     0.0000000000000000E+00    0.0000000000000000E+00    3.2000000000000000E+01
       MULTIPLE_UNIT_CELL  1 1 1
       &CELL_REF
         A     1.2982353780853531E+01    0.0000000000000000E+00    0.0000000000000000E+00
         B    -6.4911768904267628E+00    1.1243048175136114E+01    0.0000000000000000E+00
         C     0.0000000000000000E+00    0.0000000000000000E+00    3.2000000000000000E+01
         MULTIPLE_UNIT_CELL  1 1 1
       &END CELL_REF
     &END CELL
     &COORD
N    6.1912923802429527E-02    2.1298588155157852E+00    2.5822947266808303E+00
Ga    3.4407946379131409E-02    1.6323329448672622E-01    2.9004850038428533E+00
N    6.7668494234617307E-02    1.3212513221682626E-01    5.0769676970587909E+00
Ga    6.2777842746970472E-02    1.9563547434894650E+00    5.8497156393944429E+00
N    6.3668722835910643E-02    1.9767033658433300E+00    7.8501996204925684E+00
Ga    6.0235947022467873E-02    1.2990312461947218E-01    8.4924223695695567E+00
N    6.3857900919458851E-02    1.3002833069903857E-01    1.0469151698816189E+01
Ga    6.5125033849823113E-02    1.9685315802489785E+00    1.1121314287855613E+01
N    6.5538545744746726E-02    1.9508973124791937E+00    1.3116626864190502E+01
Ga    6.5421490301312335E-02    1.3015289766203567E-01    1.3916244711673517E+01
N    6.5727083650119825E-02    1.3227438025844246E-01    1.6121446452112554E+01
Ga    6.5567445618319925E-02    2.1717293955619668E+00    1.6528013956650593E+01
Ga    5.3048695345273456E-02    3.8371904125551639E+00    1.4132370558212022E+00
N   -1.4145316677455828E+00    4.7095124389201235E+00    2.5687166416170166E+00
Ga   -1.5991727824357733E+00    2.8922614155350757E+00    3.3540278473747853E+00
N   -1.5560237478335062E+00    2.9140352138169008E+00    5.3072758179119752E+00
Ga   -1.5751601803999684E+00    4.7837828542913066E+00    5.8903342943192643E+00
N   -1.5489521074829531E+00    4.7744102598331954E+00    7.8755187716328461E+00
Ga   -1.5363884203995568E+00    2.9141849916255054E+00    8.4950838452602451E+00
N   -1.5322827364848888E+00    2.9200714507579559E+00    1.0488446688338524E+01
Ga   -1.5617928169602964E+00    4.7792083704692434E+00    1.1124444740433944E+01
N   -1.5761317293126416E+00    4.7912491491725611E+00    1.3119787214089717E+01
Ga   -1.5324129879429635E+00    2.9215337611765770E+00    1.3671944820039178E+01
N   -1.5563377975616817E+00    2.9061180470030958E+00    1.5636543007391353E+01
Ga   -1.3913615562460921E+00    4.6859350018608650E+00    1.6527508311352314E+01
N    6.5105086274320670E-02    3.8537309147810688E+00    1.7658720168659059E+01
N   -3.1359410801687368E+00    7.6856002263783720E+00    2.6031497124083116E+00
Ga   -3.1306839610571755E+00    5.6691993005392529E+00    2.9651110640880498E+00
N   -3.1217218619749070E+00    5.7186557780064389E+00    5.1288130787567381E+00
Ga   -3.1592682142057251E+00    7.5228369501955905E+00    5.8902678351092996E+00
N   -3.1519203728824423E+00    7.5510808621056080E+00    7.8744317303957336E+00
Ga   -3.1623349379750199E+00    5.6946301009120290E+00    8.4949464369727128E+00
N   -3.1540394599000598E+00    5.6991116379899047E+00    1.0471794371571839E+01
Ga   -3.1574007561275681E+00    7.5383463680390186E+00    1.1122893073960553E+01
N   -3.1530292413530017E+00    7.5211181246446603E+00    1.3117372860871837E+01
Ga   -3.1546250128669686E+00    5.7015794776330191E+00    1.3918920111542903E+01
N   -3.1529610079002470E+00    5.7031950279921793E+00    1.6122559286695463E+01
Ga   -3.1516180825630360E+00    7.7484138495582284E+00    1.6534571839996723E+01
Ga   -3.1658686023398372E+00    9.4132301860781809E+00    1.5984339493767223E+00
N   -4.6637921207926878E+00    1.0286436960353903E+01    2.5815821890632691E+00
Ga   -4.8789916390333907E+00    8.4213132332924676E+00    3.3474520639135767E+00
N   -4.7572612078833219E+00    8.4827012128329233E+00    5.3063950557242201E+00
Ga   -4.7932852411325975E+00    1.0355995424107107E+01    5.8573165285816682E+00
N   -4.7707390127137534E+00    1.0347760288675696E+01    7.8527412689595248E+00
Ga   -4.7621269427273507E+00    8.4883267122208235E+00    8.4852032634352259E+00
N   -4.7525005215148184E+00    8.4920839853255270E+00    1.0481054784985531E+01
Ga   -4.7764861573599555E+00    1.0350417437658722E+01    1.1120391582298483E+01
N   -4.7909282801625999E+00    1.0361130772972757E+01    1.3115709704627157E+01
Ga   -4.7498986907309950E+00    8.4921106388070875E+00    1.3672430549109192E+01
N   -4.7747075648681951E+00    8.4776270743263300E+00    1.5634891058954940E+01
Ga   -4.5998827214372513E+00    1.0252110319297518E+01    1.6533697673354343E+01
N   -3.1500014091540591E+00    9.4244857290418125E+00    1.7669146347679174E+01
N    3.2710162217530288E+00    2.0035270596256551E+00    2.6506232435053909E+00
Ga    3.2524427643251572E+00    2.4673313376031977E-01    3.3496538960527862E+00
N    3.2795244725927226E+00    1.3053688366130256E-01    5.3100003526766759E+00
Ga    3.2859720660270293E+00    2.0006224032077244E+00    5.9139107439031049E+00
N    3.2852592235765035E+00    1.9884139374159604E+00    7.8918594626375356E+00
Ga    3.2744188441975051E+00    1.2358373227337240E-01    8.4969221829078379E+00
N    3.2786003007940465E+00    1.2004690543896339E-01    1.0488713749939654E+01
Ga    3.2828370547425556E+00    1.9899917450166289E+00    1.1078390691515597E+01
N    3.2817421451475708E+00    1.9888366030999818E+00    1.3050753038901041E+01
Ga    3.2801023494256225E+00    1.1908020050859625E-01    1.3673348857320882E+01
N    3.2797086809159164E+00    1.5091960465616383E-01    1.5636900791714037E+01
Ga    3.2825595896859641E+00    1.9888857074260053E+00    1.5915140313777263E+01
N    1.5330108075369688E+00    4.7172421799476929E+00    2.5846064158459772E+00
Ga    1.7479779903059365E+00    2.8870327444113961E+00    3.3377499002139150E+00
N    1.6745062760252292E+00    2.9180540418079870E+00    5.3113201152505001E+00
Ga    1.6947190334594215E+00    4.7775735289759407E+00    5.8840704387562868E+00
N    1.6805940454312436E+00    4.7779792511646999E+00    7.8680465538925546E+00
Ga    1.6645397859707995E+00    2.9157943472959511E+00    8.4898906882309486E+00
N    1.6626080311866758E+00    2.9203583964944460E+00    1.0483943505954533E+01
Ga    1.6925959894238687E+00    4.7791210961241433E+00    1.1122754322998105E+01
N    1.7067681084482409E+00    4.7908930481430314E+00    1.3118150814849008E+01
Ga    1.6628818041927835E+00    2.9216164655903123E+00    1.3672582103628498E+01
N    1.6874212533770259E+00    2.9065192682566479E+00    1.5636660953535488E+01
Ga    1.5218970704974437E+00    4.6855905311669677E+00    1.6527731479767773E+01
N    6.9169259220088680E-02    7.5544503534907239E+00    2.7860696966013259E+00
Ga    4.5786092432300717E-02    5.6941736831535499E+00    3.4073085681010382E+00
N    6.3233465020972837E-02    5.7155755047336552E+00    5.3411938444994851E+00
Ga    7.0229904991427589E-02    7.5561695816307015E+00    5.9846473973361354E+00
N    6.4411771332347864E-02    7.5584974490192645E+00    7.9394315521229846E+00
Ga    6.4766635367815656E-02    5.6852794987252064E+00    8.5150909564870432E+00
N    6.5662759548628477E-02    5.6880250917339259E+00    1.0501618469009429E+01
Ga    6.6086511998906972E-02    7.5582128887087734E+00    1.1091466905984792E+01
N    6.5617274273003456E-02    7.5582992035810879E+00    1.3061219724096411E+01
Ga    6.5396304956091625E-02    5.6864785661276045E+00    1.3673790234833458E+01
N    6.5891935832677259E-02    5.7195076774735174E+00    1.5639255515087868E+01
Ga    6.5658586083971807E-02    7.5595965829381093E+00    1.5912981070350476E+01
N   -1.6566653463913492E+00    1.0264115382655945E+01    2.6089850742882472E+00
Ga   -1.5179658293648690E+00    8.4666044919754562E+00    3.4302666621049482E+00
N   -1.5330304583900254E+00    8.4785395916297421E+00    5.3481785247273494E+00
Ga   -1.5235267710132570E+00    1.0361147838082680E+01    5.8974068215257232E+00
N   -1.5407667935407268E+00    1.0344681507893569E+01    7.8795577000696904E+00
Ga   -1.5584144647658511E+00    8.4920378551891798E+00    8.5195133216778736E+00
N   -1.5549145667157838E+00    8.4922093285177453E+00    1.0504273580174193E+01
Ga   -1.5290046849272094E+00    1.0355677938478530E+01    1.1126236026612949E+01
N   -1.5116455453820916E+00    1.0363165492722057E+01    1.3120103075528503E+01
Ga   -1.5565986853772344E+00    8.4934089598922711E+00    1.3674317013591448E+01
N   -1.5281103821598079E+00    8.4763373398343749E+00    1.5636758603758986E+01
Ga   -1.7001019023007491E+00    1.0253994421922158E+01    1.6533391848721173E+01
N    6.5376525428453602E+00    1.9677728116648883E+00    2.5831798324731774E+00
Ga    6.5326321970527506E+00    1.0584390766213984E-01    2.9876950820376837E+00
N    6.4899399414182719E+00    9.5649947369608482E-02    5.1468411718020359E+00
Ga    6.5145027423787951E+00    1.9586672329219308E+00    5.8334091006520508E+00
N    6.4957299459665432E+00    1.9771046006267314E+00    7.8391781745199038E+00
Ga    6.4982235502255303E+00    1.3589404463893615E-01    8.4993051774165824E+00
N    6.4974966273479611E+00    1.3164745450350643E-01    1.0474184565452211E+01
Ga    6.4977389198593452E+00    1.9736334238555155E+00    1.1117163871935505E+01
N    6.4971289103117496E+00    1.9523842032939513E+00    1.3112813272297030E+01
Ga    6.4969406725524790E+00    1.3417378021380322E-01    1.3920079513064461E+01
N    6.4974252469414404E+00    1.3471947001369144E-01    1.6122010517389917E+01
Ga    6.4977476193216690E+00    2.1832383869022487E+00    1.6539296147781659E+01
Ga    9.3699242988797931E+00    2.3069886157934318E+00    6.5218691669469642E-01
N    4.8547117091091900E+00    5.0094148394803240E+00    2.3659001843272538E+00
Ga    4.9224683357927530E+00    2.5783371855854686E+00    3.2794830242267676E+00
N    4.8954415122631314E+00    2.9111353415634462E+00    5.2348718365014726E+00
Ga    4.8855008247975613E+00    4.7822415592410161E+00    5.7999277367392406E+00
N    4.8812744510531978E+00    4.7741164614197018E+00    7.8130644006444827E+00
Ga    4.9021368161253722E+00    2.9241483886523869E+00    8.4779964945754980E+00
N    4.9000132977901956E+00    2.9233929700311565E+00    1.0475646888463952E+01
Ga    4.8779791219525483E+00    4.7804765168506886E+00    1.1117436805393943E+01
N    4.8590747513850134E+00    4.7908223989208247E+00    1.3112855938754320E+01
Ga    4.9013336399538492E+00    2.9227879125591456E+00    1.3673011223125696E+01
N    4.8736574076494161E+00    2.9066880016609926E+00    1.5633890983068596E+01
Ga    5.0538567396881664E+00    4.6794569857585167E+00    1.6538588819820063E+01
N    6.4983391171230833E+00    3.8529221823367403E+00    1.7675743832672648E+01
N    3.2487401952762882E+00    7.7001757117787264E+00    2.6003986006320501E+00
N    3.2621621400563088E+00    5.7052245088315479E+00    5.1016606357202692E+00
Ga    3.2890257042256796E+00    7.5372910886016058E+00    5.8663991306630185E+00
N    3.2798632471937115E+00    7.5467505905743266E+00    7.8559969074609226E+00
Ga    3.2915437444474200E+00    5.6962467268002026E+00    8.4907198714404224E+00
N    3.2848158380678383E+00    5.6992699292734921E+00    1.0467055603132014E+01
Ga    3.2872676281906679E+00    7.5388968864214458E+00    1.1119834409646380E+01
N    3.2831689622496092E+00    7.5209044495178077E+00    1.3114967526308510E+01
Ga    3.2847261875991181E+00    5.7012577751439366E+00    1.3917519927384923E+01
N    3.2838739236389878E+00    5.7030425188426834E+00    1.6121875292300007E+01
Ga    3.2827546856818821E+00    7.7457308355613481E+00    1.6531734204649702E+01
Ga    3.2986955053843681E+00    9.4077751293959633E+00    1.3212239204713081E+00
N    1.7687506164185569E+00    1.0280269248847926E+01    2.5772859686657363E+00
Ga    1.6695619079015904E+00    8.5174405093874750E+00    3.3886802481051044E+00
N    1.6578557672017240E+00    8.4802975261976279E+00    5.3290484978422255E+00
Ga    1.6522502636152443E+00    1.0361419789622630E+01    5.8836795481295301E+00
N    1.6698853311371495E+00    1.0345342871406023E+01    7.8711329532477583E+00
Ga    1.6892732799703463E+00    8.4923186777350228E+00    8.5115387120930954E+00
N    1.6858315280033811E+00    8.4918969539775908E+00    1.0498481051995173E+01
Ga    1.6593637625168924E+00    1.0354589239510839E+01    1.1124727708819572E+01
N    1.6413771332597380E+00    1.0362721107572764E+01    1.3119240659318342E+01
Ga    1.6871467224992929E+00    8.4933606341436469E+00    1.3673660722904597E+01
N    1.6602548895053519E+00    8.4766960612339322E+00    1.5636789178000374E+01
Ga    1.8283031166878252E+00    1.0255816207140709E+01    1.6530343195153097E+01
N    3.2813587911586768E+00    9.4253181166692244E+00    1.7665426535356996E+01
N    9.6966966489585449E+00    2.0097763080792257E+00    2.6320496025735474E+00
Ga    9.7009392575624585E+00    1.9561434578147541E-01    3.3176294692739705E+00
N    9.7070370530861076E+00    1.4211202831331315E-01    5.2838584006014582E+00
Ga    9.6953777357891315E+00    1.9944608671198398E+00    5.9168485391090737E+00
N    9.7105675934523727E+00    1.9866811199065773E+00    7.8975286438199435E+00
Ga    9.7185743645386093E+00    1.2286489127914342E-01    8.4943221893191421E+00
N    9.7151909543439281E+00    1.1895502921251461E-01    1.0487727808054338E+01
Ga    9.7107119788596066E+00    1.9892742084298318E+00    1.1077536860660373E+01
N    9.7126544304047133E+00    1.9885249379942771E+00    1.3050861743608174E+01
Ga    9.7141807630867181E+00    1.1883634911068627E-01    1.3672049299216379E+01
N    9.7155945227507772E+00    1.4998098406496607E-01    1.5636562272975896E+01
Ga    9.7128701905068127E+00    1.9887542438572106E+00    1.5914135012975029E+01
N    8.1297947456083826E+00    4.7383172508810247E+00    2.5672559089516009E+00
Ga    8.0548031298328482E+00    2.9487193342060021E+00    3.2498201624449452E+00
N    8.1119862306146917E+00    2.9094657521150036E+00    5.2627736571894541E+00
Ga    8.1216432232686593E+00    4.7843388564697866E+00    5.7981476789236783E+00
N    8.1103869726173521E+00    4.7787986216954446E+00    7.8220566181065854E+00
Ga    8.0929309954989677E+00    2.9268610172247582E+00    8.4750470576245771E+00
N    8.0938644710606091E+00    2.9233631798409880E+00    1.0475570877275720E+01
Ga    8.1158522801219046E+00    4.7803120567995450E+00    1.1117028543176742E+01
N    8.1352259516960430E+00    4.7911189184683858E+00    1.3113230257798573E+01
Ga    8.0930937127108891E+00    2.9229845157212710E+00    1.3672747643682690E+01
N    8.1216946348917265E+00    2.9063958152671869E+00    1.5633840930427610E+01
Ga    7.9425949114626606E+00    4.6799253840366859E+00    1.6538492454498748E+01
N    6.4861357032821685E+00    7.5671979296424281E+00    2.6408736904528261E+00
Ga    6.6395225583117261E+00    5.7612352193094623E+00    3.1484301181982528E+00
N    6.4913421825547406E+00    5.6893258893118661E+00    5.1909095023202827E+00
Ga    6.4850041199868604E+00    7.5273613673138957E+00    5.8763397957371799E+00
N    6.4951768773128302E+00    7.5492317103959738E+00    7.8697239430823469E+00
Ga    6.4970288080464726E+00    5.6856737861522841E+00    8.4684812060667660E+00
N    6.4959599609250418E+00    5.6882250136960391E+00    1.0470270386662980E+01
Ga    6.4953702156674531E+00    7.5554779350370334E+00    1.1073587893867417E+01
N    6.4966617778994271E+00    7.5574615762773796E+00    1.3047070630226557E+01
Ga    6.4971957124623527E+00    5.6887391787300832E+00    1.3672909046464515E+01
N    6.4974395615379157E+00    5.7222046049332569E+00    1.5634809596998180E+01
Ga    6.4976073679163449E+00    7.5585632779507117E+00    1.5915362964388736E+01
N    4.7810456676337889E+00    1.0297964597685448E+01    2.5717223487628451E+00
Ga    4.9610299140810534E+00    8.4418426452206301E+00    3.3006466245427246E+00
N    4.8849993718081794E+00    8.4866177504763218E+00    5.2868298943450522E+00
Ga    4.9123138551927887E+00    1.0358317568541116E+01    5.8347049194073763E+00
N    4.8958337846364577E+00    1.0348890409463635E+01    7.8397035319986994E+00
Ga    4.8868769093976061E+00    8.4905137615378976E+00    8.4753382549661715E+00
N    4.8804377054126382E+00    8.4925959101090189E+00    1.0474435622757598E+01
Ga    4.9048136694947022E+00    1.0349672096045861E+01    1.1119496087247468E+01
N    4.9210962163998344E+00    1.0360743806173977E+01    1.3115236530406847E+01
Ga    4.8795873794141809E+00    8.4919353820026426E+00    1.3672029177169224E+01
N    4.9045810839819177E+00    8.4778363792437936E+00    1.5634880812593160E+01
Ga    4.7341706486958328E+00    1.0254061951646525E+01    1.6530411727085948E+01
O   -7.3326281694854351E-03    3.7854304345407130E+00   -4.0211424825910563E-01
C    6.6679910677574794E-01    2.6817484240789979E+00   -1.0294084637770839E+00
H    1.7343036198402324E+00    2.6282294770735151E+00   -7.5942230956037127E-01
H    2.0362461701985601E-01    1.7142608849916467E+00   -7.7478160847793565E-01
H    5.9084690458576772E-01    2.8270244440430834E+00   -2.1164406727785425E+00
Ga    3.1183579788669760E+00    5.7920432560961412E+00    3.0430755399155522E+00
H    5.6100520116587622E-02    7.5506355973218016E+00    1.7597857836494553E+00
C    4.9055430064465719E+00    4.5088858563484608E+00    1.1786770914726183E+00
H    5.8689001221338071E+00    4.2171097232534409E+00    7.3727880167789528E-01
H    3.9958176439145427E+00    4.3337822419403569E+00    5.8791257882575720E-01
     &END COORD
     &KIND C
       BASIS_SET DZVP-MOLOPT-SR-GTH-q4
       POTENTIAL GTH-PBE-q4
       &POTENTIAL
 2 2
  0.3384712400000000E+00 2 -0.8803673979999999E+01  0.1339210850000000E+01
 2
  0.3025757500000000E+00 1  0.9622486650000001E+01
  0.2915069400000000E+00 0
         # Potential name:  GTH-PBE-Q4  for symbol:  C
         # Potential read from the potential filename: GTH_POTENTIALS
       &END POTENTIAL
     &END KIND
     &KIND O
       BASIS_SET DZVP-MOLOPT-SR-GTH-q6
       POTENTIAL GTH-PBE-q6
       &POTENTIAL
 2 4
  0.2445543000000000E+00 2 -0.1666721480000000E+02  0.2487311320000000E+01
 2
  0.2209559200000000E+00 1  0.1833745811000000E+02
  0.2113324700000000E+00 0
         # Potential name:  GTH-PBE-Q6  for symbol:  O
         # Potential read from the potential filename: GTH_POTENTIALS
       &END POTENTIAL
     &END KIND
     &KIND H
       BASIS_SET DZVP-MOLOPT-SR-GTH-q1
       POTENTIAL GTH-PBE-q1
       &POTENTIAL
 1
  0.2000000000000000E+00 2 -0.4178900440000000E+01  0.7244633100000000E+00
 0
         # Potential name:  GTH-PBE-Q1  for symbol:  H
         # Potential read from the potential filename: GTH_POTENTIALS
       &END POTENTIAL
     &END KIND
     &KIND N
       BASIS_SET DZVP-MOLOPT-SR-GTH
       POTENTIAL GTH-PBE-q5
       &POTENTIAL
 2 3
  0.2837905100000000E+00 2 -0.1241522559000000E+02  0.1868095920000000E+01
 2
  0.2554050000000000E+00 1  0.1363026257000000E+02
  0.2454945300000000E+00 0
         # Potential name:  GTH-PBE-Q5  for symbol:  N
         # Potential read from the potential filename: GTH_POTENTIALS
       &END POTENTIAL
     &END KIND
     &KIND Ga
       BASIS_SET DZVP-MOLOPT-SR-GTH
       POTENTIAL GTH-PBE-q13
       &POTENTIAL
 2 1 10
  0.4900000000000000E+00 0
 3
  0.4167772300000000E+00 3  0.1047568975000000E+02 -0.4921768140000000E+01  0.8707055900000000E+00
  0.7770178090000000E+01 -0.2248152160000000E+01
  0.1784415450000000E+01
  0.5696265200000000E+00 2  0.1777985340000000E+01  0.1958597600000000E+00
 -0.2317443900000000E+00
  0.2381265000000000E+00 1 -0.1624868022000000E+02
         # Potential name:  GTH-PBE-Q13  for symbol:  GA
         # Potential read from the potential filename: GTH_POTENTIALS
       &END POTENTIAL
     &END KIND
     &TOPOLOGY
       NUMBER_OF_ATOMS  209
       MULTIPLE_UNIT_CELL  1 1 1
     &END TOPOLOGY
   &END SUBSYS
 &END FORCE_EVAL
