 # Version information for this restart file 
 # current date 2019-07-22 06:24:12.181
 # current working dir /lustre04/scratch/rzk/rzk/GaN-carbene/443-adatoms-both-2x2/12-CH3O-H2C-H/02-Start-Intermediate-0904
 # Program compiled at                              Sun Apr  7 00:48:11 EDT 2019
 # Program compiled on                          beluga2.int.ets1.calculquebec.ca
 # Program compiled for                        Beluga-Linux-x86-64-intel-openmpi
 # Source code revision number                                         svn:18619
 &GLOBAL
   PRINT_LEVEL  MEDIUM
   PROJECT_NAME TEST
   RUN_TYPE  GEO_OPT
 &END GLOBAL
 &MOTION
   &GEO_OPT
     MAX_ITER  500
     STEP_START_VAL  96
   &END GEO_OPT
 &END MOTION
 &FORCE_EVAL
   METHOD  QS
   STRESS_TENSOR  ANALYTICAL
   &DFT
     BASIS_SET_FILE_NAME BASIS_MOLOPT
     POTENTIAL_FILE_NAME GTH_POTENTIALS
     UKS  T
     SURFACE_DIPOLE_CORRECTION  T
     SURF_DIP_DIR  Z
     &SCF
       MAX_SCF  80
       EPS_SCF     5.0000000000000004E-06
       &OT  T
         PRECONDITIONER  FULL_ALL
       &END OT
       &OUTER_SCF  T
         OPTIMIZER  NONE
         EPS_SCF     5.0000000000000004E-06
         MAX_SCF  4
       &END OUTER_SCF
       &PRINT
         &RESTART  OFF
           BACKUP_COPIES  1
           &EACH
             JUST_ENERGY  0
             QS_SCF  0
             MD  20
           &END EACH
         &END RESTART
       &END PRINT
     &END SCF
     &QS
       EPS_DEFAULT     1.0000000000000000E-14
       METHOD  GPW
     &END QS
     &MGRID
       NGRIDS  5
       CUTOFF     1.2000000000000000E+03
     &END MGRID
     &XC
       DENSITY_CUTOFF     1.0000000000000000E-10
       GRADIENT_CUTOFF     1.0000000000000000E-10
       TAU_CUTOFF     1.0000000000000000E-10
       &XC_FUNCTIONAL  NO_SHORTCUT
         &PBE  T
         &END PBE
       &END XC_FUNCTIONAL
       &VDW_POTENTIAL
         POTENTIAL_TYPE  PAIR_POTENTIAL
         &PAIR_POTENTIAL
           R_CUTOFF     1.0000000000000004E+01
           TYPE  DFTD3
           PARAMETER_FILE_NAME dftd3.dat
           REFERENCE_FUNCTIONAL PBE
           EPS_CN     9.9999999999999995E-07
           CALCULATE_C9_TERM  T
           REFERENCE_C9_TERM  T
           LONG_RANGE_CORRECTION  F
           VERBOSE_OUTPUT  F
         &END PAIR_POTENTIAL
       &END VDW_POTENTIAL
     &END XC
   &END DFT
   &SUBSYS
     &CELL
       A     1.2864472766435110E+01    0.0000000000000000E+00    0.0000000000000000E+00
       B    -6.4322363581020028E+00    1.1140960178524473E+01    0.0000000000000000E+00
       C     0.0000000000000000E+00    0.0000000000000000E+00    3.2000000000000000E+01
       MULTIPLE_UNIT_CELL  1 1 1
       &CELL_REF
         A     1.2982353780853531E+01    0.0000000000000000E+00    0.0000000000000000E+00
         B    -6.4911768904267628E+00    1.1243048175136114E+01    0.0000000000000000E+00
         C     0.0000000000000000E+00    0.0000000000000000E+00    3.2000000000000000E+01
         MULTIPLE_UNIT_CELL  1 1 1
       &END CELL_REF
     &END CELL
     &COORD
N    5.7655930652206200E-02    2.1269913567602017E+00    2.5846867700393559E+00
Ga    2.7884020044278493E-02    1.5850766977770739E-01    2.9108370669056409E+00
N    6.1843128038543048E-02    1.2987720913493633E-01    5.0806093260889504E+00
Ga    5.9709571445171805E-02    1.9534763965592370E+00    5.8519098263704681E+00
N    6.0345258102141183E-02    1.9744475977717479E+00    7.8520606328359177E+00
Ga    5.7288096820155655E-02    1.2706274039350973E-01    8.4900386714523055E+00
N    6.0415928477411458E-02    1.2785045753784197E-01    1.0469532727010835E+01
Ga    6.2256230279411962E-02    1.9659022412449663E+00    1.1122938830501809E+01
N    6.3200014799448243E-02    1.9477502227377770E+00    1.3119876226985633E+01
Ga    6.2777961764988233E-02    1.2958682139619196E-01    1.3922682577806668E+01
N    6.4394342315419004E-02    1.2947683613588901E-01    1.6126131552113208E+01
Ga    6.5602706128248450E-02    2.1756516414873830E+00    1.6536514080895330E+01
Ga    4.9436659611247186E-02    3.8380244235746370E+00    1.4193080428919549E+00
N   -1.4188498125106019E+00    4.7084184859762859E+00    2.5690246536153341E+00
Ga   -1.6028156142747882E+00    2.8912030774357875E+00    3.3571993358699492E+00
N   -1.5595666830139259E+00    2.9103947072777436E+00    5.3088187159642040E+00
Ga   -1.5792423891699003E+00    4.7812936738901666E+00    5.8897551060904725E+00
N   -1.5512798836329107E+00    4.7726900321904715E+00    7.8760326403115526E+00
Ga   -1.5397607189566169E+00    2.9120336016474564E+00    8.4932159532161027E+00
N   -1.5344922109708967E+00    2.9182351033438780E+00    1.0489359129139892E+01
Ga   -1.5646888717025642E+00    4.7777697419084380E+00    1.1124757249327324E+01
N   -1.5782894553187716E+00    4.7885197599208578E+00    1.3122351831167126E+01
Ga   -1.5342365553421191E+00    2.9186255139543666E+00    1.3672078841072000E+01
N   -1.5603048316724333E+00    2.9006345467196151E+00    1.5635706696884714E+01
Ga   -1.3862927294642058E+00    4.6780525141806688E+00    1.6534486776547286E+01
N    6.5311502110440386E-02    3.8499848968325172E+00    1.7666796366135770E+01
N   -3.1394400555073867E+00    7.6828478330522891E+00    2.6029473137938686E+00
Ga   -3.1358701756611436E+00    5.6676393279178576E+00    2.9665026258591909E+00
N   -3.1238366577855401E+00    5.7187803978493559E+00    5.1291630339172105E+00
Ga   -3.1620697221332659E+00    7.5217619410830832E+00    5.8903588362241690E+00
N   -3.1542878959583649E+00    7.5492827915152425E+00    7.8746109793859089E+00
Ga   -3.1658912705191860E+00    5.6934670753042846E+00    8.4908509920316551E+00
N   -3.1561123211005233E+00    5.6972102227150785E+00    1.0469776924431029E+01
Ga   -3.1599407140366051E+00    7.5360659136395105E+00    1.1121577831885720E+01
N   -3.1552010018188748E+00    7.5182167340517738E+00    1.3118909365846234E+01
Ga   -3.1541347141147682E+00    5.6994781305389983E+00    1.3923474612691614E+01
N   -3.1539224366827119E+00    5.7024017192142464E+00    1.6123598814451181E+01
Ga   -3.1505357424795997E+00    7.7456846855356805E+00    1.6541436366788645E+01
Ga   -3.1679633425552787E+00    9.4140024537552236E+00    1.5980264949063092E+00
N   -4.6686270104826848E+00    1.0287009311236099E+01    2.5827255872831145E+00
Ga   -4.8834101336227800E+00    8.4211195185338461E+00    3.3497068594159751E+00
N   -4.7609047483740694E+00    8.4799354836823344E+00    5.3092024256123622E+00
Ga   -4.7982451510552693E+00    1.0353478808526415E+01    5.8590894389466790E+00
N   -4.7737664800366959E+00    1.0345093853509431E+01    7.8552083790344964E+00
Ga   -4.7648831725079663E+00    8.4853721438949350E+00    8.4824606188406158E+00
N   -4.7556603210849451E+00    8.4904407070488137E+00    1.0481799425798480E+01
Ga   -4.7800081237110215E+00    1.0348611410777481E+01    1.1120849699131503E+01
N   -4.7953763541879084E+00    1.0360124922493815E+01    1.3118294019115183E+01
Ga   -4.7509952523154535E+00    8.4913107320722219E+00    1.3672130019280463E+01
N   -4.7753929106376019E+00    8.4758768551792087E+00    1.5637222493854523E+01
Ga   -4.6010233016019528E+00    1.0250365655198925E+01    1.6540404192704440E+01
N   -3.1518901745106858E+00    9.4208094465927292E+00    1.7678672731837921E+01
N    3.2668432343373111E+00    2.0028216113712971E+00    2.6486248877476166E+00
Ga    3.2522282137190310E+00    2.4670208128713145E-01    3.3511888292826639E+00
N    3.2772042592357806E+00    1.2749913806797028E-01    5.3133176958372115E+00
Ga    3.2846616465619269E+00    2.0004006963686183E+00    5.9123312286606957E+00
N    3.2825333771641581E+00    1.9862269021440957E+00    7.8921274664740837E+00
Ga    3.2724976311582883E+00    1.2031076707597495E-01    8.4938336023064345E+00
N    3.2748867023236068E+00    1.1767361152576303E-01    1.0488730844047756E+01
Ga    3.2791132451119962E+00    1.9875970560388547E+00    1.1077674101427419E+01
N    3.2800282433023940E+00    1.9859417636595236E+00    1.3052874410881323E+01
Ga    3.2770541666744597E+00    1.1561082330871653E-01    1.3674176797249963E+01
N    3.2803085602132280E+00    1.4637225539702614E-01    1.5639797014261076E+01
Ga    3.2814077328588946E+00    1.9850720486655549E+00    1.5916555186868504E+01
N    1.5314962264965091E+00    4.7182968130673819E+00    2.5846286235573368E+00
Ga    1.7459303622833673E+00    2.8855828982518745E+00    3.3391991587233107E+00
N    1.6700639418469112E+00    2.9178289962840456E+00    5.3133087820445510E+00
Ga    1.6925928303250817E+00    4.7775106588447311E+00    5.8851614618378871E+00
N    1.6768662201542481E+00    4.7765502117307488E+00    7.8696083134744734E+00
Ga    1.6614271798649702E+00    2.9139379597746191E+00    8.4875846787120395E+00
N    1.6587671332668112E+00    2.9188119391164351E+00    1.0484691776485416E+01
Ga    1.6891001054963595E+00    4.7775592621225602E+00    1.1123562230349865E+01
N    1.7056066926359970E+00    4.7889561254819393E+00    1.3120755795359118E+01
Ga    1.6599887957469728E+00    2.9195855504906851E+00    1.3672378257745239E+01
N    1.6898227040665363E+00    2.9024114216496089E+00    1.5635205571598856E+01
Ga    1.5161285663411475E+00    4.6769540041012263E+00    1.6534463090722006E+01
N    6.5634336024750495E-02    7.5543648418122080E+00    2.7876772208630931E+00
Ga    4.1781489157751636E-02    5.6922835438670401E+00    3.4095991317730623E+00
N    5.9783017541683095E-02    5.7152076513798429E+00    5.3437889377959849E+00
Ga    6.9257260998587186E-02    7.5571384356844824E+00    5.9857464926615256E+00
N    6.1598250691277556E-02    7.5569021634340867E+00    7.9406295611550366E+00
Ga    6.1886338045280528E-02    5.6848407585647367E+00    8.5145587036158474E+00
N    6.2577375453089279E-02    5.6862352961898255E+00    1.0503182061143749E+01
Ga    6.3615238717509570E-02    7.5561439647859370E+00    1.1092094404984982E+01
N    6.5359349917659473E-02    7.5570290537475469E+00    1.3065595834038410E+01
Ga    6.3738969236486545E-02    5.6835569507335109E+00    1.3674388827845295E+01
N    6.6524700352801072E-02    5.7193536492842725E+00    1.5639644550399694E+01
Ga    6.3479000323638540E-02    7.5576043986505352E+00    1.5916634076467528E+01
N   -1.6548423316836585E+00    1.0265116619973442E+01    2.6089688934346831E+00
Ga   -1.5232610451885547E+00    8.4687255108416650E+00    3.4324049203828482E+00
N   -1.5351074487764311E+00    8.4761191984078774E+00    5.3502707500423616E+00
Ga   -1.5225822174156665E+00    1.0359492933704262E+01    5.8972349241010793E+00
N   -1.5432893764282112E+00    1.0341846226324465E+01    7.8794197967484676E+00
Ga   -1.5612087510243917E+00    8.4902770633866638E+00    8.5172375269620240E+00
N   -1.5571231933959124E+00    8.4895173680948819E+00    1.0504889325546836E+01
Ga   -1.5319299168489717E+00    1.0353360059691285E+01    1.1123454249947308E+01
N   -1.5125677823784205E+00    1.0361655615369719E+01    1.3121015178762137E+01
Ga   -1.5587708371615130E+00    8.4910850267318665E+00    1.3673888971834874E+01
N   -1.5288684332993852E+00    8.4758573735677860E+00    1.5637515817863951E+01
Ga   -1.7019671872834814E+00    1.0249129941254047E+01    1.6539889862868890E+01
N    6.5335272409769773E+00    1.9630276483974218E+00    2.5809299709791329E+00
Ga    6.5322653914227553E+00    1.0633361438044193E-01    2.9982359376644170E+00
N    6.4893150289945645E+00    9.3461997872434005E-02    5.1485372032415775E+00
Ga    6.5159029449545747E+00    1.9573857168353446E+00    5.8244903955826999E+00
N    6.4934862679940402E+00    1.9744080309435645E+00    7.8340465045366319E+00
Ga    6.4952947683325943E+00    1.3354542064260028E-01    8.4937463113862215E+00
N    6.4952088273369064E+00    1.2901760989597322E-01    1.0472274105334231E+01
Ga    6.4946827980573500E+00    1.9706690226207340E+00    1.1114729860103145E+01
N    6.4953259917561841E+00    1.9493545460076354E+00    1.3115148554779129E+01
Ga    6.4948017593602367E+00    1.3033598221309400E-01    1.3923926639971969E+01
N    6.4956144051002349E+00    1.3187007458853967E-01    1.6126534656496297E+01
Ga    6.4965592853541425E+00    2.1707139497662453E+00    1.6530670119205649E+01
Ga    9.4729774212751714E+00    2.1626647114524093E+00    6.3614564268371787E-01
N    4.8517729633226319E+00    5.0064955174949342E+00    2.3682482512333727E+00
Ga    4.9201633689908357E+00    2.5742343421759375E+00    3.2772989028608923E+00
N    4.8943068229452384E+00    2.9110351849880942E+00    5.2343487465375427E+00
Ga    4.8810614531150591E+00    4.7813091308933959E+00    5.7979719424665213E+00
N    4.8775598314551223E+00    4.7730169884227358E+00    7.8125764429821363E+00
Ga    4.9009649522471701E+00    2.9218469241381819E+00    8.4728647967959869E+00
N    4.8969477035940958E+00    2.9218391444535019E+00    1.0474812049301477E+01
Ga    4.8739159913478813E+00    4.7792046231061649E+00    1.1116484117806248E+01
N    4.8544749497850885E+00    4.7896192402350266E+00    1.3115425596815889E+01
Ga    4.8981114892622815E+00    2.9209271943717434E+00    1.3671203153070707E+01
N    4.8741543710983413E+00    2.9039388400798791E+00    1.5635154090878302E+01
Ga    5.0420019102505504E+00    4.6791642232229060E+00    1.6527880538564791E+01
N    6.4977429854442192E+00    3.8508010887152500E+00    1.7658516586251363E+01
N    3.2453377596984700E+00    7.7015374876045843E+00    2.5986329597135791E+00
N    3.2580343881979279E+00    5.7069708807767876E+00    5.1029561757424631E+00
Ga    3.2854625817031424E+00    7.5381465625710851E+00    5.8675210272971361E+00
N    3.2757698943493776E+00    7.5457425180465965E+00    7.8569738469793959E+00
Ga    3.2878393603727516E+00    5.6956385762141988E+00    8.4884243067487510E+00
N    3.2809840367511875E+00    5.6978716651488694E+00    1.0467316437403499E+01
Ga    3.2836854840696139E+00    7.5365411233617943E+00    1.1121763597287968E+01
N    3.2808412347073896E+00    7.5177931311484354E+00    1.3120482770403976E+01
Ga    3.2793979943015588E+00    5.6986709963749904E+00    1.3923642926157314E+01
N    3.2822153417050552E+00    5.7012144597116876E+00    1.6126261366370588E+01
Ga    3.2800806272450709E+00    7.7349050967403858E+00    1.6529505475740045E+01
Ga    3.2964443953073395E+00    9.4064569929775494E+00    1.3407799472897288E+00
N    1.7666260906494551E+00    1.0281164039332744E+01    2.5789614222119348E+00
Ga    1.6671741956983723E+00    8.5187727034410212E+00    3.3916286779147216E+00
N    1.6556998803134644E+00    8.4800305938663776E+00    5.3301255375135117E+00
Ga    1.6479821955113516E+00    1.0359431942650696E+01    5.8849884375331767E+00
N    1.6667495362646332E+00    1.0342042657010772E+01    7.8713206552653823E+00
Ga    1.6856821802471669E+00    8.4906134746199449E+00    8.5099923602219469E+00
N    1.6832181872191736E+00    8.4897292429634437E+00    1.0500121580800409E+01
Ga    1.6565240098788570E+00    1.0352215354842434E+01    1.1124264260713256E+01
N    1.6395940263986701E+00    1.0360252740585381E+01    1.3123366169460171E+01
Ga    1.6863178377068582E+00    8.4910621983304218E+00    1.3674994980839823E+01
N    1.6606135811015679E+00    8.4755164638240217E+00    1.5641822322340873E+01
Ga    1.8227891677534442E+00    1.0253865647540129E+01    1.6527638426207673E+01
N    3.2819514672885584E+00    9.4200131379585521E+00    1.7654922528324480E+01
N    9.6982362454769078E+00    1.9993433420818136E+00    2.6319060581350224E+00
Ga    9.6993876457018082E+00    1.8797679737697054E-01    3.3323680014683754E+00
N    9.7044233468643917E+00    1.3850310412614775E-01    5.2902968612122896E+00
Ga    9.6882339312605819E+00    1.9928942347540448E+00    5.9138697738817276E+00
N    9.7078891165474417E+00    1.9841142420503071E+00    7.8963966497072331E+00
Ga    9.7142238241880534E+00    1.1982862637918500E-01    8.4909960127360762E+00
N    9.7129666235468548E+00    1.1589539919440774E-01    1.0487974731767538E+01
Ga    9.7092753623819252E+00    1.9859619405768725E+00    1.1077772127199012E+01
N    9.7101410547878881E+00    1.9833550926405872E+00    1.3054462856826502E+01
Ga    9.7127622906242799E+00    1.1481176043169646E-01    1.3674491499463160E+01
N    9.7119399257878420E+00    1.4443206700688521E-01    1.5642806210954250E+01
Ga    9.7115256131977290E+00    1.9855658103201224E+00    1.5916374155961037E+01
N    8.1230925538877710E+00    4.7453604260979185E+00    2.5699237392190164E+00
Ga    8.0517329241816746E+00    2.9480564430830780E+00    3.2294635371154641E+00
N    8.1109665420358077E+00    2.9058003935593852E+00    5.2533033821251456E+00
Ga    8.1190393587398333E+00    4.7776057468463460E+00    5.7887876687083510E+00
N    8.1072307081577186E+00    4.7768001414746983E+00    7.8177191535261485E+00
Ga    8.0892532523397556E+00    2.9244115102014763E+00    8.4695712485961590E+00
N    8.0919500459031433E+00    2.9213845651673873E+00    1.0475191536645566E+01
Ga    8.1144966983803197E+00    4.7795731714533227E+00    1.1115984962374036E+01
N    8.1335189572184436E+00    4.7887328002957084E+00    1.3115906232232014E+01
Ga    8.0927009615451393E+00    2.9200855270258108E+00    1.3671422518286093E+01
N    8.1184978166647852E+00    2.9019501738863420E+00    1.5635370550531333E+01
Ga    7.9527786166864241E+00    4.6803188801340116E+00    1.6528503995984014E+01
N    6.4812989977483824E+00    7.5707903223370279E+00    2.6409231363837389E+00
Ga    6.6322406218648586E+00    5.7667404419665091E+00    3.1507512700492937E+00
N    6.4871650133896797E+00    5.6900315652827205E+00    5.1935980020978256E+00
Ga    6.4787232272193034E+00    7.5285119456602905E+00    5.8761791200526314E+00
N    6.4913227593450440E+00    7.5472314212773179E+00    7.8703449388894819E+00
Ga    6.4941220292929920E+00    5.6836618039265838E+00    8.4651970325615586E+00
N    6.4929026665252652E+00    5.6863800611736108E+00    1.0470732249267591E+01
Ga    6.4917930098404080E+00    7.5544713754661927E+00    1.1073174022335246E+01
N    6.4924534290118467E+00    7.5560318431351874E+00    1.3052210534295652E+01
Ga    6.4942325156057654E+00    5.6860275088925913E+00    1.3671328806999755E+01
N    6.4943061687197510E+00    5.7176306371631291E+00    1.5637723532467305E+01
Ga    6.4969913215808601E+00    7.5566715841504832E+00    1.5915423716805542E+01
N    4.7767031501932884E+00    1.0297503331622826E+01    2.5742259837929966E+00
Ga    4.9595073119004818E+00    8.4425925000594990E+00    3.3062106665133468E+00
N    4.8792180524924635E+00    8.4856675811167843E+00    5.2887718516721254E+00
Ga    4.9084982137558937E+00    1.0353617179230495E+01    5.8394369638222052E+00
N    4.8924451053977789E+00    1.0346060918861182E+01    7.8431407501057926E+00
Ga    4.8829002748646477E+00    8.4878150240214776E+00    8.4738266159755540E+00
N    4.8761878523589477E+00    8.4913756371156524E+00    1.0476586737333344E+01
Ga    4.9025324931511802E+00    1.0348016670480352E+01    1.1122373591891570E+01
N    4.9188548069252169E+00    1.0358428633530949E+01    1.3121155401824556E+01
Ga    4.8748191638819529E+00    8.4909845767777892E+00    1.3673478633527468E+01
N    4.9004379823149504E+00    8.4748269387040533E+00    1.5641268526144559E+01
Ga    4.7387691150610536E+00    1.0254858954955926E+01    1.6528419444427566E+01
O   -1.9143887199518619E-02    3.7603947583290060E+00   -3.9408770028193857E-01
C    6.7317189347669526E-01    2.6628289827509124E+00   -1.0121131283788820E+00
H    1.7527129620716264E+00    2.6686936330059257E+00   -7.8346216309242256E-01
H    2.6655891786767394E-01    1.6840566523144567E+00   -6.9696983602770501E-01
H    5.4737428189280890E-01    2.7661230514875372E+00   -2.0972946007579267E+00
Ga    3.1168179550275790E+00    5.7935649750456379E+00    3.0459581212444196E+00
H    5.3589030776558147E-02    7.5488364171259335E+00    1.7629024641864621E+00
C    4.9038031100149588E+00    4.5242435474388127E+00    1.1761239710927989E+00
H    5.8665959990047289E+00    4.2563219530628684E+00    7.2435738008587014E-01
H    3.9930954174321731E+00    4.3335193794113085E+00    5.9379880284394704E-01
     &END COORD
     &KIND C
       BASIS_SET DZVP-MOLOPT-SR-GTH-q4
       POTENTIAL GTH-PBE-q4
       &POTENTIAL
 2 2
  0.3384712400000000E+00 2 -0.8803673979999999E+01  0.1339210850000000E+01
 2
  0.3025757500000000E+00 1  0.9622486650000001E+01
  0.2915069400000000E+00 0
         # Potential name:  GTH-PBE-Q4  for symbol:  C
         # Potential read from the potential filename: GTH_POTENTIALS
       &END POTENTIAL
     &END KIND
     &KIND O
       BASIS_SET DZVP-MOLOPT-SR-GTH-q6
       POTENTIAL GTH-PBE-q6
       &POTENTIAL
 2 4
  0.2445543000000000E+00 2 -0.1666721480000000E+02  0.2487311320000000E+01
 2
  0.2209559200000000E+00 1  0.1833745811000000E+02
  0.2113324700000000E+00 0
         # Potential name:  GTH-PBE-Q6  for symbol:  O
         # Potential read from the potential filename: GTH_POTENTIALS
       &END POTENTIAL
     &END KIND
     &KIND H
       BASIS_SET DZVP-MOLOPT-SR-GTH-q1
       POTENTIAL GTH-PBE-q1
       &POTENTIAL
 1
  0.2000000000000000E+00 2 -0.4178900440000000E+01  0.7244633100000000E+00
 0
         # Potential name:  GTH-PBE-Q1  for symbol:  H
         # Potential read from the potential filename: GTH_POTENTIALS
       &END POTENTIAL
     &END KIND
     &KIND N
       BASIS_SET DZVP-MOLOPT-SR-GTH
       POTENTIAL GTH-PBE-q5
       &POTENTIAL
 2 3
  0.2837905100000000E+00 2 -0.1241522559000000E+02  0.1868095920000000E+01
 2
  0.2554050000000000E+00 1  0.1363026257000000E+02
  0.2454945300000000E+00 0
         # Potential name:  GTH-PBE-Q5  for symbol:  N
         # Potential read from the potential filename: GTH_POTENTIALS
       &END POTENTIAL
     &END KIND
     &KIND Ga
       BASIS_SET DZVP-MOLOPT-SR-GTH
       POTENTIAL GTH-PBE-q13
       &POTENTIAL
 2 1 10
  0.4900000000000000E+00 0
 3
  0.4167772300000000E+00 3  0.1047568975000000E+02 -0.4921768140000000E+01  0.8707055900000000E+00
  0.7770178090000000E+01 -0.2248152160000000E+01
  0.1784415450000000E+01
  0.5696265200000000E+00 2  0.1777985340000000E+01  0.1958597600000000E+00
 -0.2317443900000000E+00
  0.2381265000000000E+00 1 -0.1624868022000000E+02
         # Potential name:  GTH-PBE-Q13  for symbol:  GA
         # Potential read from the potential filename: GTH_POTENTIALS
       &END POTENTIAL
     &END KIND
     &TOPOLOGY
       NUMBER_OF_ATOMS  209
       MULTIPLE_UNIT_CELL  1 1 1
     &END TOPOLOGY
   &END SUBSYS
 &END FORCE_EVAL
