 # Version information for this restart file 
 # current date 2019-07-21 23:55:14.037
 # current working dir /lustre04/scratch/rzk/rzk/GaN-carbene/443-adatoms-both-2x2/12-CH3O-H2C-H/02-Start-Intermediate-0904
 # Program compiled at                              Sun Apr  7 00:48:11 EDT 2019
 # Program compiled on                          beluga2.int.ets1.calculquebec.ca
 # Program compiled for                        Beluga-Linux-x86-64-intel-openmpi
 # Source code revision number                                         svn:18619
 &GLOBAL
   PRINT_LEVEL  MEDIUM
   PROJECT_NAME TEST
   RUN_TYPE  GEO_OPT
 &END GLOBAL
 &MOTION
   &GEO_OPT
     MAX_ITER  500
     STEP_START_VAL  15
   &END GEO_OPT
 &END MOTION
 &FORCE_EVAL
   METHOD  QS
   STRESS_TENSOR  ANALYTICAL
   &DFT
     BASIS_SET_FILE_NAME BASIS_MOLOPT
     POTENTIAL_FILE_NAME GTH_POTENTIALS
     UKS  T
     SURFACE_DIPOLE_CORRECTION  T
     SURF_DIP_DIR  Z
     &SCF
       MAX_SCF  80
       EPS_SCF     5.0000000000000004E-06
       &OT  T
         PRECONDITIONER  FULL_ALL
       &END OT
       &OUTER_SCF  T
         OPTIMIZER  NONE
         EPS_SCF     5.0000000000000004E-06
         MAX_SCF  4
       &END OUTER_SCF
       &PRINT
         &RESTART  OFF
           BACKUP_COPIES  1
           &EACH
             JUST_ENERGY  0
             QS_SCF  0
             MD  20
           &END EACH
         &END RESTART
       &END PRINT
     &END SCF
     &QS
       EPS_DEFAULT     1.0000000000000000E-14
       METHOD  GPW
     &END QS
     &MGRID
       NGRIDS  5
       CUTOFF     1.2000000000000000E+03
     &END MGRID
     &XC
       DENSITY_CUTOFF     1.0000000000000000E-10
       GRADIENT_CUTOFF     1.0000000000000000E-10
       TAU_CUTOFF     1.0000000000000000E-10
       &XC_FUNCTIONAL  NO_SHORTCUT
         &PBE  T
         &END PBE
       &END XC_FUNCTIONAL
       &VDW_POTENTIAL
         POTENTIAL_TYPE  PAIR_POTENTIAL
         &PAIR_POTENTIAL
           R_CUTOFF     1.0000000000000004E+01
           TYPE  DFTD3
           PARAMETER_FILE_NAME dftd3.dat
           REFERENCE_FUNCTIONAL PBE
           EPS_CN     9.9999999999999995E-07
           CALCULATE_C9_TERM  T
           REFERENCE_C9_TERM  T
           LONG_RANGE_CORRECTION  F
           VERBOSE_OUTPUT  F
         &END PAIR_POTENTIAL
       &END VDW_POTENTIAL
     &END XC
   &END DFT
   &SUBSYS
     &CELL
       A     1.2864472766435110E+01    0.0000000000000000E+00    0.0000000000000000E+00
       B    -6.4322363581020028E+00    1.1140960178524473E+01    0.0000000000000000E+00
       C     0.0000000000000000E+00    0.0000000000000000E+00    3.2000000000000000E+01
       MULTIPLE_UNIT_CELL  1 1 1
       &CELL_REF
         A     1.2982353780853531E+01    0.0000000000000000E+00    0.0000000000000000E+00
         B    -6.4911768904267628E+00    1.1243048175136114E+01    0.0000000000000000E+00
         C     0.0000000000000000E+00    0.0000000000000000E+00    3.2000000000000000E+01
         MULTIPLE_UNIT_CELL  1 1 1
       &END CELL_REF
     &END CELL
     &COORD
N    6.2946427712445033E-02    2.1304584808454763E+00    2.5504508909201067E+00
Ga    4.5826488193716874E-02    1.6428039299159339E-01    2.8734956158747234E+00
N    7.6198098070088940E-02    1.3096069970685814E-01    5.0543246647846756E+00
Ga    6.9329256098598149E-02    1.9587494337581732E+00    5.8258222775689159E+00
N    7.4113185674973617E-02    1.9758262882359234E+00    7.8323344552855101E+00
Ga    7.1288731217989634E-02    1.3002101796260010E-01    8.4801415731515384E+00
N    7.4649938192888080E-02    1.2787949778395633E-01    1.0458984184726345E+01
Ga    7.6368795202527831E-02    1.9642214521841910E+00    1.1119859183212810E+01
N    7.5003034608487812E-02    1.9463082067873501E+00    1.3114032747501046E+01
Ga    7.5095546385474485E-02    1.2648231042299671E-01    1.3924806886484548E+01
N    7.5834539431138159E-02    1.2536871840474034E-01    1.6120757175744433E+01
Ga    7.3473374761984747E-02    2.1665481197944456E+00    1.6534689129317933E+01
Ga    4.3789216890175134E-02    3.8344798470163441E+00    1.3886400042858997E+00
N   -1.4098273648279165E+00    4.7119229144153998E+00    2.5487315053811388E+00
Ga   -1.6326324165110784E+00    2.8790162164357147E+00    3.3018238859826163E+00
N   -1.5478406400360589E+00    2.9116283678607808E+00    5.2808001309934038E+00
Ga   -1.5655913359004094E+00    4.7728330116467861E+00    5.8736913297535391E+00
N   -1.5408197819820926E+00    4.7713627644263585E+00    7.8636171973182849E+00
Ga   -1.5219399390801152E+00    2.9124429881561942E+00    8.4929249918911136E+00
N   -1.5204975815747019E+00    2.9173787872555890E+00    1.0484523749436931E+01
Ga   -1.5506339903311228E+00    4.7758815129341610E+00    1.1125297255537015E+01
N   -1.5665016679450037E+00    4.7869174145224624E+00    1.3117395154512447E+01
Ga   -1.5227874563203867E+00    2.9177097321092593E+00    1.3671481661712829E+01
N   -1.5512433363128704E+00    2.9028815364673113E+00    1.5633206964057969E+01
Ga   -1.3688251634046351E+00    4.6721588481779373E+00    1.6535910698077643E+01
N    8.0574077624003149E-02    3.8348015918132150E+00    1.7661793380226818E+01
N   -3.1267990563983954E+00    7.6809499089372917E+00    2.5844487673150764E+00
Ga   -3.1136542436525763E+00    5.6626157458991466E+00    2.9512817347325875E+00
N   -3.1200811006193789E+00    5.7111026513169794E+00    5.1091369332838399E+00
Ga   -3.1480174351277084E+00    7.5229268254861212E+00    5.8737881527245435E+00
N   -3.1419959745284136E+00    7.5479964438536022E+00    7.8603696146533002E+00
Ga   -3.1458977273057669E+00    5.6960692605219467E+00    8.4973389214379065E+00
N   -3.1422486526765505E+00    5.6972845272571453E+00    1.0470948713660624E+01
Ga   -3.1464587541764950E+00    7.5365858980142857E+00    1.1122708345194724E+01
N   -3.1433220652330021E+00    7.5174610806119988E+00    1.3116022321987836E+01
Ga   -3.1427099608194271E+00    5.6968541199082718E+00    1.3923916706787844E+01
N   -3.1420540889356392E+00    5.6961081873177255E+00    1.6121958226419643E+01
Ga   -3.1437055583854976E+00    7.7345276762707318E+00    1.6533728254052381E+01
Ga   -3.1525225676969604E+00    9.4167780936548375E+00    1.5488380582631165E+00
N   -4.6505657402613743E+00    1.0291663926189004E+01    2.5598292837366796E+00
Ga   -4.8564578224725583E+00    8.4299264731559855E+00    3.3301261401437161E+00
N   -4.7463521650467051E+00    8.4834341629764634E+00    5.2912210944953504E+00
Ga   -4.7841748794949925E+00    1.0358388377058965E+01    5.8400960607919137E+00
N   -4.7601411726672147E+00    1.0346276666279664E+01    7.8372131937310003E+00
Ga   -4.7497362748685639E+00    8.4882587343844751E+00    8.4779260741283036E+00
N   -4.7413235232663569E+00    8.4898530229916336E+00    1.0474079341407986E+01
Ga   -4.7665319268127551E+00    1.0349186521779691E+01    1.1116025917857225E+01
N   -4.7818361119744841E+00    1.0357873749544941E+01    1.3111108236655008E+01
Ga   -4.7394058750846773E+00    8.4901880495530531E+00    1.3671235728898850E+01
N   -4.7661932388395538E+00    8.4753563892307806E+00    1.5633673408685116E+01
Ga   -4.5897371326916430E+00    1.0245873827276267E+01    1.6534310201810968E+01
N   -3.1373375183062482E+00    9.4070752443567063E+00    1.7665908129589688E+01
N    3.2888552832951348E+00    2.0083621421130622E+00    2.6214711799224131E+00
Ga    3.2681166473098058E+00    2.4700921583791546E-01    3.3283582354268892E+00
N    3.2902593976596641E+00    1.3216394264253944E-01    5.2907440057609021E+00
Ga    3.2945057832503322E+00    2.0015280168941532E+00    5.8968569041450989E+00
N    3.2956607321866813E+00    1.9879899996305759E+00    7.8767478321688813E+00
Ga    3.2845683431228512E+00    1.2225858370929761E-01    8.4851900571008265E+00
N    3.2889277008180069E+00    1.1716546374669010E-01    1.0478571878660416E+01
Ga    3.2913534888559837E+00    1.9848668211154967E+00    1.1076136071568831E+01
N    3.2910596567673034E+00    1.9836942290091053E+00    1.3047837185995656E+01
Ga    3.2887556848931090E+00    1.1365367949352866E-01    1.3672116627621381E+01
N    3.2875246556604925E+00    1.4371062662358502E-01    1.5634410800547247E+01
Ga    3.2911730365983014E+00    1.9828762661956782E+00    1.5914594214420269E+01
N    1.5360321761928173E+00    4.7166978216623958E+00    2.5810762754468572E+00
Ga    1.7523660092450457E+00    2.8842616592884687E+00    3.3111569256672508E+00
N    1.6855871591425726E+00    2.9170347114235544E+00    5.2886232008889511E+00
Ga    1.6980890449150345E+00    4.7713626338125472E+00    5.8804701853252936E+00
N    1.6899274994906841E+00    4.7742849539603620E+00    7.8621234208730213E+00
Ga    1.6731879410205701E+00    2.9106820855080988E+00    8.4820064650715494E+00
N    1.6730710018367398E+00    2.9158575057236691E+00    1.0476908863094799E+01
Ga    1.7012608738655666E+00    4.7742180697988603E+00    1.1121114049070686E+01
N    1.7155301052478920E+00    4.7862169791643252E+00    1.3115004160427894E+01
Ga    1.6710799392867579E+00    2.9179609679872742E+00    1.3672933946394252E+01
N    1.6992132867977177E+00    2.9013834288436340E+00    1.5635215312640470E+01
Ga    1.5225627593953739E+00    4.6762283413537684E+00    1.6535268366721169E+01
N    7.7217877484418038E-02    7.5494233020028494E+00    2.7838151952808650E+00
Ga    4.5139474046909024E-02    5.6845240190684017E+00    3.3977414256636389E+00
N    7.0319039659081331E-02    5.7126564703697467E+00    5.3334560202307619E+00
Ga    7.5283933661834640E-02    7.5514368903339664E+00    5.9799520312927203E+00
N    7.3498552839196138E-02    7.5555081665579378E+00    7.9331842345143135E+00
Ga    7.2423935477987741E-02    5.6814567405725453E+00    8.5096914299629560E+00
N    7.5126408436242423E-02    5.6841020131244928E+00    1.0495190155048785E+01
Ga    7.5746047039876779E-02    7.5542692168103223E+00    1.1087750120117994E+01
N    7.4288770804595283E-02    7.5540054051301855E+00    1.3056640944689173E+01
Ga    7.4490550893235433E-02    5.6820704583448807E+00    1.3673403243069405E+01
N    7.2501956591553340E-02    5.7154303004390359E+00    1.5634771580717157E+01
Ga    7.3488626856031150E-02    7.5542904828259516E+00    1.5913195169456493E+01
N   -1.6400713211848537E+00    1.0269158900592624E+01    2.5937949458547651E+00
Ga   -1.5136346254483484E+00    8.4677138757796175E+00    3.4109405688721823E+00
N   -1.5222945213404486E+00    8.4766392086122710E+00    5.3323474975775476E+00
Ga   -1.5146991992276502E+00    1.0358766819618692E+01    5.8810444097104684E+00
N   -1.5299520326223857E+00    1.0343011308480776E+01    7.8645571656193720E+00
Ga   -1.5494702582739286E+00    8.4907126175839025E+00    8.5120719840781618E+00
N   -1.5450180078757527E+00    8.4896312428381417E+00    1.0496666820016001E+01
Ga   -1.5202085563815670E+00    1.0352588395409221E+01    1.1124299438292226E+01
N   -1.5024363412205002E+00    1.0359389474374616E+01    1.3116976011342828E+01
Ga   -1.5473402290569478E+00    8.4902301922412029E+00    1.3673515141573072E+01
N   -1.5200452180697124E+00    8.4737724135750803E+00    1.5637444346029232E+01
Ga   -1.6921104652504717E+00    1.0249259809692241E+01    1.6533856929283935E+01
N    6.5862404951957574E+00    2.0016481722282804E+00    2.5656742688641718E+00
Ga    6.5417917037046269E+00    1.1084213790520132E-01    2.9721226911124159E+00
N    6.5022415967972318E+00    1.0316835495621988E-01    5.1244852921736328E+00
Ga    6.5036871821733202E+00    1.9514565791188712E+00    5.8578847404169849E+00
N    6.4993234937303184E+00    1.9731964829160298E+00    7.8499400838913251E+00
Ga    6.5063172976838253E+00    1.2945997169741508E-01    8.5000244087715817E+00
N    6.5070062939585140E+00    1.2784272372114994E-01    1.0472017492425323E+01
Ga    6.5072435351354549E+00    1.9696949759551841E+00    1.1117060580999844E+01
N    6.5065286894004579E+00    1.9481362787074274E+00    1.3111903945634960E+01
Ga    6.5070684553039229E+00    1.2825240443843269E-01    1.3924522573250510E+01
N    6.5065211846377187E+00    1.2632815903632577E-01    1.6121868063033254E+01
Ga    6.5050085872586241E+00    2.1639313714920272E+00    1.6533474994573574E+01
Ga    8.4147984528680730E+00    2.9141990568165661E+00    7.6773096667396490E-01
N    4.8604119963128154E+00    5.0266317779467728E+00    2.3409876961295848E+00
Ga    4.9380376746977372E+00    2.5947736348214119E+00    3.2432098263231475E+00
N    4.9091590702289025E+00    2.9096822573340799E+00    5.2074592365074857E+00
Ga    4.8988916194256058E+00    4.7789791371208814E+00    5.7916001040216232E+00
N    4.8931714224851550E+00    4.7719189207507888E+00    7.8035461972939562E+00
Ga    4.9065785205828565E+00    2.9233800091465838E+00    8.4815005180430578E+00
N    4.9083721889669603E+00    2.9213076294008409E+00    1.0474536118308214E+01
Ga    4.8849773429413039E+00    4.7776873878273589E+00    1.1121149725503379E+01
N    4.8673965511667987E+00    4.7869466758754573E+00    1.3113434006409889E+01
Ga    4.9104413788753565E+00    2.9188690557728130E+00    1.3671286129461915E+01
N    4.8826943690218094E+00    2.9039414184865127E+00    1.5633171319709446E+01
Ga    5.0591885297227268E+00    4.6750808502570127E+00    1.6532521431866886E+01
N    6.5112952879576875E+00    3.8365195495024520E+00    1.7665162948901227E+01
N    3.2559495352707657E+00    7.6939816799890366E+00    2.6158505197090647E+00
N    3.2698525823063411E+00    5.7046322501522209E+00    5.1052205001216286E+00
Ga    3.2989043590788412E+00    7.5367667304085044E+00    5.8731693416447399E+00
N    3.2902305953962538E+00    7.5450792111638130E+00    7.8566422842584656E+00
Ga    3.3005786153911347E+00    5.6917310993984760E+00    8.4890278407545416E+00
N    3.2939321582603300E+00    5.6950411350166279E+00    1.0463668723174024E+01
Ga    3.2965875247881709E+00    7.5355506201544271E+00    1.1119526849398401E+01
N    3.2923207867202691E+00    7.5164738630182955E+00    1.3113912656563723E+01
Ga    3.2917310958839376E+00    5.6968255260058731E+00    1.3925384973479682E+01
N    3.2919847432584834E+00    5.6951891681176781E+00    1.6121131738946392E+01
Ga    3.2900858513771536E+00    7.7375393293844104E+00    1.6535296204994015E+01
Ga    3.2984079188416806E+00    9.4221754809676899E+00    1.4159306602494173E+00
N    1.7812256477042476E+00    1.0268443096166937E+01    2.5701698516465630E+00
Ga    1.6681170304225621E+00    8.5064569193976052E+00    3.4039883990103421E+00
N    1.6676364680477997E+00    8.4802394209888643E+00    5.3345239054838505E+00
Ga    1.6666938157732989E+00    1.0366343685535551E+01    5.8739487456069641E+00
N    1.6784499906267847E+00    1.0345289165247436E+01    7.8620391536365224E+00
Ga    1.6965344979076560E+00    8.4920129017249320E+00    8.5088759669085796E+00
N    1.6949560294632482E+00    8.4894643860880112E+00    1.0493655955109128E+01
Ga    1.6688784883748036E+00    1.0351236880123311E+01    1.1125440042147224E+01
N    1.6506181756822884E+00    1.0358907921079371E+01    1.3117193999482341E+01
Ga    1.6959699766904286E+00    8.4898075511513991E+00    1.3672872701590293E+01
N    1.6657528385344980E+00    8.4740896308141842E+00    1.5634441970849300E+01
Ga    1.8479605070346554E+00    1.0243203695616081E+01    1.6535906031715733E+01
N    3.2976008598953643E+00    9.4067789572093261E+00    1.7662301755212841E+01
N    9.6450626891611986E+00    2.0446265595748021E+00    2.6374765776890077E+00
Ga    9.7042417879021095E+00    2.5083632131321293E-01    3.2878539677188194E+00
N    9.7163536350907620E+00    1.4183426302897842E-01    5.2680085686799929E+00
Ga    9.7245040239749088E+00    1.9856142027823840E+00    5.9289391409051424E+00
N    9.7239374126771558E+00    1.9823822732939202E+00    7.9026433856584619E+00
Ga    9.7295734053283098E+00    1.1705628799957458E-01    8.4941291835067805E+00
N    9.7252684321199911E+00    1.1402205885286323E-01    1.0484273986648937E+01
Ga    9.7227740484245828E+00    1.9847422664107155E+00    1.1075164272478695E+01
N    9.7219064139158480E+00    1.9843714871555389E+00    1.3047829259478156E+01
Ga    9.7237552480661122E+00    1.1430244375791146E-01    1.3671317822287211E+01
N    9.7211375752370124E+00    1.4493112383879378E-01    1.5633443284376218E+01
Ga    9.7214554581346011E+00    1.9833539908790772E+00    1.5914629061131279E+01
N    8.1403583683423104E+00    4.6840529060602458E+00    2.5380763532809598E+00
Ga    8.0888473477749692E+00    2.9257747634047480E+00    3.4056116388793791E+00
N    8.1133657139744475E+00    2.9138482398576917E+00    5.3503427749181629E+00
Ga    8.1322479325079087E+00    4.7989250731066146E+00    5.8347109503768699E+00
N    8.1202028803376436E+00    4.7818818914079264E+00    7.8373992947770983E+00
Ga    8.1034984402183934E+00    2.9221858241998953E+00    8.4766756547792568E+00
N    8.1041090806034504E+00    2.9194173219954753E+00    1.0474631828923384E+01
Ga    8.1273690672384244E+00    4.7771779889316859E+00    1.1116774287610497E+01
N    8.1458809182361840E+00    4.7873249187366245E+00    1.3111912880486184E+01
Ga    8.1025801279740364E+00    2.9196279149993081E+00    1.3671377196976270E+01
N    8.1285968515688261E+00    2.9030491689454614E+00    1.5635731855542360E+01
Ga    7.9567784967429560E+00    4.6784491047699106E+00    1.6533433852059584E+01
N    6.5110078713991131E+00    7.5586224593729678E+00    2.6313183969477500E+00
Ga    6.6583627755731909E+00    5.7549991343478286E+00    3.1415798292871875E+00
N    6.5115871228013384E+00    5.6857664717859890E+00    5.1742520462386770E+00
Ga    6.5019973329124925E+00    7.5281640317326604E+00    5.8741617902474825E+00
N    6.5057312813265167E+00    7.5468340224444388E+00    7.8633862125460707E+00
Ga    6.5032313174303003E+00    5.6865233094863834E+00    8.4766698091402333E+00
N    6.5040290227531257E+00    5.6851989515929438E+00    1.0471719628673094E+01
Ga    6.5069827298797858E+00    7.5541673358889767E+00    1.1073592493360884E+01
N    6.5073163396121050E+00    7.5534553486765175E+00    1.3046249320956687E+01
Ga    6.5070131514398328E+00    5.6837815430329659E+00    1.3670562558386695E+01
N    6.5049443166717520E+00    5.7137639649118670E+00    1.5633002641979703E+01
Ga    6.5072222038449086E+00    7.5528468918153395E+00    1.5913939976503970E+01
N    4.7809341469871338E+00    1.0288457730295464E+01    2.5680774873487011E+00
Ga    4.9851519137479157E+00    8.4258764955833154E+00    3.3082052855937083E+00
N    4.8972662540602636E+00    8.4819042833695963E+00    5.2838356440996979E+00
Ga    4.9204467190820056E+00    1.0360917121371942E+01    5.8202521548893182E+00
N    4.9057170827081293E+00    1.0347310180732757E+01    7.8279010393048472E+00
Ga    4.8984856174053375E+00    8.4916760504588620E+00    8.4750422032406920E+00
N    4.8915128880402774E+00    8.4900124400886519E+00    1.0472224338639007E+01
Ga    4.9174286740023332E+00    1.0348110666262061E+01    1.1118879578201089E+01
N    4.9318472304157055E+00    1.0357823522641780E+01    1.3113432792078402E+01
Ga    4.8881906848505077E+00    8.4892981585682534E+00    1.3671980183203591E+01
N    4.9154176018747044E+00    8.4721199386967463E+00    1.5635068151109600E+01
Ga    4.7388913037280886E+00    1.0247069705986918E+01    1.6534738825600105E+01
O    1.0674494871847383E-01    3.9269672103755964E+00   -4.2332147302517686E-01
C    6.4910422196471507E-01    2.7942975594824793E+00   -1.1210299766566691E+00
H    1.6207201745938533E+00    2.4660707613854398E+00   -7.1653874097874171E-01
H   -3.6979402560219497E-02    1.9328619399110789E+00   -1.0995115813262664E+00
H    7.9688808687203005E-01    3.0917126056174333E+00   -2.1694543397048234E+00
Ga    3.1023986791037732E+00    5.7769830533965942E+00    3.0663864047932936E+00
H    8.5224786566299407E-02    7.5476567948043627E+00    1.7581983993437220E+00
C    4.8720226473327806E+00    4.7477860493224311E+00    1.0851301557546249E+00
H    5.8243686097133907E+00    4.6603552100418657E+00    5.4543460066672012E-01
H    3.9442724572234544E+00    4.5907763233634533E+00    5.2011165113045277E-01
     &END COORD
     &KIND C
       BASIS_SET DZVP-MOLOPT-SR-GTH-q4
       POTENTIAL GTH-PBE-q4
       &POTENTIAL
 2 2
  0.3384712400000000E+00 2 -0.8803673979999999E+01  0.1339210850000000E+01
 2
  0.3025757500000000E+00 1  0.9622486650000001E+01
  0.2915069400000000E+00 0
         # Potential name:  GTH-PBE-Q4  for symbol:  C
         # Potential read from the potential filename: GTH_POTENTIALS
       &END POTENTIAL
     &END KIND
     &KIND O
       BASIS_SET DZVP-MOLOPT-SR-GTH-q6
       POTENTIAL GTH-PBE-q6
       &POTENTIAL
 2 4
  0.2445543000000000E+00 2 -0.1666721480000000E+02  0.2487311320000000E+01
 2
  0.2209559200000000E+00 1  0.1833745811000000E+02
  0.2113324700000000E+00 0
         # Potential name:  GTH-PBE-Q6  for symbol:  O
         # Potential read from the potential filename: GTH_POTENTIALS
       &END POTENTIAL
     &END KIND
     &KIND H
       BASIS_SET DZVP-MOLOPT-SR-GTH-q1
       POTENTIAL GTH-PBE-q1
       &POTENTIAL
 1
  0.2000000000000000E+00 2 -0.4178900440000000E+01  0.7244633100000000E+00
 0
         # Potential name:  GTH-PBE-Q1  for symbol:  H
         # Potential read from the potential filename: GTH_POTENTIALS
       &END POTENTIAL
     &END KIND
     &KIND N
       BASIS_SET DZVP-MOLOPT-SR-GTH
       POTENTIAL GTH-PBE-q5
       &POTENTIAL
 2 3
  0.2837905100000000E+00 2 -0.1241522559000000E+02  0.1868095920000000E+01
 2
  0.2554050000000000E+00 1  0.1363026257000000E+02
  0.2454945300000000E+00 0
         # Potential name:  GTH-PBE-Q5  for symbol:  N
         # Potential read from the potential filename: GTH_POTENTIALS
       &END POTENTIAL
     &END KIND
     &KIND Ga
       BASIS_SET DZVP-MOLOPT-SR-GTH
       POTENTIAL GTH-PBE-q13
       &POTENTIAL
 2 1 10
  0.4900000000000000E+00 0
 3
  0.4167772300000000E+00 3  0.1047568975000000E+02 -0.4921768140000000E+01  0.8707055900000000E+00
  0.7770178090000000E+01 -0.2248152160000000E+01
  0.1784415450000000E+01
  0.5696265200000000E+00 2  0.1777985340000000E+01  0.1958597600000000E+00
 -0.2317443900000000E+00
  0.2381265000000000E+00 1 -0.1624868022000000E+02
         # Potential name:  GTH-PBE-Q13  for symbol:  GA
         # Potential read from the potential filename: GTH_POTENTIALS
       &END POTENTIAL
     &END KIND
     &TOPOLOGY
       NUMBER_OF_ATOMS  209
       MULTIPLE_UNIT_CELL  1 1 1
     &END TOPOLOGY
   &END SUBSYS
 &END FORCE_EVAL
