 # Version information for this restart file 
 # current date 2019-07-22 09:55:56.997
 # current working dir /lustre04/scratch/rzk/rzk/GaN-carbene/443-adatoms-both-2x2/12-CH3O-H2C-H/02-Start-Intermediate-0904
 # Program compiled at                              Sun Apr  7 00:48:11 EDT 2019
 # Program compiled on                          beluga2.int.ets1.calculquebec.ca
 # Program compiled for                        Beluga-Linux-x86-64-intel-openmpi
 # Source code revision number                                         svn:18619
 &GLOBAL
   PRINT_LEVEL  MEDIUM
   PROJECT_NAME TEST
   RUN_TYPE  GEO_OPT
 &END GLOBAL
 &MOTION
   &GEO_OPT
     MAX_ITER  500
     STEP_START_VAL  138
   &END GEO_OPT
 &END MOTION
 &FORCE_EVAL
   METHOD  QS
   STRESS_TENSOR  ANALYTICAL
   &DFT
     BASIS_SET_FILE_NAME BASIS_MOLOPT
     POTENTIAL_FILE_NAME GTH_POTENTIALS
     UKS  T
     SURFACE_DIPOLE_CORRECTION  T
     SURF_DIP_DIR  Z
     &SCF
       MAX_SCF  80
       EPS_SCF     5.0000000000000004E-06
       &OT  T
         PRECONDITIONER  FULL_ALL
       &END OT
       &OUTER_SCF  T
         OPTIMIZER  NONE
         EPS_SCF     5.0000000000000004E-06
         MAX_SCF  4
       &END OUTER_SCF
       &PRINT
         &RESTART  OFF
           BACKUP_COPIES  1
           &EACH
             JUST_ENERGY  0
             QS_SCF  0
             MD  20
           &END EACH
         &END RESTART
       &END PRINT
     &END SCF
     &QS
       EPS_DEFAULT     1.0000000000000000E-14
       METHOD  GPW
     &END QS
     &MGRID
       NGRIDS  5
       CUTOFF     1.2000000000000000E+03
     &END MGRID
     &XC
       DENSITY_CUTOFF     1.0000000000000000E-10
       GRADIENT_CUTOFF     1.0000000000000000E-10
       TAU_CUTOFF     1.0000000000000000E-10
       &XC_FUNCTIONAL  NO_SHORTCUT
         &PBE  T
         &END PBE
       &END XC_FUNCTIONAL
       &VDW_POTENTIAL
         POTENTIAL_TYPE  PAIR_POTENTIAL
         &PAIR_POTENTIAL
           R_CUTOFF     1.0000000000000004E+01
           TYPE  DFTD3
           PARAMETER_FILE_NAME dftd3.dat
           REFERENCE_FUNCTIONAL PBE
           EPS_CN     9.9999999999999995E-07
           CALCULATE_C9_TERM  T
           REFERENCE_C9_TERM  T
           LONG_RANGE_CORRECTION  F
           VERBOSE_OUTPUT  F
         &END PAIR_POTENTIAL
       &END VDW_POTENTIAL
     &END XC
   &END DFT
   &SUBSYS
     &CELL
       A     1.2864472766435110E+01    0.0000000000000000E+00    0.0000000000000000E+00
       B    -6.4322363581020028E+00    1.1140960178524473E+01    0.0000000000000000E+00
       C     0.0000000000000000E+00    0.0000000000000000E+00    3.2000000000000000E+01
       MULTIPLE_UNIT_CELL  1 1 1
       &CELL_REF
         A     1.2982353780853531E+01    0.0000000000000000E+00    0.0000000000000000E+00
         B    -6.4911768904267628E+00    1.1243048175136114E+01    0.0000000000000000E+00
         C     0.0000000000000000E+00    0.0000000000000000E+00    3.2000000000000000E+01
         MULTIPLE_UNIT_CELL  1 1 1
       &END CELL_REF
     &END CELL
     &COORD
N    6.0630956487801133E-02    2.1299851987805036E+00    2.5786649792916232E+00
Ga    3.3242190987278777E-02    1.6324804444572247E-01    2.8977332720481410E+00
N    6.6124075311356487E-02    1.3186429540115066E-01    5.0749649558253394E+00
Ga    6.1597527840673030E-02    1.9560342170639446E+00    5.8480275228521146E+00
N    6.1746956331166461E-02    1.9756144679194405E+00    7.8484366703153601E+00
Ga    5.8032451277751411E-02    1.2875537437080004E-01    8.4905965820644234E+00
N    6.0906766241586405E-02    1.2820630440314487E-01    1.0467479736742341E+01
Ga    6.2336697315258253E-02    1.9664162156717702E+00    1.1120462441538423E+01
N    6.1883331611300253E-02    1.9484830989607669E+00    1.3115828296723958E+01
Ga    6.0537418056494666E-02    1.2739772470671520E-01    1.3916229986001801E+01
N    6.2266404862233359E-02    1.2716651307351995E-01    1.6120002187892865E+01
Ga    6.1652237333049018E-02    2.1638339155252124E+00    1.6527248530865283E+01
Ga    4.9681236536106246E-02    3.8388832173564125E+00    1.4103365011421634E+00
N   -1.4167343069307119E+00    4.7100223729284760E+00    2.5665014439838898E+00
Ga   -1.5999281469418556E+00    2.8921571505732615E+00    3.3520574450584637E+00
N   -1.5574046012179275E+00    2.9136548410425003E+00    5.3051618754485252E+00
Ga   -1.5768361972974239E+00    4.7836491746071852E+00    5.8881484938015767E+00
N   -1.5510310545726644E+00    4.7732521243618535E+00    7.8734011324463617E+00
Ga   -1.5383986362264590E+00    2.9128772363086068E+00    8.4931608521602922E+00
N   -1.5349287255950974E+00    2.9177158851964098E+00    1.0486640414306770E+01
Ga   -1.5644167991203781E+00    4.7770766789728567E+00    1.1121560969312915E+01
N   -1.5791041207674590E+00    4.7885122841260799E+00    1.3116222105772357E+01
Ga   -1.5363925072061511E+00    2.9197566702504369E+00    1.3670272632124105E+01
N   -1.5622866725416333E+00    2.9059305970584228E+00    1.5633406737816369E+01
Ga   -1.3842909092063678E+00    4.6760591790612303E+00    1.6528090147245798E+01
N    7.0574130245953937E-02    3.8368212195491678E+00    1.7661724638649314E+01
N   -3.1373951432367688E+00    7.6858249753920278E+00    2.6001236865357913E+00
Ga   -3.1328384823464233E+00    5.6697429871229161E+00    2.9627974493231388E+00
N   -3.1235162862924439E+00    5.7184355019660806E+00    5.1268579423119505E+00
Ga   -3.1607771967418836E+00    7.5226758970680807E+00    5.8878243626784394E+00
N   -3.1539951727406703E+00    7.5501742011962660E+00    7.8721420419876953E+00
Ga   -3.1646626995256901E+00    5.6936684822425576E+00    8.4925040521499451E+00
N   -3.1568585170740739E+00    5.6974440454169297E+00    1.0469639508065937E+01
Ga   -3.1602195190096158E+00    7.5365524882372723E+00    1.1120952651488004E+01
N   -3.1563528523121938E+00    7.5188118728514883E+00    1.3116325903694342E+01
Ga   -3.1563809022338440E+00    5.6978134895614705E+00    1.3915364886146300E+01
N   -3.1535653789825813E+00    5.6975963721505201E+00    1.6119961232342256E+01
Ga   -3.1548346216834204E+00    7.7347391353314068E+00    1.6527256182563171E+01
Ga   -3.1674724974671022E+00    9.4135036516946080E+00    1.5932079121866287E+00
N   -4.6653810556949749E+00    1.0286675562719756E+01    2.5783226883956223E+00
Ga   -4.8808795509659202E+00    8.4213466886610338E+00    3.3447490961193380E+00
N   -4.7590081560479698E+00    8.4822352870344790E+00    5.3039613470209206E+00
Ga   -4.7947209114917735E+00    1.0355493379001333E+01    5.8553484883182634E+00
N   -4.7729489966242129E+00    1.0346693507850960E+01    7.8508202865347965E+00
Ga   -4.7642942627929159E+00    8.4871847663415778E+00    8.4831038131142407E+00
N   -4.7553902436195559E+00    8.4901971225673929E+00    1.0479386241293588E+01
Ga   -4.7796567221726516E+00    1.0348562440230078E+01    1.1118503334577719E+01
N   -4.7950169373397395E+00    1.0359162927086444E+01    1.3114061964000367E+01
Ga   -4.7538141097183813E+00    8.4905038189153217E+00    1.3669731595846766E+01
N   -4.7792758018815515E+00    8.4766055498494080E+00    1.5633337642939880E+01
Ga   -4.6015227185520722E+00    1.0247820488327266E+01    1.6528182252388902E+01
N   -3.1468627093575936E+00    9.4083947175701876E+00    1.7659047058727047E+01
N    3.2694496513021147E+00    2.0038038567425187E+00    2.6470302773200487E+00
Ga    3.2516350439249107E+00    2.4726780376964624E-01    3.3469440861480519E+00
N    3.2781123982573619E+00    1.3022507681494719E-01    5.3074803042769449E+00
Ga    3.2848093862697478E+00    2.0004832436655335E+00    5.9112153359096835E+00
N    3.2832036150038020E+00    1.9873100464164659E+00    7.8895618934320026E+00
Ga    3.2723204687748368E+00    1.2236744459177425E-01    8.4943980562032380E+00
N    3.2756955259488754E+00    1.1776858752035810E-01    1.0486444314923277E+01
Ga    3.2804112564395389E+00    1.9872617755510171E+00    1.1076835865098538E+01
N    3.2784837422836808E+00    1.9860250348986299E+00    1.3049573465273319E+01
Ga    3.2761279022907503E+00    1.1654920180696562E-01    1.3670598883364441E+01
N    3.2751456227704252E+00    1.4720421198833142E-01    1.5634064476354951E+01
Ga    3.2782185143304630E+00    1.9859612940576550E+00    1.5912784772145677E+01
N    1.5316057451824461E+00    4.7177979107182164E+00    2.5801123200834089E+00
Ga    1.7466214603633423E+00    2.8871685604992652E+00    3.3343596107213864E+00
N    1.6730321936517580E+00    2.9177006764985571E+00    5.3082359727057984E+00
Ga    1.6931734007112105E+00    4.7771107418384231E+00    5.8812893134238911E+00
N    1.6784625245307325E+00    4.7766919464353581E+00    7.8656350650165621E+00
Ga    1.6626044527747545E+00    2.9146048480043643E+00    8.4879106033203300E+00
N    1.6602330437097634E+00    2.9181127591107971E+00    1.0482619813979692E+01
Ga    1.6898651154235771E+00    4.7771380193114856E+00    1.1121251093168611E+01
N    1.7030949981659469E+00    4.7886081754867424E+00    1.3116347566211203E+01
Ga    1.6590534889789144E+00    2.9197866794681930E+00    1.3671062686713414E+01
N    1.6854687146566329E+00    2.9040616241213923E+00    1.5635122869393001E+01
Ga    1.5157992968371612E+00    4.6811197795259556E+00    1.6527624402009192E+01
N    6.7955589626244928E-02    7.5552085329335057E+00    2.7824173235259444E+00
Ga    4.4393875942441062E-02    5.6945909838734572E+00    3.4043102458433077E+00
N    6.1651095540779334E-02    5.7155249918584232E+00    5.3383547328772538E+00
Ga    6.8668452877940114E-02    7.5563103193205796E+00    5.9818914555256546E+00
N    6.2342531664796780E-02    7.5574126669937902E+00    7.9367849916744300E+00
Ga    6.2836374735832964E-02    5.6840861419713002E+00    8.5126479393011021E+00
N    6.3177895621087499E-02    5.6856726520491323E+00    1.0498816861451807E+01
Ga    6.3854701460069746E-02    7.5556141328643536E+00    1.1089118055317430E+01
N    6.2201009742643726E-02    7.5557152000168371E+00    1.3058712421935343E+01
Ga    6.1382889921586935E-02    5.6844020694627275E+00    1.3671574660882861E+01
N    5.9781201852014895E-02    5.7160436470885836E+00    1.5634740208501265E+01
Ga    6.2196255262551813E-02    7.5559431970358313E+00    1.5909101260700606E+01
N   -1.6575932721520874E+00    1.0264783069810075E+01    2.6050968953941775E+00
Ga   -1.5195532985488756E+00    8.4677216990030750E+00    3.4271816337107315E+00
N   -1.5345931215924693E+00    8.4784481557398053E+00    5.3452065086829146E+00
Ga   -1.5245164981523989E+00    1.0361118395526903E+01    5.8950726982741015E+00
N   -1.5428493687131402E+00    1.0343587660577104E+01    7.8774062934507603E+00
Ga   -1.5604879243931877E+00    8.4909955164713296E+00    8.5171743570468479E+00
N   -1.5573910283078451E+00    8.4902060759818365E+00    1.0502446266321593E+01
Ga   -1.5317117605484212E+00    1.0353864528510581E+01    1.1123936608225186E+01
N   -1.5148018262450240E+00    1.0361027664771955E+01    1.3118489882000876E+01
Ga   -1.5594399739454243E+00    8.4912964189895845E+00    1.3671424247936416E+01
N   -1.5308297433167848E+00    8.4746300369078700E+00    1.5635982911510711E+01
Ga   -1.7007671555164543E+00    1.0252469401826746E+01    1.6527038545252804E+01
N    6.5361366040713778E+00    1.9681097590095047E+00    2.5786742383657808E+00
Ga    6.5311141235344961E+00    1.0660764264937828E-01    2.9836959088514599E+00
N    6.4886065539540665E+00    9.5581276147534922E-02    5.1438348973965100E+00
Ga    6.5134626865716951E+00    1.9584483707054023E+00    5.8295474638471436E+00
N    6.4937933702023338E+00    1.9762608928492762E+00    7.8363257419950640E+00
Ga    6.4960029807548603E+00    1.3510284700898562E-01    8.4969377857118928E+00
N    6.4947920669941039E+00    1.2994128492988044E-01    1.0472263873949347E+01
Ga    6.4948923300437524E+00    1.9716453821481823E+00    1.1115870230563232E+01
N    6.4937177938517578E+00    1.9497541228176625E+00    1.3112621197281703E+01
Ga    6.4954831375552393E+00    1.3000601583367533E-01    1.3917891218342012E+01
N    6.4962727034805798E+00    1.2814113049827702E-01    1.6120592669007547E+01
Ga    6.4945867533526913E+00    2.1678572932056581E+00    1.6531031322057871E+01
Ga    9.3917686216081169E+00    2.2745367786623314E+00    6.4440367661681208E-01
N    4.8535108582253548E+00    5.0068861787746011E+00    2.3635604705730726E+00
Ga    4.9209943815231654E+00    2.5797283684716055E+00    3.2753237636871835E+00
N    4.8941492933249098E+00    2.9109612143616901E+00    5.2315196529230850E+00
Ga    4.8835693814978587E+00    4.7815293165968900E+00    5.7977621121799405E+00
N    4.8788060326022737E+00    4.7730270709280704E+00    7.8112237333252637E+00
Ga    4.9001448997487644E+00    2.9229351738034506E+00    8.4756929102734215E+00
N    4.8972156811076513E+00    2.9213954497876466E+00    1.0474113208432597E+01
Ga    4.8748056201990542E+00    4.7785609964253126E+00    1.1115593382573529E+01
N    4.8548117717885546E+00    4.7887230879752467E+00    1.3111397195813405E+01
Ga    4.8973406690461374E+00    2.9210916507987585E+00    1.3670504684563575E+01
N    4.8690860986009099E+00    2.9058906725880602E+00    1.5632634847834806E+01
Ga    5.0507852877344277E+00    4.6756454086551305E+00    1.6532041105231759E+01
N    6.5012643176236979E+00    3.8374792704941827E+00    1.7665463202508533E+01
N    3.2477064549358694E+00    7.7007227368279345E+00    2.5954038520876090E+00
N    3.2605223788622233E+00    5.7050192409649423E+00    5.0984093246351421E+00
Ga    3.2873240309223251E+00    7.5370073708933791E+00    5.8640443662012540E+00
N    3.2777913038407758E+00    7.5457178658973270E+00    7.8537608037864297E+00
Ga    3.2890792336201691E+00    5.6952052193107008E+00    8.4886166379286223E+00
N    3.2818984970545158E+00    5.6976437666520443E+00    1.0465300346015013E+01
Ga    3.2844434055409071E+00    7.5370032297803435E+00    1.1119347559922071E+01
N    3.2793957718393361E+00    7.5188861298737590E+00    1.3114363024638083E+01
Ga    3.2801250741342654E+00    5.6993800249492006E+00    1.3916946302463321E+01
N    3.2799650951601982E+00    5.6988697438481992E+00    1.6120058173198021E+01
Ga    3.2788651428494995E+00    7.7409807798983197E+00    1.6533309220912063E+01
Ga    3.2982307814461778E+00    9.4094221009506356E+00    1.3183619487653009E+00
N    1.7680263432246168E+00    1.0281013084491807E+01    2.5733140566367623E+00
Ga    1.6687798500601116E+00    8.5181213698630192E+00    3.3857679769246136E+00
N    1.6564784318522041E+00    8.4801843575097511E+00    5.3259975633442060E+00
Ga    1.6500806478606835E+00    1.0361098670024049E+01    5.8813804040888478E+00
N    1.6677259148583075E+00    1.0344241809032269E+01    7.8689537014039601E+00
Ga    1.6871768232538344E+00    8.4912076921645188E+00    8.5094350090383308E+00
N    1.6833988286250485E+00    8.4897962703339864E+00    1.0496376807385547E+01
Ga    1.6568206663188401E+00    1.0352455478607686E+01    1.1122543334218095E+01
N    1.6383253531278354E+00    1.0360048329553733E+01    1.3116285780059368E+01
Ga    1.6830195530352416E+00    8.4916842950300016E+00    1.3672321840332673E+01
N    1.6533425455947512E+00    8.4761901871667167E+00    1.5633746285636624E+01
Ga    1.8377047694041044E+00    1.0244849233085162E+01    1.6533663562363763E+01
N    3.2864426262212785E+00    9.4077634368349408E+00    1.7669593150361177E+01
N    9.6965067322856111E+00    2.0080275272738626E+00    2.6289801793865832E+00
Ga    9.7003992755694863E+00    1.9421277753821525E-01    3.3171849499207342E+00
N    9.7056208614216732E+00    1.4153652710361098E-01    5.2822673900843977E+00
Ga    9.6932351685052716E+00    1.9943617175394182E+00    5.9143211302620680E+00
N    9.7086449287320846E+00    1.9855341751657707E+00    7.8952196430214112E+00
Ga    9.7164452128320278E+00    1.2145862136892543E-01    8.4922115751288043E+00
N    9.7128431144945253E+00    1.1645735633248784E-01    1.0485546577679470E+01
Ga    9.7084125281728770E+00    1.9861840366531358E+00    1.1076396119850624E+01
N    9.7092787010916783E+00    1.9856608837357665E+00    1.3049572468464339E+01
Ga    9.7100912690195766E+00    1.1617896143416347E-01    1.3671115033979666E+01
N    9.7094170985284514E+00    1.4756278528806976E-01    1.5632717105111835E+01
Ga    9.7097901635121762E+00    1.9852885616730258E+00    1.5911085666100211E+01
N    8.1278675142629631E+00    4.7396437476501108E+00    2.5648380558032211E+00
Ga    8.0539259520435724E+00    2.9489285961867906E+00    3.2429178852892626E+00
N    8.1107831606205227E+00    2.9088680752158749E+00    5.2575962191710373E+00
Ga    8.1199674252059175E+00    4.7830261710382453E+00    5.7952381466344356E+00
N    8.1081986970756361E+00    4.7774796249585769E+00    7.8198293800009218E+00
Ga    8.0907434183587892E+00    2.9254735858823300E+00    8.4733041455824321E+00
N    8.0915625373696702E+00    2.9210883584633960E+00    1.0474605847696438E+01
Ga    8.1131750498799118E+00    4.7783625096343814E+00    1.1115083405869035E+01
N    8.1319146193129068E+00    4.7886677615982434E+00    1.3111915916663751E+01
Ga    8.0901397632625169E+00    2.9206487045157643E+00    1.3670357390384131E+01
N    8.1189357599959706E+00    2.9047590443118678E+00    1.5633625018361665E+01
Ga    7.9432860646847656E+00    4.6786176830552453E+00    1.6530993446217170E+01
N    6.4843230992281944E+00    7.5668726177999091E+00    2.6374865098519731E+00
Ga    6.6378912417152396E+00    5.7615611027296492E+00    3.1475673278190262E+00
N    6.4894066595059341E+00    5.6889570927766746E+00    5.1892506310423805E+00
Ga    6.4831244931696519E+00    7.5271305189753210E+00    5.8742256673104718E+00
N    6.4930974308381391E+00    7.5480222164341626E+00    7.8677999598775887E+00
Ga    6.4946559805076234E+00    5.6842030941301074E+00    8.4664517930298970E+00
N    6.4931403727054278E+00    5.6857949688213383E+00    1.0468417072665455E+01
Ga    6.4927539452830496E+00    7.5527564879307736E+00    1.1072178005896102E+01
N    6.4934055586346533E+00    7.5546305772661801E+00    1.3045946366059418E+01
Ga    6.4931085632340677E+00    5.6862690754459067E+00    1.3670085052343309E+01
N    6.4929161324582783E+00    5.7175297255925424E+00    1.5632421818041026E+01
Ga    6.4936658269106404E+00    7.5555058527304695E+00    1.5913278667155195E+01
N    4.7797916678958314E+00    1.0297725999535285E+01    2.5674452702335517E+00
Ga    4.9598074236324337E+00    8.4417067360915379E+00    3.2980973974087977E+00
N    4.8831967374101275E+00    8.4861451804951979E+00    5.2840738658057909E+00
Ga    4.9108737278849848E+00    1.0357339918655828E+01    5.8329649616858168E+00
N    4.8938928528832975E+00    1.0347458583737255E+01    7.8379926745892874E+00
Ga    4.8847137044450353E+00    8.4890954858400782E+00    8.4740705386993529E+00
N    4.8779535369151805E+00    8.4904477556235314E+00    1.0473528856386068E+01
Ga    4.9021080199682752E+00    1.0347590769577948E+01    1.1118878261795233E+01
N    4.9172229569331334E+00    1.0358331249376514E+01    1.3114148139309320E+01
Ga    4.8756822429846425E+00    8.4900931088461569E+00    1.3671278316968712E+01
N    4.9035225384575369E+00    8.4749230040292627E+00    1.5633783437784679E+01
Ga    4.7254609253497035E+00    1.0248216895274393E+01    1.6532941596644108E+01
O   -1.6901735431733789E-02    3.7791617594832099E+00   -4.0523129003354763E-01
C    6.7004677219042008E-01    2.6800495468125578E+00   -1.0266898885767644E+00
H    1.7432502830699781E+00    2.6558719781968518E+00   -7.7509653449985150E-01
H    2.3433846341808662E-01    1.7063814914589239E+00   -7.4693586202872986E-01
H    5.7094469105890300E-01    2.8048728677643959E+00   -2.1144776639429161E+00
Ga    3.1172416222341495E+00    5.7921974231705589E+00    3.0391239428015577E+00
H    5.5845474642893474E-02    7.5515329136071188E+00    1.7558048369280679E+00
C    4.9073133014586015E+00    4.5138818169989330E+00    1.1726342009086856E+00
H    5.8719721797380320E+00    4.2236810220066046E+00    7.3205001712700823E-01
H    3.9989182077209224E+00    4.3420383563446112E+00    5.7835511069184753E-01
     &END COORD
     &KIND C
       BASIS_SET DZVP-MOLOPT-SR-GTH-q4
       POTENTIAL GTH-PBE-q4
       &POTENTIAL
 2 2
  0.3384712400000000E+00 2 -0.8803673979999999E+01  0.1339210850000000E+01
 2
  0.3025757500000000E+00 1  0.9622486650000001E+01
  0.2915069400000000E+00 0
         # Potential name:  GTH-PBE-Q4  for symbol:  C
         # Potential read from the potential filename: GTH_POTENTIALS
       &END POTENTIAL
     &END KIND
     &KIND O
       BASIS_SET DZVP-MOLOPT-SR-GTH-q6
       POTENTIAL GTH-PBE-q6
       &POTENTIAL
 2 4
  0.2445543000000000E+00 2 -0.1666721480000000E+02  0.2487311320000000E+01
 2
  0.2209559200000000E+00 1  0.1833745811000000E+02
  0.2113324700000000E+00 0
         # Potential name:  GTH-PBE-Q6  for symbol:  O
         # Potential read from the potential filename: GTH_POTENTIALS
       &END POTENTIAL
     &END KIND
     &KIND H
       BASIS_SET DZVP-MOLOPT-SR-GTH-q1
       POTENTIAL GTH-PBE-q1
       &POTENTIAL
 1
  0.2000000000000000E+00 2 -0.4178900440000000E+01  0.7244633100000000E+00
 0
         # Potential name:  GTH-PBE-Q1  for symbol:  H
         # Potential read from the potential filename: GTH_POTENTIALS
       &END POTENTIAL
     &END KIND
     &KIND N
       BASIS_SET DZVP-MOLOPT-SR-GTH
       POTENTIAL GTH-PBE-q5
       &POTENTIAL
 2 3
  0.2837905100000000E+00 2 -0.1241522559000000E+02  0.1868095920000000E+01
 2
  0.2554050000000000E+00 1  0.1363026257000000E+02
  0.2454945300000000E+00 0
         # Potential name:  GTH-PBE-Q5  for symbol:  N
         # Potential read from the potential filename: GTH_POTENTIALS
       &END POTENTIAL
     &END KIND
     &KIND Ga
       BASIS_SET DZVP-MOLOPT-SR-GTH
       POTENTIAL GTH-PBE-q13
       &POTENTIAL
 2 1 10
  0.4900000000000000E+00 0
 3
  0.4167772300000000E+00 3  0.1047568975000000E+02 -0.4921768140000000E+01  0.8707055900000000E+00
  0.7770178090000000E+01 -0.2248152160000000E+01
  0.1784415450000000E+01
  0.5696265200000000E+00 2  0.1777985340000000E+01  0.1958597600000000E+00
 -0.2317443900000000E+00
  0.2381265000000000E+00 1 -0.1624868022000000E+02
         # Potential name:  GTH-PBE-Q13  for symbol:  GA
         # Potential read from the potential filename: GTH_POTENTIALS
       &END POTENTIAL
     &END KIND
     &TOPOLOGY
       NUMBER_OF_ATOMS  209
       MULTIPLE_UNIT_CELL  1 1 1
     &END TOPOLOGY
   &END SUBSYS
 &END FORCE_EVAL
