 # Version information for this restart file 
 # current date 2019-06-24 09:53:39.226
 # current working dir /scratch/rzk/rzk/GaN-carbene/443-adatoms-both-2x2/01-Surface/01-GaN-NGa/02-RKS
 # Program compiled at                              Sun Apr  7 00:48:11 EDT 2019
 # Program compiled on                          beluga2.int.ets1.calculquebec.ca
 # Program compiled for                        Beluga-Linux-x86-64-intel-openmpi
 # Source code revision number                                         svn:18619
 &GLOBAL
   PRINT_LEVEL  MEDIUM
   PROJECT_NAME TEST
   RUN_TYPE  GEO_OPT
 &END GLOBAL
 &MOTION
   &GEO_OPT
     STEP_START_VAL  12
   &END GEO_OPT
   &CELL_OPT
     MAX_ITER  300
     EXTERNAL_PRESSURE     1.0000000000000000E+00
     KEEP_ANGLES  T
     KEEP_SYMMETRY  T
     CONSTRAINT  Z
     PRESSURE_TOLERANCE     5.0000000000000000E+02
   &END CELL_OPT
 &END MOTION
 &FORCE_EVAL
   METHOD  QS
   STRESS_TENSOR  ANALYTICAL
   &DFT
     BASIS_SET_FILE_NAME BASIS_MOLOPT
     POTENTIAL_FILE_NAME GTH_POTENTIALS
     SURFACE_DIPOLE_CORRECTION  T
     SURF_DIP_DIR  Z
     &SCF
       MAX_SCF  80
       EPS_SCF     5.0000000000000004E-06
       &OT  T
         PRECONDITIONER  FULL_ALL
       &END OT
       &OUTER_SCF  T
         OPTIMIZER  NONE
         EPS_SCF     5.0000000000000004E-06
         MAX_SCF  4
       &END OUTER_SCF
       &PRINT
         &RESTART  OFF
           BACKUP_COPIES  1
           &EACH
             JUST_ENERGY  0
             QS_SCF  0
             MD  20
           &END EACH
         &END RESTART
       &END PRINT
     &END SCF
     &QS
       EPS_DEFAULT     1.0000000000000000E-14
       METHOD  GPW
     &END QS
     &MGRID
       NGRIDS  5
       CUTOFF     1.2000000000000000E+03
     &END MGRID
     &XC
       DENSITY_CUTOFF     1.0000000000000000E-10
       GRADIENT_CUTOFF     1.0000000000000000E-10
       TAU_CUTOFF     1.0000000000000000E-10
       &XC_FUNCTIONAL  NO_SHORTCUT
         &PBE  T
         &END PBE
       &END XC_FUNCTIONAL
       &VDW_POTENTIAL
         POTENTIAL_TYPE  PAIR_POTENTIAL
         &PAIR_POTENTIAL
           R_CUTOFF     1.0000000000000004E+01
           TYPE  DFTD3
           PARAMETER_FILE_NAME dftd3.dat
           REFERENCE_FUNCTIONAL PBE
           EPS_CN     9.9999999999999995E-07
           CALCULATE_C9_TERM  T
           REFERENCE_C9_TERM  T
           LONG_RANGE_CORRECTION  F
           VERBOSE_OUTPUT  F
         &END PAIR_POTENTIAL
       &END VDW_POTENTIAL
     &END XC
   &END DFT
   &SUBSYS
     &CELL
       A     1.2864472766435110E+01    0.0000000000000000E+00    0.0000000000000000E+00
       B    -6.4322363581020028E+00    1.1140960178524473E+01    0.0000000000000000E+00
       C     0.0000000000000000E+00    0.0000000000000000E+00    3.2000000000000000E+01
       MULTIPLE_UNIT_CELL  1 1 1
       &CELL_REF
         A     1.2982353780853531E+01    0.0000000000000000E+00    0.0000000000000000E+00
         B    -6.4911768904267628E+00    1.1243048175136114E+01    0.0000000000000000E+00
         C     0.0000000000000000E+00    0.0000000000000000E+00    3.2000000000000000E+01
         MULTIPLE_UNIT_CELL  1 1 1
       &END CELL_REF
     &END CELL
     &COORD
N    2.0105426506032125E-02    2.0285072625337954E+00    2.4690472183789045E+00
Ga    2.0637755372934351E-02    4.7961544638013297E-02    2.8024724793821885E+00
N    2.0798557028401322E-02    4.7086181895016177E-02    4.9590752772348967E+00
Ga    2.0263043988684500E-02    1.8750869860200829E+00    5.7477780117608814E+00
N    2.0702013675356627E-02    1.8924819690587862E+00    7.7387328415583490E+00
Ga    2.0816918055522618E-02    4.7348661821850088E-02    8.3929070003612001E+00
N    2.0928376178304477E-02    4.7198898653665423E-02    1.0361516485217567E+01
Ga    2.0471630046690455E-02    1.8860304431747137E+00    1.1019495085574050E+01
N    1.9801724406102544E-02    1.8670149431414662E+00    1.3007518720306111E+01
Ga    2.0138880698164198E-02    4.7465829203361502E-02    1.3824495847314466E+01
N    2.0736836024186040E-02    4.7976828403027465E-02    1.6004987650203958E+01
Ga    2.0033534686775833E-02    2.0958981653009734E+00    1.6426765854488519E+01
Ga    2.0677810867382570E-02    3.7612373554654703E+00    1.4433746032552131E+00
N   -1.4797563274278329E+00    4.6278421179506095E+00    2.4696547439770624E+00
Ga   -1.6882910672999001E+00    2.7748623462310964E+00    3.2364719052587358E+00
N   -1.5892655763444736E+00    2.8312907153247524E+00    5.1958710856004080E+00
Ga   -1.6120781124456594E+00    4.7033645711097511E+00    5.7477538143743354E+00
N   -1.5971232393905064E+00    4.6948207592530462E+00    7.7387998582348736E+00
Ga   -1.5771178517481621E+00    2.8382014172097350E+00    8.3853300047577655E+00
N   -1.5754207299340808E+00    2.8390288251358951E+00    1.0372972191433028E+01
Ga   -1.6018983031776561E+00    4.6977838153432314E+00    1.1018258119637121E+01
N   -1.6198901488037283E+00    4.7085878231075959E+00    1.3006417826711402E+01
Ga   -1.5785070424033596E+00    2.8389198279741223E+00    1.3565931069704675E+01
N   -1.6087590441595725E+00    2.8238718088477586E+00    1.5521955088979229E+01
Ga   -1.4157171406538198E+00    4.5908665616417270E+00    1.6428723790430837E+01
N    2.6168133745452328E-02    3.7582387467599840E+00    1.7554097573467267E+01
N   -3.1943903920225436E+00    7.5987153715392894E+00    2.4696992166729683E+00
Ga   -3.1948242627200729E+00    5.6180058838629749E+00    2.8018873859572380E+00
N   -3.1952047390988860E+00    5.6174300485597382E+00    4.9592112898959639E+00
Ga   -3.1946435324079743E+00    7.4451819198381362E+00    5.7478077849547553E+00
N   -3.1946511251046030E+00    7.4628285095524758E+00    7.7387132858769183E+00
Ga   -3.1950146055274069E+00    5.6175768405145314E+00    8.3927592829602062E+00
N   -3.1948959257213212E+00    5.6173655457271385E+00    1.0361398985945245E+01
Ga   -3.1943696936170660E+00    7.4567913124811627E+00    1.1017606332147404E+01
N   -3.1949169989953519E+00    7.4376085651344770E+00    1.3005988530799735E+01
Ga   -3.1951809858977760E+00    5.6181238301336780E+00    1.3820714072341039E+01
N   -3.1939429650012254E+00    5.6182568473378174E+00    1.6007211634790355E+01
Ga   -3.1952323816136228E+00    7.6588797228336478E+00    1.6425994985112595E+01
Ga   -3.1932888010207972E+00    9.3310833758175207E+00    1.4452022855199405E+00
N   -4.6947605609858716E+00    1.0198054845179113E+01    2.4690931157739104E+00
Ga   -4.9029698799112609E+00    8.3451202876164796E+00    3.2371114468638891E+00
N   -4.8042824277015868E+00    8.4017970662102144E+00    5.1963575135003612E+00
Ga   -4.8282562938796767E+00    1.0273852820247743E+01    5.7480968686646978E+00
N   -4.8133231324643679E+00    1.0265312453183938E+01    7.7388640178404975E+00
Ga   -4.7924770658417808E+00    8.4086431075623462E+00    8.3848217545107744E+00
N   -4.7908218429752125E+00    8.4096155455342299E+00    1.0372852313789144E+01
Ga   -4.8185694536150132E+00    1.0268520393273256E+01    1.1018095424627925E+01
N   -4.8360022687152737E+00    1.0278820695272914E+01    1.3005973402040551E+01
Ga   -4.7922710737252467E+00    8.4099611727812196E+00    1.3564972435206101E+01
N   -4.8171771731873072E+00    8.3959375133382785E+00    1.5523568340333961E+01
Ga   -4.6403982782692106E+00    1.0166013894664980E+01    1.6425487934788865E+01
N   -3.1892821278154186E+00    9.3289759919664714E+00    1.7569470599067429E+01
N    3.2358841175096069E+00    1.9044528446213325E+00    2.5528517720660986E+00
Ga    3.2361470432404116E+00    1.6434580916555314E-01    3.2376736211198516E+00
N    3.2366731638033959E+00    4.8967107827173166E-02    5.1966601944351574E+00
Ga    3.2360743978470605E+00    1.9042639296465229E+00    5.8261263177654499E+00
N    3.2364082123145730E+00    1.9038882202776752E+00    7.7940776379675381E+00
Ga    3.2369950153113156E+00    3.5082025761290832E-02    8.3847645105392115E+00
N    3.2369358297597897E+00    3.3702099523542021E-02    1.0372673372823776E+01
Ga    3.2369192789114196E+00    1.9039055723348679E+00    1.0970971417998339E+01
N    3.2368727845453633E+00    1.9039845655540990E+00    1.2937767967998347E+01
Ga    3.2359304340618555E+00    3.4682336860425544E-02    1.3565435220073935E+01
N    3.2360113847738616E+00    6.4390036702269768E-02    1.5523994072418612E+01
Ga    3.2378422413369869E+00    1.9037854646026222E+00    1.5805195371303970E+01
N    1.5214633825672137E+00    4.6277398404897525E+00    2.4687091464030897E+00
Ga    1.7283780515100740E+00    2.7750002246546752E+00    3.2368218449988055E+00
N    1.6295581026454071E+00    2.8316771304658022E+00    5.1960310242996162E+00
Ga    1.6541873341856348E+00    4.7037572103109593E+00    5.7481370602973882E+00
N    1.6390694077116239E+00    4.6946749315085947E+00    7.7391509223098920E+00
Ga    1.6181403822587490E+00    2.8381257396176913E+00    8.3858210440681589E+00
N    1.6170535345442267E+00    2.8388917475971081E+00    1.0373919605679538E+01
Ga    1.6442049745875460E+00    4.6981673174179255E+00    1.1019207522959571E+01
N    1.6610456904611794E+00    4.7088719836366284E+00    1.3007304813626890E+01
Ga    1.6173652824624294E+00    2.8391523369178335E+00    1.3565953579693366E+01
N    1.6487987792010672E+00    2.8216852105624546E+00    1.5522795182504511E+01
Ga    1.4630571108603125E+00    4.5945480428369567E+00    1.6427519127938627E+01
N    2.1802397964282690E-02    7.4747633409521859E+00    2.5534620743105907E+00
Ga    2.1465270884945892E-02    5.7339709038579798E+00    3.2370710717249422E+00
N    2.1007108178057753E-02    5.6192179424459905E+00    5.1963938528149072E+00
Ga    2.1729491802488832E-02    7.4744887058858485E+00    5.8265001593877175E+00
N    2.1650385574600663E-02    7.4741862949189830E+00    7.7941005903021603E+00
Ga    2.1040011054539690E-02    5.6053057621460356E+00    8.3854713997808972E+00
N    2.1162521802937113E-02    5.6039983638744655E+00    1.0372898126659955E+01
Ga    2.1361955021959068E-02    7.4746199246610265E+00    1.0970239370281934E+01
N    1.9943553946237150E-02    7.4753078292988215E+00    1.2935624241517244E+01
Ga    2.0262507554915089E-02    5.6069115487772354E+00    1.3566103611682994E+01
N    1.8838759418312475E-02    5.6411990769022804E+00    1.5522169454203009E+01
Ga    1.8777198235495274E-02    7.4768662272072230E+00    1.5808999898371747E+01
N   -1.6943173859794278E+00    1.0198254672612114E+01    2.4695374432640094E+00
Ga   -1.4855500565429445E+00    8.3448444500468408E+00    3.2375106188420788E+00
N   -1.5852282253202838E+00    8.4020130859615065E+00    5.1965400931406016E+00
Ga   -1.5621065703068502E+00    1.0274201271266795E+01    5.7475967899316380E+00
N   -1.5771337979862605E+00    1.0265494511078860E+01    7.7386248314013821E+00
Ga   -1.5966718119840375E+00    8.4086293548085767E+00    8.3846431379826676E+00
N   -1.5984623387383143E+00    8.4096557673807695E+00    1.0372120022757578E+01
Ga   -1.5722487747130067E+00    1.0268414787791347E+01    1.1017432088960293E+01
N   -1.5554504806147169E+00    1.0278799831956341E+01    1.3005861779911585E+01
Ga   -1.5978194698753567E+00    8.4096489715213991E+00    1.3565636962774462E+01
N   -1.5736156894443798E+00    8.3960352280671184E+00    1.5525129647247049E+01
Ga   -1.7461423809618910E+00    1.0169147652296358E+01    1.6426211964895231E+01
N    6.4518187558344753E+00    2.0292379696670193E+00    2.4689992112721577E+00
Ga    6.4527417118903028E+00    4.8471122339565777E-02    2.8010411640618491E+00
N    6.4527279806672286E+00    4.7815060039383322E-02    4.9589851362455413E+00
Ga    6.4519704567739886E+00    1.8756017669534424E+00    5.7474650211941869E+00
N    6.4522624199752707E+00    1.8930701209196734E+00    7.7385343490580176E+00
Ga    6.4527561560297126E+00    4.7821280397223734E-02    8.3926334951677006E+00
N    6.4526563897438596E+00    4.7664820707729913E-02    1.0361111062882744E+01
Ga    6.4522922654038979E+00    1.8870432639049843E+00    1.1017630599236325E+01
N    6.4519156052945874E+00    1.8679564578459904E+00    1.3006040193574837E+01
Ga    6.4523739569340393E+00    4.8274383683141409E-02    1.3820530566180951E+01
N    6.4529999282088983E+00    4.8152947720554104E-02    1.6007028444339873E+01
Ga    6.4511270614003058E+00    2.0896480918273985E+00    1.6425823468468646E+01
Ga    6.4525988306761031E+00    3.7620411204838509E+00    1.4447582870169591E+00
N    4.9515703610260955E+00    4.6285053657162978E+00    2.4687288904653615E+00
Ga    4.7430949948834176E+00    2.7752856551231244E+00    3.2366206916778406E+00
N    4.8424067562095727E+00    2.8320566038714658E+00    5.1957638942181239E+00
Ga    4.8192651066368528E+00    4.7043373639757178E+00    5.7476414072317885E+00
N    4.8346149793494826E+00    4.6955328543666237E+00    7.7388694780945082E+00
Ga    4.8543982381508268E+00    2.8388129250308021E+00    8.3847939569516932E+00
N    4.8559627113253852E+00    2.8396909348494099E+00    1.0372565620109283E+01
Ga    4.8294498031865203E+00    4.6985960364558723E+00    1.1017942827389104E+01
N    4.8120887633262788E+00    4.7090205117551927E+00    1.3005862914154278E+01
Ga    4.8546250089480489E+00    2.8401436035110912E+00    1.3565656919670197E+01
N    4.8290030559769903E+00    2.8267929568824686E+00    1.5524179528987085E+01
Ga    5.0065312158976303E+00    4.5972946196028586E+00    1.6425364984078090E+01
N    6.4565497219283170E+00    3.7592267454313206E+00    1.7569568460114336E+01
N    3.2372693385229474E+00    7.5993802982979801E+00    2.4685786046473188E+00
Ga    3.2363001607273856E+00    5.6188418991276912E+00    2.7988322760489655E+00
N    3.2365678785178500E+00    5.6182574565275480E+00    4.9593294807493162E+00
Ga    3.2372059424273565E+00    7.4459102712875493E+00    5.7478675450533343E+00
N    3.2374891086112179E+00    7.4635640083164692E+00    7.7390849301389322E+00
Ga    3.2365393792988675E+00    5.6182590534381820E+00    8.3931173741981109E+00
N    3.2366360055257477E+00    5.6180633244831659E+00    1.0361492224282696E+01
Ga    3.2371294986204209E+00    7.4573565174124674E+00    1.1018777268005161E+01
N    3.2363748259025393E+00    7.4381494523272966E+00    1.3006626435051944E+01
Ga    3.2366968043348288E+00    5.6189883096989588E+00    1.3823039384181650E+01
N    3.2366041623147677E+00    5.6195650030004858E+00    1.6006548518225092E+01
Ga    3.2366458676285270E+00    7.6684213260424379E+00    1.6428265288627074E+01
Ga    3.2377675084304971E+00    9.3323330267427700E+00    1.4429975099058758E+00
N    1.7367973333110951E+00    1.0198780375209298E+01    2.4687279969282958E+00
Ga    1.5293025248390886E+00    8.3455987785380419E+00    3.2368643786756639E+00
N    1.6277794298973403E+00    8.4026797157351130E+00    5.1962335905796779E+00
Ga    1.6034430743441019E+00    1.0274806798377874E+01    5.7478033452147850E+00
N    1.6185597817380990E+00    1.0266079122638562E+01    7.7388513635927332E+00
Ga    1.6396231568859345E+00    8.4093126289517759E+00    8.3853313703559138E+00
N    1.6409826262653318E+00    8.4101087250621962E+00    1.0372681223376485E+01
Ga    1.6134969635663652E+00    1.0269047571611953E+01    1.1017801270966025E+01
N    1.5955027616420090E+00    1.0279759104245977E+01    1.3005677481578212E+01
Ga    1.6379613927656016E+00    8.4101476234164956E+00    1.3565404637761644E+01
N    1.6079048773145521E+00    8.3943517941723513E+00    1.5520999058489023E+01
Ga    1.8017741438261201E+00    1.0160601820359195E+01    1.6430422961658305E+01
N    3.2419785228684326E+00    9.3291361784612103E+00    1.7557834710291623E+01
N    9.6676137456206064E+00    1.9053246222877469E+00    2.5528252197477141E+00
Ga    9.6677974190450957E+00    1.6500855857099725E-01    3.2371529278381752E+00
N    9.6684879324827655E+00    4.9699400987662457E-02    5.1964227534799123E+00
Ga    9.6683700542601283E+00    1.9047299683391630E+00    5.8261675916140385E+00
N    9.6687038234446874E+00    1.9044760391307485E+00    7.7942289150163448E+00
Ga    9.6689200360698599E+00    3.5799253597917864E-02    8.3853225106432721E+00
N    9.6690409060072913E+00    3.4293026518874802E-02    1.0372743352095716E+01
Ga    9.6685911329515726E+00    1.9048148446621864E+00    1.0970159765935792E+01
N    9.6672321542136732E+00    1.9058067610056233E+00    1.2935574903783507E+01
Ga    9.6676088011802257E+00    3.7189724922824637E-02    1.3565581250193278E+01
N    9.6661499010271932E+00    7.1584428710425987E-02    1.5521182615355386E+01
Ga    9.6651958381510354E+00    1.9065968269110691E+00    1.5809412532332308E+01
N    7.9528617655830178E+00    4.6285810112817174E+00    2.4692907557331836E+00
Ga    8.1605060600579993E+00    2.7756580659834205E+00    3.2373217833231038E+00
N    8.0615459233465518E+00    2.8322794621043159E+00    5.1963136032879387E+00
Ga    8.0857182276561055E+00    4.7043868754929576E+00    5.7477232884589551E+00
N    8.0709374464389843E+00    4.6956754616994214E+00    7.7387698976361232E+00
Ga    8.0502483502544031E+00    2.8387792041111495E+00    8.3847677381496784E+00
N    8.0485441194195850E+00    2.8397307733492201E+00    1.0372234576670339E+01
Ga    8.0761271264779886E+00    4.6984136850881457E+00    1.1017677237827465E+01
N    8.0927445833280416E+00    4.7088663071700152E+00    1.3006110532196088E+01
Ga    8.0493044102111249E+00    2.8397816497114841E+00    1.3565633955377947E+01
N    8.0730616649842464E+00    2.8264426810942727E+00    1.5525215356471215E+01
Ga    7.8995027851016077E+00    4.5984673551330939E+00    1.6426553406507715E+01
N    6.4531283181447474E+00    7.4758039042608306E+00    2.5528172706571279E+00
Ga    6.4523280462637800E+00    5.7353990067993346E+00    3.2370312944624122E+00
N    6.4525714818280875E+00    5.6201253135122942E+00    5.1961618617825689E+00
Ga    6.4530789737960568E+00    7.4753337118032563E+00    5.8261327672100691E+00
N    6.4533480352256198E+00    7.4749822312486733E+00    7.7941617686859015E+00
Ga    6.4527078578733690E+00    5.6062663120331173E+00    8.3849214409702952E+00
N    6.4528578359591133E+00    5.6046107617316228E+00    1.0372710042986098E+01
Ga    6.4538465102289848E+00    7.4748902634655767E+00    1.0970817197924479E+01
N    6.4537648978466082E+00    7.4749353833969883E+00    1.2937443022918922E+01
Ga    6.4522558626089968E+00    5.6059775002377705E+00    1.3565539077636558E+01
N    6.4514932417872783E+00    5.6354979721890945E+00    1.5524060888565947E+01
Ga    6.4544050587344026E+00    7.4751556191089916E+00    1.5804701591071069E+01
N    4.7371597403193535E+00    1.0199209691970841E+01    2.4693741143567398E+00
Ga    4.9455771112178457E+00    8.3460576029634144E+00    3.2368266182603116E+00
N    4.8465036353057078E+00    8.4027691758328089E+00    5.1961105287031124E+00
Ga    4.8695288420020182E+00    1.0274682018359195E+01    5.7475643977757418E+00
N    4.8549444210933750E+00    1.0265855306743290E+01    7.7389172051979411E+00
Ga    4.8351077717342061E+00    8.4094200460556152E+00    8.3855461665393207E+00
N    4.8339519741683201E+00    8.4099977891555238E+00    1.0373653229631094E+01
Ga    4.8600757220562061E+00    1.0269241922089044E+01    1.1018853603774048E+01
N    4.8764001164878144E+00    1.0279895791910933E+01    1.3006833204503153E+01
Ga    4.8340354587828260E+00    8.4103491597015019E+00    1.3565402707955950E+01
N    4.8654591320257472E+00    8.3923564277865594E+00    1.5521871482446246E+01
Ga    4.6767101211705393E+00    1.0164178930320853E+01    1.6428633201883674E+01
     &END COORD
     &KIND N
       BASIS_SET DZVP-MOLOPT-SR-GTH
       POTENTIAL GTH-PBE-q5
       &POTENTIAL
 2 3
  0.2837905100000000E+00 2 -0.1241522559000000E+02  0.1868095920000000E+01
 2
  0.2554050000000000E+00 1  0.1363026257000000E+02
  0.2454945300000000E+00 0
         # Potential name:  GTH-PBE-Q5  for symbol:  N
         # Potential read from the potential filename: GTH_POTENTIALS
       &END POTENTIAL
     &END KIND
     &KIND Ga
       BASIS_SET DZVP-MOLOPT-SR-GTH
       POTENTIAL GTH-PBE-q13
       &POTENTIAL
 2 1 10
  0.4900000000000000E+00 0
 3
  0.4167772300000000E+00 3  0.1047568975000000E+02 -0.4921768140000000E+01  0.8707055900000000E+00
  0.7770178090000000E+01 -0.2248152160000000E+01
  0.1784415450000000E+01
  0.5696265200000000E+00 2  0.1777985340000000E+01  0.1958597600000000E+00
 -0.2317443900000000E+00
  0.2381265000000000E+00 1 -0.1624868022000000E+02
         # Potential name:  GTH-PBE-Q13  for symbol:  GA
         # Potential read from the potential filename: GTH_POTENTIALS
       &END POTENTIAL
     &END KIND
     &TOPOLOGY
       NUMBER_OF_ATOMS  200
       MULTIPLE_UNIT_CELL  1 1 1
     &END TOPOLOGY
   &END SUBSYS
 &END FORCE_EVAL
