 # Version information for this restart file 
 # current date 2019-06-24 09:54:57.182
 # current working dir /scratch/rzk/rzk/GaN-carbene/443-adatoms-both-2x2/01-Surface/01-GaN-NGa/02-RKS
 # Program compiled at                              Sun Apr  7 00:48:11 EDT 2019
 # Program compiled on                          beluga2.int.ets1.calculquebec.ca
 # Program compiled for                        Beluga-Linux-x86-64-intel-openmpi
 # Source code revision number                                         svn:18619
 &GLOBAL
   PRINT_LEVEL  MEDIUM
   PROJECT_NAME TEST
   RUN_TYPE  GEO_OPT
 &END GLOBAL
 &MOTION
   &GEO_OPT
     STEP_START_VAL  13
   &END GEO_OPT
   &CELL_OPT
     MAX_ITER  300
     EXTERNAL_PRESSURE     1.0000000000000000E+00
     KEEP_ANGLES  T
     KEEP_SYMMETRY  T
     CONSTRAINT  Z
     PRESSURE_TOLERANCE     5.0000000000000000E+02
   &END CELL_OPT
 &END MOTION
 &FORCE_EVAL
   METHOD  QS
   STRESS_TENSOR  ANALYTICAL
   &DFT
     BASIS_SET_FILE_NAME BASIS_MOLOPT
     POTENTIAL_FILE_NAME GTH_POTENTIALS
     SURFACE_DIPOLE_CORRECTION  T
     SURF_DIP_DIR  Z
     &SCF
       MAX_SCF  80
       EPS_SCF     5.0000000000000004E-06
       &OT  T
         PRECONDITIONER  FULL_ALL
       &END OT
       &OUTER_SCF  T
         OPTIMIZER  NONE
         EPS_SCF     5.0000000000000004E-06
         MAX_SCF  4
       &END OUTER_SCF
       &PRINT
         &RESTART  OFF
           BACKUP_COPIES  1
           &EACH
             JUST_ENERGY  0
             QS_SCF  0
             MD  20
           &END EACH
         &END RESTART
       &END PRINT
     &END SCF
     &QS
       EPS_DEFAULT     1.0000000000000000E-14
       METHOD  GPW
     &END QS
     &MGRID
       NGRIDS  5
       CUTOFF     1.2000000000000000E+03
     &END MGRID
     &XC
       DENSITY_CUTOFF     1.0000000000000000E-10
       GRADIENT_CUTOFF     1.0000000000000000E-10
       TAU_CUTOFF     1.0000000000000000E-10
       &XC_FUNCTIONAL  NO_SHORTCUT
         &PBE  T
         &END PBE
       &END XC_FUNCTIONAL
       &VDW_POTENTIAL
         POTENTIAL_TYPE  PAIR_POTENTIAL
         &PAIR_POTENTIAL
           R_CUTOFF     1.0000000000000004E+01
           TYPE  DFTD3
           PARAMETER_FILE_NAME dftd3.dat
           REFERENCE_FUNCTIONAL PBE
           EPS_CN     9.9999999999999995E-07
           CALCULATE_C9_TERM  T
           REFERENCE_C9_TERM  T
           LONG_RANGE_CORRECTION  F
           VERBOSE_OUTPUT  F
         &END PAIR_POTENTIAL
       &END VDW_POTENTIAL
     &END XC
   &END DFT
   &SUBSYS
     &CELL
       A     1.2864472766435110E+01    0.0000000000000000E+00    0.0000000000000000E+00
       B    -6.4322363581020028E+00    1.1140960178524473E+01    0.0000000000000000E+00
       C     0.0000000000000000E+00    0.0000000000000000E+00    3.2000000000000000E+01
       MULTIPLE_UNIT_CELL  1 1 1
       &CELL_REF
         A     1.2982353780853531E+01    0.0000000000000000E+00    0.0000000000000000E+00
         B    -6.4911768904267628E+00    1.1243048175136114E+01    0.0000000000000000E+00
         C     0.0000000000000000E+00    0.0000000000000000E+00    3.2000000000000000E+01
         MULTIPLE_UNIT_CELL  1 1 1
       &END CELL_REF
     &END CELL
     &COORD
N    2.0292437177506707E-02    2.0286012491595864E+00    2.4691711609864755E+00
Ga    2.0518874448120505E-02    4.8027971258122130E-02    2.8030729762013502E+00
N    2.0795987018418130E-02    4.7222900533273583E-02    4.9591244521294602E+00
Ga    2.0463779404940739E-02    1.8753583092561519E+00    5.7479487294638254E+00
N    2.0792561160023624E-02    1.8927083942335265E+00    7.7390594297708359E+00
Ga    2.0652651650396803E-02    4.7573942169362608E-02    8.3932149879509197E+00
N    2.0725202075300826E-02    4.7445485621621486E-02    1.0361595184365243E+01
Ga    2.0452941094294425E-02    1.8862667274065108E+00    1.1019399277007700E+01
N    1.9809524792033909E-02    1.8672278526907751E+00    1.3007314402741981E+01
Ga    2.0292719814728997E-02    4.7507236711903503E-02    1.3823911026494013E+01
N    2.0570483677776651E-02    4.7997153421454462E-02    1.6006372739085002E+01
Ga    2.0100353335181845E-02    2.0962801420175556E+00    1.6427111653580383E+01
Ga    2.0273600561497813E-02    3.7617404578826390E+00    1.4446854291513465E+00
N   -1.4801842505742739E+00    4.6280017003436811E+00    2.4699085902124005E+00
Ga   -1.6879452460442119E+00    2.7750282063742358E+00    3.2368698072862445E+00
N   -1.5888120165240707E+00    2.8316159147702891E+00    5.1961540825023960E+00
Ga   -1.6120429451993898E+00    4.7034934581293886E+00    5.7478324621265466E+00
N   -1.5973437556022776E+00    4.6950386491449789E+00    7.7390196857790663E+00
Ga   -1.5770941417004276E+00    2.8383972122510053E+00    8.3856207795416715E+00
N   -1.5755384614299217E+00    2.8392292529516574E+00    1.0373204761465972E+01
Ga   -1.6021440943555258E+00    4.6980814604517658E+00    1.1018210319148283E+01
N   -1.6201518376988584E+00    4.7087175102451075E+00    1.3006172077192408E+01
Ga   -1.5785055246535136E+00    2.8391416774543217E+00    1.3565951562978691E+01
N   -1.6089489963033927E+00    2.8241174538167333E+00    1.5521900810895136E+01
Ga   -1.4161056665957026E+00    4.5910847777422328E+00    1.6429194230484224E+01
N    2.5904631038516673E-02    3.7583493735202032E+00    1.7554993950892602E+01
N   -3.1948573287607953E+00    7.5987108128796672E+00    2.4696364662495753E+00
Ga   -3.1952684712007922E+00    5.6180586431306532E+00    2.8026864126542845E+00
N   -3.1953949455489372E+00    5.6175820333852373E+00    4.9587112674117009E+00
Ga   -3.1952073808962709E+00    7.4456932427891038E+00    5.7480146248462054E+00
N   -3.1952290625647577E+00    7.4629832043602855E+00    7.7389924588872567E+00
Ga   -3.1952487357019170E+00    5.6177800361193233E+00    8.3930846096916358E+00
N   -3.1951547478534481E+00    5.6177124317962406E+00    1.0361597300468002E+01
Ga   -3.1950146316736192E+00    7.4571030807643419E+00    1.1017707608628092E+01
N   -3.1954355499218621E+00    7.4380582420894052E+00    1.3006005060799094E+01
Ga   -3.1956039008119630E+00    5.6183237651297429E+00    1.3820523376612920E+01
N   -3.1943146173580925E+00    5.6181667043816308E+00    1.6008457819455753E+01
Ga   -3.1954865144417717E+00    7.6596034720607449E+00    1.6426567515073931E+01
Ga   -3.1941121790380334E+00    9.3317136135286134E+00    1.4461909663950323E+00
N   -4.6953696749072309E+00    1.0198360857231144E+01    2.4694917810721937E+00
Ga   -4.9031928690770199E+00    8.3451405275190709E+00    3.2372788376085584E+00
N   -4.8045301672109133E+00    8.4021587970978757E+00    5.1964631454426025E+00
Ga   -4.8283725147736671E+00    1.0274108528743760E+01    5.7479815546773647E+00
N   -4.8135068154502409E+00    1.0265553361383446E+01    7.7390173068113679E+00
Ga   -4.7930940761487397E+00    8.4088990307465270E+00    8.3849860177535334E+00
N   -4.7915224125554561E+00    8.4098932968735536E+00    1.0372974644342310E+01
Ga   -4.8187414865005360E+00    1.0268830884138064E+01    1.1018006536102034E+01
N   -4.8360700767042442E+00    1.0279091906061458E+01    1.3005778634730211E+01
Ga   -4.7926861020024960E+00    8.4102724932553521E+00    1.3565436701442414E+01
N   -4.8175802083938750E+00    8.3963288672533629E+00    1.5524022926733702E+01
Ga   -4.6406426259017977E+00    1.0166358628919966E+01    1.6426053291440091E+01
N   -3.1897116814725890E+00    9.3292717386061792E+00    1.7570071556651946E+01
N    3.2363398329844135E+00    1.9045681658431801E+00    2.5538333248800860E+00
Ga    3.2367846124646760E+00    1.6419961025504715E-01    3.2380751983176643E+00
N    3.2367047020990745E+00    4.9052291867393967E-02    5.1967568955920722E+00
Ga    3.2363123601823256E+00    1.9045547144944217E+00    5.8258604056921852E+00
N    3.2365341226897222E+00    1.9041126607266547E+00    7.7937008742878815E+00
Ga    3.2368284324074836E+00    3.5420803541523146E-02    8.3847895768067406E+00
N    3.2368443371394684E+00    3.4076590556303875E-02    1.0372819065755998E+01
Ga    3.2370769612034209E+00    1.9041131833213698E+00    1.0971478363994375E+01
N    3.2371505941740426E+00    1.9040868159054065E+00    1.2938444103594019E+01
Ga    3.2359475657791257E+00    3.4636357110277044E-02    1.3565803543981616E+01
N    3.2360113781814550E+00    6.4362445479968014E-02    1.5524395533622744E+01
Ga    3.2380403439688035E+00    1.9037984828554282E+00    1.5804633009925650E+01
N    1.5215691400829803E+00    4.6280063365367567E+00    2.4689577797353799E+00
Ga    1.7285109487150490E+00    2.7751660027256446E+00    3.2369639676839554E+00
N    1.6295721070989835E+00    2.8318937662065533E+00    5.1962226608455095E+00
Ga    1.6538593298468567E+00    4.7037409437328623E+00    5.7480572951865057E+00
N    1.6389407353623033E+00    4.6948923127769273E+00    7.7392055475477459E+00
Ga    1.6183991378127707E+00    2.8383756471393449E+00    8.3859719764587215E+00
N    1.6173106881336650E+00    2.8390891400711782E+00    1.0374146321465339E+01
Ga    1.6441500987752549E+00    4.6984194593811859E+00    1.1019128053272912E+01
N    1.6608347690222032E+00    4.7089400778492934E+00    1.3007096443025251E+01
Ga    1.6172643293438544E+00    2.8393829417225076E+00    1.3565923115442365E+01
N    1.6490228119844024E+00    2.8215491774705130E+00    1.5522763801512484E+01
Ga    1.4627424097283193E+00    4.5944588955030534E+00    1.6427875527556822E+01
N    2.1431553789949619E-02    7.4748696504756831E+00    2.5543974599311978E+00
Ga    2.1219771133215715E-02    5.7339332609650837E+00    3.2375685173244921E+00
N    2.0832366406400182E-02    5.6192775268553197E+00    5.1967089029347626E+00
Ga    2.1242751261556097E-02    7.4747788095270558E+00    5.8260810495913642E+00
N    2.1075342240021801E-02    7.4744272054054406E+00    7.7936849333534344E+00
Ga    2.0830289503035195E-02    5.6057578820793390E+00    8.3854872332926753E+00
N    2.1000577783485547E-02    5.6044431436190107E+00    1.0373115536518783E+01
Ga    2.0887962612584004E-02    7.4749113314138231E+00    1.0970825558250722E+01
N    1.9748515840677463E-02    7.4755778884006006E+00    1.2936382495972577E+01
Ga    1.9970584560749953E-02    5.6068073938345302E+00    1.3565928561175919E+01
N    1.8616929493608745E-02    5.6412543688244510E+00    1.5522047889406599E+01
Ga    1.8716775474645068E-02    7.4767956948375049E+00    1.5808474367969080E+01
N   -1.6944560919250669E+00    1.0198544339515179E+01    2.4697396424114770E+00
Ga   -1.4863529823061477E+00    8.3449325429356591E+00    3.2376632331736293E+00
N   -1.5859416719361705E+00    8.4022821382753623E+00    5.1967836063869006E+00
Ga   -1.5623982440704312E+00    1.0274150343865591E+01    5.7478197203271453E+00
N   -1.5773294225029681E+00    1.0265667893686535E+01    7.7388459767030255E+00
Ga   -1.5971245886462868E+00    8.4087638361576822E+00    8.3848951067016575E+00
N   -1.5988800292411636E+00    8.4098370439149637E+00    1.0372418788229298E+01
Ga   -1.5723922570494229E+00    1.0268676248292337E+01    1.1017580474638631E+01
N   -1.5554978663955126E+00    1.0278849405110781E+01    1.3005887398119057E+01
Ga   -1.5984006621777898E+00    8.4099547169385094E+00    1.3565965834057113E+01
N   -1.5737811823041277E+00    8.3959726697538439E+00    1.5525528857880380E+01
Ga   -1.7466335792524061E+00    1.0168898860229294E+01    1.6426941208977915E+01
N    6.4523568725932900E+00    2.0288379223788846E+00    2.4692557658820089E+00
Ga    6.4530953968434881E+00    4.8109012917077330E-02    2.8021613146889868E+00
N    6.4529405483822764E+00    4.7498964331934679E-02    4.9587384616617411E+00
Ga    6.4525082093961572E+00    1.8755512274012156E+00    5.7476496618601223E+00
N    6.4526238196514960E+00    1.8928188647748960E+00    7.7387376624163995E+00
Ga    6.4527750873638281E+00    4.7587628004459585E-02    8.3928572125872609E+00
N    6.4526924752934498E+00    4.7526178727833032E-02    1.0361298180773055E+01
Ga    6.4526396175894867E+00    1.8868143167220854E+00    1.1017725688481889E+01
N    6.4523051405420979E+00    1.8678842491133869E+00    1.3006159308780971E+01
Ga    6.4528096482279516E+00    4.7902087004946130E-02    1.3820452992590734E+01
N    6.4535122454723153E+00    4.7698055490381919E-02    1.6008344623925058E+01
Ga    6.4515577964435611E+00    2.0894589734758604E+00    1.6426591757740404E+01
Ga    6.4526819127995863E+00    3.7621644126697640E+00    1.4458678282401618E+00
N    4.9515745685550341E+00    4.6283815055303803E+00    2.4691234817497305E+00
Ga    4.7439190191401943E+00    2.7751730254874847E+00    3.2371078064024901E+00
N    4.8431445586839788E+00    2.8319663897460057E+00    5.1961881760335764E+00
Ga    4.8197264254103533E+00    4.7039951506897442E+00    5.7476758235794980E+00
N    4.8346821314445956E+00    4.6953052174458874E+00    7.7389205407643971E+00
Ga    4.8546568884971562E+00    2.8385930742383256E+00    8.3848642030624170E+00
N    4.8561849362627756E+00    2.8395222882765636E+00    1.0372786040452738E+01
Ga    4.8295891373171438E+00    4.6984880785462195E+00    1.1017958696246318E+01
N    4.8122731765198754E+00    4.7088576044843222E+00    1.3005873718981730E+01
Ga    4.8551572770184430E+00    2.8401537315716832E+00    1.3565804866056167E+01
N    4.8294783194045383E+00    2.8266111955463167E+00    1.5524528935600246E+01
Ga    5.0065086386580759E+00    4.5970431247395993E+00    1.6426173051285105E+01
N    6.4568986114345206E+00    3.7590472190903030E+00    1.7569891086644144E+01
N    3.2371624250145778E+00    7.5989317029563317E+00    2.4686185052620306E+00
Ga    3.2363143309107549E+00    5.6185935551687010E+00    2.8002192165665893E+00
N    3.2366436947968671E+00    5.6179957581770390E+00    4.9587221065804403E+00
Ga    3.2369378689866957E+00    7.4459771905977501E+00    5.7480716457653598E+00
N    3.2371303299298213E+00    7.4633108498215543E+00    7.7392675365978594E+00
Ga    3.2365896417146200E+00    5.6180726886470636E+00    8.3932302886742107E+00
N    3.2367256045294095E+00    5.6179946614254961E+00    1.0361655727597260E+01
Ga    3.2368625691725303E+00    7.4572051133115131E+00    1.1018905160699489E+01
N    3.2363003001790989E+00    7.4381846504851801E+00    1.3006693055780797E+01
Ga    3.2365798333295426E+00    5.6189019585209659E+00    1.3822999212369835E+01
N    3.2364644288029876E+00    5.6191053698784970E+00    1.6007756422649980E+01
Ga    3.2366291091986503E+00    7.6682380286684131E+00    1.6428887665914186E+01
Ga    3.2373428635560666E+00    9.3326219557569381E+00    1.4436379544931106E+00
N    1.7365326056107588E+00    1.0198793886393233E+01    2.4694642046204756E+00
Ga    1.5295729525564015E+00    8.3453099725066622E+00    3.2371032568097395E+00
N    1.6277773575269261E+00    8.4025384319919940E+00    5.1964873888181158E+00
Ga    1.6036213923635279E+00    1.0274545084537172E+01    5.7476724520996498E+00
N    1.6185370877783176E+00    1.0265849223633426E+01    7.7389893385317219E+00
Ga    1.6391404536789460E+00    8.4091249130974415E+00    8.3854289016905206E+00
N    1.6405720397053496E+00    8.4099895126151480E+00    1.0373005027070350E+01
Ga    1.6136112414523835E+00    1.0268938999112063E+01    1.1017896427926559E+01
N    1.5957075499908147E+00    1.0279735452111675E+01    1.3005774134916599E+01
Ga    1.6381810878207388E+00    8.4102025044197042E+00    1.3565825870823366E+01
N    1.6081283831846587E+00    8.3944471878479696E+00    1.5521648591310825E+01
Ga    1.8012393014670660E+00    1.0160809232669697E+01    1.6431013254498449E+01
N    3.2420308788305232E+00    9.3291200862430284E+00    1.7557802333841220E+01
N    9.6684479792027656E+00    1.9048900513113776E+00    2.5537739265236645E+00
Ga    9.6687069040782099E+00    1.6437605796178040E-01    3.2378029042131535E+00
N    9.6687987058086335E+00    4.9414391330175979E-02    5.1967643882005046E+00
Ga    9.6687676641814360E+00    1.9046280941135301E+00    5.8261487091402442E+00
N    9.6690683703109936E+00    1.9043125048354128E+00    7.7940036571309186E+00
Ga    9.6689836195604464E+00    3.5569399257991581E-02    8.3852822940426091E+00
N    9.6691115828477248E+00    3.4270221246644708E-02    1.0372911540739279E+01
Ga    9.6688251175414415E+00    1.9046079734939425E+00    1.0970656328657601E+01
N    9.6675603848796996E+00    1.9054923553487482E+00    1.2936322062443276E+01
Ga    9.6679472298644029E+00    3.6741932959120080E-02    1.3566174850116454E+01
N    9.6665554824107645E+00    7.0932298880353351E-02    1.5521980900926151E+01
Ga    9.6656861013709179E+00    1.9060625149633259E+00    1.5809739009960394E+01
N    7.9534278337389424E+00    4.6283716095678447E+00    2.4696222125482059E+00
Ga    8.1609375068545553E+00    2.7751708403972057E+00    3.2373647473276574E+00
N    8.0618570296427592E+00    2.8321416835874049E+00    5.1964986998753258E+00
Ga    8.0858012620656758E+00    4.7040874652821767E+00    5.7476130809448795E+00
N    8.0710131753525616E+00    4.6954258472915891E+00    7.7388257934807712E+00
Ga    8.0507041244274227E+00    2.8386034215397822E+00    8.3848636206645377E+00
N    8.0490172280886547E+00    2.8395661684756157E+00    1.0372509169028527E+01
Ga    8.0760683090788152E+00    4.6982457320269067E+00    1.1017808903694560E+01
N    8.0927912621973892E+00    4.7087103562605455E+00    1.3006308387953968E+01
Ga    8.0495650582680156E+00    2.8396451602078359E+00    1.3566116858522939E+01
N    8.0734609231122008E+00    2.8260028874143504E+00    1.5525889097973227E+01
Ga    7.9002067728206935E+00    4.5984779468411876E+00    1.6427190709061247E+01
N    6.4531006527366026E+00    7.4753973141771874E+00    2.5538515574412788E+00
Ga    6.4525426583215069E+00    5.7348183297204374E+00    3.2375388028487113E+00
N    6.4527604979462296E+00    5.6198006494701360E+00    5.1965525293002699E+00
Ga    6.4528248803296631E+00    7.4752498765434616E+00    5.8258873612467514E+00
N    6.4530622800555735E+00    7.4748480660208001E+00    7.7937820491175414E+00
Ga    6.4528540877151706E+00    5.6061557432101550E+00    8.3847759862477425E+00
N    6.4529632740114735E+00    5.6047066426124177E+00    1.0372834693727972E+01
Ga    6.4535245704272128E+00    7.4748259080148562E+00    1.0971304079769235E+01
N    6.4536560886793355E+00    7.4748530098135078E+00    1.2938130665736979E+01
Ga    6.4522550966358576E+00    5.6057668374911023E+00    1.3565892500479100E+01
N    6.4517136909579484E+00    5.6351235263269288E+00    1.5524691055233950E+01
Ga    6.4544849288593102E+00    7.4748003202988107E+00    1.5805220666040999E+01
N    4.7375102616588025E+00    1.0199031182041029E+01    2.4696334041602577E+00
Ga    4.9449571027211876E+00    8.3454255365758687E+00    3.2369393065318737E+00
N    4.8460703266060596E+00    8.4026634462601866E+00    5.1964234028168814E+00
Ga    4.8695797681615627E+00    1.0274301355206921E+01    5.7478409088247666E+00
N    4.8548476715315596E+00    1.0265629139834958E+01    7.7391402463905408E+00
Ga    4.8348734153561441E+00    8.4091997915567624E+00    8.3856314310358862E+00
N    4.8337730592070436E+00    8.4098379881779000E+00    1.0373865674890007E+01
Ga    4.8599011734869482E+00    1.0269045757028925E+01    1.1018978571436641E+01
N    4.8765717334467684E+00    1.0279616168804862E+01    1.3006781960870873E+01
Ga    4.8338712981872041E+00    8.4102768450228602E+00    1.3566025641703552E+01
N    4.8653234572614412E+00    8.3920078001620428E+00    1.5522729645447800E+01
Ga    4.6775795576369674E+00    1.0164225119238688E+01    1.6429150119869881E+01
     &END COORD
     &KIND N
       BASIS_SET DZVP-MOLOPT-SR-GTH
       POTENTIAL GTH-PBE-q5
       &POTENTIAL
 2 3
  0.2837905100000000E+00 2 -0.1241522559000000E+02  0.1868095920000000E+01
 2
  0.2554050000000000E+00 1  0.1363026257000000E+02
  0.2454945300000000E+00 0
         # Potential name:  GTH-PBE-Q5  for symbol:  N
         # Potential read from the potential filename: GTH_POTENTIALS
       &END POTENTIAL
     &END KIND
     &KIND Ga
       BASIS_SET DZVP-MOLOPT-SR-GTH
       POTENTIAL GTH-PBE-q13
       &POTENTIAL
 2 1 10
  0.4900000000000000E+00 0
 3
  0.4167772300000000E+00 3  0.1047568975000000E+02 -0.4921768140000000E+01  0.8707055900000000E+00
  0.7770178090000000E+01 -0.2248152160000000E+01
  0.1784415450000000E+01
  0.5696265200000000E+00 2  0.1777985340000000E+01  0.1958597600000000E+00
 -0.2317443900000000E+00
  0.2381265000000000E+00 1 -0.1624868022000000E+02
         # Potential name:  GTH-PBE-Q13  for symbol:  GA
         # Potential read from the potential filename: GTH_POTENTIALS
       &END POTENTIAL
     &END KIND
     &TOPOLOGY
       NUMBER_OF_ATOMS  200
       MULTIPLE_UNIT_CELL  1 1 1
     &END TOPOLOGY
   &END SUBSYS
 &END FORCE_EVAL
