 # Version information for this restart file 
 # current date 2019-06-24 09:52:23.572
 # current working dir /scratch/rzk/rzk/GaN-carbene/443-adatoms-both-2x2/01-Surface/01-GaN-NGa/02-RKS
 # Program compiled at                              Sun Apr  7 00:48:11 EDT 2019
 # Program compiled on                          beluga2.int.ets1.calculquebec.ca
 # Program compiled for                        Beluga-Linux-x86-64-intel-openmpi
 # Source code revision number                                         svn:18619
 &GLOBAL
   PRINT_LEVEL  MEDIUM
   PROJECT_NAME TEST
   RUN_TYPE  GEO_OPT
 &END GLOBAL
 &MOTION
   &GEO_OPT
     STEP_START_VAL  11
   &END GEO_OPT
   &CELL_OPT
     MAX_ITER  300
     EXTERNAL_PRESSURE     1.0000000000000000E+00
     KEEP_ANGLES  T
     KEEP_SYMMETRY  T
     CONSTRAINT  Z
     PRESSURE_TOLERANCE     5.0000000000000000E+02
   &END CELL_OPT
 &END MOTION
 &FORCE_EVAL
   METHOD  QS
   STRESS_TENSOR  ANALYTICAL
   &DFT
     BASIS_SET_FILE_NAME BASIS_MOLOPT
     POTENTIAL_FILE_NAME GTH_POTENTIALS
     SURFACE_DIPOLE_CORRECTION  T
     SURF_DIP_DIR  Z
     &SCF
       MAX_SCF  80
       EPS_SCF     5.0000000000000004E-06
       &OT  T
         PRECONDITIONER  FULL_ALL
       &END OT
       &OUTER_SCF  T
         OPTIMIZER  NONE
         EPS_SCF     5.0000000000000004E-06
         MAX_SCF  4
       &END OUTER_SCF
       &PRINT
         &RESTART  OFF
           BACKUP_COPIES  1
           &EACH
             JUST_ENERGY  0
             QS_SCF  0
             MD  20
           &END EACH
         &END RESTART
       &END PRINT
     &END SCF
     &QS
       EPS_DEFAULT     1.0000000000000000E-14
       METHOD  GPW
     &END QS
     &MGRID
       NGRIDS  5
       CUTOFF     1.2000000000000000E+03
     &END MGRID
     &XC
       DENSITY_CUTOFF     1.0000000000000000E-10
       GRADIENT_CUTOFF     1.0000000000000000E-10
       TAU_CUTOFF     1.0000000000000000E-10
       &XC_FUNCTIONAL  NO_SHORTCUT
         &PBE  T
         &END PBE
       &END XC_FUNCTIONAL
       &VDW_POTENTIAL
         POTENTIAL_TYPE  PAIR_POTENTIAL
         &PAIR_POTENTIAL
           R_CUTOFF     1.0000000000000004E+01
           TYPE  DFTD3
           PARAMETER_FILE_NAME dftd3.dat
           REFERENCE_FUNCTIONAL PBE
           EPS_CN     9.9999999999999995E-07
           CALCULATE_C9_TERM  T
           REFERENCE_C9_TERM  T
           LONG_RANGE_CORRECTION  F
           VERBOSE_OUTPUT  F
         &END PAIR_POTENTIAL
       &END VDW_POTENTIAL
     &END XC
   &END DFT
   &SUBSYS
     &CELL
       A     1.2864472766435110E+01    0.0000000000000000E+00    0.0000000000000000E+00
       B    -6.4322363581020028E+00    1.1140960178524473E+01    0.0000000000000000E+00
       C     0.0000000000000000E+00    0.0000000000000000E+00    3.2000000000000000E+01
       MULTIPLE_UNIT_CELL  1 1 1
       &CELL_REF
         A     1.2982353780853531E+01    0.0000000000000000E+00    0.0000000000000000E+00
         B    -6.4911768904267628E+00    1.1243048175136114E+01    0.0000000000000000E+00
         C     0.0000000000000000E+00    0.0000000000000000E+00    3.2000000000000000E+01
         MULTIPLE_UNIT_CELL  1 1 1
       &END CELL_REF
     &END CELL
     &COORD
N    1.9907551467668875E-02    2.0285847358942135E+00    2.4695437142739176E+00
Ga    2.0656736810362009E-02    4.7794809938285304E-02    2.8014814392009098E+00
N    2.0773427413326984E-02    4.6797827900018546E-02    4.9590442442746170E+00
Ga    1.9972892325553052E-02    1.8747602437971305E+00    5.7475882790919588E+00
N    2.0515308979680708E-02    1.8919727398514115E+00    7.7383525357394385E+00
Ga    2.0846338603448918E-02    4.6816049883077811E-02    8.3926386399239341E+00
N    2.1202595571728596E-02    4.6649499384975146E-02    1.0361781726790833E+01
Ga    2.0476568759611624E-02    1.8856907684347544E+00    1.1019197232746286E+01
N    1.9758055113342592E-02    1.8668511061031612E+00    1.3007465636208133E+01
Ga    1.9850672046844698E-02    4.7639951267165435E-02    1.3824925917236689E+01
N    2.1176070383776075E-02    4.8419952753935354E-02    1.6002824335026979E+01
Ga    2.0159640669728831E-02    2.0956613865392488E+00    1.6426799115469436E+01
Ga    2.1312985287970175E-02    3.7604289439451444E+00    1.4427252933268868E+00
N   -1.4790592278656682E+00    4.6274847765478837E+00    2.4695665135881559E+00
Ga   -1.6888831971860270E+00    2.7745797182810632E+00    3.2365504002230652E+00
N   -1.5898045741303657E+00    2.8309405389692244E+00    5.1958448931633816E+00
Ga   -1.6119858548278614E+00    4.7030527983418491E+00    5.7476522746471446E+00
N   -1.5967791713813457E+00    4.6945371055084042E+00    7.7384629974961996E+00
Ga   -1.5776298136393434E+00    2.8376740896924959E+00    8.3848473979080111E+00
N   -1.5756681253348916E+00    2.8384847955949866E+00    1.0372713526139602E+01
Ga   -1.6016816640591574E+00    4.6972911979664120E+00    1.1017920880463393E+01
N   -1.6192176334268602E+00    4.7081983137632646E+00    1.3006409155208424E+01
Ga   -1.5782409601698155E+00    2.8387616872974162E+00    1.3566064846132500E+01
N   -1.6089081993914263E+00    2.8229212971028610E+00    1.5522086208639072E+01
Ga   -1.4148535073361961E+00    4.5903248704613180E+00    1.6428880428980442E+01
N    2.6286978417056003E-02    3.7579973555608825E+00    1.7554949241735045E+01
N   -3.1937012089478878E+00    7.5991364710652380E+00    2.4702447812557464E+00
Ga   -3.1942084870816290E+00    5.6181162753948772E+00    2.8006650533313597E+00
N   -3.1950228424167526E+00    5.6172114723473410E+00    4.9602816809136474E+00
Ga   -3.1938422444412038E+00    7.4445973659908757E+00    5.7474132008540364E+00
N   -3.1937997934520435E+00    7.4625076485873389E+00    7.7382580291562890E+00
Ga   -3.1947544127178245E+00    5.6171786991015207E+00    8.3923450825818993E+00
N   -3.1947493450643041E+00    5.6169325406372810E+00    1.0361371671350062E+01
Ga   -3.1936053597221399E+00    7.4564455354614987E+00    1.1017173750024300E+01
N   -3.1941642790943274E+00    7.4374406747504178E+00    1.3005796241440368E+01
Ga   -3.1942990847992245E+00    5.6180638053285819E+00    1.3820491775406479E+01
N   -3.1929316369856773E+00    5.6180465468284710E+00    1.6005197831854666E+01
Ga   -3.1947751801435333E+00    7.6576058026782006E+00    1.6424951609381051E+01
Ga   -3.1923229275753062E+00    9.3303399231627200E+00    1.4454400427535077E+00
N   -4.6943984308339557E+00    1.0197390251099668E+01    2.4689086637106747E+00
Ga   -4.9030938699338034E+00    8.3453659284447372E+00    3.2372415203319411E+00
N   -4.8038274278108029E+00    8.4013563300515397E+00    5.1962083653387081E+00
Ga   -4.8278632375466861E+00    1.0273303514554984E+01    5.7482506462995584E+00
N   -4.8132082319530101E+00    1.0265074652609469E+01    7.7386697982029089E+00
Ga   -4.7920205398565958E+00    8.4080228704242685E+00    8.3844024524693772E+00
N   -4.7902344850924843E+00    8.4089481265731116E+00    1.0372496354844854E+01
Ga   -4.8182241045009588E+00    1.0267884320427784E+01    1.1018036183841325E+01
N   -4.8359099497709801E+00    1.0278219602800910E+01    1.3006235547253139E+01
Ga   -4.7914342477360101E+00    8.4096825470698402E+00    1.3565019961330341E+01
N   -4.8169242379419011E+00    8.3950758683906574E+00    1.5523742750266472E+01
Ga   -4.6401035227813434E+00    1.0165765323658354E+01    1.6424521701105160E+01
N   -3.1890667542561308E+00    9.3285485921682163E+00    1.7569259380628615E+01
N    3.2353001848474245E+00    1.9042233110464470E+00    2.5508679044123155E+00
Ga    3.2349062704036262E+00    1.6398580593117659E-01    3.2368133879162979E+00
N    3.2366940237090729E+00    4.8710750343062083E-02    5.1961540747160910E+00
Ga    3.2358178537593218E+00    1.9038300122492740E+00    5.8253898962819086E+00
N    3.2362507098450664E+00    1.9036451064192192E+00    7.7933206878289383E+00
Ga    3.2372063975759549E+00    3.5098629536058308E-02    8.3847190988500486E+00
N    3.2370333149224972E+00    3.3459856030682716E-02    1.0372538399406061E+01
Ga    3.2366794433948676E+00    1.9035483269444617E+00    1.0971339536037359E+01
N    3.2365119045195412E+00    1.9036850628679889E+00    1.2937540612270144E+01
Ga    3.2358544522530881E+00    3.4684374618323778E-02    1.3565508561999073E+01
N    3.2358709885601784E+00    6.4714460032390314E-02    1.5524077456904369E+01
Ga    3.2375644202578524E+00    1.9038305588326843E+00    1.5806872209206514E+01
N    1.5211818584566157E+00    4.6271786689015286E+00    2.4686729826706535E+00
Ga    1.7283128904307663E+00    2.7747092851898416E+00    3.2372722431721432E+00
N    1.6295428778076697E+00    2.8313301752554239E+00    5.1960440153134941E+00
Ga    1.6543010564218217E+00    4.7036018247128988E+00    5.7482311407195867E+00
N    1.6392937926016549E+00    4.6943713679215504E+00    7.7390759713717925E+00
Ga    1.6181268001789098E+00    2.8375675715296236E+00    8.3855942417343670E+00
N    1.6169494287621553E+00    2.8384035817902302E+00    1.0373790823274943E+01
Ga    1.6441879771322425E+00    4.6977317152819200E+00    1.1018946079633423E+01
N    1.6609517273386520E+00    4.7085853649617038E+00    1.3007262507283057E+01
Ga    1.6175680189183601E+00    2.8387509502523640E+00    1.3566114029205494E+01
N    1.6489617051507874E+00    2.8215468274571696E+00    1.5522553048530650E+01
Ga    1.4630964187209126E+00    4.5944036411614109E+00    1.6427113215079331E+01
N    2.2320268699763599E-02    7.4745616859846615E+00    2.5512407044444050E+00
Ga    2.1669837335075482E-02    5.7339987756017656E+00    3.2367195731981306E+00
N    2.1200490611627199E-02    5.6190146537550545E+00    5.1959845131384519E+00
Ga    2.2499913904937285E-02    7.4739711298827611E+00    5.8259622843904415E+00
N    2.2566551397655440E-02    7.4738832980313310E+00    7.7935415730372775E+00
Ga    2.1425885577307225E-02    5.6050779299914222E+00    8.3854487169455343E+00
N    2.1334580834441043E-02    5.6036638396121274E+00    1.0372778068701136E+01
Ga    2.2189072936695316E-02    7.4741901641195492E+00    1.0970304417014074E+01
N    2.0421684344399119E-02    7.4750175923035789E+00    1.2935077238764384E+01
Ga    2.0639111295156658E-02    5.6071274763025079E+00    1.3566572234675311E+01
N    1.8985428786960672E-02    5.6417717129351059E+00    1.5522324661831755E+01
Ga    1.8966003511560199E-02    7.4770423198461220E+00    1.5810648953790833E+01
N   -1.6938215194468853E+00    1.0197431675050113E+01    2.4698564435547863E+00
Ga   -1.4841344021716227E+00    8.3448849700537444E+00    3.2379325561798131E+00
N   -1.5841363406588236E+00    8.4015309326965877E+00    5.1963012403376778E+00
Ga   -1.5619211624529910E+00    1.0274194908083546E+01    5.7472528805894525E+00
N   -1.5768789897848596E+00    1.0265328125779096E+01    7.7383349547950822E+00
Ga   -1.5956528130560614E+00    8.4082971918599814E+00    8.3842854217838756E+00
N   -1.5975388807388395E+00    8.4092680713464798E+00    1.0371967422766723E+01
Ga   -1.5720249909947588E+00    1.0268075518837334E+01    1.1017138385619699E+01
N   -1.5558875615630943E+00    1.0278570128005267E+01    1.3005901715558171E+01
Ga   -1.5968028062029542E+00    8.4090460460571173E+00    1.3565484580704741E+01
N   -1.5733325305821602E+00    8.3961764830968200E+00    1.5524695597917262E+01
Ga   -1.7455239705753118E+00    1.0169614581132654E+01    1.6424616754788222E+01
N    6.4511889278324963E+00    2.0301353728955642E+00    2.4692505671047043E+00
Ga    6.4521166984244553E+00    4.9006250551761249E-02    2.7995044308955741E+00
N    6.4523703198136841E+00    4.8239147621168543E-02    4.9596880908389211E+00
Ga    6.4510999497036234E+00    1.8758652537993583E+00    5.7472833442106035E+00
N    6.4516456072984463E+00    1.8934079188007786E+00    7.7382418827419110E+00
Ga    6.4527713196620686E+00    4.8194712350987025E-02    8.3924484860967059E+00
N    6.4526675421748996E+00    4.7925801642355062E-02    1.0361283181510222E+01
Ga    6.4517256554235063E+00    1.8875201627010507E+00    1.1017247422690190E+01
N    6.4513069235601073E+00    1.8682457725151007E+00    1.3005873187521511E+01
Ga    6.4515111704110346E+00    4.8680537270196479E-02    1.3820248848735062E+01
N    6.4520688294454178E+00    4.8783426785292468E-02    1.6004883713791656E+01
Ga    6.4505579516366129E+00    2.0893745632776741E+00    1.6425393817883169E+01
Ga    6.4526742259868666E+00    3.7617894252256074E+00    1.4445396311165901E+00
N    4.9517890002355474E+00    4.6285875887579149E+00    2.4684891667730509E+00
Ga    4.7418956894561655E+00    2.7755421372784919E+00    3.2364347614582170E+00
N    4.8414713231722253E+00    2.8323798454923752E+00    5.1954165695428660E+00
Ga    4.8187068640065229E+00    4.7047433269183738E+00    5.7476629740063778E+00
N    4.8345869472018990E+00    4.6959327367502759E+00    7.7387123113970500E+00
Ga    4.8537181706521890E+00    2.8390617713015502E+00    8.3846488624283744E+00
N    4.8553303328281503E+00    2.8398200087067109E+00    1.0372439226543738E+01
Ga    4.8292654080143800E+00    4.6987893262299307E+00    1.1017666330640187E+01
N    4.8118388109031649E+00    4.7091612113522396E+00    1.3005797601288052E+01
Ga    4.8538750746096353E+00    2.8402150844017564E+00    1.3565697014854130E+01
N    4.8284695522123720E+00    2.8267752418869141E+00    1.5524036669284992E+01
Ga    5.0062792691598004E+00    4.5976618793041668E+00    1.6424873552648201E+01
N    6.4560303030748978E+00    3.7594715209442158E+00    1.7569784560203420E+01
N    3.2375261515545466E+00    7.6004964936636030E+00    2.4690724811884990E+00
Ga    3.2364463719892371E+00    5.6195201578018059E+00    2.7972371711068198E+00
N    3.2364138223928900E+00    5.6185596470595822E+00    4.9610361233981761E+00
Ga    3.2375948350572328E+00    7.4459098570406574E+00    5.7474720138595936E+00
N    3.2380221650160945E+00    7.4639208410403954E+00    7.7386492624840963E+00
Ga    3.2366237168186562E+00    5.6186055063984144E+00    8.3930449511351810E+00
N    3.2365044218996095E+00    5.6182839701441551E+00    1.0361684101325217E+01
Ga    3.2375303550142140E+00    7.4576869890242072E+00    1.1018389575922914E+01
N    3.2363910703284700E+00    7.4384075046074409E+00    1.3006373659743197E+01
Ga    3.2366442348617466E+00    5.6192382691516372E+00    1.3822629281096651E+01
N    3.2365939832080222E+00    5.6196574081142145E+00    1.6004478592257737E+01
Ga    3.2367232414748504E+00    7.6681253537280645E+00    1.6427098910715301E+01
Ga    3.2382829785188316E+00    9.3321079567275032E+00    1.4437273235059866E+00
N    1.7367111674726554E+00    1.0198555379664779E+01    2.4680591556347355E+00
Ga    1.5285904157352119E+00    8.3464389814609312E+00    3.2367960115982903E+00
N    1.6279321735798293E+00    8.4029159537346274E+00    5.1958330053276685E+00
Ga    1.6035752378821588E+00    1.0274931789694401E+01    5.7480819802897818E+00
N    1.6185726043793143E+00    1.0266521057106500E+01    7.7386185904351903E+00
Ga    1.6401231296480563E+00    8.4094791870259762E+00    8.3851488408765604E+00
N    1.6414458909539087E+00    8.4101942218319046E+00    1.0372315191955046E+01
Ga    1.6134631815549270E+00    1.0269235385438096E+01    1.1017479924524686E+01
N    1.5953686803724598E+00    1.0279410279683699E+01    1.3005400469393209E+01
Ga    1.6377728371955251E+00    8.4100596718941869E+00    1.3565423652574603E+01
N    1.6076331275522873E+00    8.3942825984346854E+00    1.5520731167925039E+01
Ga    1.8021696226123791E+00    1.0160583101951698E+01    1.6429517447303859E+01
N    3.2418156293747118E+00    9.3292486195900306E+00    1.7557626416285817E+01
N    9.6666704208735155E+00    1.9060223309686803E+00    2.5512579595611933E+00
Ga    9.6663559754859598E+00    1.6525386386281593E-01    3.2358319457023148E+00
N    9.6682581496119653E+00    4.9847260230011722E-02    5.1954659107994585E+00
Ga    9.6677465151292381E+00    1.9047759248371656E+00    5.8251077041733721E+00
N    9.6680610669808793E+00    1.9047997703107009E+00    7.7931205912748949E+00
Ga    9.6688660501271855E+00    3.6599272397730448E-02    8.3853525004501304E+00
N    9.6690483902713229E+00    3.4597338268469648E-02    1.0372566986688451E+01
Ga    9.6682580223057037E+00    1.9050418178605957E+00    1.0970658166652800E+01
N    9.6668401731703479E+00    1.9059249977661041E+00    1.2935409310862775E+01
Ga    9.6671216727318399E+00    3.7414204895726048E-02    1.3565244277401597E+01
N    9.6653864677476786E+00    7.2639493282467243E-02    1.5520754273505743E+01
Ga    9.6650235020826187E+00    1.9075424366793281E+00    1.5809165343310076E+01
N    7.9519216949584361E+00    4.6286964250749545E+00    2.4691606111853566E+00
Ga    8.1600370740693648E+00    2.7765344205245928E+00    3.2378784157917933E+00
N    8.0609686334311377E+00    2.8324799941338972E+00    5.1962833400230126E+00
Ga    8.0852456064079732E+00    4.7046175136851165E+00    5.7480330075376722E+00
N    8.0708230667672609E+00    4.6960957867555004E+00    7.7386590403278221E+00
Ga    8.0497944195282756E+00    2.8388925814122890E+00    8.3846069239277341E+00
N    8.0481557173194105E+00    2.8398186209233960E+00    1.0372021893806426E+01
Ga    8.0760069073384937E+00    4.6987391613249585E+00    1.1017089232168574E+01
N    8.0925761619463348E+00    4.7090029512243179E+00    1.3005599492473207E+01
Ga    8.0488666848083579E+00    2.8399663816997349E+00    1.3564982486011040E+01
N    8.0726227511109467E+00    2.8270139042236955E+00    1.5524341992614259E+01
Ga    7.8988701517010265E+00    4.5986212281467047E+00    1.6425876368123209E+01
N    6.4532805811137059E+00    7.4764579540778842E+00    2.5508574498552630E+00
Ga    6.4521562552984859E+00    5.7360827138745938E+00    3.2366203406721086E+00
N    6.4522314456420178E+00    5.6203530357002762E+00    5.1955681541892282E+00
Ga    6.4534423245954642E+00    7.4752771135420106E+00    5.8252780398207982E+00
N    6.4536943101171653E+00    7.4752407239909759E+00    7.7932875984339267E+00
Ga    6.4524744909767300E+00    5.6069420417593738E+00    8.3850339699288305E+00
N    6.4526136254864044E+00    5.6049930968089816E+00    1.0372544324609905E+01
Ga    6.4543502160245181E+00    7.4750567182449696E+00    1.0971360666550716E+01
N    6.4538354963706732E+00    7.4751671718341015E+00    1.2937590131564949E+01
Ga    6.4521588743769387E+00    5.6060667340159087E+00    1.3565257706723113E+01
N    6.4512397961454937E+00    5.6363166799150646E+00    1.5523536447490885E+01
Ga    6.4544203763839372E+00    7.4760424374733301E+00    1.5804125407712919E+01
N    4.7368779674051771E+00    1.0199047384218176E+01    2.4693965510973084E+00
Ga    4.9466905541903863E+00    8.3475182847605129E+00    3.2371630824749986E+00
N    4.8471208825400200E+00    8.4028432834785569E+00    5.1956372953536958E+00
Ga    4.8693110491833664E+00    1.0275166582088280E+01    5.7472095962164023E+00
N    4.8550897437557472E+00    1.0266351594565124E+01    7.7384500250814225E+00
Ga    4.8357088031381368E+00    8.4096316027508102E+00    8.3854667808664836E+00
N    4.8345164057052994E+00    8.4101238942749035E+00    1.0373483347638391E+01
Ga    4.8603792292188190E+00    1.0269542981471565E+01    1.1018587477785719E+01
N    4.8760405741760815E+00    1.0280366432946042E+01    1.3006874432008935E+01
Ga    4.8339643337384040E+00    8.4105348296744094E+00    1.3564960893937950E+01
N    4.8656821914237360E+00    8.3929991674241382E+00    1.5520951633466366E+01
Ga    4.6757370759785815E+00    1.0164384139000335E+01    1.6427370664682055E+01
     &END COORD
     &KIND N
       BASIS_SET DZVP-MOLOPT-SR-GTH
       POTENTIAL GTH-PBE-q5
       &POTENTIAL
 2 3
  0.2837905100000000E+00 2 -0.1241522559000000E+02  0.1868095920000000E+01
 2
  0.2554050000000000E+00 1  0.1363026257000000E+02
  0.2454945300000000E+00 0
         # Potential name:  GTH-PBE-Q5  for symbol:  N
         # Potential read from the potential filename: GTH_POTENTIALS
       &END POTENTIAL
     &END KIND
     &KIND Ga
       BASIS_SET DZVP-MOLOPT-SR-GTH
       POTENTIAL GTH-PBE-q13
       &POTENTIAL
 2 1 10
  0.4900000000000000E+00 0
 3
  0.4167772300000000E+00 3  0.1047568975000000E+02 -0.4921768140000000E+01  0.8707055900000000E+00
  0.7770178090000000E+01 -0.2248152160000000E+01
  0.1784415450000000E+01
  0.5696265200000000E+00 2  0.1777985340000000E+01  0.1958597600000000E+00
 -0.2317443900000000E+00
  0.2381265000000000E+00 1 -0.1624868022000000E+02
         # Potential name:  GTH-PBE-Q13  for symbol:  GA
         # Potential read from the potential filename: GTH_POTENTIALS
       &END POTENTIAL
     &END KIND
     &TOPOLOGY
       NUMBER_OF_ATOMS  200
       MULTIPLE_UNIT_CELL  1 1 1
     &END TOPOLOGY
   &END SUBSYS
 &END FORCE_EVAL
