 # Version information for this restart file 
 # current date 2019-05-27 12:27:47.055
 # current working dir /lustre03/project/6004141/rzk/GaN-carbene/334-native/05-2Methanol/01-Shift-GaUp
 # Program compiled at                              Sun Apr  7 00:48:11 EDT 2019
 # Program compiled on                          beluga2.int.ets1.calculquebec.ca
 # Program compiled for                        Beluga-Linux-x86-64-intel-openmpi
 # Source code revision number                                         svn:18619
 &GLOBAL
   PRINT_LEVEL  MEDIUM
   PROJECT_NAME TEST
   RUN_TYPE  GEO_OPT
 &END GLOBAL
 &MOTION
   &GEO_OPT
     MAX_ITER  500
     STEP_START_VAL  76
   &END GEO_OPT
 &END MOTION
 &FORCE_EVAL
   METHOD  QS
   STRESS_TENSOR  ANALYTICAL
   &DFT
     BASIS_SET_FILE_NAME BASIS_MOLOPT
     POTENTIAL_FILE_NAME GTH_POTENTIALS
     &SCF
       MAX_SCF  100
       EPS_SCF     5.0000000000000004E-06
       &OT  T
         PRECONDITIONER  FULL_ALL
       &END OT
       &OUTER_SCF  T
         OPTIMIZER  NONE
         EPS_SCF     5.0000000000000004E-06
         MAX_SCF  4
       &END OUTER_SCF
       &PRINT
         &RESTART  OFF
           BACKUP_COPIES  1
           &EACH
             JUST_ENERGY  0
             QS_SCF  0
             MD  20
           &END EACH
         &END RESTART
       &END PRINT
     &END SCF
     &QS
       EPS_DEFAULT     1.0000000000000000E-14
       ALMO_SCF  F
       METHOD  GPW
     &END QS
     &MGRID
       NGRIDS  5
       CUTOFF     1.2000000000000000E+03
     &END MGRID
     &XC
       DENSITY_CUTOFF     1.0000000000000000E-10
       GRADIENT_CUTOFF     1.0000000000000000E-10
       TAU_CUTOFF     1.0000000000000000E-10
       &XC_FUNCTIONAL  NO_SHORTCUT
         &PBE  T
         &END PBE
       &END XC_FUNCTIONAL
       &VDW_POTENTIAL
         POTENTIAL_TYPE  PAIR_POTENTIAL
         &PAIR_POTENTIAL
           R_CUTOFF     1.0000000000000005E+01
           TYPE  DFTD3
           PARAMETER_FILE_NAME dftd3.dat
           REFERENCE_FUNCTIONAL PBE
           EPS_CN     9.9999999999999995E-07
           CALCULATE_C9_TERM  T
           REFERENCE_C9_TERM  T
           LONG_RANGE_CORRECTION  F
           VERBOSE_OUTPUT  F
         &END PAIR_POTENTIAL
       &END VDW_POTENTIAL
     &END XC
   &END DFT
   &SUBSYS
     &CELL
       A     9.7367653356401487E+00    0.0000000000000000E+00    0.0000000000000000E+00
       B    -4.8591341382960209E+00    8.4162672083210595E+00    0.0000000000000000E+00
       C     0.0000000000000000E+00    0.0000000000000000E+00    3.0744000000000000E+01
       MULTIPLE_UNIT_CELL  1 1 1
       &CELL_REF
         A     9.5580000000000052E+00    0.0000000000000000E+00    0.0000000000000000E+00
         B    -4.7790000000000026E+00    8.2774708093716640E+00    0.0000000000000000E+00
         C     0.0000000000000000E+00    0.0000000000000000E+00    3.0744000000000000E+01
         MULTIPLE_UNIT_CELL  1 1 1
       &END CELL_REF
     &END CELL
     &COORD
Ga   -3.5154153781752407E-03   -1.5914786497602081E-02   -5.3227936240026597E-01
N   -4.4767608788543942E-04    1.8585228846352384E+00    6.0560977761785273E-01
Ga   -5.0729905819397493E-04    1.8279694769437960E+00    2.6375483062223020E+00
N   -3.5726599396441088E-03   -1.5360771731152356E-02    3.2690800379601352E+00
Ga   -2.2629135434296278E-03   -1.4649509912978233E-02    5.2599107518567028E+00
N    7.1315044557267420E-04    1.8598985927653939E+00    5.8479858517983629E+00
Ga    2.2700545221139810E-03    1.8585044959406676E+00    7.8479064778755321E+00
N    8.6929162745237132E-04   -1.4758221079052633E-02    8.4504939252366089E+00
Ga    4.1872643122514265E-03   -1.4901640422318669E-02    1.0449660347427507E+01
N    4.2897870502369064E-03    1.8600923546337078E+00    1.1044816867899508E+01
Ga    9.1276671865140827E-03    1.8635723423922066E+00    1.3037335370619015E+01
N    1.6133797934405242E-02   -1.0972751577165041E-02    1.3626163920345267E+01
Ga    2.8342641937273129E-02   -2.6671062436905051E-03    1.5616892208027416E+01
N    1.0961756210448825E-02    1.8574273538387560E+00    1.6228964762821587E+01
Ga    4.2482075661024792E-02    1.8433856406087414E+00    1.8289770391947727E+01
N    5.4797582559244350E-02   -3.2654132333300341E-02    1.8705933449245702E+01
Ga   -1.6233790475087309E+00    2.7902004616595519E+00    3.2393212053133774E-01
N   -1.6245744802618745E+00    4.6598599929467266E+00    6.0657788107715849E-01
Ga   -1.5958914676610629E+00    4.6759388219403046E+00    2.6365814653695492E+00
N   -1.6229440434021927E+00    2.7900998717453334E+00    3.2278265777333459E+00
Ga   -1.6217644365665789E+00    2.7910081877574240E+00    5.2395567158072618E+00
N   -1.6213964335763633E+00    4.6613410201659349E+00    5.8461830160262211E+00
Ga   -1.6191071207178147E+00    4.6617139714770124E+00    7.8449052262143431E+00
N   -1.6202688833067138E+00    2.7921444557835802E+00    8.4509389635978192E+00
Ga   -1.6187019756307910E+00    2.7952716549311623E+00    1.0446977044930367E+01
N   -1.6171257490022282E+00    4.6668795451322396E+00    1.1054788191610291E+01
Ga   -1.6173940078078639E+00    4.6707264752562452E+00    1.3051683780639790E+01
N   -1.6103305863924902E+00    2.8010509299969013E+00    1.3653391496879223E+01
Ga   -1.5920900201966581E+00    2.8147862748439252E+00    1.5654657568737671E+01
N   -1.5858100448916048E+00    4.6806893424275842E+00    1.6310939109883417E+01
Ga   -1.5146756413360782E+00    4.6834495175365118E+00    1.8385395008294854E+01
N   -1.5536803553845542E+00    2.7922031934748146E+00    1.8766418722349034E+01
Ga   -3.2435910603570757E+00    5.5950664665694072E+00    3.2394744673699544E-01
N   -3.2374295535019146E+00    7.4660089756577896E+00    6.0580517118351296E-01
Ga   -3.2646634016877338E+00    7.4811082444810619E+00    2.6375869745543241E+00
N   -3.2428333084183389E+00    5.5957013476479105E+00    3.2281520171109497E+00
Ga   -3.2419792586831404E+00    5.5965043675720221E+00    5.2397131794380076E+00
N   -3.2359984123632208E+00    7.4667479227385369E+00    5.8467761671959231E+00
Ga   -3.2358885758551970E+00    7.4673751585644661E+00    7.8458742158528505E+00
N   -3.2397838023920151E+00    5.5964995182399901E+00    8.4492450192824418E+00
Ga   -3.2384193522088376E+00    5.5972886692065531E+00    1.0444462480426742E+01
N   -3.2305413843733994E+00    7.4657934123833076E+00    1.1054452270364221E+01
Ga   -3.2218113704439602E+00    7.4627001310982877E+00    1.3052108930738939E+01
N   -3.2321243758469484E+00    5.5989905003229543E+00    1.3695528556570382E+01
Ga   -3.2202253925650788E+00    5.5928966237915985E+00    1.5732045480704796E+01
N   -3.2156305061859634E+00    7.4826171992535047E+00    1.6260512576154248E+01
Ga   -3.1788852405393686E+00    7.4519825903199761E+00    1.8321479714657542E+01
N   -3.1614248586278055E+00    5.5893499361082295E+00    1.8852965843464361E+01
Ga    3.2428689981428898E+00   -1.5544195943528934E-02    3.2422923435238021E-01
N    3.2407538192415175E+00    1.8544482554606181E+00    6.0602475091717289E-01
Ga    3.2692872142166864E+00    1.8706177207350283E+00    2.6366950226567298E+00
N    3.2423257691645047E+00   -1.5275998317748396E-02    3.2277361456702507E+00
Ga    3.2437722667999500E+00   -1.4279072810711606E-02    5.2394958472276656E+00
N    3.2444790390903377E+00    1.8558842251002965E+00    5.8472368016375587E+00
Ga    3.2469888405740983E+00    1.8565868054791888E+00    7.8468074784667552E+00
N    3.2449434059962670E+00   -1.4467659076807549E-02    8.4496115980486746E+00
Ga    3.2479234628313627E+00   -1.3893220668337931E-02    1.0445011428579631E+01
N    3.2514958770949187E+00    1.8569219621259043E+00    1.1050447226592420E+01
Ga    3.2585246950507045E+00    1.8540518424657093E+00    1.3047532623536723E+01
N    3.2569414230477447E+00   -1.7013001644986123E-02    1.3660379256852798E+01
Ga    3.2765714206170591E+00   -1.5675148213625156E-02    1.5667068007124692E+01
N    3.2825725647102861E+00    1.8644707362176942E+00    1.6219556710833725E+01
Ga    3.3141390620223330E+00    1.8588116527910650E+00    1.8243372237871601E+01
N    3.3161519758873963E+00   -2.9245032504240761E-02    1.8697421624474707E+01
Ga    1.6220982596058875E+00    2.7908958826132855E+00    3.2385260966670171E-01
N    1.6287226710859066E+00    4.6604722843450155E+00    6.0695075892316297E-01
Ga    1.6010185356375524E+00    4.6760688590705666E+00    2.6369602486996637E+00
N    1.6223920686002593E+00    2.7902657167092766E+00    3.2285355043491486E+00
Ga    1.6240388725612520E+00    2.7913092276441622E+00    5.2405207924506234E+00
N    1.6296408487186935E+00    4.6616002589372387E+00    5.8480169075740340E+00
Ga    1.6300443715561090E+00    4.6617267665352182E+00    7.8478987443668986E+00
N    1.6260489133225628E+00    2.7906234975851425E+00    8.4494061867538104E+00
Ga    1.6292453317562481E+00    2.7914672920153842E+00    1.0444921965178752E+01
N    1.6278350633521976E+00    4.6624728478057316E+00    1.1047791328855235E+01
Ga    1.6293786605868814E+00    4.6629288413918948E+00    1.3042388124181391E+01
N    1.6338029706275996E+00    2.7877628157199572E+00    1.3645439430941677E+01
Ga    1.6428986181368708E+00    2.7755816998599259E+00    1.5641002661420591E+01
N    1.6345335651120674E+00    4.6648082728262956E+00    1.6185890405176835E+01
Ga    1.6779790470578637E+00    4.6405764564629690E+00    1.8187236231421707E+01
N    1.6839315340602647E+00    2.7754450198768073E+00    1.8644361691429825E+01
Ga    3.0910556332053533E-03    5.5956212032435806E+00   -5.4830528215363650E-01
N    5.7557047926778439E-03    7.4702609603329471E+00    6.0659556307187001E-01
Ga    5.9185942981140613E-03    7.4385763448461857E+00    2.6367573603514698E+00
N    2.8495983847888376E-03    5.5954491551242747E+00    3.2691600739962614E+00
Ga    4.5326414989579509E-03    5.5965834143440958E+00    5.2593236971310926E+00
N    7.3130338739476669E-03    7.4711305999848570E+00    5.8473534284197877E+00
Ga    8.7457695023803426E-03    7.4696371434523261E+00    7.8468386944288051E+00
N    4.9858705234355708E-03    5.5961143122063213E+00    8.4470169597213030E+00
Ga    6.4730451371850560E-03    5.5973092705348080E+00    1.0443918725987380E+01
N    1.2039379377130075E-02    7.4693700186203085E+00    1.1045843856045902E+01
Ga    1.4722631770914705E-02    7.4715483223104151E+00    1.3038575290398967E+01
N    7.0782248595880953E-03    5.6018193133292078E+00    1.3648397865071248E+01
Ga    3.0443647977238799E-03    5.6027135884214401E+00    1.5644531360497718E+01
N    3.5096528058901053E-02    7.4609185211978453E+00    1.6280177422802527E+01
Ga    8.3471165059797639E-02    7.4272836072124218E+00    1.8363342204144498E+01
N    1.4013203330293239E-01    5.5767321706577597E+00    1.8905331694521045E+01
Ga    6.4865933800645497E+00   -1.5124389028802849E-02    3.2340602647508865E-01
N    6.4936885541858187E+00    1.8548893138586373E+00    6.0565106712307626E-01
Ga    6.4660711321282518E+00    1.8703762534466815E+00    2.6365224002446350E+00
N    6.4881735613351905E+00   -1.5253284934447874E-02    3.2284382855031564E+00
Ga    6.4896844768379056E+00   -1.4294593027797332E-02    5.2404618101096432E+00
N    6.4944104844913122E+00    1.8562678929367895E+00    5.8476552294763069E+00
Ga    6.4945424711487316E+00    1.8573659628280439E+00    7.8473130481748310E+00
N    6.4908810297363573E+00   -1.3343186878680857E-02    8.4509148892632169E+00
Ga    6.4944616683621685E+00   -1.0962532408303341E-02    1.0447130131498254E+01
N    6.4971264767172228E+00    1.8609774325260795E+00    1.1052757568720184E+01
Ga    6.5002985073655433E+00    1.8663054681157245E+00    1.3049467983862165E+01
N    6.4904659623735377E+00   -7.5184710057133782E-03    1.3641453808000779E+01
Ga    6.5038609272233483E+00    3.0004690114359975E-03    1.5644273840433577E+01
N    6.5242750588869178E+00    1.8793133275256433E+00    1.6224146790883935E+01
Ga    6.5753144015463336E+00    1.8791279175668139E+00    1.8264592614739311E+01
N    6.5648348054575312E+00   -1.8978316353608894E-02    1.8649573050205326E+01
Ga    4.8673451012638784E+00    2.7914232073936072E+00   -5.4296864438583914E-01
N    4.8707874215591556E+00    4.6648992123440234E+00    6.0652857056902987E-01
Ga    4.8706172161203085E+00    4.6336971387404962E+00    2.6370208682132241E+00
N    4.8681274899409201E+00    2.7901843783111819E+00    3.2687289303967759E+00
Ga    4.8694318479680403E+00    2.7915265631941861E+00    5.2591599226746606E+00
N    4.8720718958050133E+00    4.6656327105630115E+00    5.8478429627144521E+00
Ga    4.8729302842492226E+00    4.6642631323740957E+00    7.8475820118952253E+00
N    4.8709130597274921E+00    2.7917233919430218E+00    8.4505229082171294E+00
Ga    4.8740612165445478E+00    2.7953299991032305E+00    1.0449970410894068E+01
N    4.8798738106318567E+00    4.6663118538196624E+00    1.1057902821768428E+01
Ga    4.8841075566719372E+00    4.6697932935203665E+00    1.3060444600031682E+01
N    4.8752821699218938E+00    2.7950801263687142E+00    1.3651610993693039E+01
Ga    4.8872547107370572E+00    2.7996025443978412E+00    1.5662879715366403E+01
N    4.8683027742116973E+00    4.6710903339026641E+00    1.6175968541896243E+01
Ga    4.9286849475548751E+00    4.6618637230165785E+00    1.9095021249263738E+01
N    4.9380837882533868E+00    2.7782242706184754E+00    1.8742372176729539E+01
Ga    3.2483651552369071E+00    5.5945220614830786E+00    3.2343142939953623E-01
N    3.2476663220255744E+00    7.4653687979627765E+00    6.0534686404802451E-01
Ga    3.2755726460333912E+00    7.4809451952813921E+00    2.6372482303670890E+00
N    3.2484179902174213E+00    5.5959119133411326E+00    3.2286046520378440E+00
Ga    3.2498963551010398E+00    5.5968189518612688E+00    5.2403000816580052E+00
N    3.2504265914478854E+00    7.4665993563620239E+00    5.8491170311840603E+00
Ga    3.2532474886032472E+00    7.4670900345525375E+00    7.8493997142745036E+00
N    3.2514177016452432E+00    5.5963013669934236E+00    8.4546189358040049E+00
Ga    3.2551861365334793E+00    5.5976964486952303E+00    1.0453416473749629E+01
N    3.2567310016461115E+00    7.4715496774933934E+00    1.1051207739509959E+01
Ga    3.2586222502972966E+00    7.4717169918060771E+00    1.3048117261330930E+01
N    3.2494540600168600E+00    5.5956089813849577E+00    1.3633218623083751E+01
Ga    3.2616720042477172E+00    5.6068573363088658E+00    1.5640484517105378E+01
N    3.2805517612340327E+00    7.4919316975028520E+00    1.6157139162528235E+01
Ga    3.3311157766325667E+00    7.4946902799682151E+00    1.8172558222100683E+01
N    3.3577515871523742E+00    5.5742067346081026E+00    1.8471415025526824E+01
O    1.5758047245988624E+00    5.0580174798546249E+00    2.1239010790092934E+01
H    9.8757928551994056E-01    5.3961661905250926E+00    2.0483191797148962E+01
C    8.4414316857041782E-01    3.9919713132329151E+00    2.1878933448689587E+01
H    1.1415313653919164E-01    3.5472218488215668E+00    2.1186800103930644E+01
H    1.5478056120141337E+00    3.2070660828094568E+00    2.2183075078575143E+01
H    3.1976855649128311E-01    4.3725288788100096E+00    2.2767693957697627E+01
O    4.2280585866403273E+00    4.7148002982276376E+00    2.1072377960528058E+01
H    3.2199616089661895E+00    4.8669598730172279E+00    2.1074936259341612E+01
C    4.5469514384790886E+00    3.5952983649961134E+00    2.1939177218453981E+01
H    4.1112114265701400E+00    2.6622386618102118E+00    2.1555769830969286E+01
H    5.6382685272113680E+00    3.4979800820440237E+00    2.1960151919781651E+01
H    4.1772594895057340E+00    3.8075817170460837E+00    2.2950069131286803E+01
     &END COORD
     &KIND C
       BASIS_SET DZVP-MOLOPT-SR-GTH-q4
       POTENTIAL GTH-PBE-q4
       &POTENTIAL
 2 2
  0.3384712400000000E+00 2 -0.8803673979999999E+01  0.1339210850000000E+01
 2
  0.3025757500000000E+00 1  0.9622486650000001E+01
  0.2915069400000000E+00 0
         # Potential name:  GTH-PBE-Q4  for symbol:  C
         # Potential read from the potential filename: GTH_POTENTIALS
       &END POTENTIAL
     &END KIND
     &KIND O
       BASIS_SET DZVP-MOLOPT-SR-GTH-q6
       POTENTIAL GTH-PBE-q6
       &POTENTIAL
 2 4
  0.2445543000000000E+00 2 -0.1666721480000000E+02  0.2487311320000000E+01
 2
  0.2209559200000000E+00 1  0.1833745811000000E+02
  0.2113324700000000E+00 0
         # Potential name:  GTH-PBE-Q6  for symbol:  O
         # Potential read from the potential filename: GTH_POTENTIALS
       &END POTENTIAL
     &END KIND
     &KIND H
       BASIS_SET DZVP-MOLOPT-SR-GTH-q1
       POTENTIAL GTH-PBE-q1
       &POTENTIAL
 1
  0.2000000000000000E+00 2 -0.4178900440000000E+01  0.7244633100000000E+00
 0
         # Potential name:  GTH-PBE-Q1  for symbol:  H
         # Potential read from the potential filename: GTH_POTENTIALS
       &END POTENTIAL
     &END KIND
     &KIND N
       BASIS_SET DZVP-MOLOPT-SR-GTH-q5
       POTENTIAL GTH-PBE-q5
       &POTENTIAL
 2 3
  0.2837905100000000E+00 2 -0.1241522559000000E+02  0.1868095920000000E+01
 2
  0.2554050000000000E+00 1  0.1363026257000000E+02
  0.2454945300000000E+00 0
         # Potential name:  GTH-PBE-Q5  for symbol:  N
         # Potential read from the potential filename: GTH_POTENTIALS
       &END POTENTIAL
     &END KIND
     &KIND Ga
       BASIS_SET DZVP-MOLOPT-SR-GTH-q13
       POTENTIAL GTH-PBE-q13
       &POTENTIAL
 2 1 10
  0.4900000000000000E+00 0
 3
  0.4167772300000000E+00 3  0.1047568975000000E+02 -0.4921768140000000E+01  0.8707055900000000E+00
  0.7770178090000000E+01 -0.2248152160000000E+01
  0.1784415450000000E+01
  0.5696265200000000E+00 2  0.1777985340000000E+01  0.1958597600000000E+00
 -0.2317443900000000E+00
  0.2381265000000000E+00 1 -0.1624868022000000E+02
         # Potential name:  GTH-PBE-Q13  for symbol:  GA
         # Potential read from the potential filename: GTH_POTENTIALS
       &END POTENTIAL
     &END KIND
     &TOPOLOGY
       NUMBER_OF_ATOMS  156
       MULTIPLE_UNIT_CELL  1 1 1
     &END TOPOLOGY
   &END SUBSYS
 &END FORCE_EVAL
