 # Version information for this restart file 
 # current date 2019-05-27 12:33:48.956
 # current working dir /lustre03/project/6004141/rzk/GaN-carbene/334-native/05-2Methanol/01-Shift-GaUp
 # Program compiled at                              Sun Apr  7 00:48:11 EDT 2019
 # Program compiled on                          beluga2.int.ets1.calculquebec.ca
 # Program compiled for                        Beluga-Linux-x86-64-intel-openmpi
 # Source code revision number                                         svn:18619
 &GLOBAL
   PRINT_LEVEL  MEDIUM
   PROJECT_NAME TEST
   RUN_TYPE  GEO_OPT
 &END GLOBAL
 &MOTION
   &GEO_OPT
     MAX_ITER  500
     STEP_START_VAL  78
   &END GEO_OPT
 &END MOTION
 &FORCE_EVAL
   METHOD  QS
   STRESS_TENSOR  ANALYTICAL
   &DFT
     BASIS_SET_FILE_NAME BASIS_MOLOPT
     POTENTIAL_FILE_NAME GTH_POTENTIALS
     &SCF
       MAX_SCF  100
       EPS_SCF     5.0000000000000004E-06
       &OT  T
         PRECONDITIONER  FULL_ALL
       &END OT
       &OUTER_SCF  T
         OPTIMIZER  NONE
         EPS_SCF     5.0000000000000004E-06
         MAX_SCF  4
       &END OUTER_SCF
       &PRINT
         &RESTART  OFF
           BACKUP_COPIES  1
           &EACH
             JUST_ENERGY  0
             QS_SCF  0
             MD  20
           &END EACH
         &END RESTART
       &END PRINT
     &END SCF
     &QS
       EPS_DEFAULT     1.0000000000000000E-14
       ALMO_SCF  F
       METHOD  GPW
     &END QS
     &MGRID
       NGRIDS  5
       CUTOFF     1.2000000000000000E+03
     &END MGRID
     &XC
       DENSITY_CUTOFF     1.0000000000000000E-10
       GRADIENT_CUTOFF     1.0000000000000000E-10
       TAU_CUTOFF     1.0000000000000000E-10
       &XC_FUNCTIONAL  NO_SHORTCUT
         &PBE  T
         &END PBE
       &END XC_FUNCTIONAL
       &VDW_POTENTIAL
         POTENTIAL_TYPE  PAIR_POTENTIAL
         &PAIR_POTENTIAL
           R_CUTOFF     1.0000000000000005E+01
           TYPE  DFTD3
           PARAMETER_FILE_NAME dftd3.dat
           REFERENCE_FUNCTIONAL PBE
           EPS_CN     9.9999999999999995E-07
           CALCULATE_C9_TERM  T
           REFERENCE_C9_TERM  T
           LONG_RANGE_CORRECTION  F
           VERBOSE_OUTPUT  F
         &END PAIR_POTENTIAL
       &END VDW_POTENTIAL
     &END XC
   &END DFT
   &SUBSYS
     &CELL
       A     9.7367653356401487E+00    0.0000000000000000E+00    0.0000000000000000E+00
       B    -4.8591341382960209E+00    8.4162672083210595E+00    0.0000000000000000E+00
       C     0.0000000000000000E+00    0.0000000000000000E+00    3.0744000000000000E+01
       MULTIPLE_UNIT_CELL  1 1 1
       &CELL_REF
         A     9.5580000000000052E+00    0.0000000000000000E+00    0.0000000000000000E+00
         B    -4.7790000000000026E+00    8.2774708093716640E+00    0.0000000000000000E+00
         C     0.0000000000000000E+00    0.0000000000000000E+00    3.0744000000000000E+01
         MULTIPLE_UNIT_CELL  1 1 1
       &END CELL_REF
     &END CELL
     &COORD
Ga   -3.1977123007152332E-03   -1.5705086024001634E-02   -5.3271823718653488E-01
N   -2.9625810994442187E-04    1.8585865293903250E+00    6.0617428657550099E-01
Ga   -3.4970939759466831E-04    1.8277800786120635E+00    2.6379756111837178E+00
N   -3.4423761307361025E-03   -1.5638694933020683E-02    3.2693729257866462E+00
Ga   -2.2095694139336380E-03   -1.5049397742496489E-02    5.2601451853433403E+00
N    7.9868826035073607E-04    1.8595467405221284E+00    5.8481870756497667E+00
Ga    2.1585469588239607E-03    1.8581759365844948E+00    7.8481352625514074E+00
N    7.7236960483138936E-04   -1.5106444776595052E-02    8.4505826169102214E+00
Ga    3.8626394994682460E-03   -1.5055430666607176E-02    1.0449825164133431E+01
N    4.0043434161851207E-03    1.8599605375543997E+00    1.1045000294969107E+01
Ga    8.5221681239700132E-03    1.8636431809703091E+00    1.3037353523504263E+01
N    1.5857068701259126E-02   -1.0706491292441667E-02    1.3626495965936083E+01
Ga    2.7128871260662570E-02   -3.2001769041309688E-03    1.5617018126874802E+01
N    9.8236546383621195E-03    1.8571157364497732E+00    1.6229906516781160E+01
Ga    4.2675810091353295E-02    1.8426471713594266E+00    1.8290872409495240E+01
N    5.3536154377905674E-02   -3.3530325769801778E-02    1.8705823560711622E+01
Ga   -1.6232757267773481E+00    2.7902455296037050E+00    3.2431575113267819E-01
N   -1.6246346014976010E+00    4.6598526755073122E+00    6.0717098910707190E-01
Ga   -1.5957900086246433E+00    4.6757232309603562E+00    2.6368796366426430E+00
N   -1.6228447963421930E+00    2.7898838918168760E+00    3.2281575372642806E+00
Ga   -1.6217261983602642E+00    2.7906090495039679E+00    5.2397601245083374E+00
N   -1.6213004100664754E+00    4.6609321522555636E+00    5.8465112970022028E+00
Ga   -1.6191754713269775E+00    4.6613075068705285E+00    7.8451743067041617E+00
N   -1.6203913769988316E+00    2.7917745393297131E+00    8.4511590855933783E+00
Ga   -1.6190079701187796E+00    2.7950626824307312E+00    1.0447207473114300E+01
N   -1.6173668078661025E+00    4.6666933980613985E+00    1.1054987820897711E+01
Ga   -1.6178173403808933E+00    4.6705759244031748E+00    1.3051873825778973E+01
N   -1.6109164130192084E+00    2.8009394586146588E+00    1.3653390484841712E+01
Ga   -1.5932555860331765E+00    2.8141165365123539E+00    1.5654512397341355E+01
N   -1.5864803957243734E+00    4.6801828050291618E+00    1.6309525907125156E+01
Ga   -1.5151004057449573E+00    4.6830167957665410E+00    1.8382961056193949E+01
N   -1.5538673541367296E+00    2.7921147563805397E+00    1.8767261212200882E+01
Ga   -3.2435330273289504E+00    5.5951746543148300E+00    3.2425114818372125E-01
N   -3.2373257454805744E+00    7.4661009059312633E+00    6.0637274735853419E-01
Ga   -3.2644571547479071E+00    7.4808600964223215E+00    2.6380701174078740E+00
N   -3.2426903790642267E+00    5.5954099659887735E+00    3.2284806671413513E+00
Ga   -3.2418936784810350E+00    5.5960209976790800E+00    5.2399047716995719E+00
N   -3.2358683546025917E+00    7.4662915409435957E+00    5.8469361989442339E+00
Ga   -3.2359144490310388E+00    7.4670350537082033E+00    7.8460557601077507E+00
N   -3.2399107053194882E+00    5.5961375266208941E+00    8.4494032122303704E+00
Ga   -3.2386033823039817E+00    5.5970782710363629E+00    1.0444627632678827E+01
N   -3.2307613376830777E+00    7.4657004976720351E+00    1.1054671409829346E+01
Ga   -3.2221771033254196E+00    7.4627974090014702E+00    1.3052228973863764E+01
N   -3.2323250583882017E+00    5.5991953719310965E+00    1.3695617358462751E+01
Ga   -3.2209388105820325E+00    5.5924895827416776E+00    1.5732075660657584E+01
N   -3.2163926408246244E+00    7.4829466506659870E+00    1.6260749893199826E+01
Ga   -3.1799143471959010E+00    7.4513937556779242E+00    1.8321579416078588E+01
N   -3.1617596469875462E+00    5.5886543092566043E+00    1.8852641943842428E+01
Ga    3.2429587014073231E+00   -1.5403482730025319E-02    3.2457728320182677E-01
N    3.2409931928841500E+00    1.8545634251004746E+00    6.0652073388104732E-01
Ga    3.2694532344085641E+00    1.8703956800811328E+00    2.6371598964890346E+00
N    3.2424927130097130E+00   -1.5509978107912723E-02    3.2281264716663758E+00
Ga    3.2439631522405303E+00   -1.4687553546061945E-02    5.2397680141460601E+00
N    3.2445620552583123E+00    1.8554737021358216E+00    5.8474560485948421E+00
Ga    3.2469552599005485E+00    1.8562227192334184E+00    7.8469080638196438E+00
N    3.2449267125638923E+00   -1.4803049290095805E-02    8.4497004479132904E+00
Ga    3.2478384117829240E+00   -1.3976978566970086E-02    1.0445071744573125E+01
N    3.2512252023553438E+00    1.8568589384865644E+00    1.1050655252063121E+01
Ga    3.2581057067822630E+00    1.8541566382753676E+00    1.3047617395734042E+01
N    3.2565783706746974E+00   -1.6804890475109413E-02    1.3660527707091575E+01
Ga    3.2763524777998492E+00   -1.6069945398208909E-02    1.5667056726463514E+01
N    3.2817404884888997E+00    1.8641571148836873E+00    1.6220363979285445E+01
Ga    3.3134688475111891E+00    1.8592715557976121E+00    1.8244205693065467E+01
N    3.3149893914764479E+00   -2.9240589644235850E-02    1.8696346642566130E+01
Ga    1.6223083603817183E+00    2.7909454334724582E+00    3.2421269422027493E-01
N    1.6290807135760346E+00    4.6604959405209359E+00    6.0744036892694131E-01
Ga    1.6011817848293763E+00    4.6758425220535260E+00    2.6371843644923310E+00
N    1.6225765545788595E+00    2.7900452832400662E+00    3.2288910740326027E+00
Ga    1.6241625421766381E+00    2.7909293074237675E+00    5.2407417583267026E+00
N    1.6297009855697517E+00    4.6611676970783202E+00    5.8483755732977363E+00
Ga    1.6300042487715760E+00    4.6613954847565084E+00    7.8481634712293280E+00
N    1.6259868275602452E+00    2.7902527357316123E+00    8.4495193409037270E+00
Ga    1.6289818618219329E+00    2.7912936828522517E+00    1.0444958007649616E+01
N    1.6275873055502970E+00    4.6622816119610633E+00    1.1047844551337711E+01
Ga    1.6288620081510432E+00    4.6626529324026142E+00    1.3042223141771091E+01
N    1.6331380458764817E+00    2.7877288294212557E+00    1.3645965341688816E+01
Ga    1.6417453208587236E+00    2.7752062903190740E+00    1.5641299102183629E+01
N    1.6341584581172275E+00    4.6645598027091255E+00    1.6185486736675685E+01
Ga    1.6778820256116340E+00    4.6403234615117652E+00    1.8186282537575760E+01
N    1.6828182616851832E+00    2.7755808118475906E+00    1.8645400064989857E+01
Ga    3.0956275886530812E-03    5.5957607949116728E+00   -5.4828388856898269E-01
N    5.9330136019085915E-03    7.4705604153216152E+00    6.0713676315639598E-01
Ga    6.0371339314242061E-03    7.4383673354273459E+00    2.6369728083034167E+00
N    2.9909910230978038E-03    5.5951910979443120E+00    3.2694791078427898E+00
Ga    4.6507446069750076E-03    5.5961849663178791E+00    5.2596178367416142E+00
N    7.4406182139115842E-03    7.4706953016192132E+00    5.8476660846178756E+00
Ga    8.8016044467381961E-03    7.4692913716792768E+00    7.8470880064146682E+00
N    4.9035180868625778E-03    5.5957503613713513E+00    8.4471730460597882E+00
Ga    6.2611034861866270E-03    5.5971513247678732E+00    1.0444098144435980E+01
N    1.1763115501359779E-02    7.4692013380223106E+00    1.1045963978311434E+01
Ga    1.4422536507234325E-02    7.4714485470144165E+00    1.3038667033771635E+01
N    6.7827887236632028E-03    5.6016704902907035E+00    1.3647909741385011E+01
Ga    2.2536573325825540E-03    5.6027781777011150E+00    1.5643754752621803E+01
N    3.4785197533130849E-02    7.4601131313768239E+00    1.6280727514506133E+01
Ga    8.2733353932607570E-02    7.4270176221905082E+00    1.8363512616430992E+01
N    1.3931007564143316E-01    5.5759841483921804E+00    1.8905080335681475E+01
Ga    6.4868622649081074E+00   -1.4966496083876466E-02    3.2380587993264487E-01
N    6.4937600710642078E+00    1.8550172605371784E+00    6.0615945152580175E-01
Ga    6.4661914237954221E+00    1.8702121852419471E+00    2.6369376847966683E+00
N    6.4883041466754152E+00   -1.5461159033263358E-02    3.2286989505020069E+00
Ga    6.4897271828440273E+00   -1.4708208839144152E-02    5.2405869334560613E+00
N    6.4945073978645844E+00    1.8558245156705004E+00    5.8478874930016342E+00
Ga    6.4945434621368898E+00    1.8569523317708130E+00    7.8474675960002829E+00
N    6.4909249338485093E+00   -1.3681037440052529E-02    8.4511993435216972E+00
Ga    6.4942832481228168E+00   -1.1111718149341131E-02    1.0447498502757389E+01
N    6.4968360992555017E+00    1.8609123721976726E+00    1.1052972071869698E+01
Ga    6.4998638022750077E+00    1.8661701698952011E+00    1.3049713532075774E+01
N    6.4899320640907705E+00   -7.5060815469517178E-03    1.3641648643900361E+01
Ga    6.5031225268945736E+00    2.5018751568452835E-03    1.5644452047849564E+01
N    6.5235994445450061E+00    1.8787408305808941E+00    1.6225058688791425E+01
Ga    6.5746562482463125E+00    1.8793885488978168E+00    1.8265646392752000E+01
N    6.5640700739918190E+00   -1.8941940103531181E-02    1.8649670462866322E+01
Ga    4.8675455016516933E+00    2.7916394135823777E+00   -5.4217400659559556E-01
N    4.8709526868617052E+00    4.6648991174439409E+00    6.0704455294941173E-01
Ga    4.8707902354639838E+00    4.6334324234829207E+00    2.6374012550116426E+00
N    4.8682695743437501E+00    2.7899482754644929E+00    3.2690897101194256E+00
Ga    4.8695340064429145E+00    2.7910991884854357E+00    5.2593581871350690E+00
N    4.8721186150695113E+00    4.6652291931584911E+00    5.8480409666830617E+00
Ga    4.8728519929628584E+00    4.6638994845813597E+00    7.8476806921060582E+00
N    4.8708916666326445E+00    2.7913712105563824E+00    8.4505815755011771E+00
Ga    4.8738502047694423E+00    2.7951095575025096E+00    1.0449944248091890E+01
N    4.8797793573359325E+00    4.6660636116508787E+00    1.1058250914804248E+01
Ga    4.8838991503837441E+00    4.6696253101499519E+00    1.3060739282618202E+01
N    4.8748707751533296E+00    2.7949677306118872E+00    1.3652061545786008E+01
Ga    4.8868339108123973E+00    2.7992270598355140E+00    1.5663481313319286E+01
N    4.8673801975272895E+00    4.6707367573917704E+00    1.6176084528202050E+01
Ga    4.9283199728054452E+00    4.6621684315763732E+00    1.9094571084791927E+01
N    4.9374644369298490E+00    2.7785535955753708E+00    1.8742173289729791E+01
Ga    3.2486490331438529E+00    5.5946786193069160E+00    3.2377732092042993E-01
N    3.2479360600250522E+00    7.4655097834685344E+00    6.0582149395324303E-01
Ga    3.2756805013297350E+00    7.4807252494034238E+00    2.6375828222723392E+00
N    3.2485649029787291E+00    5.5956513159239032E+00    3.2288678315424186E+00
Ga    3.2499297545884751E+00    5.5963806943329821E+00    5.2404411510021660E+00
N    3.2504547400915271E+00    7.4661581892570670E+00    5.8492864290278490E+00
Ga    3.2531634344941129E+00    7.4667070898527497E+00    7.8495537705629763E+00
N    3.2514026976786590E+00    5.5959645291532185E+00    8.4548647257385436E+00
Ga    3.2550340059672340E+00    5.5974466221671095E+00    1.0453618040425187E+01
N    3.2565532659548846E+00    7.4713104556909533E+00    1.1051565318144450E+01
Ga    3.2582262681522862E+00    7.4718843501030490E+00    1.3048636412399375E+01
N    3.2489651187897204E+00    5.5953924119900451E+00    1.3632879690108131E+01
Ga    3.2615432869435272E+00    5.6068290540446437E+00    1.5639947801293539E+01
N    3.2801524321260009E+00    7.4913555917617254E+00    1.6156775449657381E+01
Ga    3.3297286462696110E+00    7.4941931227511898E+00    1.8171557283619570E+01
N    3.3566070452320007E+00    5.5740260375627306E+00    1.8472585204519163E+01
O    1.5773727177829056E+00    5.0582956962565344E+00    2.1238993136355514E+01
H    9.8935277733614746E-01    5.3948074800521963E+00    2.0482620666157562E+01
C    8.4620364186085895E-01    3.9923227348225185E+00    2.1879629016463220E+01
H    1.1876985901369709E-01    3.5441870202462420E+00    2.1186736239421297E+01
H    1.5507325708849060E+00    3.2093085253653668E+00    2.2187416856810916E+01
H    3.1869740914106359E-01    4.3739275388256669E+00    2.2766353021079730E+01
O    4.2302278999083756E+00    4.7152732534081370E+00    2.1072632247788327E+01
H    3.2219573201425855E+00    4.8668376491979330E+00    2.1075914583691858E+01
C    4.5511022821255480E+00    3.5981884276710319E+00    2.1942040704577707E+01
H    4.1183658341177969E+00    2.6632883485694894E+00    2.1560050732315972E+01
H    5.6428345820180708E+00    3.5041894622302965E+00    2.1964873017226338E+01
H    4.1791232243827432E+00    3.8116388776960823E+00    2.2952056809584889E+01
     &END COORD
     &KIND C
       BASIS_SET DZVP-MOLOPT-SR-GTH-q4
       POTENTIAL GTH-PBE-q4
       &POTENTIAL
 2 2
  0.3384712400000000E+00 2 -0.8803673979999999E+01  0.1339210850000000E+01
 2
  0.3025757500000000E+00 1  0.9622486650000001E+01
  0.2915069400000000E+00 0
         # Potential name:  GTH-PBE-Q4  for symbol:  C
         # Potential read from the potential filename: GTH_POTENTIALS
       &END POTENTIAL
     &END KIND
     &KIND O
       BASIS_SET DZVP-MOLOPT-SR-GTH-q6
       POTENTIAL GTH-PBE-q6
       &POTENTIAL
 2 4
  0.2445543000000000E+00 2 -0.1666721480000000E+02  0.2487311320000000E+01
 2
  0.2209559200000000E+00 1  0.1833745811000000E+02
  0.2113324700000000E+00 0
         # Potential name:  GTH-PBE-Q6  for symbol:  O
         # Potential read from the potential filename: GTH_POTENTIALS
       &END POTENTIAL
     &END KIND
     &KIND H
       BASIS_SET DZVP-MOLOPT-SR-GTH-q1
       POTENTIAL GTH-PBE-q1
       &POTENTIAL
 1
  0.2000000000000000E+00 2 -0.4178900440000000E+01  0.7244633100000000E+00
 0
         # Potential name:  GTH-PBE-Q1  for symbol:  H
         # Potential read from the potential filename: GTH_POTENTIALS
       &END POTENTIAL
     &END KIND
     &KIND N
       BASIS_SET DZVP-MOLOPT-SR-GTH-q5
       POTENTIAL GTH-PBE-q5
       &POTENTIAL
 2 3
  0.2837905100000000E+00 2 -0.1241522559000000E+02  0.1868095920000000E+01
 2
  0.2554050000000000E+00 1  0.1363026257000000E+02
  0.2454945300000000E+00 0
         # Potential name:  GTH-PBE-Q5  for symbol:  N
         # Potential read from the potential filename: GTH_POTENTIALS
       &END POTENTIAL
     &END KIND
     &KIND Ga
       BASIS_SET DZVP-MOLOPT-SR-GTH-q13
       POTENTIAL GTH-PBE-q13
       &POTENTIAL
 2 1 10
  0.4900000000000000E+00 0
 3
  0.4167772300000000E+00 3  0.1047568975000000E+02 -0.4921768140000000E+01  0.8707055900000000E+00
  0.7770178090000000E+01 -0.2248152160000000E+01
  0.1784415450000000E+01
  0.5696265200000000E+00 2  0.1777985340000000E+01  0.1958597600000000E+00
 -0.2317443900000000E+00
  0.2381265000000000E+00 1 -0.1624868022000000E+02
         # Potential name:  GTH-PBE-Q13  for symbol:  GA
         # Potential read from the potential filename: GTH_POTENTIALS
       &END POTENTIAL
     &END KIND
     &TOPOLOGY
       NUMBER_OF_ATOMS  156
       MULTIPLE_UNIT_CELL  1 1 1
     &END TOPOLOGY
   &END SUBSYS
 &END FORCE_EVAL
