 # Version information for this restart file 
 # current date 2019-05-27 12:31:02.994
 # current working dir /lustre03/project/6004141/rzk/GaN-carbene/334-native/05-2Methanol/01-Shift-GaUp
 # Program compiled at                              Sun Apr  7 00:48:11 EDT 2019
 # Program compiled on                          beluga2.int.ets1.calculquebec.ca
 # Program compiled for                        Beluga-Linux-x86-64-intel-openmpi
 # Source code revision number                                         svn:18619
 &GLOBAL
   PRINT_LEVEL  MEDIUM
   PROJECT_NAME TEST
   RUN_TYPE  GEO_OPT
 &END GLOBAL
 &MOTION
   &GEO_OPT
     MAX_ITER  500
     STEP_START_VAL  77
   &END GEO_OPT
 &END MOTION
 &FORCE_EVAL
   METHOD  QS
   STRESS_TENSOR  ANALYTICAL
   &DFT
     BASIS_SET_FILE_NAME BASIS_MOLOPT
     POTENTIAL_FILE_NAME GTH_POTENTIALS
     &SCF
       MAX_SCF  100
       EPS_SCF     5.0000000000000004E-06
       &OT  T
         PRECONDITIONER  FULL_ALL
       &END OT
       &OUTER_SCF  T
         OPTIMIZER  NONE
         EPS_SCF     5.0000000000000004E-06
         MAX_SCF  4
       &END OUTER_SCF
       &PRINT
         &RESTART  OFF
           BACKUP_COPIES  1
           &EACH
             JUST_ENERGY  0
             QS_SCF  0
             MD  20
           &END EACH
         &END RESTART
       &END PRINT
     &END SCF
     &QS
       EPS_DEFAULT     1.0000000000000000E-14
       ALMO_SCF  F
       METHOD  GPW
     &END QS
     &MGRID
       NGRIDS  5
       CUTOFF     1.2000000000000000E+03
     &END MGRID
     &XC
       DENSITY_CUTOFF     1.0000000000000000E-10
       GRADIENT_CUTOFF     1.0000000000000000E-10
       TAU_CUTOFF     1.0000000000000000E-10
       &XC_FUNCTIONAL  NO_SHORTCUT
         &PBE  T
         &END PBE
       &END XC_FUNCTIONAL
       &VDW_POTENTIAL
         POTENTIAL_TYPE  PAIR_POTENTIAL
         &PAIR_POTENTIAL
           R_CUTOFF     1.0000000000000005E+01
           TYPE  DFTD3
           PARAMETER_FILE_NAME dftd3.dat
           REFERENCE_FUNCTIONAL PBE
           EPS_CN     9.9999999999999995E-07
           CALCULATE_C9_TERM  T
           REFERENCE_C9_TERM  T
           LONG_RANGE_CORRECTION  F
           VERBOSE_OUTPUT  F
         &END PAIR_POTENTIAL
       &END VDW_POTENTIAL
     &END XC
   &END DFT
   &SUBSYS
     &CELL
       A     9.7367653356401487E+00    0.0000000000000000E+00    0.0000000000000000E+00
       B    -4.8591341382960209E+00    8.4162672083210595E+00    0.0000000000000000E+00
       C     0.0000000000000000E+00    0.0000000000000000E+00    3.0744000000000000E+01
       MULTIPLE_UNIT_CELL  1 1 1
       &CELL_REF
         A     9.5580000000000052E+00    0.0000000000000000E+00    0.0000000000000000E+00
         B    -4.7790000000000026E+00    8.2774708093716640E+00    0.0000000000000000E+00
         C     0.0000000000000000E+00    0.0000000000000000E+00    3.0744000000000000E+01
         MULTIPLE_UNIT_CELL  1 1 1
       &END CELL_REF
     &END CELL
     &COORD
Ga   -3.1339617447703216E-03   -1.5595876191752001E-02   -5.3270373578565189E-01
N   -2.6910603885623357E-04    1.8587092371891842E+00    6.0588860702519765E-01
Ga   -4.2044413387306781E-04    1.8278959054120496E+00    2.6377058771842861E+00
N   -3.5145077194323371E-03   -1.5520283206665186E-02    3.2692254802868228E+00
Ga   -2.4069070865034028E-03   -1.5003470190998175E-02    5.2599774120897402E+00
N    5.9922145444650271E-04    1.8595639791807512E+00    5.8480813382171233E+00
Ga    1.9110987658705755E-03    1.8581239103482430E+00    7.8479818227867550E+00
N    5.2375830060960300E-04   -1.5157122593739405E-02    8.4504968713489070E+00
Ga    3.6135864625457684E-03   -1.5201236838774715E-02    1.0449671889952571E+01
N    3.7510237407638257E-03    1.8597945079760199E+00    1.1044888402724386E+01
Ga    8.5026040188546127E-03    1.8636410552857829E+00    1.3037205328462457E+01
N    1.5819035967562727E-02   -1.0794132243988556E-02    1.3626441011188719E+01
Ga    2.7396584339855073E-02   -3.2336268232070063E-03    1.5617036204029780E+01
N    9.9544807523275717E-03    1.8571717352309980E+00    1.6229872490914978E+01
Ga    4.3072525473702071E-02    1.8432574795817052E+00    1.8291135585121939E+01
N    5.3940947407773270E-02   -3.3251695636754161E-02    1.8705406907584688E+01
Ga   -1.6233092296586022E+00    2.7902586147502699E+00    3.2410407622281517E-01
N   -1.6246313873205003E+00    4.6599385379184870E+00    6.0682648182104293E-01
Ga   -1.5958725472081947E+00    4.6758006647833454E+00    2.6366258819120043E+00
N   -1.6229327636399613E+00    2.7899660419178867E+00    3.2280913405833216E+00
Ga   -1.6219014354192818E+00    2.7906303442030107E+00    5.2396638130670201E+00
N   -1.6215252712190062E+00    4.6609695269482545E+00    5.8463346977857373E+00
Ga   -1.6194332885414180E+00    4.6612395669484137E+00    7.8449700557661055E+00
N   -1.6206325074071410E+00    2.7917139253593195E+00    8.4511070929775354E+00
Ga   -1.6192639578131409E+00    2.7949299385365634E+00    1.0447110860059651E+01
N   -1.6176136839361024E+00    4.6665699571076003E+00    1.1054983433968063E+01
Ga   -1.6179361872063602E+00    4.6705146943299773E+00    1.3051843994815858E+01
N   -1.6109338573142933E+00    2.8008936096878942E+00    1.3653509733358929E+01
Ga   -1.5932156935552411E+00    2.8142642023114623E+00    1.5654619013213557E+01
N   -1.5862822035196416E+00    4.6803217986097563E+00    1.6309643117819046E+01
Ga   -1.5146785428475837E+00    4.6831623622336824E+00    1.8383258284217227E+01
N   -1.5535581646386685E+00    2.7923064067255456E+00    1.8767479946652490E+01
Ga   -3.2436028334845433E+00    5.5952514281019594E+00    3.2400362112281655E-01
N   -3.2372557842476568E+00    7.4661792878968800E+00    6.0610710197778506E-01
Ga   -3.2645188815945074E+00    7.4809765852659691E+00    2.6378144906796366E+00
N   -3.2427686890055298E+00    5.5955245269733442E+00    3.2283976947363677E+00
Ga   -3.2421105378317963E+00    5.5961102433231122E+00    5.2398024951226070E+00
N   -3.2360928665099200E+00    7.4663498927281253E+00    5.8468492142956618E+00
Ga   -3.2361853157923393E+00    7.4670015418323095E+00    7.8459079801478051E+00
N   -3.2401493001176580E+00    5.5960960181830979E+00    8.4493147806332498E+00
Ga   -3.2388603230972657E+00    5.5969678945442558E+00    1.0444481019364304E+01
N   -3.2310126124858032E+00    7.4655869098534353E+00    1.1054575058415997E+01
Ga   -3.2222186617965347E+00    7.4627284942000527E+00    1.3052091377044604E+01
N   -3.2324694461141252E+00    5.5991735246641703E+00    1.3695781584798741E+01
Ga   -3.2206717525195212E+00    5.5925509696471840E+00    1.5732130283057860E+01
N   -3.2160739153781130E+00    7.4829363745212536E+00    1.6260686041713353E+01
Ga   -3.1793051717545935E+00    7.4516832560852189E+00    1.8321693113736227E+01
N   -3.1611883469502127E+00    5.5889829460894802E+00    1.8853033475122391E+01
Ga    3.2429749357719566E+00   -1.5223621620506190E-02    3.2437234607931431E-01
N    3.2410449007834345E+00    1.8546669327601688E+00    6.0629390085773294E-01
Ga    3.2694265353608816E+00    1.8705180351372872E+00    2.6368064498945825E+00
N    3.2424118779748161E+00   -1.5382642689761646E-02    3.2280516453763357E+00
Ga    3.2437332428704324E+00   -1.4638691854282354E-02    5.2396579494348687E+00
N    3.2443832789468292E+00    1.8555334458894990E+00    5.8472996209721995E+00
Ga    3.2466536249152740E+00    1.8561569397782545E+00    7.8467227299166904E+00
N    3.2446340950820551E+00   -1.4856392357448730E-02    8.4496270172869075E+00
Ga    3.2475731497583551E+00   -1.4106868772830955E-02    1.0444964653211905E+01
N    3.2510578953755038E+00    1.8567297787157695E+00    1.1050588532484781E+01
Ga    3.2580564138112953E+00    1.8541134890168585E+00    1.3047590991893586E+01
N    3.2565448485309050E+00   -1.6905748369730314E-02    1.3660554280302772E+01
Ga    3.2766336282914525E+00   -1.5832774238386312E-02    1.5667124435118922E+01
N    3.2821029529065857E+00    1.8642718329352896E+00    1.6220213310525995E+01
Ga    3.3136991398786084E+00    1.8594781168371572E+00    1.8244029222415293E+01
N    3.3156312676468982E+00   -2.8944349174062037E-02    1.8696859121843875E+01
Ga    1.6223973637832874E+00    2.7909559056021798E+00    3.2402191230502997E-01
N    1.6291451557115735E+00    4.6605800635079637E+00    6.0709933031865226E-01
Ga    1.6011586830561488E+00    4.6759228936432722E+00    2.6369309193165691E+00
N    1.6225108541993094E+00    2.7901166516255462E+00    3.2288232702032755E+00
Ga    1.6239519414637336E+00    2.7909634834612764E+00    5.2406439244952452E+00
N    1.6295267832999945E+00    4.6612209261401789E+00    5.8481900244731548E+00
Ga    1.6297009764724057E+00    4.6612891653987907E+00    7.8479511264616404E+00
N    1.6257295610888864E+00    2.7901696304955781E+00    8.4494823104682588E+00
Ga    1.6287468510700938E+00    2.7911633698162386E+00    1.0444917065139320E+01
N    1.6273670834271390E+00    4.6621961724226528E+00    1.1047781214448671E+01
Ga    1.6287421594217539E+00    4.6626626377103335E+00    1.3042178893610942E+01
N    1.6331119380086248E+00    2.7877108218966513E+00    1.3646000502734154E+01
Ga    1.6421002783154797E+00    2.7751280015715234E+00    1.5641350020866867E+01
N    1.6342078867932770E+00    4.6645504084649438E+00    1.6185681811931985E+01
Ga    1.6782026236650414E+00    4.6405308172940121E+00    1.8186726438382941E+01
N    1.6833660273415574E+00    2.7757801289714008E+00    1.8645547361290330E+01
Ga    3.1423456332139469E-03    5.5958213367756722E+00   -5.4849046114387900E-01
N    5.9778481272923659E-03    7.4706681466761209E+00    6.0677418672004235E-01
Ga    5.9887449604529904E-03    7.4385258568445733E+00    2.6367031985456433E+00
N    2.9231193776493932E-03    5.5953092255887649E+00    3.2693504097843631E+00
Ga    4.4497863687821566E-03    5.5962318927635195E+00    5.2594827248036200E+00
N    7.2349894247839101E-03    7.4707483904115231E+00    5.8475119755635028E+00
Ga    8.4884243043568727E-03    7.4692288636067588E+00    7.8469209670218234E+00
N    4.6218639812775769E-03    5.5956836713842213E+00    8.4471242283020214E+00
Ga    6.0151347639857376E-03    5.5970426873995347E+00    1.0444048537178711E+01
N    1.1548546244134416E-02    7.4691196959176880E+00    1.1045972131283365E+01
Ga    1.4333613975369570E-02    7.4713530562740296E+00    1.3038638663032247E+01
N    6.6049260059121845E-03    5.6016432323971062E+00    1.3648050425157146E+01
Ga    2.3515473451310161E-03    5.6028691498010623E+00    1.5643871642917304E+01
N    3.4957403825032825E-02    7.4602933907129243E+00    1.6280628607241763E+01
Ga    8.3070859575470724E-02    7.4272433149205925E+00    1.8363645628354977E+01
N    1.3984681738654400E-01    5.5761761539205947E+00    1.8905396924568336E+01
Ga    6.4869489589023877E+00   -1.4778339936434069E-02    3.2358972263597918E-01
N    6.4937600734498577E+00    1.8551260320795033E+00    6.0591310573872570E-01
Ga    6.4661138560469773E+00    1.8703203563135078E+00    2.6365701972356623E+00
N    6.4882496157303473E+00   -1.5343622622140925E-02    3.2286176397518251E+00
Ga    6.4895598706041078E+00   -1.4648121756164536E-02    5.2404657349528003E+00
N    6.4942784378473055E+00    1.8558765748818367E+00    5.8477742722495263E+00
Ga    6.4942966805692839E+00    1.8569014627849090E+00    7.8473283085761771E+00
N    6.4906181410339316E+00   -1.3762653352465629E-02    8.4510659310361795E+00
Ga    6.4940787307978454E+00   -1.1259652638586496E-02    1.0447319676238960E+01
N    6.4966147245580688E+00    1.8607421562091362E+00    1.1052979904224776E+01
Ga    6.4998025114649423E+00    1.8661958169705806E+00    1.3049644465179602E+01
N    6.4898557833121240E+00   -7.5043483368513767E-03    1.3641618588884487E+01
Ga    6.5033874991622538E+00    2.3708442851572984E-03    1.5644477769983862E+01
N    6.5238736334798331E+00    1.8786274242374925E+00    1.6225245617997658E+01
Ga    6.5748941055750691E+00    1.8795687182106056E+00    1.8265908976552847E+01
N    6.5643462165350677E+00   -1.8828757572318347E-02    1.8649703889402396E+01
Ga    4.8675883286584440E+00    2.7917130506833776E+00   -5.4280656406689864E-01
N    4.8709841647963099E+00    4.6649585148460089E+00    6.0680693398050112E-01
Ga    4.8707303388280208E+00    4.6335341440479736E+00    2.6370545685863713E+00
N    4.8682140342240965E+00    2.7900650889803669E+00    3.2689819127671220E+00
Ga    4.8693493172740405E+00    2.7911648177059170E+00    5.2591979841982681E+00
N    4.8719118003465987E+00    4.6652587679886635E+00    5.8479191517094806E+00
Ga    4.8726202654899957E+00    4.6638497569438471E+00    7.8475347813116203E+00
N    4.8706024033166724E+00    2.7912901831738175E+00    8.4504574226913718E+00
Ga    4.8736587505146849E+00    2.7950051385194357E+00    1.0449800288458226E+01
N    4.8795184449720868E+00    4.6659637811183190E+00    1.1058147531211407E+01
Ga    4.8838346706686435E+00    4.6695133971389806E+00    1.3060535078106810E+01
N    4.8748615147206644E+00    2.7949258449112264E+00    1.3652253817892811E+01
Ga    4.8871014861130924E+00    2.7992103725385724E+00    1.5663637136594096E+01
N    4.8675340068294108E+00    4.6708475718688254E+00    1.6176154269959671E+01
Ga    4.9289190102059974E+00    4.6622997807531750E+00    1.9095061342369956E+01
N    4.9378304348690722E+00    2.7786982304101682E+00    1.8742129102684800E+01
Ga    3.2487911287364635E+00    5.5947740097881073E+00    3.2354328837745472E-01
N    3.2479565366376599E+00    7.4655997852366003E+00    6.0552018875040359E-01
Ga    3.2756259521308184E+00    7.4808399494516875E+00    2.6373162127700431E+00
N    3.2485158365804723E+00    5.5957739203181047E+00    3.2287686493712884E+00
Ga    3.2497743068367182E+00    5.5964581284471802E+00    5.2403049997810358E+00
N    3.2502519465821709E+00    7.4662003186852788E+00    5.8491965291379673E+00
Ga    3.2529183176624232E+00    7.4667010076256703E+00    7.8494084954605423E+00
N    3.2511053520626194E+00    5.5959048058639382E+00    8.4547331018333036E+00
Ga    3.2547900966719134E+00    5.5973796519290486E+00    1.0453482389890370E+01
N    3.2563332712322981E+00    7.4712161658256360E+00    1.1051591217503589E+01
Ga    3.2580715271128109E+00    7.4717201855329902E+00    1.3048642132743526E+01
N    3.2489503098397647E+00    5.5951964183996843E+00    1.3632945892684839E+01
Ga    3.2615699318778488E+00    5.6068381033276733E+00    1.5639946816898554E+01
N    3.2803933121781070E+00    7.4912932394338769E+00    1.6156738102497680E+01
Ga    3.3299229941109219E+00    7.4943460071092787E+00    1.8171492029687464E+01
N    3.3573166647606634E+00    5.5739613908654286E+00    1.8471922121126315E+01
O    1.5778370189283573E+00    5.0584737169556568E+00    2.1239569205919238E+01
H    9.8985634891725638E-01    5.3952598213008436E+00    2.0483212309625465E+01
C    8.4657759522691522E-01    3.9925452741666185E+00    2.1880172222552016E+01
H    1.1852710630165755E-01    3.5451578614303827E+00    2.1187345260621605E+01
H    1.5510528648647719E+00    3.2090722128896587E+00    2.2187331625029532E+01
H    3.1983104469313905E-01    4.3743621550352465E+00    2.2767323070483410E+01
O    4.2305239579173763E+00    4.7153395413612156E+00    2.1072921445122081E+01
H    3.2220506057562934E+00    4.8669782888658872E+00    2.1075961435465540E+01
C    4.5510576550874706E+00    3.5975024928972927E+00    2.1941375866212219E+01
H    4.1181287803470674E+00    2.6628782257481070E+00    2.1558713863546540E+01
H    5.6429315291243540E+00    3.5033440120946238E+00    2.1964223063389095E+01
H    4.1791710620230935E+00    3.8105213125308057E+00    2.2951501621072719E+01
     &END COORD
     &KIND C
       BASIS_SET DZVP-MOLOPT-SR-GTH-q4
       POTENTIAL GTH-PBE-q4
       &POTENTIAL
 2 2
  0.3384712400000000E+00 2 -0.8803673979999999E+01  0.1339210850000000E+01
 2
  0.3025757500000000E+00 1  0.9622486650000001E+01
  0.2915069400000000E+00 0
         # Potential name:  GTH-PBE-Q4  for symbol:  C
         # Potential read from the potential filename: GTH_POTENTIALS
       &END POTENTIAL
     &END KIND
     &KIND O
       BASIS_SET DZVP-MOLOPT-SR-GTH-q6
       POTENTIAL GTH-PBE-q6
       &POTENTIAL
 2 4
  0.2445543000000000E+00 2 -0.1666721480000000E+02  0.2487311320000000E+01
 2
  0.2209559200000000E+00 1  0.1833745811000000E+02
  0.2113324700000000E+00 0
         # Potential name:  GTH-PBE-Q6  for symbol:  O
         # Potential read from the potential filename: GTH_POTENTIALS
       &END POTENTIAL
     &END KIND
     &KIND H
       BASIS_SET DZVP-MOLOPT-SR-GTH-q1
       POTENTIAL GTH-PBE-q1
       &POTENTIAL
 1
  0.2000000000000000E+00 2 -0.4178900440000000E+01  0.7244633100000000E+00
 0
         # Potential name:  GTH-PBE-Q1  for symbol:  H
         # Potential read from the potential filename: GTH_POTENTIALS
       &END POTENTIAL
     &END KIND
     &KIND N
       BASIS_SET DZVP-MOLOPT-SR-GTH-q5
       POTENTIAL GTH-PBE-q5
       &POTENTIAL
 2 3
  0.2837905100000000E+00 2 -0.1241522559000000E+02  0.1868095920000000E+01
 2
  0.2554050000000000E+00 1  0.1363026257000000E+02
  0.2454945300000000E+00 0
         # Potential name:  GTH-PBE-Q5  for symbol:  N
         # Potential read from the potential filename: GTH_POTENTIALS
       &END POTENTIAL
     &END KIND
     &KIND Ga
       BASIS_SET DZVP-MOLOPT-SR-GTH-q13
       POTENTIAL GTH-PBE-q13
       &POTENTIAL
 2 1 10
  0.4900000000000000E+00 0
 3
  0.4167772300000000E+00 3  0.1047568975000000E+02 -0.4921768140000000E+01  0.8707055900000000E+00
  0.7770178090000000E+01 -0.2248152160000000E+01
  0.1784415450000000E+01
  0.5696265200000000E+00 2  0.1777985340000000E+01  0.1958597600000000E+00
 -0.2317443900000000E+00
  0.2381265000000000E+00 1 -0.1624868022000000E+02
         # Potential name:  GTH-PBE-Q13  for symbol:  GA
         # Potential read from the potential filename: GTH_POTENTIALS
       &END POTENTIAL
     &END KIND
     &TOPOLOGY
       NUMBER_OF_ATOMS  156
       MULTIPLE_UNIT_CELL  1 1 1
     &END TOPOLOGY
   &END SUBSYS
 &END FORCE_EVAL
