 # Version information for this restart file 
 # current date 2019-05-25 04:55:27.575
 # current working dir /lustre03/project/6004141/rzk/GaN-carbene/00-Surface/00-Preoptimization/443-capped
 # Program compiled at                              Sun Apr  7 00:48:11 EDT 2019
 # Program compiled on                          beluga2.int.ets1.calculquebec.ca
 # Program compiled for                        Beluga-Linux-x86-64-intel-openmpi
 # Source code revision number                                         svn:18619
 &GLOBAL
   PRINT_LEVEL  MEDIUM
   PROJECT_NAME TEST
   RUN_TYPE  CELL_OPT
 &END GLOBAL
 &MOTION
   &CELL_OPT
     CONSTRAINT Z
     MAX_ITER  300
     KEEP_ANGLES T
     EXTERNAL_PRESSURE 1
     PRESSURE_TOLERANCE 500
     KEEP_SYMMETRY T
   &END
 &END MOTION
 &FORCE_EVAL
   METHOD  QS
   STRESS_TENSOR  ANALYTICAL
   &DFT
     SURFACE_DIPOLE_CORRECTION  TRUE
     SURF_DIP_DIR               Z
     BASIS_SET_FILE_NAME BASIS_MOLOPT
     POTENTIAL_FILE_NAME GTH_POTENTIALS
     &SCF
       MAX_SCF  100
       EPS_SCF     5.0000000000000004E-06
       &OT  T
         PRECONDITIONER  FULL_ALL
       &END OT
       &OUTER_SCF  T
         OPTIMIZER  NONE
         EPS_SCF     5.0000000000000004E-06
         MAX_SCF  4
       &END OUTER_SCF
       &PRINT
         &RESTART  OFF
           BACKUP_COPIES  1
           &EACH
             JUST_ENERGY  0
             QS_SCF  0
             MD  20
           &END EACH
         &END RESTART
       &END PRINT
     &END SCF
     &QS
       EPS_DEFAULT     1.0000000000000000E-14
       METHOD  GPW
     &END QS
     &MGRID
       NGRIDS  5
       CUTOFF     1.2000000000000000E+03
     &END MGRID
     &XC
       DENSITY_CUTOFF     1.0000000000000000E-10
       GRADIENT_CUTOFF     1.0000000000000000E-10
       TAU_CUTOFF     1.0000000000000000E-10
       &XC_FUNCTIONAL  NO_SHORTCUT
         &PBE  T
         &END PBE
       &END XC_FUNCTIONAL
       &VDW_POTENTIAL
         POTENTIAL_TYPE  PAIR_POTENTIAL
         &PAIR_POTENTIAL
           R_CUTOFF     1.0000000000000002E+01
           TYPE  DFTD3
           PARAMETER_FILE_NAME dftd3.dat
           REFERENCE_FUNCTIONAL PBE
           EPS_CN     9.9999999999999995E-07
           CALCULATE_C9_TERM  T
           REFERENCE_C9_TERM  T
           LONG_RANGE_CORRECTION  F
           VERBOSE_OUTPUT  F
         &END PAIR_POTENTIAL
       &END VDW_POTENTIAL
     &END XC
   &END DFT
   &SUBSYS
     &CELL
       A     1.2982353780853531E+01    0.0000000000000000E+00    0.0000000000000000E+00
       B    -6.4911768904267628E+00    1.1243048175136114E+01    0.0000000000000000E+00
       C     0.0000000000000000E+00    0.0000000000000000E+00    2.9000000000000000E+01
       MULTIPLE_UNIT_CELL  1 1 1
       &CELL_REF
         A     1.2982353780853531E+01    0.0000000000000000E+00    0.0000000000000000E+00
         B    -6.4911768904267628E+00    1.1243048175136114E+01    0.0000000000000000E+00
         C     0.0000000000000000E+00    0.0000000000000000E+00    2.9000000000000000E+01
         MULTIPLE_UNIT_CELL  1 1 1
       &END CELL_REF
     &END CELL
     &COORD
Ga    6.5994591595993648E-04   -9.9559219913047083E-05   -1.4501975201665265E-01
N    5.9104942020223397E-04    1.8736805140700845E+00    6.2996774512834353E-01
Ga    1.1117770316443865E-03    1.8735599761528310E+00    2.5673586679507490E+00
N    8.8113458687888858E-04   -2.2028967086775466E-04    3.2448358973903311E+00
Ga    8.8097399458010692E-04   -3.2729347676538931E-05    5.2076116783868862E+00
N    5.3108493787341004E-04    1.8740237273750462E+00    5.8569475777484925E+00
Ga    1.7554394832443446E-03    1.8740564075801058E+00    7.8268230296661141E+00
N    1.1342709217193685E-03    5.7035980188618375E-04    8.4671240658322517E+00
Ga    1.1754702337211306E-03    9.4447749071797297E-04    1.0455989998599879E+01
N   -9.5966173936850609E-04    1.8745925998103277E+00    1.1029113250063391E+01
Ga   -8.1719546330181071E-04    1.8738390380745560E+00    1.3108394174994427E+01
N    6.2228882320973858E-04    7.3787346908029100E-04    1.3440810309418277E+01
Ga   -1.6220583874291934E+00    2.8105984033753395E+00   -1.4603106731613377E-01
N   -1.6221113426025571E+00    4.6844435419438115E+00    6.2902568369914580E-01
Ga   -1.6218141322554380E+00    4.6843447182009852E+00    2.5663230549057516E+00
N   -1.6220301104904349E+00    2.8105405887793227E+00    3.2440733397461332E+00
Ga   -1.6218016686307006E+00    2.8102939626741610E+00    5.2066216168592154E+00
N   -1.6221467204125282E+00    4.6843525731925721E+00    5.8556237998324390E+00
Ga   -1.6219790874690658E+00    4.6844188043183337E+00    7.8250638737575517E+00
N   -1.6231334436181224E+00    2.8108172921878540E+00    8.4651407783836508E+00
Ga   -1.6225917809939430E+00    2.8100007867596015E+00    1.0454003570433411E+01
N   -1.6227496475905681E+00    4.6843435913433016E+00    1.1027603793379340E+01
Ga   -1.6228192340964240E+00    4.6842593162298041E+00    1.3107855667921793E+01
N   -1.6230844272180069E+00    2.8107506717169808E+00    1.3442886263755392E+01
Ga   -3.2449217941655411E+00    5.6215779882439350E+00   -1.4657480247289148E-01
N   -3.2448704410164315E+00    7.4951736512615685E+00    6.2925578422163475E-01
Ga   -3.2446520634778291E+00    7.4952291473058263E+00    2.5666174996476525E+00
N   -3.2447048961174856E+00    5.6212361497834982E+00    3.2434521106300291E+00
Ga   -3.2447977853904209E+00    5.6212850143975777E+00    5.2058056424880128E+00
N   -3.2445913172888305E+00    7.4951720870116940E+00    5.8557482456418191E+00
Ga   -3.2450828513618020E+00    7.4958802237614259E+00    7.8253418305350575E+00
N   -3.2447002927994175E+00    5.6220431646254285E+00    8.4642576205592714E+00
Ga   -3.2445715430534201E+00    5.6231492831883960E+00    1.0452965292380277E+01
N   -3.2436155565941780E+00    7.4971898634776073E+00    1.1027423058649353E+01
Ga   -3.2451246333691195E+00    7.4946812111777348E+00    1.3107905898814176E+01
N   -3.2460104363501054E+00    5.6213014562306656E+00    1.3443146644518551E+01
Ga   -4.8678030784830941E+00    8.4323877468567101E+00   -1.4566376121046187E-01
N   -4.8677979678397367E+00    1.0305840915560221E+01    6.3018917546531694E-01
Ga   -4.8673832518905709E+00    1.0305826603873548E+01    2.5676300496401914E+00
N   -4.8675012772482367E+00    8.4318528890778577E+00    3.2442307183196402E+00
Ga   -4.8679679798065232E+00    8.4322014850280471E+00    5.2068443397422781E+00
N   -4.8678806291384902E+00    1.0305686317313192E+01    5.8567449648511305E+00
Ga   -4.8677546095493680E+00    1.0305649675706379E+01    7.8265247750912623E+00
N   -4.8680567471853804E+00    8.4310291168199853E+00    8.4660250054433970E+00
Ga   -4.8685195535315566E+00    8.4312352823712793E+00    1.0454689053591402E+01
N   -4.8685468629215327E+00    1.0303937402602404E+01    1.1031520149098034E+01
Ga   -4.8685395356754482E+00    1.0305334514994332E+01    1.3110594539378054E+01
N   -4.8678054422801091E+00    8.4313400418003734E+00    1.3441744651038540E+01
Ga    3.2462042276125156E+00   -1.0872005287332077E-04   -1.4504413909090155E-01
N    3.2462117367669112E+00    1.8736474358850683E+00    6.3014149506912842E-01
Ga    3.2466005272234955E+00    1.8734678756488370E+00    2.5676216128918044E+00
N    3.2465454454466043E+00   -4.3268579788455962E-04    3.2445754129006157E+00
Ga    3.2460854999706346E+00   -1.6266440949218780E-04    5.2072698189766555E+00
N    3.2463216271186965E+00    1.8733383756993465E+00    5.8569817688590451E+00
Ga    3.2458415106876375E+00    1.8730868169863943E+00    7.8268671754154528E+00
N    3.2463055232767952E+00   -1.5865213026083767E-03    8.4669568683695751E+00
Ga    3.2453155262899727E+00   -1.2388775364374418E-03    1.0455719429349310E+01
N    3.2443113461046242E+00    1.8718813780786780E+00    1.1031383269714437E+01
Ga    3.2461118789431702E+00    1.8726344944433444E+00    1.3110490774716084E+01
N    3.2464411587597004E+00   -1.4595641393405061E-03    1.3440836809448172E+01
Ga    1.6233911889717012E+00    2.8106095362506061E+00   -1.4513287693983798E-01
N    1.6234069541282978E+00    4.6845163071272085E+00    6.2964838369979459E-01
Ga    1.6239029633523216E+00    4.6842886991697155E+00    2.5670973644528314E+00
N    1.6237213905758008E+00    2.8105495154477103E+00    3.2446847510988386E+00
Ga    1.6237629559772477E+00    2.8106248664825779E+00    5.2076099278912080E+00
N    1.6236621707374823E+00    4.6848720426906239E+00    5.8566394396974699E+00
Ga    1.6244304703997836E+00    4.6841921528136741E+00    7.8264472322934475E+00
N    1.6238141991362609E+00    2.8114253789024501E+00    8.4665750050664741E+00
Ga    1.6229765367394811E+00    2.8103008967670404E+00    1.0455231024613344E+01
N    1.6237497991233030E+00    4.6847751586966790E+00    1.1030285059412071E+01
Ga    1.6227024801363268E+00    4.6853742575960418E+00    1.3109134074928686E+01
N    1.6229297220121397E+00    2.8106424612528667E+00    1.3437584011690998E+01
Ga    6.5894981893584940E-04    5.6215484873849793E+00   -1.4622661533858541E-01
N    6.9894319888232353E-04    7.4952117446255189E+00    6.2930667292436338E-01
Ga    1.0430154747892585E-03    7.4951508186427027E+00    2.5667115107406770E+00
N    8.3953510053059273E-04    5.6212631471573813E+00    3.2437315670270523E+00
Ga    1.2256100494967310E-03    5.6209903674829302E+00    5.2062746554032202E+00
N    1.1365215920118774E-03    7.4949735131807396E+00    5.8559682655279852E+00
Ga    9.6779301366514139E-04    7.4949260685767518E+00    7.8255731265472113E+00
N    5.1706460596564452E-05    5.6210398076148529E+00    8.4655395262910318E+00
Ga    1.3388798330925915E-03    5.6218442898466208E+00    1.0454395235979405E+01
N    2.1755006157367081E-04    7.4956141722131857E+00    1.1027754444770792E+01
Ga    9.2658430368831228E-04    7.4954035072658129E+00    1.3107674151805075E+01
N   -2.7656404009587197E-04    5.6214552764384118E+00    1.3441400916063831E+01
Ga   -1.6220947594054258E+00    8.4324050529184902E+00   -1.4619225645696216E-01
N   -1.6220390948523540E+00    1.0305887631895658E+01    6.2984895416925624E-01
Ga   -1.6217788331594949E+00    1.0305983541129441E+01    2.5672549488934173E+00
N   -1.6218020159766775E+00    8.4319982484112170E+00    3.2438576780658837E+00
Ga   -1.6216605961501782E+00    8.4323363768546375E+00    5.2063229270664850E+00
N   -1.6214967867628978E+00    1.0306091903535192E+01    5.8560779147402124E+00
Ga   -1.6223276704711840E+00    1.0306824850165068E+01    7.8256147477706710E+00
N   -1.6215505797736833E+00    8.4325377971556517E+00    8.4641340417802180E+00
Ga   -1.6214851008655506E+00    8.4322796809319787E+00    1.0452470754708347E+01
N   -1.6204450259230962E+00    1.0306055060842736E+01    1.1029412414374514E+01
Ga   -1.6218979793555512E+00    1.0304625872339633E+01    1.3109738303278260E+01
N   -1.6225319335153310E+00    8.4307910270924005E+00    1.3444312952930339E+01
Ga    6.4919306455810037E+00   -1.9610712932470936E-05   -1.4593085969752181E-01
N    6.4919099384418457E+00    1.8735984658043232E+00    6.2960598961256198E-01
Ga    6.4920424458658061E+00    1.8735510925102752E+00    2.5669420336859798E+00
N    6.4922672830148009E+00   -2.4977272280630992E-04    3.2442090243767199E+00
Ga    6.4922679023742091E+00   -8.4626258540804135E-05    5.2066397890998370E+00
N    6.4924158567623493E+00    1.8735459241630230E+00    5.8563528952980644E+00
Ga    6.4914008288190921E+00    1.8740778301380909E+00    7.8258440487070020E+00
N    6.4926312252973011E+00    1.6508613911215853E-04    8.4657902274033798E+00
Ga    6.4926971053338018E+00    9.4740689226917578E-04    1.0454827874740513E+01
N    6.4925300653128861E+00    1.8757642524583571E+00    1.1028153854202559E+01
Ga    6.4928487020950945E+00    1.8722621352977100E+00    1.3108044248747614E+01
N    6.4919952983064944E+00   -8.0033036270107970E-04    1.3441205409013865E+01
Ga    4.8689117244613360E+00    2.8106333478174794E+00   -1.4535411517716032E-01
N    4.8690147490269577E+00    4.6844202957257970E+00    6.2968709174035464E-01
Ga    4.8693095536558504E+00    4.6841974453601196E+00    2.5670951903967270E+00
N    4.8693948968904035E+00    2.8103872532462106E+00    3.2444514946512153E+00
Ga    4.8689022826212733E+00    2.8102770711779632E+00    5.2071526922556473E+00
N    4.8690617091000048E+00    4.6840588571397959E+00    5.8565159151780319E+00
Ga    4.8689727594074252E+00    4.6830787902416269E+00    7.8261681032321881E+00
N    4.8689826316031608E+00    2.8091394777997185E+00    8.4663229098056867E+00
Ga    4.8670067311925242E+00    2.8087249108808452E+00    1.0454846929045646E+01
N    4.8686748385825922E+00    4.6827509982514446E+00    1.1030604030982635E+01
Ga    4.8681534867477838E+00    4.6838386895421076E+00    1.3109580075459979E+01
N    4.8693300771960484E+00    2.8091551855824051E+00    1.3440048364562262E+01
Ga    3.2461176950806498E+00    5.6216179763918683E+00   -1.4536380930889489E-01
N    3.2461717477841470E+00    7.4952548718951606E+00    6.2983294106201659E-01
Ga    3.2467207067110864E+00    7.4950942244276479E+00    2.5672287238131126E+00
N    3.2465856151743457E+00    5.6213249278563371E+00    3.2443367637229450E+00
Ga    3.2465876635094375E+00    5.6212945127151190E+00    5.2070931466487469E+00
N    3.2465454072229143E+00    7.4955131936395141E+00    5.8568794267258788E+00
Ga    3.2473458239583688E+00    7.4948277356712012E+00    7.8266607065275746E+00
N    3.2470949144903738E+00    5.6218727895103937E+00    8.4667725766559911E+00
Ga    3.2464562404210566E+00    5.6227518524567044E+00    1.0455530303292493E+01
N    3.2465178140772624E+00    7.4969322533756984E+00    1.1029980829503415E+01
Ga    3.2463730911979862E+00    7.4954498037284774E+00    1.3109308008363579E+01
N    3.2460213241142806E+00    5.6215370353040379E+00    1.3440403619851214E+01
Ga    1.6235011095280003E+00    8.4324385026900259E+00   -1.4598785137271977E-01
N    1.6234718446353520E+00    1.0305899123452068E+01    6.2971310122269775E-01
Ga    1.6237931871106766E+00    1.0305910518456304E+01    2.5670130324638403E+00
N    1.6237706028091932E+00    8.4320914639639426E+00    3.2441808327697053E+00
Ga    1.6241273223152288E+00    8.4320612161897639E+00    5.2066982773592576E+00
N    1.6239243152560496E+00    1.0305888512744115E+01    5.8565500431393200E+00
Ga    1.6236572573530133E+00    1.0305896522628203E+01    7.8260263526665437E+00
N    1.6233486145216940E+00    8.4319030126348213E+00    8.4654191768684832E+00
Ga    1.6237819119304437E+00    8.4307584077079269E+00    1.0454140682378675E+01
N    1.6231554018436360E+00    1.0304688594819963E+01    1.1028448072468484E+01
Ga    1.6238411548798382E+00    1.0305308280279835E+01    1.3109033268509359E+01
N    1.6231859654735972E+00    8.4316833341471504E+00    1.3443508380711226E+01
Ga    9.7375552863517214E+00   -2.9922046319476479E-05   -1.4580919440695628E-01
N    9.7374317188037285E+00    1.8736189210969281E+00    6.2943287538679016E-01
Ga    9.7377125664822106E+00    1.8735649354963995E+00    2.5666637254934743E+00
N    9.7376350942591650E+00   -2.2033957327866765E-04    3.2443263949658832E+00
Ga    9.7379391788797953E+00   -4.7232454076217103E-04    5.2067424400439659E+00
N    9.7374847676923046E+00    1.8732561581412759E+00    5.8563900135168847E+00
Ga    9.7374533104826799E+00    1.8731163949912908E+00    7.8259304140196964E+00
N    9.7375356289382609E+00   -6.9240973542664900E-04    8.4668016004046844E+00
Ga    9.7382971206921951E+00   -1.2693910663323176E-03    1.0456182737573293E+01
N    9.7367441585115717E+00    1.8730137438542940E+00    1.1027543134071774E+01
Ga    9.7370409340951234E+00    1.8737394892736641E+00    1.3108226570801731E+01
N    9.7370352545569698E+00    1.8125435302376549E-04    1.3441939127715431E+01
Ga    8.1146746332581010E+00    2.8106375976728293E+00   -1.4628519334375464E-01
N    8.1147186711231942E+00    4.6843739539935711E+00    6.2903785137673218E-01
Ga    8.1148414499162822E+00    4.6843347919153064E+00    2.5663081000208727E+00
N    8.1149242153263312E+00    2.8105137211732094E+00    3.2439405537514796E+00
Ga    8.1147636063299569E+00    2.8104089049253140E+00    5.2063223541451444E+00
N    8.1150063501604475E+00    4.6842347920241645E+00    5.8558226730067187E+00
Ga    8.1144045173909127E+00    4.6846076842610058E+00    7.8253130078231088E+00
N    8.1152433437528444E+00    2.8107836756997018E+00    8.4643724508231308E+00
Ga    8.1152093081843795E+00    2.8103881964056874E+00    1.0452805999441050E+01
N    8.1175962088326568E+00    4.6836949136143309E+00    1.1027285106783967E+01
Ga    8.1142893739278197E+00    4.6832160916007881E+00    1.3107214263774718E+01
N    8.1142179874699050E+00    2.8098105654389314E+00    1.3444941505249771E+01
Ga    6.4916845890219701E+00    5.6216109079458194E+00   -1.4577201068951592E-01
N    6.4917984086056819E+00    7.4951566094480784E+00    6.2974726783142676E-01
Ga    6.4921174923397498E+00    7.4949765621646431E+00    2.5671263859158229E+00
N    6.4921588657662204E+00    5.6210533642889935E+00    3.2440944031729906E+00
Ga    6.4915607584842610E+00    5.6209442767163456E+00    5.2066664809032659E+00
N    6.4917229990941534E+00    7.4946072337686021E+00    5.8565366858868817E+00
Ga    6.4919925432813690E+00    7.4940189882075430E+00    7.8261658490499943E+00
N    6.4919961782638635E+00    5.6197563458853672E+00    8.4660901587363089E+00
Ga    6.4919807192782786E+00    5.6193302043931581E+00    1.0454983529824004E+01
N    6.4917403756102212E+00    7.4927660175965558E+00    1.1029317747627937E+01
Ga    6.4917824553209309E+00    7.4956979623244848E+00    1.3108812768149390E+01
N    6.4917186308087196E+00    5.6209928327997210E+00    1.3438500052619439E+01
Ga    4.8689651110656449E+00    8.4324453762771459E+00   -1.4523718845534270E-01
N    4.8689480834259680E+00    1.0305959040235756E+01    6.3015733062934809E-01
Ga    4.8694797540832431E+00    1.0305868459245842E+01    2.5675048712036950E+00
N    4.8693824486347088E+00    8.4320657875220597E+00    3.2446344429021603E+00
Ga    4.8693390587371832E+00    8.4322741136337171E+00    5.2073203389687768E+00
N    4.8690451511434514E+00    1.0306229025302434E+01    5.8570051301585986E+00
Ga    4.8702383738324491E+00    1.0306071829472993E+01    7.8266043435767161E+00
N    4.8701300115532096E+00    8.4326577667950158E+00    8.4664338731715318E+00
Ga    4.8697251688855419E+00    8.4318164605574655E+00    1.0454956899691533E+01
N    4.8700194116718123E+00    1.0305109436968136E+01    1.1030302836915624E+01
Ga    4.8687989780009717E+00    1.0306383373931329E+01    1.3110166796099746E+01
N    4.8693985529542720E+00    8.4322046676297742E+00    1.3442211768739305E+01
H    4.8686758188044905E+00    8.4323783180627814E+00   -1.6982777835655027E+00
H    1.6230596636031698E+00    8.4325400718022596E+00   -1.6990390862442077E+00
H   -1.6222570138961068E+00    8.4324802932504035E+00   -1.6992609661807425E+00
H   -4.8679588000828744E+00    8.4322792909486761E+00   -1.6987412436726048E+00
H    6.4916673591025074E+00    5.6217706412879087E+00   -1.6988426813741990E+00
H    3.2460919378110580E+00    5.6219779311788320E+00   -1.6984238398347116E+00
H    4.5242461570610762E-04    5.6221191073885475E+00   -1.6992971009134195E+00
H   -3.2451493174138393E+00    5.6218990046477719E+00   -1.6996267647302943E+00
H    8.1142905495979534E+00    2.8103586849410935E+00   -1.6993305871525832E+00
H    4.8689000051108113E+00    2.8104107105801406E+00   -1.6984441846978471E+00
H    1.6232385440050452E+00    2.8106423910888996E+00   -1.6982084249675959E+00
H   -1.6226575367594305E+00    2.8105054564718208E+00   -1.6990747852767687E+00
H    2.2006622234114180E-04   -4.8486701410855600E-04   -1.6980551135686668E+00
H    3.2460921890461512E+00   -4.7303768706685132E-04   -1.6981134159469990E+00
H    6.4916241030971493E+00   -4.6450205588520542E-04   -1.6989775505363029E+00
H    9.7368491655311722E+00   -4.9450620331033821E-04   -1.6988356337591437E+00
     &END COORD
     &KIND H
       BASIS_SET DZVP-MOLOPT-SR-GTH-q1
       POTENTIAL GTH-PBE-q1
       &POTENTIAL
 1
  0.2000000000000000E+00 2 -0.4178900440000000E+01  0.7244633100000000E+00
 0
         # Potential name:  GTH-PBE-Q1  for symbol:  H
         # Potential read from the potential filename: GTH_POTENTIALS
       &END POTENTIAL
     &END KIND
     &KIND N
       BASIS_SET DZVP-MOLOPT-SR-GTH
       POTENTIAL GTH-PBE-q5
       &POTENTIAL
 2 3
  0.2837905100000000E+00 2 -0.1241522559000000E+02  0.1868095920000000E+01
 2
  0.2554050000000000E+00 1  0.1363026257000000E+02
  0.2454945300000000E+00 0
         # Potential name:  GTH-PBE-Q5  for symbol:  N
         # Potential read from the potential filename: GTH_POTENTIALS
       &END POTENTIAL
     &END KIND
     &KIND Ga
       BASIS_SET DZVP-MOLOPT-SR-GTH
       POTENTIAL GTH-PBE-q13
       &POTENTIAL
 2 1 10
  0.4900000000000000E+00 0
 3
  0.4167772300000000E+00 3  0.1047568975000000E+02 -0.4921768140000000E+01  0.8707055900000000E+00
  0.7770178090000000E+01 -0.2248152160000000E+01
  0.1784415450000000E+01
  0.5696265200000000E+00 2  0.1777985340000000E+01  0.1958597600000000E+00
 -0.2317443900000000E+00
  0.2381265000000000E+00 1 -0.1624868022000000E+02
         # Potential name:  GTH-PBE-Q13  for symbol:  GA
         # Potential read from the potential filename: GTH_POTENTIALS
       &END POTENTIAL
     &END KIND
     &TOPOLOGY
       MULTIPLE_UNIT_CELL  1 1 1
     &END TOPOLOGY
   &END SUBSYS
 &END FORCE_EVAL
