 # Version information for this restart file 
 # current date 2019-05-26 00:00:59.659
 # current working dir /lustre03/project/6004141/rzk/GaN-carbene/00-Surface/00-Preoptimization/443-capped/CELL_OPT
 # Program compiled at                              Sun Apr  7 00:48:11 EDT 2019
 # Program compiled on                          beluga2.int.ets1.calculquebec.ca
 # Program compiled for                        Beluga-Linux-x86-64-intel-openmpi
 # Source code revision number                                         svn:18619
 &GLOBAL
   PRINT_LEVEL  MEDIUM
   PROJECT_NAME TEST
   RUN_TYPE  CELL_OPT
 &END GLOBAL
 &MOTION
   &CELL_OPT
     MAX_ITER  300
     STEP_START_VAL  29
     EXTERNAL_PRESSURE     1.0000000000000000E+00
     KEEP_ANGLES  T
     KEEP_SYMMETRY  T
     CONSTRAINT  Z
     PRESSURE_TOLERANCE     5.0000000000000000E+02
   &END CELL_OPT
 &END MOTION
 &FORCE_EVAL
   METHOD  QS
   STRESS_TENSOR  ANALYTICAL
   &DFT
     BASIS_SET_FILE_NAME BASIS_MOLOPT
     POTENTIAL_FILE_NAME GTH_POTENTIALS
     SURFACE_DIPOLE_CORRECTION  T
     SURF_DIP_DIR  Z
     &SCF
       MAX_SCF  100
       EPS_SCF     5.0000000000000004E-06
       &OT  T
         PRECONDITIONER  FULL_ALL
       &END OT
       &OUTER_SCF  T
         OPTIMIZER  NONE
         EPS_SCF     5.0000000000000004E-06
         MAX_SCF  4
       &END OUTER_SCF
       &PRINT
         &RESTART  OFF
           BACKUP_COPIES  1
           &EACH
             JUST_ENERGY  0
             QS_SCF  0
             MD  20
           &END EACH
         &END RESTART
       &END PRINT
     &END SCF
     &QS
       EPS_DEFAULT     1.0000000000000000E-14
       METHOD  GPW
     &END QS
     &MGRID
       NGRIDS  5
       CUTOFF     1.2000000000000000E+03
     &END MGRID
     &XC
       DENSITY_CUTOFF     1.0000000000000000E-10
       GRADIENT_CUTOFF     1.0000000000000000E-10
       TAU_CUTOFF     1.0000000000000000E-10
       &XC_FUNCTIONAL  NO_SHORTCUT
         &PBE  T
         &END PBE
       &END XC_FUNCTIONAL
       &VDW_POTENTIAL
         POTENTIAL_TYPE  PAIR_POTENTIAL
         &PAIR_POTENTIAL
           R_CUTOFF     1.0000000000000004E+01
           TYPE  DFTD3
           PARAMETER_FILE_NAME dftd3.dat
           REFERENCE_FUNCTIONAL PBE
           EPS_CN     9.9999999999999995E-07
           CALCULATE_C9_TERM  T
           REFERENCE_C9_TERM  T
           LONG_RANGE_CORRECTION  F
           VERBOSE_OUTPUT  F
         &END PAIR_POTENTIAL
       &END VDW_POTENTIAL
     &END XC
   &END DFT
   &SUBSYS
     &CELL
       A     1.2846678253085091E+01    0.0000000000000000E+00    0.0000000000000000E+00
       B    -6.4495174785676337E+00    1.1170891957182684E+01    0.0000000000000000E+00
       C     0.0000000000000000E+00    0.0000000000000000E+00    2.9000000000000000E+01
       MULTIPLE_UNIT_CELL  1 1 1
       &CELL_REF
         A     1.2982353780853531E+01    0.0000000000000000E+00    0.0000000000000000E+00
         B    -6.4911768904267628E+00    1.1243048175136114E+01    0.0000000000000000E+00
         C     0.0000000000000000E+00    0.0000000000000000E+00    2.9000000000000000E+01
         MULTIPLE_UNIT_CELL  1 1 1
       &END CELL_REF
     &END CELL
     &COORD
Ga    1.1887358870318018E-03   -2.8313957655828843E-04   -1.6943612377227743E-01
N   -5.2800092619054075E-03    1.8589667614081684E+00    6.1684553153538058E-01
Ga   -1.8848044511060554E-03    1.8611067669946253E+00    2.5510696440846110E+00
N    4.0961817752189810E-03    2.0503701043261551E-03    3.2377298751820995E+00
Ga    4.3626061549787171E-03    2.3640576789478974E-04    5.1970717958396460E+00
N   -1.2484504267382072E-03    1.8585357086702485E+00    5.8584153927350844E+00
Ga    1.2410061584290628E-03    1.8592741630310525E+00    7.8261703222596388E+00
N    1.1504221242775456E-02    2.4843723776355451E-03    8.4797274995665379E+00
Ga    1.0918231286552385E-02    6.3645111831334622E-03    1.0467576240880009E+01
N   -7.5683635550819152E-03    1.8667822308079909E+00    1.1055408076128765E+01
Ga   -2.8282831435178766E-02    1.8553342610950516E+00    1.3124369543702276E+01
N   -7.2722808539046162E-03   -5.9294824943156074E-04    1.3458804704632483E+01
Ga   -1.6116166393536664E+00    2.7921751894609037E+00   -1.6937957718582705E-01
N   -1.6176785417798101E+00    4.6517322582330420E+00    6.1651285620016849E-01
Ga   -1.6142572577751306E+00    4.6536945592982022E+00    2.5509959871051149E+00
N   -1.6077729561696872E+00    2.7949638607176222E+00    3.2389103671823594E+00
Ga   -1.6071019191481235E+00    2.7929468236980304E+00    5.1986036572872072E+00
N   -1.6137981736967162E+00    4.6524749301556447E+00    5.8564297949459014E+00
Ga   -1.6109251562706970E+00    4.6533718712373622E+00    7.8232110839912359E+00
N   -1.6049890347550624E+00    2.7952407220961160E+00    8.4716008556923672E+00
Ga   -1.6117606683500942E+00    2.8006976159508681E+00    1.0455033191927765E+01
N   -1.6151865330993009E+00    4.6557858572858919E+00    1.1050315832853554E+01
Ga   -1.6251850506770287E+00    4.6348862828706388E+00    1.3124972761980956E+01
N   -1.6172523044315505E+00    2.7943811433047476E+00    1.3541927607833165E+01
Ga   -3.2242190967409945E+00    5.5850862393913108E+00   -1.6966172255844672E-01
N   -3.2299335268599698E+00    7.4443915517732702E+00    6.1656115337282824E-01
Ga   -3.2263141265470492E+00    7.4461931206113166E+00    2.5509959141353948E+00
N   -3.2204297836759945E+00    5.5873127101576259E+00    3.2390312223604529E+00
Ga   -3.2205823107494020E+00    5.5861623256906752E+00    5.1990888526119905E+00
N   -3.2257100462948647E+00    7.4446503058318090E+00    5.8596472417724881E+00
Ga   -3.2234993962473184E+00    7.4466057959243281E+00    7.8278235573008308E+00
N   -3.2157438728077166E+00    5.5861146183486241E+00    8.4725869953496424E+00
Ga   -3.2201304115513358E+00    5.5913231759299622E+00    1.0458130399351152E+01
N   -3.2329776173353069E+00    7.4507039652831777E+00    1.1046429763787534E+01
Ga   -3.2518585538781299E+00    7.4413331218726402E+00    1.3111499401555729E+01
N   -3.2307327225613456E+00    5.5867541791760873E+00    1.3456472437555956E+01
Ga   -4.8363727043709561E+00    8.3779826790945453E+00   -1.6918453918357748E-01
N   -4.8421421798074675E+00    1.0237188414004979E+01    6.1746958174262234E-01
Ga   -4.8383198322218801E+00    1.0239362710402101E+01    2.5521598073580174E+00
N   -4.8323922021108814E+00    8.3798487517893232E+00    3.2385648226358361E+00
Ga   -4.8314202355491087E+00    8.3783137005121677E+00    5.1982964749012792E+00
N   -4.8390822322413376E+00    1.0237664416166927E+01    5.8557702164228846E+00
Ga   -4.8372251306926284E+00    1.0239218977178121E+01    7.8222237837500002E+00
N   -4.8299312411288744E+00    8.3819623441501712E+00    8.4731077384742761E+00
Ga   -4.8358042588341013E+00    8.3882727434172057E+00    1.0457203968602133E+01
N   -4.8355243875876459E+00    1.0238795229623273E+01    1.1068529948052479E+01
Ga   -4.8468104115707495E+00    1.0219819451514912E+01    1.3152358201556245E+01
N   -4.8414595765331416E+00    8.3764028701410602E+00    1.3546872999353001E+01
Ga    3.2125080379674915E+00   -4.2530748690379277E-04   -1.6878835872699713E-01
N    3.2066002191862690E+00    1.8589532504206141E+00    6.1726964588775635E-01
Ga    3.2102576467091146E+00    1.8607985120027677E+00    2.5520824734399574E+00
N    3.2164379895661770E+00    1.7831331890469689E-03    3.2399466104115260E+00
Ga    3.2178487838949410E+00   -3.5259704719492436E-04    5.2003158592870671E+00
N    3.2106044940445959E+00    1.8594800240870040E+00    5.8570468906960027E+00
Ga    3.2129667531167225E+00    1.8601474644090270E+00    7.8240698534016904E+00
N    3.2191626455843227E+00    1.5317027426810818E-03    8.4724021597734982E+00
Ga    3.2137449526654791E+00    4.8273851618305021E-03    1.0454293500667765E+01
N    3.2105459718038514E+00    1.8614471706332032E+00    1.1046161527546950E+01
Ga    3.1996924353693932E+00    1.8436870429268206E+00    1.3112753309255499E+01
N    3.2077126062947769E+00    4.5835286521846768E-03    1.3536496981536478E+01
Ga    1.6000361215066923E+00    2.7922003423128263E+00   -1.6927813812698922E-01
N    1.5940782615074500E+00    4.6516934529374332E+00    6.1640363365729189E-01
Ga    1.5974301165345866E+00    4.6534919723571067E+00    2.5507354705235108E+00
N    1.6033531002749140E+00    2.7944376234976565E+00    3.2382515782755776E+00
Ga    1.6039783935143062E+00    2.7924473027510421E+00    5.1980754449177979E+00
N    1.5980684136573964E+00    4.6520334858020469E+00    5.8564934934937929E+00
Ga    1.5993029093468729E+00    4.6522560746530894E+00    7.8240123542112663E+00
N    1.6083314101276904E+00    2.7940950423571791E+00    8.4730275252158034E+00
Ga    1.6049018496280902E+00    2.7989454595434560E+00    1.0458487521299288E+01
N    1.5927089889540778E+00    4.6575126404112304E+00    1.1049151575364398E+01
Ga    1.5778906520207459E+00    4.6435911354828550E+00    1.3115631487980808E+01
N    1.5955604885920560E+00    2.7907873374517926E+00    1.3463042990011129E+01
Ga   -1.2284816502879485E-02    5.5851984885326607E+00   -1.6982220466109316E-01
N   -1.8284417914833474E-02    7.4445214410205516E+00    6.1666161692754129E-01
Ga   -1.4849754994561154E-02    7.4465158665874025E+00    2.5512529003792062E+00
N   -8.9547461731983996E-03    5.5871456924826797E+00    3.2378396733360484E+00
Ga   -8.1503608536658938E-03    5.5855219502833071E+00    5.1971943048988489E+00
N   -1.4904024880523599E-02    7.4443250249405173E+00    5.8552745046061991E+00
Ga   -1.3435225145205537E-02    7.4444225909177915E+00    7.8217747681350138E+00
N   -5.5593686706629291E-03    5.5876325648652525E+00    8.4732666144029576E+00
Ga   -1.0631775294182437E-02    5.5962093048336978E+00    1.0457614094085313E+01
N   -1.1641531549870928E-02    7.4469250548827794E+00    1.1067256033133082E+01
Ga   -2.4777729350416694E-02    7.4293020273490065E+00    1.3151424210060203E+01
N   -1.7357243822413691E-02    5.5801207685239174E+00    1.3523578632343883E+01
Ga   -1.6247362191706469E+00    8.3779340722544653E+00   -1.6938892089000659E-01
N   -1.6306687084846627E+00    1.0237113928082701E+01    6.1707405010802330E-01
Ga   -1.6272539423685906E+00    1.0239207108922692E+01    2.5516100462677214E+00
N   -1.6214323306030798E+00    8.3800271209834669E+00    3.2384292886152060E+00
Ga   -1.6211962772225186E+00    8.3787353536097733E+00    5.1983715060896536E+00
N   -1.6258784994035904E+00    1.0236107140589914E+01    5.8610109749123938E+00
Ga   -1.6232413343888121E+00    1.0236968920996661E+01    7.8292482989207803E+00
N   -1.6149034848432668E+00    8.3770989126975746E+00    8.4795446292758907E+00
Ga   -1.6153912827827870E+00    8.3819429692764036E+00    1.0467154564991830E+01
N   -1.6320795842345310E+00    1.0243105937928839E+01    1.1053532948942554E+01
Ga   -1.6532720013514832E+00    1.0235487961319013E+01    1.3118249151721626E+01
N   -1.6319684401841579E+00    8.3809092521279371E+00    1.3462352037524939E+01
Ga    6.4240452015106566E+00   -4.9571356302967741E-04   -1.6901028849649091E-01
N    6.4182360452522325E+00    1.8590418999901408E+00    6.1663895693581194E-01
Ga    6.4215475042924153E+00    1.8609520763286129E+00    2.5511985786721953E+00
N    6.4271887008541357E+00    2.1207110908779410E-03    3.2390595318577944E+00
Ga    6.4275144365491617E+00    1.5557453569386737E-04    5.1992639989261784E+00
N    6.4227568298186748E+00    1.8591104071782631E+00    5.8595602603768988E+00
Ga    6.4242662218312363E+00    1.8590466400459937E+00    7.8272511306767418E+00
N    6.4330797930539871E+00    1.5578399220396401E-03    8.4778594452823643E+00
Ga    6.4321579920095653E+00    4.6088935949352818E-03    1.0463965329427532E+01
N    6.4177024349608391E+00    1.8635590056690068E+00    1.1053844855293743E+01
Ga    6.4019701275469298E+00    1.8512956322316068E+00    1.3119776874750732E+01
N    6.4200210005998857E+00   -1.4975975484705136E-03    1.3462565405218902E+01
Ga    4.8116960139219067E+00    2.7925890346879614E+00   -1.6917072223924715E-01
N    4.8060232164834114E+00    4.6518001001265521E+00    6.1720136738013343E-01
Ga    4.8096504486533371E+00    4.6535898036665584E+00    2.5516882911211662E+00
N    4.8155552259001144E+00    2.7945947852144717E+00    3.2392402681181016E+00
Ga    4.8163443598588502E+00    2.7923093737831661E+00    5.1991293550286732E+00
N    4.8095925062024598E+00    4.6526241769183736E+00    5.8544511864857363E+00
Ga    4.8114481979580939E+00    4.6521010995986449E+00    7.8207470718170704E+00
N    4.8193523535835983E+00    2.7958026164326286E+00    8.4719171754175626E+00
Ga    4.8151956807102474E+00    2.8024051866189734E+00    1.0455705526423161E+01
N    4.8092995080668466E+00    4.6573062892220038E+00    1.1058853392922986E+01
Ga    4.7989901813320754E+00    4.6452637886356705E+00    1.3137516212027382E+01
N    4.8061270588260596E+00    2.7946437300502316E+00    1.3503874793288201E+01
Ga    3.1996289256278470E+00    5.5850186196183103E+00   -1.6941116806874179E-01
N    3.1935077796170979E+00    7.4444895928515722E+00    6.1635758377269101E-01
Ga    3.1968789248229506E+00    7.4466360485085739E+00    2.5506261692248215E+00
N    3.2027329242062237E+00    5.5874151305450663E+00    3.2373907603383354E+00
Ga    3.2029792053074995E+00    5.5861327361574578E+00    5.1968307949139190E+00
N    3.1982300856211272E+00    7.4445196302203023E+00    5.8574616657361744E+00
Ga    3.1994613240607013E+00    7.4455090599075993E+00    7.8254016953449002E+00
N    3.2073579233038356E+00    5.5847997416806550E+00    8.4718475236454491E+00
Ga    3.2052534211572286E+00    5.5883080104422902E+00    1.0457347992486257E+01
N    3.1907216056685730E+00    7.4506336890549969E+00    1.1038546856436030E+01
Ga    3.1673368829609743E+00    7.4414776918890899E+00    1.3098005278209049E+01
N    3.1917051351471746E+00    5.5915500963072233E+00    1.3468123158976120E+01
Ga    1.5870612510792088E+00    8.3779959265387145E+00   -1.6915301521564971E-01
N    1.5810883015258730E+00    1.0237258474738958E+01    6.1731279431559150E-01
Ga    1.5844710464571878E+00    1.0239429621859143E+01    2.5522449952590986E+00
N    1.5906110508080922E+00    8.3797420147841741E+00    3.2384844816509277E+00
Ga    1.5913992339224359E+00    8.3781376209140141E+00    5.1984556553175478E+00
N    1.5848956404088612E+00    1.0237507841614176E+01    5.8555189091349220E+00
Ga    1.5858949387376755E+00    1.0239068423855111E+01    7.8219455780017144E+00
N    1.5926079612830510E+00    8.3800948776797988E+00    8.4703938053955490E+00
Ga    1.5860109866240684E+00    8.3884991491387382E+00    1.0452470157264438E+01
N    1.5881498518818347E+00    1.0239089819256822E+01    1.1059204523882801E+01
Ga    1.5763702946766032E+00    1.0218592180553632E+01    1.3135651015497324E+01
N    1.5821781348035420E+00    8.3771890395337820E+00    1.3543197334975384E+01
Ga    9.6355631959269914E+00    4.8771942111580634E-05   -1.6913781682565940E-01
N    9.6298949583139226E+00    1.8591871393317139E+00    6.1752629065877962E-01
Ga    9.6334400438899088E+00    1.8612881983775205E+00    2.5521048046358632E+00
N    9.6397957299211949E+00    2.0881963511043709E-03    3.2390369117058699E+00
Ga    9.6402150594314726E+00    1.4305799841468400E-04    5.1990898254607050E+00
N    9.6333137525537147E+00    1.8603617706458195E+00    5.8555425662355249E+00
Ga    9.6352122118961958E+00    1.8608726490724796E+00    7.8218256080899975E+00
N    9.6425456913881344E+00    3.6225553276735705E-03    8.4692681611850471E+00
Ga    9.6359774614862594E+00    8.4962550613469252E-03    1.0451704959431980E+01
N    9.6351671733303608E+00    1.8615424645265324E+00    1.1060242295876925E+01
Ga    9.6232209982421821E+00    1.8465701471330660E+00    1.3139552157486326E+01
N    9.6300221431818809E+00    1.7334278832208166E-03    1.3531948102946686E+01
Ga    8.0236681527631593E+00    2.7926790890791633E+00   -1.6897763887312836E-01
N    8.0175341695426479E+00    4.6518685583898556E+00    6.1719689019161605E-01
Ga    8.0210989872414196E+00    4.6539427514809306E+00    2.5514499290377719E+00
N    8.0266252984074296E+00    2.7949571986453070E+00    3.2385886002865627E+00
Ga    8.0262372507084159E+00    2.7933205311243214E+00    5.1982863025008879E+00
N    8.0215459216419713E+00    4.6519858006834820E+00    5.8589786372421946E+00
Ga    8.0228584588195488E+00    4.6523316517302122E+00    7.8265229409846118E+00
N    8.0325551763818819E+00    2.7941448932735367E+00    8.4766910278835521E+00
Ga    8.0303293284660864E+00    2.7983181543743365E+00    1.0463502838262306E+01
N    8.0131931704436639E+00    4.6586354938578731E+00    1.1047038075141561E+01
Ga    7.9925840664029737E+00    4.6500537728672198E+00    1.3112921014149000E+01
N    8.0168172782674922E+00    2.7964388257548527E+00    1.3466659298631821E+01
Ga    6.4112125107597793E+00    5.5849770608778675E+00   -1.6912783743014359E-01
N    6.4051702642750614E+00    7.4443956050602189E+00    6.1683168833717195E-01
Ga    6.4086952847445415E+00    7.4465615921495241E+00    2.5513617422958306E+00
N    6.4149484094293783E+00    5.5874571233088979E+00    3.2387162047019169E+00
Ga    6.4157638099165917E+00    5.5856645929759443E+00    5.1982829991379127E+00
N    6.4089486940131906E+00    7.4452325000353419E+00    5.8546735029860040E+00
Ga    6.4115771202619669E+00    7.4466922519255219E+00    7.8212308170588916E+00
N    6.4163972577356567E+00    5.5881253525091541E+00    8.4707833187572774E+00
Ga    6.4101301234671055E+00    5.5965884200323295E+00    1.0454233314149899E+01
N    6.4112904902823002E+00    7.4461496182392723E+00    1.1060402384954573E+01
Ga    6.4021857467146628E+00    7.4249732257532690E+00    1.3142784153928938E+01
N    6.4060688407162756E+00    5.5844734762118753E+00    1.3554823984898237E+01
Ga    4.7988033002167967E+00    8.3776039030228926E+00   -1.6987495685528328E-01
N    4.7927202371521256E+00    1.0237199929154178E+01    6.1610150637490690E-01
Ga    4.7960843004503033E+00    1.0239304476498997E+01    2.5505610554699958E+00
N    4.8020802322043501E+00    8.3803164482618797E+00    3.2378268576533702E+00
Ga    4.8023468679711643E+00    8.3790397145238167E+00    5.1975206304191017E+00
N    4.7976664403189266E+00    1.0237407970192828E+01    5.8586773716788088E+00
Ga    4.8004115308718349E+00    1.0240089196960515E+01    7.8268407907464681E+00
N    4.8083589924957684E+00    8.3796765874464043E+00    8.4725516740759428E+00
Ga    4.8077749096937827E+00    8.3837574286822694E+00    1.0459526841715887E+01
N    4.7902656982433216E+00    1.0244937577530942E+01    1.1043456847408750E+01
Ga    4.7697624997113000E+00    1.0235207113683206E+01    1.3106688127161723E+01
N    4.7912004721472288E+00    8.3788723408426460E+00    1.3438185665934391E+01
H    4.7980723077222658E+00    8.3788432281006031E+00   -1.7216336419658667E+00
H    1.5869621778630458E+00    8.3795987599032991E+00   -1.7209249200738972E+00
H   -1.6251355529093696E+00    8.3800427741328587E+00   -1.7211473048093409E+00
H   -4.8373806812905329E+00    8.3803807462030750E+00   -1.7209490836758627E+00
H    6.4105472902614107E+00    5.5860900481841398E+00   -1.7207930841205401E+00
H    3.1993821494832604E+00    5.5867869418001188E+00   -1.7211263000194983E+00
H   -1.2337401836527897E-02    5.5871177868213566E+00   -1.7215829726515346E+00
H   -3.2255708937883449E+00    5.5866635464797083E+00   -1.7213661500243573E+00
H    8.0236070913085094E+00    2.7946710941723025E+00   -1.7206799034132356E+00
H    4.8107630583630936E+00    2.7946931565621886E+00   -1.7209036072703119E+00
H    1.5990497021460204E+00    2.7936600180491955E+00   -1.7210456290440526E+00
H   -1.6120158062395731E+00    2.7927185099977878E+00   -1.7210668155212965E+00
H    1.3688485965389272E-03    1.7861332374949314E-03   -1.7212431302813709E+00
H    3.2118047652585417E+00    8.9629388301828939E-04   -1.7205394540994228E+00
H    6.4232866690422012E+00    6.5421368236423744E-04   -1.7207786666868488E+00
H    9.6345569506176236E+00    2.1291205853405533E-03   -1.7209131855283559E+00
     &END COORD
     &KIND H
       BASIS_SET DZVP-MOLOPT-SR-GTH-q1
       POTENTIAL GTH-PBE-q1
       &POTENTIAL
1
0.2000000000000000E+00 2 -0.4178900440000000E+01  0.7244633100000000E+00
0
       &END POTENTIAL
     &END KIND
     &KIND N
       BASIS_SET DZVP-MOLOPT-SR-GTH
       POTENTIAL GTH-PBE-q5
       &POTENTIAL
2 3
0.2837905100000000E+00 2 -0.1241522559000000E+02  0.1868095920000000E+01
2
0.2554050000000000E+00 1  0.1363026257000000E+02
0.2454945300000000E+00 0
       &END POTENTIAL
     &END KIND
     &KIND Ga
       BASIS_SET DZVP-MOLOPT-SR-GTH
       POTENTIAL GTH-PBE-q13
       &POTENTIAL
2 1 10
0.4900000000000000E+00 0
3
0.4167772300000000E+00 3  0.1047568975000000E+02 -0.4921768140000000E+01  0.8707055900000000E+00
0.7770178090000000E+01 -0.2248152160000000E+01
0.1784415450000000E+01
0.5696265200000000E+00 2  0.1777985340000000E+01  0.1958597600000000E+00
-0.2317443900000000E+00
0.2381265000000000E+00 1 -0.1624868022000000E+02
       &END POTENTIAL
     &END KIND
     &TOPOLOGY
       NUMBER_OF_ATOMS  208
       MULTIPLE_UNIT_CELL  1 1 1
     &END TOPOLOGY
   &END SUBSYS
 &END FORCE_EVAL
