 # Version information for this restart file 
 # current date 2019-05-25 21:20:17.788
 # current working dir /lustre03/project/6004141/rzk/GaN-carbene/00-Surface/00-Preoptimization/443-capped/CELL_OPT
 # Program compiled at                              Sun Apr  7 00:48:11 EDT 2019
 # Program compiled on                          beluga2.int.ets1.calculquebec.ca
 # Program compiled for                        Beluga-Linux-x86-64-intel-openmpi
 # Source code revision number                                         svn:18619
 &GLOBAL
   PRINT_LEVEL  MEDIUM
   PROJECT_NAME TEST
   RUN_TYPE  CELL_OPT
 &END GLOBAL
 &MOTION
   &CELL_OPT
     MAX_ITER  300
     STEP_START_VAL  2
     EXTERNAL_PRESSURE     1.0000000000000000E+00
     KEEP_ANGLES  T
     KEEP_SYMMETRY  T
     CONSTRAINT  Z
     PRESSURE_TOLERANCE     5.0000000000000000E+02
   &END CELL_OPT
 &END MOTION
 &FORCE_EVAL
   METHOD  QS
   STRESS_TENSOR  ANALYTICAL
   &DFT
     BASIS_SET_FILE_NAME BASIS_MOLOPT
     POTENTIAL_FILE_NAME GTH_POTENTIALS
     SURFACE_DIPOLE_CORRECTION  T
     SURF_DIP_DIR  Z
     &SCF
       MAX_SCF  100
       EPS_SCF     5.0000000000000004E-06
       &OT  T
         PRECONDITIONER  FULL_ALL
       &END OT
       &OUTER_SCF  T
         OPTIMIZER  NONE
         EPS_SCF     5.0000000000000004E-06
         MAX_SCF  4
       &END OUTER_SCF
       &PRINT
         &RESTART  OFF
           BACKUP_COPIES  1
           &EACH
             JUST_ENERGY  0
             QS_SCF  0
             MD  20
           &END EACH
         &END RESTART
       &END PRINT
     &END SCF
     &QS
       EPS_DEFAULT     1.0000000000000000E-14
       METHOD  GPW
     &END QS
     &MGRID
       NGRIDS  5
       CUTOFF     1.2000000000000000E+03
     &END MGRID
     &XC
       DENSITY_CUTOFF     1.0000000000000000E-10
       GRADIENT_CUTOFF     1.0000000000000000E-10
       TAU_CUTOFF     1.0000000000000000E-10
       &XC_FUNCTIONAL  NO_SHORTCUT
         &PBE  T
         &END PBE
       &END XC_FUNCTIONAL
       &VDW_POTENTIAL
         POTENTIAL_TYPE  PAIR_POTENTIAL
         &PAIR_POTENTIAL
           R_CUTOFF     1.0000000000000004E+01
           TYPE  DFTD3
           PARAMETER_FILE_NAME dftd3.dat
           REFERENCE_FUNCTIONAL PBE
           EPS_CN     9.9999999999999995E-07
           CALCULATE_C9_TERM  T
           REFERENCE_C9_TERM  T
           LONG_RANGE_CORRECTION  F
           VERBOSE_OUTPUT  F
         &END PAIR_POTENTIAL
       &END VDW_POTENTIAL
     &END XC
   &END DFT
   &SUBSYS
     &CELL
       A     1.2898196140227213E+01    0.0000000000000000E+00    0.0000000000000000E+00
       B    -6.4496079520542544E+00    1.1171048661858233E+01    0.0000000000000000E+00
       C     0.0000000000000000E+00    0.0000000000000000E+00    2.9000000000000000E+01
       MULTIPLE_UNIT_CELL  1 1 1
       &CELL_REF
         A     1.2982353780853531E+01    0.0000000000000000E+00    0.0000000000000000E+00
         B    -6.4911768904267628E+00    1.1243048175136114E+01    0.0000000000000000E+00
         C     0.0000000000000000E+00    0.0000000000000000E+00    2.9000000000000000E+01
         MULTIPLE_UNIT_CELL  1 1 1
       &END CELL_REF
     &END CELL
     &COORD
Ga    5.3299894447415277E-04    3.0558264415721269E-04   -1.4509214234403289E-01
N    4.8119400688613880E-04    1.8612188613510807E+00    6.2975916668753484E-01
Ga    9.6378127103940634E-04    1.8615812033000976E+00    2.5673580876442825E+00
N    6.7336637534051789E-04   -3.7490072719984548E-04    3.2449320919781441E+00
Ga    1.4120183181573259E-03    4.9081939225410797E-04    5.2076806671398321E+00
N    6.2595736428916883E-04    1.8619663518689069E+00    5.8560683569051362E+00
Ga    1.4323456177554104E-03    1.8619933640847857E+00    7.8276916044009415E+00
N    2.7960838435181967E-03    4.8668799811915544E-04    8.4649457675741466E+00
Ga    3.0709395921975287E-04   -1.2510572858975960E-04    1.0456623080227292E+01
N   -1.4430192966770367E-03    1.8626790777109834E+00    1.1028673448086529E+01
Ga   -1.3741668890590298E-03    1.8624798233959563E+00    1.3106931516545698E+01
N    1.0082548472745126E-04    3.0027308551532518E-05    1.3443036303176617E+01
Ga   -1.6116653781720143E+00    2.7931280649701518E+00   -1.4608419782208348E-01
N   -1.6118585439831117E+00    4.6540471853284737E+00    6.2886133271490596E-01
Ga   -1.6115956627328036E+00    4.6541959744492925E+00    2.5659079820958222E+00
N   -1.6116195263317719E+00    2.7927937026789578E+00    3.2440500707257489E+00
Ga   -1.6113257052158905E+00    2.7916443025638222E+00    5.2068550879680737E+00
N   -1.6115724507718969E+00    4.6545550581772925E+00    5.8547441102182844E+00
Ga   -1.6127273617686582E+00    4.6545810589095549E+00    7.8274718850979186E+00
N   -1.6121664484869835E+00    2.7918140554608999E+00    8.4636094596700531E+00
Ga   -1.6123888310855963E+00    2.7927266994940139E+00    1.0454683669860573E+01
N   -1.6137828086469104E+00    4.6546978894691398E+00    1.1027499718755895E+01
Ga   -1.6117639941154638E+00    4.6543947625769331E+00    1.3107425505428647E+01
N   -1.6114883878393029E+00    2.7923512910570825E+00    1.3447091439652906E+01
Ga   -3.2240665986342973E+00    5.5859129123592552E+00   -1.4671564101727777E-01
N   -3.2241516878105254E+00    7.4469313286219352E+00    6.2908601946337717E-01
Ga   -3.2238456686354113E+00    7.4471037792185504E+00    2.5663937977515263E+00
N   -3.2236312897869377E+00    5.5852883813524690E+00    3.2433765927299141E+00
Ga   -3.2246284301485701E+00    5.5854185161690992E+00    5.2061743079386202E+00
N   -3.2240141563144933E+00    7.4472174978600361E+00    5.8549209840059682E+00
Ga   -3.2241625049777958E+00    7.4477837518045114E+00    7.8273782561365213E+00
N   -3.2235111001840311E+00    5.5853941508823359E+00    8.4618538983103591E+00
Ga   -3.2234312861470937E+00    5.5871100293642542E+00    1.0454295691531147E+01
N   -3.2238646992615738E+00    7.4503093328472856E+00    1.1027472301555310E+01
Ga   -3.2252453375597958E+00    7.4465361255841804E+00    1.3106151993181275E+01
N   -3.2255784191543602E+00    5.5858589310516864E+00    1.3442451240151149E+01
Ga   -4.8366883256460245E+00    8.3786773070832155E+00   -1.4579561918643175E-01
N   -4.8366299440033140E+00    1.0239521848272114E+01    6.2998807556842618E-01
Ga   -4.8363014653528102E+00    1.0239811521180203E+01    2.5675102281482500E+00
N   -4.8364028918971149E+00    8.3777445573875831E+00    3.2443185357875857E+00
Ga   -4.8364330806754419E+00    8.3783409797297370E+00    5.2070617530030905E+00
N   -4.8368551935827666E+00    1.0239735235577101E+01    5.8558838802605555E+00
Ga   -4.8370614239492831E+00    1.0239653099228876E+01    7.8273994145899106E+00
N   -4.8370805061226712E+00    8.3779010473749373E+00    8.4639758199896775E+00
Ga   -4.8371402988130807E+00    8.3755867772194676E+00    1.0455943521346489E+01
N   -4.8371739607386894E+00    1.0239779028961841E+01    1.1029688488093351E+01
Ga   -4.8370849786616272E+00    1.0238741046433322E+01    1.3109950202436485E+01
N   -4.8366628845840509E+00    8.3769325391118343E+00    1.3445608359335722E+01
Ga    3.2251457617574362E+00    2.9703343230424686E-04   -1.4512641958301534E-01
N    3.2251326192876641E+00    1.8613118227085030E+00    6.3002791377170997E-01
Ga    3.2254244451517260E+00    1.8613847931468774E+00    2.5672024734821548E+00
N    3.2255137677120995E+00   -2.1401177192110596E-04    3.2446501286675713E+00
Ga    3.2251489935113069E+00   -6.9648611229455361E-04    5.2073676574233847E+00
N    3.2253487962974066E+00    1.8615105234166367E+00    5.8562520734131480E+00
Ga    3.2239935530518382E+00    1.8610963830779834E+00    7.8286292877682646E+00
N    3.2253539916598588E+00   -1.8469701664133116E-03    8.4651153337519354E+00
Ga    3.2247636783880167E+00   -1.3894989059123728E-03    1.0456701338001411E+01
N    3.2213690395251033E+00    1.8591130543588685E+00    1.1029876863477957E+01
Ga    3.2257316943568237E+00    1.8608900172118141E+00    1.3109800464293018E+01
N    3.2266731972700518E+00   -1.8146325922639196E-03    1.3444875205453069E+01
Ga    1.6128008844309467E+00    2.7931092999788714E+00   -1.4528450549447325E-01
N    1.6126318849280246E+00    4.6540610065057946E+00    6.2952326604751652E-01
Ga    1.6132473968905736E+00    4.6542403678863788E+00    2.5668120060437176E+00
N    1.6132946460663458E+00    2.7926001691669380E+00    3.2447613534056052E+00
Ga    1.6124811804994192E+00    2.7925521615735622E+00    5.2076610575051721E+00
N    1.6130296398127664E+00    4.6547951605057269E+00    5.8559272821544726E+00
Ga    1.6136352995837697E+00    4.6541748590132093E+00    7.8285557424929113E+00
N    1.6136498023117622E+00    2.7922171683372987E+00    8.4643153766412897E+00
Ga    1.6132574118036072E+00    2.7932027360258589E+00    1.0456110038761453E+01
N    1.6134995566593211E+00    4.6550927294545854E+00    1.1028938304142853E+01
Ga    1.6111003388245793E+00    4.6549992355676215E+00    1.3107642062650905E+01
N    1.6116077713832908E+00    2.7936259872216471E+00    1.3439236384832455E+01
Ga    3.8622249508183390E-04    5.5859447594881182E+00   -1.4647151577109244E-01
N    3.3851022115530456E-04    7.4468219048303403E+00    6.2912104671449776E-01
Ga    6.8677072981749763E-04    7.4472202697000283E+00    2.5665666558412750E+00
N    5.3303185035219458E-04    5.5850897101483543E+00    3.2438304033195489E+00
Ga    1.1920170262653303E-03    5.5854553787439265E+00    5.2064112751738776E+00
N    7.5263622197222890E-04    7.4468471064020214E+00    5.8549093608273290E+00
Ga   -1.3225061638894614E-04    7.4473026248782261E+00    7.8266143326631772E+00
N    1.0275000946686516E-03    5.5854871106147845E+00    8.4636480914620549E+00
Ga    2.2862321713180253E-03    5.5850421338032392E+00    1.0457057754815162E+01
N   -6.3080316610335664E-04    7.4489515987271213E+00    1.1025966172043420E+01
Ga    3.6745872544389249E-04    7.4464632947346141E+00    1.3107371161223103E+01
N    2.3784107014275491E-04    5.5848802198572409E+00    1.3443717286244928E+01
Ga   -1.6120092053466566E+00    8.3787097958975423E+00   -1.4618755168875869E-01
N   -1.6119545301558658E+00    1.0239630953547776E+01    6.2964674666627996E-01
Ga   -1.6116961624751314E+00    1.0239821815152084E+01    2.5670644847329624E+00
N   -1.6117078289615561E+00    8.3779910782733253E+00    3.2438043351550410E+00
Ga   -1.6113641425285334E+00    8.3783369051450958E+00    5.2066313743068635E+00
N   -1.6115533561902209E+00    1.0240245843668740E+01    5.8553251051733257E+00
Ga   -1.6120331208652543E+00    1.0240350493793461E+01    7.8271317006428056E+00
N   -1.6103617881811667E+00    8.3782751660615205E+00    8.4617793264363588E+00
Ga   -1.6114842353391226E+00    8.3782844206053468E+00    1.0452977594222725E+01
N   -1.6112654318833761E+00    1.0239954963819313E+01    1.1028664374662856E+01
Ga   -1.6123635545677877E+00    1.0239139495152134E+01    1.3108221384824329E+01
N   -1.6126638713052670E+00    8.3765475254418114E+00    1.3445619179006291E+01
Ga    6.4498190690914132E+00    3.4564951227262114E-04   -1.4609235492035008E-01
N    6.4497501945738147E+00    1.8613292581210985E+00    6.2948312425332587E-01
Ga    6.4501470824843308E+00    1.8614475593497366E+00    2.5665206490209189E+00
N    6.4502276030654047E+00   -8.7189577863396397E-05    3.2441636762610773E+00
Ga    6.4501748415039275E+00   -3.9380858166184618E-04    5.2067874670315897E+00
N    6.4496499601044350E+00    1.8615493710305566E+00    5.8557288993489056E+00
Ga    6.4503817530719854E+00    1.8618263351545425E+00    7.8285660861879114E+00
N    6.4510776872474684E+00   -8.8849522746033583E-04    8.4631789542680060E+00
Ga    6.4510552927522040E+00    2.1296316673407750E-03    1.0456109840340130E+01
N    6.4495538113884239E+00    1.8624105450478861E+00    1.1028190376811050E+01
Ga    6.4498178386934821E+00    1.8605952607060054E+00    1.3106774514362067E+01
N    6.4494778055113615E+00   -6.1248710349763016E-04    1.3440866821308109E+01
Ga    4.8372117319813377E+00    2.7929362403408331E+00   -1.4571030917537120E-01
N    4.8372891181183917E+00    4.6540720797689152E+00    6.2955511012065790E-01
Ga    4.8376229493957235E+00    4.6542894578970229E+00    2.5669254868535210E+00
N    4.8376970967988804E+00    2.7923011498434556E+00    3.2445617591310070E+00
Ga    4.8372728445455166E+00    2.7924279195529009E+00    5.2071035862919004E+00
N    4.8369900896038471E+00    4.6538715638010402E+00    5.8556870649925683E+00
Ga    4.8373264233651847E+00    4.6542472803780210E+00    7.8276864516220144E+00
N    4.8366396685341719E+00    2.7915511907370432E+00    8.4645404472271153E+00
Ga    4.8366964687079328E+00    2.7907870136041635E+00    1.0458215843187673E+01
N    4.8368516456041064E+00    4.6556864543798309E+00    1.1027937102983273E+01
Ga    4.8366156954612025E+00    4.6526617035519831E+00    1.3108864501999118E+01
N    4.8380264602355805E+00    2.7915431860589681E+00    1.3441528966045745E+01
Ga    3.2247927588460876E+00    5.5860540830953562E+00   -1.4548341793530731E-01
N    3.2247904987604081E+00    7.4468363819855581E+00    6.2969884703650458E-01
Ga    3.2251956866890228E+00    7.4470924471579991E+00    2.5670075206262033E+00
N    3.2252473742625307E+00    5.5853058495571153E+00    3.2444759485107992E+00
Ga    3.2252514806247325E+00    5.5853161935535756E+00    5.2071369904740301E+00
N    3.2254614954851157E+00    7.4475591827736984E+00    5.8562156200649307E+00
Ga    3.2254782545144201E+00    7.4465757169299254E+00    7.8282247882870424E+00
N    3.2268555122958098E+00    5.5854607613638638E+00    8.4637721681499887E+00
Ga    3.2251019529497547E+00    5.5864015051160729E+00    1.0455876172825860E+01
N    3.2226248809401383E+00    7.4470985190383523E+00    1.1027689832312525E+01
Ga    3.2249266333386961E+00    7.4482091400540229E+00    1.3107743193073210E+01
N    3.2245139857566674E+00    5.5853338036330156E+00    1.3443443275187867E+01
Ga    1.6125884932851926E+00    8.3788407329167693E+00   -1.4595148668106178E-01
N    1.6124705711225875E+00    1.0239569804131460E+01    6.2950470032160100E-01
Ga    1.6128177541470103E+00    1.0239766996618021E+01    2.5667719227160921E+00
N    1.6129162108651458E+00    8.3780766382635061E+00    3.2442169209000440E+00
Ga    1.6130974127939970E+00    8.3780415221990427E+00    5.2068239361229116E+00
N    1.6128648414055562E+00    1.0239961887499225E+01    5.8554989264587123E+00
Ga    1.6122566623836072E+00    1.0239901451617559E+01    7.8273918421226325E+00
N    1.6127494642032187E+00    8.3779683784864041E+00    8.4633725975047192E+00
Ga    1.6133896285611555E+00    8.3768137247397281E+00    1.0454888114147524E+01
N    1.6125347047208953E+00    1.0238479944410605E+01    1.1026583746983082E+01
Ga    1.6134538108718979E+00    1.0240012995100225E+01    1.3108399137724932E+01
N    1.6135748540813368E+00    8.3778846433170493E+00    1.3450079008598570E+01
Ga    9.6744481967862921E+00    2.6857837902620132E-04   -1.4597485453309175E-01
N    9.6741779116923130E+00    1.8612553349622878E+00    6.2918775105175018E-01
Ga    9.6744231295425127E+00    1.8615736497247024E+00    2.5666865701224091E+00
N    9.6747233872197302E+00   -4.3656499367172933E-04    3.2443523946379695E+00
Ga    9.6743829826805996E+00    1.9134932446658858E-04    5.2068634981111694E+00
N    9.6743401892979097E+00    1.8611324663222408E+00    5.8551219204917837E+00
Ga    9.6735101959756484E+00    1.8615629735933619E+00    7.8265793781861648E+00
N    9.6743364314190803E+00   -2.9224614401135207E-04    8.4646072490239952E+00
Ga    9.6758403557044659E+00   -2.3077516178316242E-03    1.0457393901070120E+01
N    9.6735761620085938E+00    1.8614947549788523E+00    1.1026263996903181E+01
Ga    9.6743250973701524E+00    1.8609977010984786E+00    1.3107236218380852E+01
N    9.6741572531944069E+00   -7.5555333735053689E-05    1.3445590543199918E+01
Ga    8.0618439694067625E+00    2.7928858523816360E+00   -1.4623217639393535E-01
N    8.0619200547525853E+00    4.6541318701425398E+00    6.2881627470371015E-01
Ga    8.0620509415049959E+00    4.6541125557207961E+00    2.5664644097691305E+00
N    8.0619987593549567E+00    2.7923418368046145E+00    3.2437732457068846E+00
Ga    8.0627361985386372E+00    2.7929402957540375E+00    5.2066902935021027E+00
N    8.0621153435900919E+00    4.6543811311053496E+00    5.8548585036996696E+00
Ga    8.0618344072127055E+00    4.6544778422939608E+00    7.8265747144206443E+00
N    8.0638857085848503E+00    2.7923272430429735E+00    8.4620291780931893E+00
Ga    8.0615423210927304E+00    2.7931947730783810E+00    1.0453043753396226E+01
N    8.0627464097388835E+00    4.6530026135212159E+00    1.1026638261888978E+01
Ga    8.0612610708711312E+00    4.6541381990921673E+00    1.3105735867807546E+01
N    8.0613600247322257E+00    2.7923043171038788E+00    1.3447286733003057E+01
Ga    6.4492759427093684E+00    5.5860068382472612E+00   -1.4579092507153990E-01
N    6.4494286346108023E+00    7.4468381257561935E+00    6.2963599050171415E-01
Ga    6.4498107030384864E+00    7.4468612203071212E+00    2.5667748932682484E+00
N    6.4496388099432069E+00    5.5852753867612845E+00    3.2441237018556079E+00
Ga    6.4498000643826803E+00    5.5844404405913179E+00    5.2069069745952978E+00
N    6.4488788558309365E+00    7.4469988472513027E+00    5.8557786352854206E+00
Ga    6.4501592792065692E+00    7.4457039910960727E+00    7.8282050833201202E+00
N    6.4494137674932617E+00    5.5834341656752731E+00    8.4638561906095600E+00
Ga    6.4494198425579770E+00    5.5831501135146198E+00    1.0455552941217389E+01
N    6.4498025433575705E+00    7.4453473515596187E+00    1.1027781370096541E+01
Ga    6.4501956476272202E+00    7.4477346567537692E+00    1.3108328958749366E+01
N    6.4503118423720540E+00    5.5844777716884559E+00    1.3445138722246007E+01
Ga    4.8370184517885439E+00    8.3789291024095487E+00   -1.4561873485897853E-01
N    4.8369093828949108E+00    1.0239534211898176E+01    6.3004278144408821E-01
Ga    4.8374596754437320E+00    1.0239959757436436E+01    2.5669347984394122E+00
N    4.8375202326091156E+00    8.3781990572951255E+00    3.2447777919692409E+00
Ga    4.8371702354907136E+00    8.3778837485698325E+00    5.2071647218040500E+00
N    4.8371242331460387E+00    1.0239783270129530E+01    5.8565566527438797E+00
Ga    4.8382600529226201E+00    1.0240810108202973E+01    7.8294539363400837E+00
N    4.8381551375293448E+00    8.3774806531352173E+00    8.4640944940463587E+00
Ga    4.8379197331952604E+00    8.3773696298931970E+00    1.0457937479064631E+01
N    4.8374086615866512E+00    1.0240581570634907E+01    1.1029895365060462E+01
Ga    4.8357477856666540E+00    1.0240249649321935E+01    1.3108467236817864E+01
N    4.8367250418933594E+00    8.3786110671247194E+00    1.3440722582109252E+01
H    4.8367246523026708E+00    8.3783360149334545E+00   -1.6977717311185463E+00
H    1.6121793386559093E+00    8.3784934255347014E+00   -1.6984762759553615E+00
H   -1.6121160435672073E+00    8.3784767718947020E+00   -1.6986822587402834E+00
H   -4.8368009888254999E+00    8.3782997001068349E+00   -1.6981771031026378E+00
H    6.4493224571367316E+00    5.5857480240115747E+00   -1.6982810883499766E+00
H    3.2247971498132331E+00    5.5859292821885118E+00   -1.6978903290515268E+00
H    2.1268336559780799E-04    5.5860647098516027E+00   -1.6987468209111098E+00
H   -3.2243898695823647E+00    5.5858864664763184E+00   -1.6990610946937041E+00
H    8.0615799133804185E+00    2.7923703936871669E+00   -1.6987583486777191E+00
H    4.8371886240755204E+00    2.7924171469476589E+00   -1.6979116417531588E+00
H    1.6125718626911218E+00    2.7925947062125300E+00   -1.6976717408510358E+00
H   -1.6122430768530374E+00    2.7924317539757446E+00   -1.6985264398956748E+00
H    2.4206281821124960E-04   -5.0760969148713991E-04   -1.6975270449574520E+00
H    3.2250390230054107E+00   -4.7478852774580812E-04   -1.6975690901126903E+00
H    6.4495318365117562E+00   -4.7361158033541658E-04   -1.6984254858249836E+00
H    9.6737387343361760E+00   -5.0984552083948936E-04   -1.6983005968043974E+00
     &END COORD
     &KIND H
       BASIS_SET DZVP-MOLOPT-SR-GTH-q1
       POTENTIAL GTH-PBE-q1
       &POTENTIAL
1
0.2000000000000000E+00 2 -0.4178900440000000E+01  0.7244633100000000E+00
0
       &END POTENTIAL
     &END KIND
     &KIND N
       BASIS_SET DZVP-MOLOPT-SR-GTH
       POTENTIAL GTH-PBE-q5
       &POTENTIAL
2 3
0.2837905100000000E+00 2 -0.1241522559000000E+02  0.1868095920000000E+01
2
0.2554050000000000E+00 1  0.1363026257000000E+02
0.2454945300000000E+00 0
       &END POTENTIAL
     &END KIND
     &KIND Ga
       BASIS_SET DZVP-MOLOPT-SR-GTH
       POTENTIAL GTH-PBE-q13
       &POTENTIAL
2 1 10
0.4900000000000000E+00 0
3
0.4167772300000000E+00 3  0.1047568975000000E+02 -0.4921768140000000E+01  0.8707055900000000E+00
0.7770178090000000E+01 -0.2248152160000000E+01
0.1784415450000000E+01
0.5696265200000000E+00 2  0.1777985340000000E+01  0.1958597600000000E+00
-0.2317443900000000E+00
0.2381265000000000E+00 1 -0.1624868022000000E+02
       &END POTENTIAL
     &END KIND
     &TOPOLOGY
       NUMBER_OF_ATOMS  208
       MULTIPLE_UNIT_CELL  1 1 1
     &END TOPOLOGY
   &END SUBSYS
 &END FORCE_EVAL
