 # Version information for this restart file 
 # current date 2019-05-25 21:59:46.048
 # current working dir /lustre03/project/6004141/rzk/GaN-carbene/00-Surface/00-Preoptimization/443-capped/CELL_OPT
 # Program compiled at                              Sun Apr  7 00:48:11 EDT 2019
 # Program compiled on                          beluga2.int.ets1.calculquebec.ca
 # Program compiled for                        Beluga-Linux-x86-64-intel-openmpi
 # Source code revision number                                         svn:18619
 &GLOBAL
   PRINT_LEVEL  MEDIUM
   PROJECT_NAME TEST
   RUN_TYPE  CELL_OPT
 &END GLOBAL
 &MOTION
   &CELL_OPT
     MAX_ITER  300
     STEP_START_VAL  11
     EXTERNAL_PRESSURE     1.0000000000000000E+00
     KEEP_ANGLES  T
     KEEP_SYMMETRY  T
     CONSTRAINT  Z
     PRESSURE_TOLERANCE     5.0000000000000000E+02
   &END CELL_OPT
 &END MOTION
 &FORCE_EVAL
   METHOD  QS
   STRESS_TENSOR  ANALYTICAL
   &DFT
     BASIS_SET_FILE_NAME BASIS_MOLOPT
     POTENTIAL_FILE_NAME GTH_POTENTIALS
     SURFACE_DIPOLE_CORRECTION  T
     SURF_DIP_DIR  Z
     &SCF
       MAX_SCF  100
       EPS_SCF     5.0000000000000004E-06
       &OT  T
         PRECONDITIONER  FULL_ALL
       &END OT
       &OUTER_SCF  T
         OPTIMIZER  NONE
         EPS_SCF     5.0000000000000004E-06
         MAX_SCF  4
       &END OUTER_SCF
       &PRINT
         &RESTART  OFF
           BACKUP_COPIES  1
           &EACH
             JUST_ENERGY  0
             QS_SCF  0
             MD  20
           &END EACH
         &END RESTART
       &END PRINT
     &END SCF
     &QS
       EPS_DEFAULT     1.0000000000000000E-14
       METHOD  GPW
     &END QS
     &MGRID
       NGRIDS  5
       CUTOFF     1.2000000000000000E+03
     &END MGRID
     &XC
       DENSITY_CUTOFF     1.0000000000000000E-10
       GRADIENT_CUTOFF     1.0000000000000000E-10
       TAU_CUTOFF     1.0000000000000000E-10
       &XC_FUNCTIONAL  NO_SHORTCUT
         &PBE  T
         &END PBE
       &END XC_FUNCTIONAL
       &VDW_POTENTIAL
         POTENTIAL_TYPE  PAIR_POTENTIAL
         &PAIR_POTENTIAL
           R_CUTOFF     1.0000000000000004E+01
           TYPE  DFTD3
           PARAMETER_FILE_NAME dftd3.dat
           REFERENCE_FUNCTIONAL PBE
           EPS_CN     9.9999999999999995E-07
           CALCULATE_C9_TERM  T
           REFERENCE_C9_TERM  T
           LONG_RANGE_CORRECTION  F
           VERBOSE_OUTPUT  F
         &END PAIR_POTENTIAL
       &END VDW_POTENTIAL
     &END XC
   &END DFT
   &SUBSYS
     &CELL
       A     1.2886860196575283E+01    0.0000000000000000E+00    0.0000000000000000E+00
       B    -6.4442686277101799E+00    1.1161800680816224E+01    0.0000000000000000E+00
       C     0.0000000000000000E+00    0.0000000000000000E+00    2.9000000000000000E+01
       MULTIPLE_UNIT_CELL  1 1 1
       &CELL_REF
         A     1.2982353780853531E+01    0.0000000000000000E+00    0.0000000000000000E+00
         B    -6.4911768904267628E+00    1.1243048175136114E+01    0.0000000000000000E+00
         C     0.0000000000000000E+00    0.0000000000000000E+00    2.9000000000000000E+01
         MULTIPLE_UNIT_CELL  1 1 1
       &END CELL_REF
     &END CELL
     &COORD
Ga    8.8722448697625830E-04   -4.1299111460973173E-04   -1.5572161923173358E-01
N    3.5219388042267822E-04    1.8604901439982409E+00    6.2717324424850218E-01
Ga    9.3824377039548781E-04    1.8601543737779447E+00    2.5632248003193316E+00
N    1.6263391164407626E-04   -5.8320834074296899E-04    3.2446229602374173E+00
Ga    8.4827670611845442E-04   -8.0291462468659505E-04    5.2046105794580964E+00
N    9.6874731607984139E-04    1.8595676166330488E+00    5.8547662747036089E+00
Ga    1.6783796725868781E-03    1.8580417448148909E+00    7.8211771878356293E+00
N    6.2217203301891720E-03   -1.2488442462334107E-03    8.4618646953189280E+00
Ga    5.9729584269388404E-04   -8.8879316008171592E-04    1.0449870226416600E+01
N   -6.0149623094503763E-03    1.8622296506664571E+00    1.1031876579578920E+01
Ga   -3.6594072213841453E-03    1.8591964091350448E+00    1.3105239146710037E+01
N   -6.8814310090818643E-04   -3.6417510069238147E-03    1.3456490415271920E+01
Ga   -1.6100304728061903E+00    2.7899184881250059E+00   -1.5571967476981305E-01
N   -1.6105802927313242E+00    4.6511691931372372E+00    6.2579799560405824E-01
Ga   -1.6097949902581734E+00    4.6505931015533655E+00    2.5615244002189055E+00
N   -1.6100566537953931E+00    2.7909507774619939E+00    3.2441445166146865E+00
Ga   -1.6090870470697400E+00    2.7906113519706177E+00    5.2033658125261333E+00
N   -1.6088718305058145E+00    4.6503954866116795E+00    5.8578462882890330E+00
Ga   -1.6083025886728324E+00    4.6506867521514748E+00    7.8266019481001612E+00
N   -1.6077478045575697E+00    2.7882912596724245E+00    8.4628388495269000E+00
Ga   -1.6143422637477698E+00    2.7966155705946942E+00    1.0449667248607929E+01
N   -1.6140457328724600E+00    4.6520920095292979E+00    1.1038033507426258E+01
Ga   -1.6034869122212208E+00    4.6433936713758666E+00    1.3121513639706000E+01
N   -1.6066290021663214E+00    2.7872984273839361E+00    1.3508259458350432E+01
Ga   -3.2211586806613690E+00    5.5807009556364511E+00   -1.5677138460254675E-01
N   -3.2220027593718923E+00    7.4412699508926421E+00    6.2595838869536591E-01
Ga   -3.2209385210712305E+00    7.4406884904524739E+00    2.5618457916335706E+00
N   -3.2202092287234692E+00    5.5808079920560196E+00    3.2442578172268144E+00
Ga   -3.2208634448250844E+00    5.5811137544272418E+00    5.2047033393032835E+00
N   -3.2213526777907648E+00    7.4410138024389054E+00    5.8579829921398563E+00
Ga   -3.2196869734348090E+00    7.4380079743784613E+00    7.8271442078494307E+00
N   -3.2176230608343568E+00    5.5770303312920264E+00    8.4640627797798906E+00
Ga   -3.2257272135210724E+00    5.5796365477835668E+00    1.0453973666235001E+01
N   -3.2260713713532074E+00    7.4445122960356258E+00    1.1037348350862064E+01
Ga   -3.2272238939904119E+00    7.4418703043977192E+00    1.3109465045626918E+01
N   -3.2224080974969493E+00    5.5785081659514599E+00    1.3436203620452645E+01
Ga   -4.8323247080550598E+00    8.3711369820536454E+00   -1.5641466142439281E-01
N   -4.8331490766577385E+00    1.0231562624900988E+01    6.2719801497926853E-01
Ga   -4.8323133384301196E+00    1.0231030115849974E+01    2.5634069356706228E+00
N   -4.8318839292753841E+00    8.3704868563220352E+00    3.2445412934609292E+00
Ga   -4.8319251718264402E+00    8.3708270783366547E+00    5.2044959659688450E+00
N   -4.8321501190284248E+00    1.0231374700490102E+01    5.8546491538395848E+00
Ga   -4.8292625732931969E+00    1.0229625908585412E+01    7.8215267666207442E+00
N   -4.8307674433605818E+00    8.3715184743176323E+00    8.4666285879994785E+00
Ga   -4.8343883475208322E+00    8.3763334036921560E+00    1.0456266085378411E+01
N   -4.8324448526622144E+00    1.0238757484551531E+01    1.1040876807600153E+01
Ga   -4.8269413488463826E+00    1.0227459342565538E+01    1.3124098245594379E+01
N   -4.8324402642903905E+00    8.3704280597891660E+00    1.3488655213869505E+01
Ga    3.2225195621265694E+00   -3.3305455012234823E-04   -1.5502884241429341E-01
N    3.2220852211599413E+00    1.8606585003416989E+00    6.2666243558698664E-01
Ga    3.2228977394303087E+00    1.8599561866430803E+00    2.5625743356403223E+00
N    3.2226371359285819E+00    6.7821488376886959E-05    3.2445233324860077E+00
Ga    3.2235163566821976E+00   -2.9970457591794916E-04    5.2040814782491758E+00
N    3.2227275111684373E+00    1.8601267381411064E+00    5.8579349741113003E+00
Ga    3.2265537609917971E+00    1.8589333316359475E+00    7.8262172106986956E+00
N    3.2258119700251013E+00   -1.9648590411788518E-03    8.4637439020103180E+00
Ga    3.2178521678230960E+00    2.8202940963355655E-03    1.0449485050019812E+01
N    3.2154495133407450E+00    1.8586496836922379E+00    1.1039421529031518E+01
Ga    3.2258967793105819E+00    1.8547901421371713E+00    1.3118873650252310E+01
N    3.2268963725956441E+00   -2.1230624275379653E-03    1.3506471456448081E+01
Ga    1.6115813959236158E+00    2.7901069237984277E+00   -1.5605451987673946E-01
N    1.6107716153201679E+00    4.6510189717318617E+00    6.2625194039250476E-01
Ga    1.6117042402132702E+00    4.6503940793853475E+00    2.5617103461666559E+00
N    1.6120100497382444E+00    2.7907212557768939E+00    3.2446367896662882E+00
Ga    1.6119420459549094E+00    2.7902157422549871E+00    5.2047473643017232E+00
N    1.6109432444392104E+00    4.6506899501734829E+00    5.8583629981336172E+00
Ga    1.6101244290689045E+00    4.6488560128859344E+00    7.8266773842358246E+00
N    1.6130634942555340E+00    2.7867192408081518E+00    8.4608384705762898E+00
Ga    1.6101290473427108E+00    2.7896308820647868E+00    1.0448486228194032E+01
N    1.6112205859674913E+00    4.6508955829119349E+00    1.1032625259517140E+01
Ga    1.6100138287276919E+00    4.6483619385259054E+00    1.3106647160724512E+01
N    1.6097248568067810E+00    2.7897729667153879E+00    1.3452692708955091E+01
Ga    7.6363791368576220E-04    5.5806131978905107E+00   -1.5752938720534509E-01
N   -1.0301177021100451E-04    7.4410702371348281E+00    6.2646632029432336E-01
Ga    5.8888483546828952E-04    7.4406267800935444E+00    2.5622602667886838E+00
N    9.0298461594809126E-04    5.5803096983026750E+00    3.2444702661240989E+00
Ga    4.9539326783684537E-04    5.5803602543486948E+00    5.2038310318870060E+00
N    1.4760712688801035E-03    7.4404396438719536E+00    5.8548334717745467E+00
Ga    1.3309846268582544E-03    7.4385141351880781E+00    7.8215971810260543E+00
N    2.8231157624457664E-03    5.5818111692726822E+00    8.4707793033805210E+00
Ga   -9.1425367404813552E-04    5.5856966148223517E+00    1.0463576831809977E+01
N   -1.9521786138143317E-04    7.4490640318164143E+00    1.1039962663899038E+01
Ga    7.8747725130208883E-03    7.4412723461795709E+00    1.3126019786116585E+01
N    3.8648722342173986E-03    5.5803331791089548E+00    1.3473479136886839E+01
Ga   -1.6104223481583237E+00    8.3710471424341577E+00   -1.5594251400303263E-01
N   -1.6110816726680250E+00    1.0231784535292238E+01    6.2686986436342029E-01
Ga   -1.6104066310576586E+00    1.0231467509763156E+01    2.5630773815054972E+00
N   -1.6104283218681177E+00    8.3706861334989533E+00    3.2439552872395523E+00
Ga   -1.6111157876662243E+00    8.3710367604430900E+00    5.2040004829361122E+00
N   -1.6103800801734902E+00    1.0231155011536007E+01    5.8551714270142980E+00
Ga   -1.6088694113824598E+00    1.0229299969772145E+01    7.8219304250006383E+00
N   -1.6051226901114892E+00    8.3694172267380633E+00    8.4603565314899640E+00
Ga   -1.6129545903049232E+00    8.3711011866870688E+00    1.0447166201021767E+01
N   -1.6153808484977508E+00    1.0231060526342260E+01    1.1033732116259385E+01
Ga   -1.6170991093344229E+00    1.0231050298091759E+01    1.3107237327851438E+01
N   -1.6116984497859161E+00    8.3681085820019483E+00    1.3453032967715341E+01
Ga    6.4445428793302106E+00   -4.2618015738454801E-04   -1.5652687716087682E-01
N    6.4433965504133948E+00    1.8603062128828549E+00    6.2585678530207645E-01
Ga    6.4445251930286904E+00    1.8598892435814498E+00    2.5615051796077459E+00
N    6.4451122297795536E+00    1.7540515038687242E-04    3.2445491446301071E+00
Ga    6.4436717275491660E+00    5.2083049066105217E-04    5.2047780554742475E+00
N    6.4435349964887143E+00    1.8598921745357777E+00    5.8611483027161437E+00
Ga    6.4449220445703332E+00    1.8591940383549876E+00    7.8312119327291567E+00
N    6.4478264216105394E+00   -5.2923893335795197E-03    8.4633168307681341E+00
Ga    6.4422806373619812E+00   -2.4492828941799936E-03    1.0452278507485595E+01
N    6.4403755741349507E+00    1.8583983341327386E+00    1.1040137831873583E+01
Ga    6.4433507674764776E+00    1.8599762079207565E+00    1.3112871605522992E+01
N    6.4456928444658432E+00   -2.1136821090016042E-03    1.3441973265276118E+01
Ga    4.8332079530891559E+00    2.7901108387585727E+00   -1.5700964201570727E-01
N    4.8324080505955278E+00    4.6505432686955910E+00    6.2681713740990075E-01
Ga    4.8333410220194510E+00    4.6502715005453910E+00    2.5630270528506318E+00
N    4.8338456746603873E+00    2.7896779779172394E+00    3.2451020607267793E+00
Ga    4.8335720288347863E+00    2.7895785942145128E+00    5.2050858628365546E+00
N    4.8331002093524695E+00    4.6500511324884295E+00    5.8550249737370423E+00
Ga    4.8370491238148450E+00    4.6473497854025743E+00    7.8215207800670550E+00
N    4.8339330954139079E+00    2.7913352008809960E+00    8.4747961080063376E+00
Ga    4.8295920676985205E+00    2.7958320680384250E+00    1.0467255159619731E+01
N    4.8328960513810317E+00    4.6628244118105231E+00    1.1038786993476728E+01
Ga    4.8368183639445945E+00    4.6543825425756093E+00    1.3120146203122383E+01
N    4.8336017634381392E+00    2.7929408281120947E+00    1.3462689755458362E+01
Ga    3.2221505731317035E+00    5.5806040898394143E+00   -1.5593456641933509E-01
N    3.2218078792468421E+00    7.4414827873954463E+00    6.2682337091764428E-01
Ga    3.2222867420323196E+00    7.4410001023127483E+00    2.5625727994676821E+00
N    3.2217897260849857E+00    5.5806484934918643E+00    3.2446207590232046E+00
Ga    3.2222727188039406E+00    5.5802800177437710E+00    5.2043694576846935E+00
N    3.2226639815037244E+00    7.4412488354317929E+00    5.8549147271800264E+00
Ga    3.2251931233396602E+00    7.4403999148556954E+00    7.8209417676505728E+00
N    3.2265337276128436E+00    5.5793341366279074E+00    8.4545122417840197E+00
Ga    3.2217182555372434E+00    5.5774332781050928E+00    1.0438713915422586E+01
N    3.2106072435845019E+00    7.4368086640340314E+00    1.1027713031340653E+01
Ga    3.2115587511360375E+00    7.4401800301289862E+00    1.3101259631454214E+01
N    3.2202135582470484E+00    5.5802086222288825E+00    1.3469342129839404E+01
Ga    1.6111759739059013E+00    8.3709677941952467E+00   -1.5579546690724574E-01
N    1.6106139797989740E+00    1.0231926078130108E+01    6.2650422543525952E-01
Ga    1.6115643646693900E+00    1.0231294064645823E+01    2.5621934987955317E+00
N    1.6111322505651646E+00    8.3712046319847104E+00    3.2441572470010618E+00
Ga    1.6118353408892530E+00    8.3707881149157792E+00    5.2028387043659388E+00
N    1.6117941666870150E+00    1.0230926954326641E+01    5.8552721764310531E+00
Ga    1.6135155804770827E+00    1.0231705108105970E+01    7.8221230416503618E+00
N    1.6139161958989425E+00    8.3697053615786885E+00    8.4591413600768064E+00
Ga    1.6059329675917191E+00    8.3750562910662136E+00    1.0444729036474206E+01
N    1.6121664607065094E+00    1.0229459532114589E+01    1.1035432313945748E+01
Ga    1.6181936549116493E+00    1.0224872147309028E+01    1.3116909887190843E+01
N    1.6141287064565557E+00    8.3718298218897083E+00    1.3521203387311184E+01
Ga    9.6660894638367854E+00   -5.7655125544124912E-04   -1.5696773463823205E-01
N    9.6653656084066721E+00    1.8601269747567781E+00    6.2679607668569437E-01
Ga    9.6662265511871404E+00    1.8597795344246955E+00    2.5630143894950543E+00
N    9.6669114478634590E+00   -1.0259815123867203E-03    3.2447080792444130E+00
Ga    9.6671947857272187E+00   -7.2254335942515346E-04    5.2041524028798243E+00
N    9.6669725159923061E+00    1.8596222127929405E+00    5.8532142400777092E+00
Ga    9.6684508122909314E+00    1.8604709884268873E+00    7.8193985086904885E+00
N    9.6667751044992176E+00    1.6602378741570238E-03    8.4650894069627327E+00
Ga    9.6616653779146944E+00    4.4998598979318289E-03    1.0455165192244150E+01
N    9.6630310221946285E+00    1.8670983762714817E+00    1.1039808168731183E+01
Ga    9.6698628886866569E+00    1.8582105155042392E+00    1.3122094821188087E+01
N    9.6662480272005507E+00    6.9611321422662618E-04    1.3490124581059225E+01
Ga    8.0550306739808022E+00    2.7899992904660658E+00   -1.5579843244566924E-01
N    8.0544373463049475E+00    4.6509176569561586E+00    6.2672205941980774E-01
Ga    8.0551202381842586E+00    4.6505486219553767E+00    2.5632669983176766E+00
N    8.0546067309053200E+00    2.7896933472330994E+00    3.2443517582509784E+00
Ga    8.0542099485344565E+00    2.7904348211648125E+00    5.2047365754166810E+00
N    8.0553226516923733E+00    4.6507864616119496E+00    5.8545310036235829E+00
Ga    8.0581606389157781E+00    4.6496446321999843E+00    7.8213332490777727E+00
N    8.0603276474402783E+00    2.7890373101761576E+00    8.4604488926580110E+00
Ga    8.0500356366079959E+00    2.7918959946318749E+00    1.0446660529932613E+01
N    8.0452658746602346E+00    4.6508912350000271E+00    1.1033586872991654E+01
Ga    8.0458180638472090E+00    4.6506102790888502E+00    1.3104564004125395E+01
N    8.0552164391580252E+00    2.7900713578973662E+00    1.3459407486739002E+01
Ga    6.4438404750668203E+00    5.5806975573700219E+00   -1.5535148884062397E-01
N    6.4431046407938091E+00    7.4415486782300730E+00    6.2644394059088304E-01
Ga    6.4441479546753575E+00    7.4409106557462001E+00    2.5623599994769930E+00
N    6.4437427777512273E+00    5.5811139896985642E+00    3.2445016809364455E+00
Ga    6.4446130073559269E+00    5.5805466023879058E+00    5.2041490952174128E+00
N    6.4431139272835871E+00    7.4415523814439331E+00    5.8566324497776971E+00
Ga    6.4465532905478868E+00    7.4410195662976824E+00    7.8243522822169158E+00
N    6.4464902441562604E+00    5.5798842401628761E+00    8.4597640588258809E+00
Ga    6.4400679699845229E+00    5.5857611723364728E+00    1.0443731619614175E+01
N    6.4421466047248375E+00    7.4418499748341667E+00    1.1039634904325654E+01
Ga    6.4516979252691637E+00    7.4325095780788706E+00    1.3119919004958980E+01
N    6.4473886227507871E+00    5.5782579584296945E+00    1.3518526405350599E+01
Ga    4.8328347778353820E+00    8.3710366722320195E+00   -1.5715684626842083E-01
N    4.8320496929729053E+00    1.0231614668025788E+01    6.2596641230316497E-01
Ga    4.8330221335623706E+00    1.0231150430943002E+01    2.5611500189684846E+00
N    4.8330988910075980E+00    8.3717017171699215E+00    3.2448094325483003E+00
Ga    4.8334762526136243E+00    8.3717105677134533E+00    5.2044744716254714E+00
N    4.8327768903352535E+00    1.0230720697765566E+01    5.8614360135465917E+00
Ga    4.8344069202772149E+00    1.0229588564142647E+01    7.8312266592099204E+00
N    4.8339685367593024E+00    8.3670428973899877E+00    8.4665432396718963E+00
Ga    4.8287495278799737E+00    8.3695420083656540E+00    1.0458318615765009E+01
N    4.8277253222428058E+00    1.0236176893668167E+01    1.1031912286944221E+01
Ga    4.8276119804660631E+00    1.0233263101070209E+01    1.3104994271497890E+01
N    4.8313623323032786E+00    8.3688755874355429E+00    1.3433321069097209E+01
H    4.8320795650819122E+00    8.3712743484614140E+00   -1.7080543670343453E+00
H    1.6109069482415632E+00    8.3713232983574670E+00   -1.7067722707404549E+00
H   -1.6108663492881328E+00    8.3716234414344139E+00   -1.7069719562007224E+00
H   -4.8331609606427239E+00    8.3717126541599605E+00   -1.7074443709166072E+00
H    6.4432481289370731E+00    5.5809084302870762E+00   -1.7065379574963702E+00
H    3.2217852314313706E+00    5.5811845785337670E+00   -1.7069107682247626E+00
H    2.9905295167458279E-04    5.5812153760713707E+00   -1.7084269512419268E+00
H   -3.2219783023571846E+00    5.5810829661828469E+00   -1.7078337883835217E+00
H    8.0546094168716760E+00    2.7902317422534906E+00   -1.7068755706001897E+00
H    4.8324880606774654E+00    2.7903370405914312E+00   -1.7079975791400037E+00
H    1.6108325403191823E+00    2.7901675726676207E+00   -1.7070060203041180E+00
H   -1.6105218440983711E+00    2.7896420251273835E+00   -1.7067957129483204E+00
H    4.6671965482641292E-04   -2.5197655473257363E-04   -1.7067155378415872E+00
H    3.2220623536955229E+00   -3.7732037083543712E-04   -1.7061580418784883E+00
H    6.4437369034574177E+00   -4.7439638239028570E-04   -1.7074732615538455E+00
H    9.6653762338046576E+00   -3.7467595888911236E-04   -1.7078825800562645E+00
     &END COORD
     &KIND H
       BASIS_SET DZVP-MOLOPT-SR-GTH-q1
       POTENTIAL GTH-PBE-q1
       &POTENTIAL
1
0.2000000000000000E+00 2 -0.4178900440000000E+01  0.7244633100000000E+00
0
       &END POTENTIAL
     &END KIND
     &KIND N
       BASIS_SET DZVP-MOLOPT-SR-GTH
       POTENTIAL GTH-PBE-q5
       &POTENTIAL
2 3
0.2837905100000000E+00 2 -0.1241522559000000E+02  0.1868095920000000E+01
2
0.2554050000000000E+00 1  0.1363026257000000E+02
0.2454945300000000E+00 0
       &END POTENTIAL
     &END KIND
     &KIND Ga
       BASIS_SET DZVP-MOLOPT-SR-GTH
       POTENTIAL GTH-PBE-q13
       &POTENTIAL
2 1 10
0.4900000000000000E+00 0
3
0.4167772300000000E+00 3  0.1047568975000000E+02 -0.4921768140000000E+01  0.8707055900000000E+00
0.7770178090000000E+01 -0.2248152160000000E+01
0.1784415450000000E+01
0.5696265200000000E+00 2  0.1777985340000000E+01  0.1958597600000000E+00
-0.2317443900000000E+00
0.2381265000000000E+00 1 -0.1624868022000000E+02
       &END POTENTIAL
     &END KIND
     &TOPOLOGY
       NUMBER_OF_ATOMS  208
       MULTIPLE_UNIT_CELL  1 1 1
     &END TOPOLOGY
   &END SUBSYS
 &END FORCE_EVAL
