 # Version information for this restart file 
 # current date 2019-05-25 21:33:04.443
 # current working dir /lustre03/project/6004141/rzk/GaN-carbene/00-Surface/00-Preoptimization/443-capped/CELL_OPT
 # Program compiled at                              Sun Apr  7 00:48:11 EDT 2019
 # Program compiled on                          beluga2.int.ets1.calculquebec.ca
 # Program compiled for                        Beluga-Linux-x86-64-intel-openmpi
 # Source code revision number                                         svn:18619
 &GLOBAL
   PRINT_LEVEL  MEDIUM
   PROJECT_NAME TEST
   RUN_TYPE  CELL_OPT
 &END GLOBAL
 &MOTION
   &CELL_OPT
     MAX_ITER  300
     STEP_START_VAL  5
     EXTERNAL_PRESSURE     1.0000000000000000E+00
     KEEP_ANGLES  T
     KEEP_SYMMETRY  T
     CONSTRAINT  Z
     PRESSURE_TOLERANCE     5.0000000000000000E+02
   &END CELL_OPT
 &END MOTION
 &FORCE_EVAL
   METHOD  QS
   STRESS_TENSOR  ANALYTICAL
   &DFT
     BASIS_SET_FILE_NAME BASIS_MOLOPT
     POTENTIAL_FILE_NAME GTH_POTENTIALS
     SURFACE_DIPOLE_CORRECTION  T
     SURF_DIP_DIR  Z
     &SCF
       MAX_SCF  100
       EPS_SCF     5.0000000000000004E-06
       &OT  T
         PRECONDITIONER  FULL_ALL
       &END OT
       &OUTER_SCF  T
         OPTIMIZER  NONE
         EPS_SCF     5.0000000000000004E-06
         MAX_SCF  4
       &END OUTER_SCF
       &PRINT
         &RESTART  OFF
           BACKUP_COPIES  1
           &EACH
             JUST_ENERGY  0
             QS_SCF  0
             MD  20
           &END EACH
         &END RESTART
       &END PRINT
     &END SCF
     &QS
       EPS_DEFAULT     1.0000000000000000E-14
       METHOD  GPW
     &END QS
     &MGRID
       NGRIDS  5
       CUTOFF     1.2000000000000000E+03
     &END MGRID
     &XC
       DENSITY_CUTOFF     1.0000000000000000E-10
       GRADIENT_CUTOFF     1.0000000000000000E-10
       TAU_CUTOFF     1.0000000000000000E-10
       &XC_FUNCTIONAL  NO_SHORTCUT
         &PBE  T
         &END PBE
       &END XC_FUNCTIONAL
       &VDW_POTENTIAL
         POTENTIAL_TYPE  PAIR_POTENTIAL
         &PAIR_POTENTIAL
           R_CUTOFF     1.0000000000000004E+01
           TYPE  DFTD3
           PARAMETER_FILE_NAME dftd3.dat
           REFERENCE_FUNCTIONAL PBE
           EPS_CN     9.9999999999999995E-07
           CALCULATE_C9_TERM  T
           REFERENCE_C9_TERM  T
           LONG_RANGE_CORRECTION  F
           VERBOSE_OUTPUT  F
         &END PAIR_POTENTIAL
       &END VDW_POTENTIAL
     &END XC
   &END DFT
   &SUBSYS
     &CELL
       A     1.2892018338612475E+01    0.0000000000000000E+00    0.0000000000000000E+00
       B    -6.4460398444897802E+00    1.1164868518269692E+01    0.0000000000000000E+00
       C     0.0000000000000000E+00    0.0000000000000000E+00    2.9000000000000000E+01
       MULTIPLE_UNIT_CELL  1 1 1
       &CELL_REF
         A     1.2982353780853531E+01    0.0000000000000000E+00    0.0000000000000000E+00
         B    -6.4911768904267628E+00    1.1243048175136114E+01    0.0000000000000000E+00
         C     0.0000000000000000E+00    0.0000000000000000E+00    2.9000000000000000E+01
         MULTIPLE_UNIT_CELL  1 1 1
       &END CELL_REF
     &END CELL
     &COORD
Ga    5.0696425914620584E-04   -1.8056849622858086E-04   -1.4908694189455429E-01
N    5.4015144251552086E-04    1.8606278844745920E+00    6.3242083173531560E-01
Ga    9.3942058172980002E-04    1.8605577202891062E+00    2.5646954196418847E+00
N    4.1235175198041564E-04   -5.1108380161110016E-04    3.2473285823562228E+00
Ga    1.9888919880816300E-03    6.2613480306035908E-04    5.2050830162833410E+00
N    9.2667472210254166E-04    1.8605859206120370E+00    5.8582374827571275E+00
Ga    5.8416731145163143E-04    1.8612232473539907E+00    7.8245833334014971E+00
N    4.6710222490985260E-03    3.0162308271435733E-04    8.4654177506994195E+00
Ga    1.8267323707060106E-03   -9.8928211219090150E-04    1.0452695770902100E+01
N   -2.0696181443633234E-03    1.8616839204461091E+00    1.1030564766674742E+01
Ga   -1.2932969118935546E-03    1.8614549028138354E+00    1.3102993620258518E+01
N   -4.2410641799204570E-04   -1.1702135632547547E-03    1.3449018025545532E+01
Ga   -1.6107467141616842E+00    2.7913149247631117E+00   -1.4989307304961172E-01
N   -1.6108844139774123E+00    4.6519042308445080E+00    6.3134584057429532E-01
Ga   -1.6106402107764854E+00    4.6515814615684583E+00    2.5629093682408839E+00
N   -1.6107994280259832E+00    2.7914451230425792E+00    3.2467459245793879E+00
Ga   -1.6101638720183338E+00    2.7899389673024895E+00    5.2045516902018898E+00
N   -1.6106493782139375E+00    4.6522769730689957E+00    5.8575223408016797E+00
Ga   -1.6107106754168772E+00    4.6510807953351216E+00    7.8261669233628224E+00
N   -1.6102550558791686E+00    2.7889044526382589E+00    8.4646533326808253E+00
Ga   -1.6126978403398433E+00    2.7922873241178912E+00    1.0450694474190561E+01
N   -1.6147141927457929E+00    4.6532124155786585E+00    1.1030210767807768E+01
Ga   -1.6092217473866934E+00    4.6516862426872025E+00    1.3107597804260815E+01
N   -1.6090777493869837E+00    2.7898853161973141E+00    1.3462720122816346E+01
Ga   -3.2221086148843332E+00    5.5826242410035114E+00   -1.5067553003921683E-01
N   -3.2224042438420626E+00    7.4430972883247648E+00    6.3166556748881320E-01
Ga   -3.2219431725328147E+00    7.4429835935781874E+00    2.5633534525561457E+00
N   -3.2216250103402491E+00    5.5821672293547460E+00    3.2461119430613663E+00
Ga   -3.2228346698299015E+00    5.5823190615952889E+00    5.2037096348516290E+00
N   -3.2219231327095192E+00    7.4430801356411997E+00    5.8579481607253783E+00
Ga   -3.2229962529912899E+00    7.4442175611999977E+00    7.8258459956367616E+00
N   -3.2217352793711935E+00    5.5810323680330347E+00    8.4634261875389516E+00
Ga   -3.2218671345700796E+00    5.5833243533847128E+00    1.0452049325763236E+01
N   -3.2228104789526855E+00    7.4459223387727027E+00    1.1030865202161030E+01
Ga   -3.2252016158059407E+00    7.4434709457957196E+00    1.3102756562399920E+01
N   -3.2235373276929975E+00    5.5827741695229793E+00    1.3442828308421504E+01
Ga   -4.8339116341890529E+00    8.3736628257403574E+00   -1.4984811210465837E-01
N   -4.8339676925264010E+00    1.0234214225664090E+01    6.3258390796418040E-01
Ga   -4.8336925372633086E+00    1.0234143560345975E+01    2.5646995758936089E+00
N   -4.8335338797414513E+00    8.3728412229133902E+00    3.2469882620059698E+00
Ga   -4.8339319758345631E+00    8.3739236109702286E+00    5.2049081132065780E+00
N   -4.8342258988582856E+00    1.0234182108302832E+01    5.8574487937060260E+00
Ga   -4.8333775562079646E+00    1.0233683160947830E+01    7.8244523515690796E+00
N   -4.8332945296077403E+00    8.3734795600205612E+00    8.4651729848576558E+00
Ga   -4.8344051929393750E+00    8.3723669046729388E+00    1.0453276626209350E+01
N   -4.8352224017281200E+00    1.0235873568680962E+01    1.1030199679102457E+01
Ga   -4.8329523906074510E+00    1.0231849558182185E+01    1.3109118309684376E+01
N   -4.8334357542528341E+00    8.3721286381354467E+00    1.3458933628013982E+01
Ga    3.2236971834398318E+00    9.5292020495158883E-05   -1.4899665948039956E-01
N    3.2236167441468835E+00    1.8606355481539676E+00    6.3245754003272237E-01
Ga    3.2238528132538189E+00    1.8603583772549506E+00    2.5641791498799105E+00
N    3.2240011658743093E+00   -1.2570691752760601E-04    3.2471814317464749E+00
Ga    3.2239336652497461E+00   -9.0457855411927722E-04    5.2051971343624963E+00
N    3.2235418027860137E+00    1.8608045235993091E+00    5.8583634483383253E+00
Ga    3.2228332022201012E+00    1.8586218748027705E+00    7.8268794420111298E+00
N    3.2246600070709079E+00   -2.2659901424179011E-03    8.4658503654335373E+00
Ga    3.2224549536648710E+00   -4.1240374002773922E-04    1.0452414184209196E+01
N    3.2175324481214327E+00    1.8576147561810614E+00    1.1030759548188984E+01
Ga    3.2249207268623845E+00    1.8600640923322480E+00    1.3108869235474689E+01
N    3.2266517307958469E+00   -1.7807591344933694E-03    1.3459738265791756E+01
Ga    1.6123480521649634E+00    2.7912802678753872E+00   -1.4929516347489577E-01
N    1.6119631999663868E+00    4.6519070762450907E+00    6.3215440525465616E-01
Ga    1.6126911873276366E+00    4.6515835578986930E+00    2.5637323863925352E+00
N    1.6128416890139177E+00    2.7912029173366539E+00    3.2472070630930969E+00
Ga    1.6118896596743399E+00    2.7907889334993770E+00    5.2050720739674814E+00
N    1.6124103550931193E+00    4.6521861404246367E+00    5.8589504212297570E+00
Ga    1.6127029074750319E+00    4.6511466591961481E+00    7.8273003256794196E+00
N    1.6129103390290642E+00    2.7894399883869228E+00    8.4644919944827528E+00
Ga    1.6140706534641966E+00    2.7922913996699630E+00    1.0452075685676832E+01
N    1.6142333579137740E+00    4.6520271845714811E+00    1.1029631275090491E+01
Ga    1.6099058758563682E+00    4.6527849571019662E+00    1.3103532582605601E+01
N    1.6108778608972900E+00    2.7927315575746605E+00    1.3445010169078312E+01
Ga    7.4503387666508827E-04    5.5824590729435482E+00   -1.5064990932953648E-01
N    6.0187694738407537E-04    7.4430605452498089E+00    6.3182365783514949E-01
Ga    9.4812584956632112E-04    7.4430960455904254E+00    2.5635996107787560E+00
N    8.8228416077986002E-04    5.5818872238721822E+00    3.2465116247976975E+00
Ga    1.3324605026128220E-03    5.5823507120715430E+00    5.2040994196118033E+00
N    9.6268115486034629E-04    7.4430760821034463E+00    5.8569063675310051E+00
Ga    9.5182813680441095E-04    7.4429215315532273E+00    7.8240562115904853E+00
N    1.9512687360273440E-03    5.5829808553035702E+00    8.4658475758979250E+00
Ga    2.8689642089625451E-03    5.5821413444511450E+00    1.0457685504560260E+01
N   -6.7987459870310003E-04    7.4483117127711962E+00    1.1026679646319343E+01
Ga    1.8474465213099143E-03    7.4414479288421687E+00    1.3108618358807108E+01
N    1.5844644019927640E-03    5.5811110268144786E+00    1.3453088159943150E+01
Ga   -1.6107883915472399E+00    8.3737364904601570E+00   -1.5001996823761179E-01
N   -1.6107803010372368E+00    1.0234316367862219E+01    6.3215960736242538E-01
Ga   -1.6105699747276374E+00    1.0234217272768564E+01    2.5642376921754506E+00
N   -1.6105545196476034E+00    8.3731843700125594E+00    3.2464848513615499E+00
Ga   -1.6103366438291045E+00    8.3738377322612596E+00    5.2040493630490223E+00
N   -1.6101699108082619E+00    1.0234208010744002E+01    5.8578158436240528E+00
Ga   -1.6115267746148561E+00    1.0234893527745273E+01    7.8244338196387337E+00
N   -1.6079846782591565E+00    8.3732334295423989E+00    8.4624457771413546E+00
Ga   -1.6094445973193123E+00    8.3733432205663210E+00    1.0449006854927704E+01
N   -1.6111970099402104E+00    1.0234142467556140E+01    1.1030433210002153E+01
Ga   -1.6118978390087721E+00    1.0233184481920160E+01    1.3104576835191207E+01
N   -1.6123268202213545E+00    8.3712210100883535E+00    1.3449658528938849E+01
Ga    6.4468405180544650E+00    1.0596546086782275E-04   -1.5006445264003909E-01
N    6.4465839124225957E+00    1.8605925208617133E+00    6.3189577158660404E-01
Ga    6.4471359745229249E+00    1.8604202590005718E+00    2.5633310798255704E+00
N    6.4474033058174438E+00    2.2177956271208779E-05    3.2467096961534305E+00
Ga    6.4466519348196654E+00   -6.4646023090013079E-04    5.2042561489341903E+00
N    6.4468198655850930E+00    1.8605869762225093E+00    5.8591603913044734E+00
Ga    6.4470892648712868E+00    1.8607654699006768E+00    7.8281659953562510E+00
N    6.4486770663215172E+00   -2.8789375801219637E-03    8.4641340268107648E+00
Ga    6.4489103224428836E+00    8.9203410271849353E-04    1.0452811741872827E+01
N    6.4464534985283848E+00    1.8604477691830086E+00    1.1031817736637924E+01
Ga    6.4459041980544063E+00    1.8602888938090709E+00    1.3104210569109485E+01
N    6.4463619340650320E+00   -6.1280254491517469E-05    1.3442994043429229E+01
Ga    4.8351667665426419E+00    2.7910863632213703E+00   -1.4996013042893008E-01
N    4.8350211435586266E+00    4.6517510857287316E+00    6.3219344808496747E-01
Ga    4.8354296389514841E+00    4.6518131995350522E+00    2.5640700587305290E+00
N    4.8357628225460827E+00    2.7906300938733342E+00    3.2470136844758870E+00
Ga    4.8348337270773039E+00    2.7908957180768943E+00    5.2048610766939118E+00
N    4.8346135873971257E+00    4.6515482562240864E+00    5.8576579448901382E+00
Ga    4.8358794828249021E+00    4.6513588964625816E+00    7.8251443860131236E+00
N    4.8351525165028892E+00    2.7913933886201003E+00    8.4673907342116141E+00
Ga    4.8338873334086676E+00    2.7909834591636229E+00    1.0459658432048926E+01
N    4.8344574486547218E+00    4.6582087022409944E+00    1.1027038393272257E+01
Ga    4.8350931297055375E+00    4.6502804638872997E+00    1.3108466104031057E+01
N    4.8360704663619227E+00    2.7900475306764130E+00    1.3449176065721998E+01
Ga    3.2235991121474750E+00    5.5825571937266183E+00   -1.4946188794461529E-01
N    3.2235774733420555E+00    7.4431881877713568E+00    6.3233617934963415E-01
Ga    3.2239187352671963E+00    7.4429770154532076E+00    2.5641084959519356E+00
N    3.2238578379533074E+00    5.5821985484589138E+00    3.2469762446566852E+00
Ga    3.2242724929266102E+00    5.5823611224482006E+00    5.2045620570355640E+00
N    3.2241602245618211E+00    7.4431932703435812E+00    5.8586476476316900E+00
Ga    3.2231706015465833E+00    7.4427769450867132E+00    7.8253957769350126E+00
N    3.2265020689259560E+00    5.5821139645099063E+00    8.4627612207257119E+00
Ga    3.2243222992101099E+00    5.5812647991312003E+00    1.0449737654607699E+01
N    3.2188688935173881E+00    7.4400557968694692E+00    1.1026826655023640E+01
Ga    3.2225744895550625E+00    7.4440420224667534E+00    1.3103863167647754E+01
N    3.2224288759580570E+00    5.5815856155062775E+00    1.3452215556510826E+01
Ga    1.6122693105948211E+00    8.3738113209802805E+00   -1.4977090477272223E-01
N    1.6120903044177401E+00    1.0234344037231169E+01    6.3208287620804593E-01
Ga    1.6125122041804270E+00    1.0234054747077652E+01    2.5637216752298366E+00
N    1.6124514836444792E+00    8.3734219324299168E+00    3.2469323029749741E+00
Ga    1.6129196541559041E+00    8.3732593928827033E+00    5.2043943521027067E+00
N    1.6122505219022074E+00    1.0234320818866557E+01    5.8574450669671529E+00
Ga    1.6128620894718577E+00    1.0233837175468981E+01    7.8248204427736656E+00
N    1.6133725643108872E+00    8.3728453956391728E+00    8.4635184449309140E+00
Ga    1.6105451316594082E+00    8.3733675389922020E+00    1.0450283737090087E+01
N    1.6111645804401789E+00    1.0232343585496501E+01    1.1026666945183846E+01
Ga    1.6145302642232213E+00    1.0234827224628415E+01    1.3107219338014081E+01
N    1.6148482872479455E+00    8.3732534103704221E+00    1.3469128956903910E+01
Ga    9.6699061797821546E+00   -2.0762169257729479E-04   -1.5010807049713965E-01
N    9.6696010171463591E+00    1.8605379908704434E+00    6.3186644978172912E-01
Ga    9.6699468680667984E+00    1.8605816328321403E+00    2.5638989793078895E+00
N    9.6703272606501631E+00   -6.5117037872806525E-04    3.2469838315373001E+00
Ga    9.6695809220135285E+00    2.3473445508890041E-04    5.2045165841157779E+00
N    9.6695707936019577E+00    1.8602986244148292E+00    5.8566169810461775E+00
Ga    9.6703153077636781E+00    1.8605942090380514E+00    7.8230825487496478E+00
N    9.6693226347308663E+00    6.1026496759523528E-04    8.4654945716385761E+00
Ga    9.6705094013386379E+00   -2.1915126120915932E-03    1.0454651085559155E+01
N    9.6683314421445257E+00    1.8640441102470586E+00    1.1027664722614084E+01
Ga    9.6700930681439559E+00    1.8589156611105615E+00    1.3106327173683312E+01
N    9.6699111220911007E+00   -1.2056738851702611E-04    1.3458476594087735E+01
Ga    8.0580588737607428E+00    2.7910104870050554E+00   -1.5005372500553010E-01
N    8.0581608279046684E+00    4.6518544588568354E+00    6.3159650542056045E-01
Ga    8.0583553908599637E+00    4.6516420843166388E+00    2.5638287544859657E+00
N    8.0581299100067447E+00    2.7906041944371318E+00    3.2465732268033149E+00
Ga    8.0591797830383491E+00    2.7914679067348240E+00    5.2041691687780558E+00
N    8.0585667559144696E+00    4.6519160911968571E+00    5.8573394471341125E+00
Ga    8.0578978114760620E+00    4.6518162414378121E+00    7.8235499774856772E+00
N    8.0621388356878683E+00    2.7911863699962511E+00    8.4626195670730873E+00
Ga    8.0572707765784486E+00    2.7904708511452978E+00    1.0448694655329897E+01
N    8.0552747435070629E+00    4.6505860233573708E+00    1.1028247249682133E+01
Ga    8.0569855660691037E+00    4.6520417932523994E+00    1.3102140845823147E+01
N    8.0577348962064832E+00    2.7903679311977876E+00    1.3453767158960703E+01
Ga    6.4464953750249316E+00    5.5826648031795578E+00   -1.4964276956892553E-01
N    6.4465090934291176E+00    7.4431271036831106E+00    6.3217429507785861E-01
Ga    6.4469810852113847E+00    7.4427819939737851E+00    2.5638208188192948E+00
N    6.4468006146413321E+00    5.5822698243923536E+00    3.2468464720778805E+00
Ga    6.4470888394636852E+00    5.5814141648658424E+00    5.2046288494708728E+00
N    6.4459049317466475E+00    7.4430439224075826E+00    5.8580444234742624E+00
Ga    6.4484437105575880E+00    7.4411554322150195E+00    7.8261105954937706E+00
N    6.4478665842127985E+00    5.5803245779586108E+00    8.4642228565633939E+00
Ga    6.4449027965325811E+00    5.5810524300940134E+00    1.0450579403858361E+01
N    6.4468911605725570E+00    7.4420426117821119E+00    1.1028474048717547E+01
Ga    6.4482714429338719E+00    7.4427607299690930E+00    1.3107446996482031E+01
N    6.4482639525334644E+00    5.5806905061873966E+00    1.3464986638733025E+01
Ga    4.8351764064020601E+00    8.3739234158448408E+00   -1.4988769978905214E-01
N    4.8349654752665936E+00    1.0234268022136948E+01    6.3243439958851855E-01
Ga    4.8356320197683527E+00    1.0234220635616818E+01    2.5636344494450678E+00
N    4.8356339665495325E+00    8.3737364716550573E+00    3.2470478664629940E+00
Ga    4.8353476043262154E+00    8.3729235594682248E+00    5.2045251033817914E+00
N    4.8352897742473662E+00    1.0233859476240267E+01    5.8601016568418887E+00
Ga    4.8363074282378928E+00    1.0235846062686363E+01    7.8293224259919292E+00
N    4.8364377121102713E+00    8.3707864409619113E+00    8.4659623009400828E+00
Ga    4.8359285139645696E+00    8.3717936687791248E+00    1.0457414840781402E+01
N    4.8331101773757030E+00    1.0236092640630215E+01    1.1032381143697311E+01
Ga    4.8324010715249459E+00    1.0234712493621378E+01    1.3104502630586431E+01
N    4.8347514264852576E+00    8.3738215397671336E+00    1.3440781070225293E+01
H    4.8347604247283922E+00    8.3736675332350092E+00   -1.6991882886383369E+00
H    1.6118609932704320E+00    8.3737984132441792E+00   -1.6993939916677370E+00
H   -1.6109498574266676E+00    8.3738435275705427E+00   -1.6996082557871555E+00
H   -4.8341729879935880E+00    8.3737177955263711E+00   -1.6992745881784939E+00
H    6.4464452708761835E+00    5.5826098601403098E+00   -1.6992623166927325E+00
H    3.2235045411114580E+00    5.5827865746094325E+00   -1.6990012075204679E+00
H    5.2173998680683092E-04    5.5829024950539905E+00   -1.6999741120035146E+00
H   -3.2226236419861145E+00    5.5827539025750195E+00   -1.7001623242947761E+00
H    8.0578875833693377E+00    2.7908305869959551E+00   -1.6996648540520447E+00
H    4.8349439249634196E+00    2.7908832384671385E+00   -1.6992642298621818E+00
H    1.6118968070284032E+00    2.7909998653260399E+00   -1.6988044637411921E+00
H   -1.6112485443560312E+00    2.7907710169197002E+00   -1.6995329573960327E+00
H    2.9710561458243061E-04   -4.9314450804242805E-04   -1.6986053674832828E+00
H    3.2234932782831183E+00   -4.6680668054853458E-04   -1.6986124489507051E+00
H    6.4464388990787258E+00   -4.8031834620203327E-04   -1.6995502756009091E+00
H    9.6691592009834118E+00   -5.2127345863889308E-04   -1.6994741258540036E+00
     &END COORD
     &KIND H
       BASIS_SET DZVP-MOLOPT-SR-GTH-q1
       POTENTIAL GTH-PBE-q1
       &POTENTIAL
1
0.2000000000000000E+00 2 -0.4178900440000000E+01  0.7244633100000000E+00
0
       &END POTENTIAL
     &END KIND
     &KIND N
       BASIS_SET DZVP-MOLOPT-SR-GTH
       POTENTIAL GTH-PBE-q5
       &POTENTIAL
2 3
0.2837905100000000E+00 2 -0.1241522559000000E+02  0.1868095920000000E+01
2
0.2554050000000000E+00 1  0.1363026257000000E+02
0.2454945300000000E+00 0
       &END POTENTIAL
     &END KIND
     &KIND Ga
       BASIS_SET DZVP-MOLOPT-SR-GTH
       POTENTIAL GTH-PBE-q13
       &POTENTIAL
2 1 10
0.4900000000000000E+00 0
3
0.4167772300000000E+00 3  0.1047568975000000E+02 -0.4921768140000000E+01  0.8707055900000000E+00
0.7770178090000000E+01 -0.2248152160000000E+01
0.1784415450000000E+01
0.5696265200000000E+00 2  0.1777985340000000E+01  0.1958597600000000E+00
-0.2317443900000000E+00
0.2381265000000000E+00 1 -0.1624868022000000E+02
       &END POTENTIAL
     &END KIND
     &TOPOLOGY
       NUMBER_OF_ATOMS  208
       MULTIPLE_UNIT_CELL  1 1 1
     &END TOPOLOGY
   &END SUBSYS
 &END FORCE_EVAL
