 # Version information for this restart file 
 # current date 2019-05-25 21:15:42.803
 # current working dir /lustre03/project/6004141/rzk/GaN-carbene/00-Surface/00-Preoptimization/443-capped/CELL_OPT
 # Program compiled at                              Sun Apr  7 00:48:11 EDT 2019
 # Program compiled on                          beluga2.int.ets1.calculquebec.ca
 # Program compiled for                        Beluga-Linux-x86-64-intel-openmpi
 # Source code revision number                                         svn:18619
 &GLOBAL
   PRINT_LEVEL  MEDIUM
   PROJECT_NAME TEST
   RUN_TYPE  CELL_OPT
 &END GLOBAL
 &MOTION
   &CELL_OPT
     MAX_ITER  300
     STEP_START_VAL  1
     EXTERNAL_PRESSURE     1.0000000000000000E+00
     KEEP_ANGLES  T
     KEEP_SYMMETRY  T
     CONSTRAINT  Z
     PRESSURE_TOLERANCE     5.0000000000000000E+02
   &END CELL_OPT
 &END MOTION
 &FORCE_EVAL
   METHOD  QS
   STRESS_TENSOR  ANALYTICAL
   &DFT
     BASIS_SET_FILE_NAME BASIS_MOLOPT
     POTENTIAL_FILE_NAME GTH_POTENTIALS
     SURFACE_DIPOLE_CORRECTION  T
     SURF_DIP_DIR  Z
     &SCF
       MAX_SCF  100
       EPS_SCF     5.0000000000000004E-06
       &OT  T
         PRECONDITIONER  FULL_ALL
       &END OT
       &OUTER_SCF  T
         OPTIMIZER  NONE
         EPS_SCF     5.0000000000000004E-06
         MAX_SCF  4
       &END OUTER_SCF
       &PRINT
         &RESTART  OFF
           BACKUP_COPIES  1
           &EACH
             JUST_ENERGY  0
             QS_SCF  0
             MD  20
           &END EACH
         &END RESTART
       &END PRINT
     &END SCF
     &QS
       EPS_DEFAULT     1.0000000000000000E-14
       METHOD  GPW
     &END QS
     &MGRID
       NGRIDS  5
       CUTOFF     1.2000000000000000E+03
     &END MGRID
     &XC
       DENSITY_CUTOFF     1.0000000000000000E-10
       GRADIENT_CUTOFF     1.0000000000000000E-10
       TAU_CUTOFF     1.0000000000000000E-10
       &XC_FUNCTIONAL  NO_SHORTCUT
         &PBE  T
         &END PBE
       &END XC_FUNCTIONAL
       &VDW_POTENTIAL
         POTENTIAL_TYPE  PAIR_POTENTIAL
         &PAIR_POTENTIAL
           R_CUTOFF     1.0000000000000004E+01
           TYPE  DFTD3
           PARAMETER_FILE_NAME dftd3.dat
           REFERENCE_FUNCTIONAL PBE
           EPS_CN     9.9999999999999995E-07
           CALCULATE_C9_TERM  T
           REFERENCE_C9_TERM  T
           LONG_RANGE_CORRECTION  F
           VERBOSE_OUTPUT  F
         &END PAIR_POTENTIAL
       &END VDW_POTENTIAL
     &END XC
   &END DFT
   &SUBSYS
     &CELL
       A     1.2948257670453263E+01    0.0000000000000000E+00    0.0000000000000000E+00
       B    -6.4743379538820376E+00    1.1213882281495222E+01    0.0000000000000000E+00
       C     0.0000000000000000E+00    0.0000000000000000E+00    2.9000000000000000E+01
       MULTIPLE_UNIT_CELL  1 1 1
       &CELL_REF
         A     1.2982353780853531E+01    0.0000000000000000E+00    0.0000000000000000E+00
         B    -6.4911768904267628E+00    1.1243048175136114E+01    0.0000000000000000E+00
         C     0.0000000000000000E+00    0.0000000000000000E+00    2.9000000000000000E+01
         MULTIPLE_UNIT_CELL  1 1 1
       &END CELL_REF
     &END CELL
     &COORD
Ga    6.0076025082246391E-04    1.0572057920153408E-04   -1.4459773666290329E-01
N    5.5357440114369013E-04    1.8685980190704388E+00    6.2957177326875269E-01
Ga    1.0794114782748036E-03    1.8686953647290685E+00    2.5675924476554641E+00
N    8.1323348793739644E-04   -2.7887364752164520E-04    3.2447048165985160E+00
Ga    1.0250625456736857E-03    1.6764800617301729E-04    5.2078055121880107E+00
N    5.6083392501331535E-04    1.8691399743049821E+00    5.8564725494863383E+00
Ga    1.6516531397497722E-03    1.8691922052763661E+00    7.8273184726542508E+00
N    1.6796296489528272E-03    5.4176659785609271E-04    8.4662313545593868E+00
Ga    9.3731391526357029E-04    5.7266934886981220E-04    1.0456446516691452E+01
N   -1.1784490730624379E-03    1.8697297393168189E+00    1.1028831176383095E+01
Ga   -1.0616058096605426E-03    1.8692294490294943E+00    1.3107896550941575E+01
N    4.9031271828926749E-04    5.3580977715269196E-04    1.3441503585442508E+01
Ga   -1.6178601837835804E+00    2.8035480339957095E+00   -1.4561296518013461E-01
N   -1.6179501539252319E+00    4.6720816974855515E+00    6.2865370557520472E-01
Ga   -1.6176425363761449E+00    4.6721652207805677E+00    2.5664183022855616E+00
N   -1.6178215727853278E+00    2.8033350909896462E+00    3.2438842664356859E+00
Ga   -1.6175632169025542E+00    2.8027832051077151E+00    5.2069049448561309E+00
N   -1.6178705979134875E+00    4.6722599492518251E+00    5.8551206798994917E+00
Ga   -1.6181906308750640E+00    4.6723519736995831E+00    7.8261170753285745E+00
N   -1.6187289831503457E+00    2.8031886511444477E+00    8.4644543499577143E+00
Ga   -1.6185024146039455E+00    2.8030210131396305E+00    1.0454468027388970E+01
N   -1.6189948071759006E+00    4.6722601743168326E+00    1.1027413678747619E+01
Ga   -1.6184275262258052E+00    4.6721697846261865E+00    1.3107662541770340E+01
N   -1.6184711252317383E+00    2.8033114211642349E+00    1.3443943722777663E+01
Ga   -3.2364989901158556E+00    5.6071725446760858E+00   -1.4617693083783531E-01
N   -3.2364642384436921E+00    7.4755912046416766E+00    6.2887148736373910E-01
Ga   -3.2362157895478485E+00    7.4757361469984032E+00    2.5667869680458608E+00
N   -3.2361903798110214E+00    5.6066745723421318E+00    3.2432413569399285E+00
Ga   -3.2366041116939508E+00    5.6067515621191237E+00    5.2061262363294558E+00
N   -3.2362709760131549E+00    7.4757525402661678E+00    5.8552666728058496E+00
Ga   -3.2365536192784012E+00    7.4763850032034957E+00    7.8262149495459461E+00
N   -3.2361714776629151E+00    5.6072829983771246E+00    8.4632960911813750E+00
Ga   -3.2358746462522627E+00    5.6085027220156389E+00    1.0453583462528947E+01
N   -3.2355329981816867E+00    7.4781383298365940E+00    1.1027325156485940E+01
Ga   -3.2370200870693489E+00    7.4751516217856091E+00    1.3107403908247626E+01
N   -3.2377342135188645E+00    5.6069352269411405E+00    1.3442797966597530E+01
Ga   -4.8552128249488931E+00    8.4106754717190064E+00   -1.4526778122870213E-01
N   -4.8551583861855478E+00    1.0278929485441802E+01    6.2980531276222573E-01
Ga   -4.8547949211423012E+00    1.0279082706387262E+01    2.5678105435101659E+00
N   -4.8549097754606052E+00    8.4099534729974685E+00    3.2440863402568949E+00
Ga   -4.8552019717688646E+00    8.4103500987680420E+00    5.2070783537192353E+00
N   -4.8552951193142633E+00    1.0278961566695017E+01    5.8563039976019464E+00
Ga   -4.8553006991823953E+00    1.0278960984171947E+01    7.8270709013943627E+00
N   -4.8555093051039258E+00    8.4094336351818129E+00    8.4651683007275835E+00
Ga   -4.8558366174510956E+00    8.4088885081587090E+00    1.0455352160696524E+01
N   -4.8558394417648003E+00    1.0277764210978368E+01    1.1030676403516729E+01
Ga   -4.8558472773680998E+00    1.0278403087330320E+01    1.3110297025516182E+01
N   -4.8551997130130600E+00    8.4093608289254700E+00    1.3442676020701448E+01
Ga    3.2376447472519190E+00    8.3189195843120698E-05   -1.4464245584499422E-01
N    3.2376805352598010E+00    1.8686098884636233E+00    6.2979273127215396E-01
Ga    3.2380414229654795E+00    1.8685898592636350E+00    2.5677060779252541E+00
N    3.2380168069930728E+00   -3.5498409911158339E-04    3.2444406320518606E+00
Ga    3.2376129726874199E+00   -3.5199355375062894E-04    5.2074781791639975E+00
N    3.2378238545881355E+00    1.8685078540243518E+00    5.8565564572321795E+00
Ga    3.2370438937173667E+00    1.8683017336204972E+00    7.8277168067553058E+00
N    3.2377877842024123E+00   -1.7214298446688520E-03    8.4661091085094924E+00
Ga    3.2368925849898096E+00   -1.2718469976935663E-03    1.0456349731172629E+01
N    3.2351511134642612E+00    1.8668029156488986E+00    1.1030677628167959E+01
Ga    3.2378316575727442E+00    1.8678393247865559E+00    1.3110090785654878E+01
N    3.2383242834309116E+00   -1.6047299172808106E-03    1.3441833283418164E+01
Ga    1.6190731872048736E+00    2.8035435937095334E+00   -1.4473882632689147E-01
N    1.6190602782820644E+00    4.6721437335307776E+00    6.2927736528347467E-01
Ga    1.6195754223983700E+00    4.6721230355827155E+00    2.5672443324324510E+00
N    1.6194820250492721E+00    2.8032689361265177E+00    3.2445373287348884E+00
Ga    1.6192008402115254E+00    2.8033349284611182E+00    5.2078059421886209E+00
N    1.6193553679585064E+00    4.6726708782655724E+00    5.8561898178936076E+00
Ga    1.6200523576562620E+00    4.6721002086928385E+00    7.8273823609004607E+00
N    1.6196518546796868E+00    2.8036763821824651E+00    8.4656349352397591E+00
Ga    1.6190936633688970E+00    2.8032817693759524E+00    1.0455751453727359E+01
N    1.6195598195546657E+00    4.6727346321298544E+00    1.1029807234954072E+01
Ga    1.6179924719848764E+00    4.6730800665440686E+00    1.3108711093407971E+01
N    1.6183750069473040E+00    2.8036872496767571E+00    1.3438022344051504E+01
Ga    5.2657773049901075E-04    5.6071645236574996E+00   -1.4586131976504041E-01
N    5.7307777017093805E-04    7.4755771525256147E+00    6.2891475902140859E-01
Ga    9.0673597235230424E-04    7.4757176881587979E+00    2.5669080439151686E+00
N    7.0591591054725358E-04    5.6066155122711736E+00    3.2435796441262257E+00
Ga    1.1877299007268139E-03    5.6065877715949028E+00    5.2065055217124119E+00
N    9.6734349417061541E-04    7.4754769206018352E+00    5.8554196543427040E+00
Ga    5.8841145281721282E-04    7.4756424702724953E+00    7.8261402855567388E+00
N    4.0488724308516288E-04    5.6065950476291997E+00    8.4647069945761473E+00
Ga    1.6151189299382673E-03    5.6069130607791307E+00    1.0455477059994537E+01
N   -1.4224814160798192E-04    7.4766053469470934E+00    1.1027101821802068E+01
Ga    5.6003344383182311E-04    7.4755556052990579E+00    1.3107524220156984E+01
N   -6.9496213788259665E-05    5.6067272176079994E+00    1.3441859626363273E+01
Ga   -1.6180369103144361E+00    8.4106895388629539E+00   -1.4574954470570897E-01
N   -1.6179416770903792E+00    1.0279005775885599E+01    6.2946989148041788E-01
Ga   -1.6176766436340746E+00    1.0279182092717534E+01    2.5674196257774642E+00
N   -1.6177223258834854E+00    8.4101303456711811E+00    3.2436573514987064E+00
Ga   -1.6174810603522340E+00    8.4104470453199429E+00    5.2066218688601653E+00
N   -1.6174913793413761E+00    1.0279428613668124E+01    5.8556249737848081E+00
Ga   -1.6181002688565145E+00    1.0279939857509389E+01    7.8263485288391257E+00
N   -1.6171704696419325E+00    8.4105889299238950E+00    8.4632023953300006E+00
Ga   -1.6174194814945744E+00    8.4103333078550921E+00    1.0452857982518074E+01
N   -1.6166435876007228E+00    1.0279371571307747E+01    1.1029055980811229E+01
Ga   -1.6180560021501167E+00    1.0278054092340694E+01    1.3109224719421357E+01
N   -1.6184397442045544E+00    8.4088885782055893E+00    1.3444670951151670E+01
Ga    6.4748474261096778E+00    1.6352239869443281E-04   -1.4554257496162337E-01
N    6.4748383762539081E+00    1.8685804344850439E+00    6.2924398993853248E-01
Ga    6.4750802216847747E+00    1.8686617509909733E+00    2.5670488284388293E+00
N    6.4752129277780801E+00   -1.9861553687123282E-04    3.2440059386095745E+00
Ga    6.4752327430136418E+00   -1.7635597021053905E-04    5.2068973404356367E+00
N    6.4751050951180442E+00    1.8686858380249427E+00    5.8559147615962779E+00
Ga    6.4747142644348799E+00    1.8690853638984093E+00    7.8269794610339014E+00
N    6.4757063009663449E+00   -1.3810400898192250E-04    8.4646866366327149E+00
Ga    6.4758581176119598E+00    1.4441219992811795E-03    1.0455463705665005E+01
N    6.4751147134184182E+00    1.8704877985906387E+00    1.1028005781294747E+01
Ga    6.4754701510674062E+00    1.8675102302681870E+00    1.3107633389921990E+01
N    6.4748263782916720E+00   -8.0092303821955647E-04    1.3441044788391901E+01
Ga    4.8560461822703962E+00    2.8035059329002445E+00   -1.4503310894718094E-01
N    4.8561717107237934E+00    4.6720855887366888E+00    6.2931717497052009E-01
Ga    4.8564884613142745E+00    4.6720683486886525E+00    2.5672756496711790E+00
N    4.8565268264165260E+00    2.8030656208230638E+00    3.2443225251504257E+00
Ga    4.8561276900222605E+00    2.8030514373751716E+00    5.2073087031614316E+00
N    4.8560931823039040E+00    4.6718162734000117E+00    5.8560505847101014E+00
Ga    4.8560944282937770E+00    4.6713489996169280E+00    7.8269316044379691E+00
N    4.8558802202273679E+00    2.8019484097273391E+00    8.4654444178165562E+00
Ga    4.8546782436059077E+00    2.8013373258477863E+00    1.0456162311067388E+01
N    4.8558052019376063E+00    4.6715174227935581E+00    1.1029684495376573E+01
Ga    4.8553236495018997E+00    4.6712243777979419E+00    1.3109330694301315E+01
N    4.8566038449219109E+00    2.8019882417171269E+00    1.3440341923212840E+01
Ga    3.2374522328145607E+00    5.6072447279292676E+00   -1.4496019401745439E-01
N    3.2375182809502521E+00    7.4755991561392356E+00    6.2945939939928874E-01
Ga    3.2380177631462903E+00    7.4756603188608812E+00    2.5673940878267518E+00
N    3.2379400700023999E+00    5.6067294235967173E+00    3.2442079014347898E+00
Ga    3.2379365017863839E+00    5.6067358229843220E+00    5.2073168212096661E+00
N    3.2380063779030182E+00    7.4760939581647063E+00    5.8564525219352932E+00
Ga    3.2385050306234384E+00    7.4752760018278490E+00    7.8274255505916157E+00
N    3.2388358039022735E+00    5.6071557051883181E+00    8.4656039372178977E+00
Ga    3.2378083561018332E+00    5.6081078399704891E+00    1.0455915323187535E+01
N    3.2369860258100660E+00    7.4768996204164448E+00    1.1029144562320413E+01
Ga    3.2378534516146802E+00    7.4763062257560851E+00    1.3108819863898425E+01
N    3.2373594369877172E+00    5.6069395318380097E+00    1.3441140682530861E+01
Ga    1.6190531867285030E+00    8.4107543429563432E+00   -1.4552822118770620E-01
N    1.6190260978685433E+00    1.0278989676639446E+01    6.2931763181606437E-01
Ga    1.6193593942258462E+00    1.0279124000155702E+01    2.5671741569009252E+00
N    1.6193638759285276E+00    8.4102184284594266E+00    3.2440064076297079E+00
Ga    1.6196554942344434E+00    8.4101803002980002E+00    5.2069502571219761E+00
N    1.6194568876918041E+00    1.0279195241802991E+01    5.8560029953760617E+00
Ga    1.6189941802430141E+00    1.0279137948069531E+01    7.8267448115042839E+00
N    1.6190039821346753E+00    8.4100458486531338E+00    8.4645486606762042E+00
Ga    1.6196573490362769E+00    8.4089248199223086E+00    1.0454572993807068E+01
N    1.6188090769907997E+00    1.0277848236948177E+01    1.1027716376621733E+01
Ga    1.6196142519147214E+00    1.0278874640278445E+01    1.3108811269793396E+01
N    1.6192100969090544E+00    8.4099115348606812E+00    1.3445313966390936E+01
Ga    9.7119683203978351E+00    1.3170438789101454E-04   -1.4542274918759815E-01
N    9.7118145069097839E+00    1.8685739837618942E+00    6.2903020302433688E-01
Ga    9.7120669430340403E+00    1.8687008323765657E+00    2.5669051635772240E+00
N    9.7121237110538559E+00   -2.8909959799626814E-04    3.2441541419181092E+00
Ga    9.7122181095243594E+00   -2.3017336469820915E-04    5.2069746237100505E+00
N    9.7119081898691633E+00    1.8683331107378689E+00    5.8557861490159411E+00
Ga    9.7115611924811667E+00    1.8684199358071374E+00    7.8264163652122800E+00
N    9.7119922100706901E+00   -5.9574373816632497E-04    8.4658704162172391E+00
Ga    9.7128272796577413E+00   -1.5098474677137743E-03    1.0456834358647123E+01
N    9.7112026725730889E+00    1.8681491939761723E+00    1.1026952466104582E+01
Ga    9.7116377608792988E+00    1.8687018586216622E+00    1.3107895395699504E+01
N    9.7114973408718299E+00    5.6048980786569483E-05    1.3442821554586676E+01
Ga    8.0932633904716056E+00    2.8034848141305453E+00   -1.4582166426193191E-01
N    8.0933395373351011E+00    4.6720808340096047E+00    6.2863250335256105E-01
Ga    8.0934700484467914E+00    4.6720922470866268E+00    2.5666110070881114E+00
N    8.0934928493731704E+00    2.8031629317700930E+00    3.2436829239861154E+00
Ga    8.0936305479657324E+00    2.8033197075864149E+00    5.2066446700810829E+00
N    8.0935771868288366E+00    4.6721377909015551E+00    5.8553052564559183E+00
Ga    8.0930985154423816E+00    4.6724032840840808E+00    7.8259303419770081E+00
N    8.0943180260687182E+00    2.8033671582153641E+00    8.4634464885140979E+00
Ga    8.0935399974871238E+00    2.8032853076197455E+00    1.0453108599390932E+01
N    8.0955863497700786E+00    4.6713625089309954E+00    1.1027072698210137E+01
Ga    8.0928839537738764E+00    4.6713551716407045E+00    1.3106808071436015E+01
N    8.0927841194270886E+00    2.8026845896589059E+00    1.3445516156182226E+01
Ga    6.4744848244594477E+00    5.6072278036829344E+00   -1.4533801663976978E-01
N    6.4746416834466629E+00    7.4755351573576911E+00    6.2939267882648808E-01
Ga    6.4749868126101715E+00    7.4755025776007811E+00    2.5672363413901991E+00
N    6.4749234026952296E+00    5.6065495218999439E+00    3.2439233320525145E+00
Ga    6.4746288553872740E+00    5.6061687710827082E+00    5.2069432939198164E+00
N    6.4744131901719975E+00    7.4753102086383025E+00    5.8561019206744342E+00
Ga    6.4749373744004668E+00    7.4744484098420152E+00    7.8270662352989424E+00
N    6.4747568675671241E+00    5.6050891052731044E+00    8.4652253203661179E+00
Ga    6.4746662357033991E+00    5.6046490188177476E+00    1.0455346526868425E+01
N    6.4748232122053375E+00    7.4734780604476585E+00    1.1028812163405927E+01
Ga    6.4748431575071645E+00    7.4763860892431557E+00    1.3108763565385351E+01
N    6.4748226787358600E+00    5.6062078779799993E+00    1.3440179325003710E+01
Ga    4.8560002435042620E+00    8.4108038602407156E+00   -1.4491983545338366E-01
N    4.8559785790867416E+00    1.0279006710357862E+01    6.2980335708639812E-01
Ga    4.8565256730306130E+00    1.0279172735626759E+01    2.5675493697589498E+00
N    4.8564624162306815E+00    8.4102296471608735E+00    3.2445133075343038E+00
Ga    4.8562923796847164E+00    8.4102728298229437E+00    5.2074649483011699E+00
N    4.8561166135413378E+00    1.0279350722934428E+01    5.8566426369254714E+00
Ga    4.8572512209034828E+00    1.0279548421395283E+01    7.8277327565533321E+00
N    4.8572020415443395E+00    8.4104439639611410E+00    8.4654703166275631E+00
Ga    4.8567232999502528E+00    8.4098066537170357E+00    1.0456172092888963E+01
N    4.8569821532909074E+00    1.0278824025443624E+01    1.1030073526363168E+01
Ga    4.8554661275458875E+00    1.0279536297517677E+01    1.3109718281787165E+01
N    4.8561345351495202E+00    8.4104813428748084E+00    1.3441561104894994E+01
H    4.8557272366634487E+00    8.4104862932174367E+00   -1.6982207755309544E+00
H    1.6186452754522143E+00    8.4106488623309588E+00   -1.6989810042446305E+00
H   -1.6181532228041771E+00    8.4106022517779326E+00   -1.6991947090362707E+00
H   -4.8553388641216539E+00    8.4104071174051729E+00   -1.6986732342089894E+00
H    6.4745090986407137E+00    5.6071770107692123E+00   -1.6987798666659297E+00
H    3.2374620133481598E+00    5.6073763242212982E+00   -1.6983680957411766E+00
H    3.5024802722769872E-04    5.6075154328824670E+00   -1.6992322227207197E+00
H   -3.2367427534521993E+00    5.6073089683727426E+00   -1.6995611133006119E+00
H    8.0929290425606712E+00    2.8030698609975353E+00   -1.6992677732028223E+00
H    4.8560516672562324E+00    2.8031169474034510E+00   -1.6983802344023593E+00
H    1.6189169423887559E+00    2.8033310291940570E+00   -1.6981511310402797E+00
H   -1.6184451417015879E+00    2.8031883638923492E+00   -1.6990163953916675E+00
H    2.2498689630078410E-04   -4.9750650756428985E-04   -1.6980027706060203E+00
H    3.2375616456318497E+00   -4.7755460268712074E-04   -1.6980547285283967E+00
H    6.4745679102036311E+00   -4.7149655528822693E-04   -1.6989148934105813E+00
H    9.7112757681916602E+00   -5.0202283970141308E-04   -1.6987773147051819E+00
     &END COORD
     &KIND H
       BASIS_SET DZVP-MOLOPT-SR-GTH-q1
       POTENTIAL GTH-PBE-q1
       &POTENTIAL
1
0.2000000000000000E+00 2 -0.4178900440000000E+01  0.7244633100000000E+00
0
       &END POTENTIAL
     &END KIND
     &KIND N
       BASIS_SET DZVP-MOLOPT-SR-GTH
       POTENTIAL GTH-PBE-q5
       &POTENTIAL
2 3
0.2837905100000000E+00 2 -0.1241522559000000E+02  0.1868095920000000E+01
2
0.2554050000000000E+00 1  0.1363026257000000E+02
0.2454945300000000E+00 0
       &END POTENTIAL
     &END KIND
     &KIND Ga
       BASIS_SET DZVP-MOLOPT-SR-GTH
       POTENTIAL GTH-PBE-q13
       &POTENTIAL
2 1 10
0.4900000000000000E+00 0
3
0.4167772300000000E+00 3  0.1047568975000000E+02 -0.4921768140000000E+01  0.8707055900000000E+00
0.7770178090000000E+01 -0.2248152160000000E+01
0.1784415450000000E+01
0.5696265200000000E+00 2  0.1777985340000000E+01  0.1958597600000000E+00
-0.2317443900000000E+00
0.2381265000000000E+00 1 -0.1624868022000000E+02
       &END POTENTIAL
     &END KIND
     &TOPOLOGY
       NUMBER_OF_ATOMS  208
       MULTIPLE_UNIT_CELL  1 1 1
     &END TOPOLOGY
   &END SUBSYS
 &END FORCE_EVAL
