 # Version information for this restart file 
 # current date 2019-05-26 00:41:14.163
 # current working dir /lustre03/project/6004141/rzk/GaN-carbene/00-Surface/00-Preoptimization/443-capped/CELL_OPT
 # Program compiled at                              Sun Apr  7 00:48:11 EDT 2019
 # Program compiled on                          beluga2.int.ets1.calculquebec.ca
 # Program compiled for                        Beluga-Linux-x86-64-intel-openmpi
 # Source code revision number                                         svn:18619
 &GLOBAL
   PRINT_LEVEL  MEDIUM
   PROJECT_NAME TEST
   RUN_TYPE  CELL_OPT
 &END GLOBAL
 &MOTION
   &CELL_OPT
     MAX_ITER  300
     STEP_START_VAL  43
     EXTERNAL_PRESSURE     1.0000000000000000E+00
     KEEP_ANGLES  T
     KEEP_SYMMETRY  T
     CONSTRAINT  Z
     PRESSURE_TOLERANCE     5.0000000000000000E+02
   &END CELL_OPT
 &END MOTION
 &FORCE_EVAL
   METHOD  QS
   STRESS_TENSOR  ANALYTICAL
   &DFT
     BASIS_SET_FILE_NAME BASIS_MOLOPT
     POTENTIAL_FILE_NAME GTH_POTENTIALS
     SURFACE_DIPOLE_CORRECTION  T
     SURF_DIP_DIR  Z
     &SCF
       MAX_SCF  100
       EPS_SCF     5.0000000000000004E-06
       &OT  T
         PRECONDITIONER  FULL_ALL
       &END OT
       &OUTER_SCF  T
         OPTIMIZER  NONE
         EPS_SCF     5.0000000000000004E-06
         MAX_SCF  4
       &END OUTER_SCF
       &PRINT
         &RESTART  OFF
           BACKUP_COPIES  1
           &EACH
             JUST_ENERGY  0
             QS_SCF  0
             MD  20
           &END EACH
         &END RESTART
       &END PRINT
     &END SCF
     &QS
       EPS_DEFAULT     1.0000000000000000E-14
       METHOD  GPW
     &END QS
     &MGRID
       NGRIDS  5
       CUTOFF     1.2000000000000000E+03
     &END MGRID
     &XC
       DENSITY_CUTOFF     1.0000000000000000E-10
       GRADIENT_CUTOFF     1.0000000000000000E-10
       TAU_CUTOFF     1.0000000000000000E-10
       &XC_FUNCTIONAL  NO_SHORTCUT
         &PBE  T
         &END PBE
       &END XC_FUNCTIONAL
       &VDW_POTENTIAL
         POTENTIAL_TYPE  PAIR_POTENTIAL
         &PAIR_POTENTIAL
           R_CUTOFF     1.0000000000000004E+01
           TYPE  DFTD3
           PARAMETER_FILE_NAME dftd3.dat
           REFERENCE_FUNCTIONAL PBE
           EPS_CN     9.9999999999999995E-07
           CALCULATE_C9_TERM  T
           REFERENCE_C9_TERM  T
           LONG_RANGE_CORRECTION  F
           VERBOSE_OUTPUT  F
         &END PAIR_POTENTIAL
       &END VDW_POTENTIAL
     &END XC
   &END DFT
   &SUBSYS
     &CELL
       A     1.2844588091582253E+01    0.0000000000000000E+00    0.0000000000000000E+00
       B    -6.4472831688730663E+00    1.1167022019271839E+01    0.0000000000000000E+00
       C     0.0000000000000000E+00    0.0000000000000000E+00    2.9000000000000000E+01
       MULTIPLE_UNIT_CELL  1 1 1
       &CELL_REF
         A     1.2982353780853531E+01    0.0000000000000000E+00    0.0000000000000000E+00
         B    -6.4911768904267628E+00    1.1243048175136114E+01    0.0000000000000000E+00
         C     0.0000000000000000E+00    0.0000000000000000E+00    2.9000000000000000E+01
         MULTIPLE_UNIT_CELL  1 1 1
       &END CELL_REF
     &END CELL
     &COORD
Ga    1.4062427363873643E-03   -1.2007648590024156E-03   -1.7375161956585847E-01
N   -4.7607609283921732E-03    1.8579664081379692E+00    6.1206105549626377E-01
Ga    1.9266546664228670E-04    1.8607620582647593E+00    2.5468535344631986E+00
N    5.6089069870400021E-03    2.0963115927294215E-03    3.2349699279226662E+00
Ga    6.4638858263217766E-03    7.8473969620699679E-04    5.1960319334116214E+00
N    1.2253653154626562E-03    1.8586714565792779E+00    5.8574882152552341E+00
Ga    4.3391251689544504E-03    1.8604237666159322E+00    7.8270353103287880E+00
N    1.3244319007369351E-02    2.4834352080255299E-03    8.4799746231011035E+00
Ga    1.1127968550573632E-02    5.9995137197795066E-03    1.0469032838974009E+01
N   -6.6584467905131820E-03    1.8663285419247366E+00    1.1061746894276624E+01
Ga   -3.3251103766962366E-02    1.8523390986887627E+00    1.3130376598311759E+01
N   -1.2911989625613554E-02   -1.3192949094321656E-03    1.3470637291810183E+01
Ga   -1.6107865407050566E+00    2.7906090318029904E+00   -1.7388673034818117E-01
N   -1.6167217787315415E+00    4.6497022284621341E+00    6.1222230958573587E-01
Ga   -1.6120832806976855E+00    4.6524599651077621E+00    2.5472521311213550E+00
N   -1.6059279536110995E+00    2.7937448976299799E+00    3.2349282456146780E+00
Ga   -1.6047977628527827E+00    2.7916023341716327E+00    5.1958341977964606E+00
N   -1.6112179673980356E+00    4.6508836354915948E+00    5.8548098402226305E+00
Ga   -1.6089985276701659E+00    4.6515955381269336E+00    7.8233717716032762E+00
N   -1.6014741387958651E+00    2.7947732548486575E+00    8.4748610591296440E+00
Ga   -1.6094216131577843E+00    2.8008097420882834E+00    1.0460062063673799E+01
N   -1.6133099199075001E+00    4.6542607141040868E+00    1.1058605138460413E+01
Ga   -1.6275763235169309E+00    4.6359365864785032E+00    1.3133907919202869E+01
N   -1.6234266375275692E+00    2.7934338584192360E+00    1.3541272400527708E+01
Ga   -3.2224571537852764E+00    5.5824575605043876E+00   -1.7418127550016443E-01
N   -3.2283311809917312E+00    7.4413684018227473E+00    6.1223884662004802E-01
Ga   -3.2235198316553291E+00    7.4441542672245227E+00    2.5469068117882019E+00
N   -3.2182233021619586E+00    5.5858864705864262E+00    3.2353196201260777E+00
Ga   -3.2177399363377766E+00    5.5843699216083493E+00    5.1964714532951248E+00
N   -3.2223026309079681E+00    7.4430789688392789E+00    5.8582299382749223E+00
Ga   -3.2197621229216260E+00    7.4446744304461570E+00    7.8278728369247599E+00
N   -3.2122732587016705E+00    5.5859147398234468E+00    8.4751361849017730E+00
Ga   -3.2167782026700538E+00    5.5903185637200332E+00    1.0462409424894233E+01
N   -3.2317134604395741E+00    7.4486419893215530E+00    1.1053943244701431E+01
Ga   -3.2562308872876526E+00    7.4389016858495847E+00    1.3116535465090639E+01
N   -3.2348856849020895E+00    5.5843211384408855E+00    1.3464324097915835E+01
Ga   -4.8341471183539015E+00    8.3742791908317411E+00   -1.7362785314943813E-01
N   -4.8400617832774921E+00    1.0233182402135975E+01    6.1285747342715391E-01
Ga   -4.8351496669440097E+00    1.0236041597504418E+01    2.5477142239493062E+00
N   -4.8295962053044139E+00    8.3772004437007173E+00    3.2352257244037506E+00
Ga   -4.8284286521234927E+00    8.3757272855199076E+00    5.1962319518616766E+00
N   -4.8350068276086056E+00    1.0234329595565873E+01    5.8560242704890015E+00
Ga   -4.8317747423422475E+00    1.0236749801631952E+01    7.8246169277944055E+00
N   -4.8263932031154582E+00    8.3789263118643262E+00    8.4751861966093163E+00
Ga   -4.8335672580175242E+00    8.3862787712648874E+00    1.0460417748669288E+01
N   -4.8332395435036091E+00    1.0236748045338821E+01    1.1070460916967754E+01
Ga   -4.8528649729933839E+00    1.0214436385641330E+01    1.3154339460790272E+01
N   -4.8448324384476242E+00    8.3718509230164067E+00    1.3556677217539427E+01
Ga    3.2124571576320866E+00   -1.1063506201205223E-03   -1.7330375372103421E-01
N    3.2064091822157921E+00    1.8577595250056509E+00    6.1320482223570172E-01
Ga    3.2111938210766859E+00    1.8603511842411626E+00    2.5483788540713856E+00
N    3.2171253265049407E+00    1.5636776100241378E-03    3.2363675170681048E+00
Ga    3.2182382491933437E+00   -1.3955806039483913E-04    5.1976095790679997E+00
N    3.2118132990265207E+00    1.8587187132635954E+00    5.8556158576689921E+00
Ga    3.2145311939867485E+00    1.8602395815375818E+00    7.8243829159601317E+00
N    3.2222773745607221E+00    1.8892553952065821E-03    8.4757382735157147E+00
Ga    3.2137903635445770E+00    7.0375052456883302E-03    1.0460653220749762E+01
N    3.2130769566442576E+00    1.8630737871515601E+00    1.1056200452194211E+01
Ga    3.1944373835488671E+00    1.8432682805950076E+00    1.3128182515119869E+01
N    3.1998787517982481E+00    1.3796678721747148E-03    1.3536307609888313E+01
Ga    1.6007830754656254E+00    2.7904197907981394E+00   -1.7369401630723996E-01
N    1.5946589422482071E+00    4.6496143890732657E+00    6.1185040418862169E-01
Ga    1.5994801822727500E+00    4.6521471874113107E+00    2.5465923581862091E+00
N    1.6048375305142537E+00    2.7938740381474534E+00    3.2350949216952247E+00
Ga    1.6055551122982274E+00    2.7919851143608967E+00    5.1961523004140160E+00
N    1.6003926939765156E+00    4.6505943352579990E+00    5.8566310052338890E+00
Ga    1.6030989319999880E+00    4.6511975419792062E+00    7.8258750254871634E+00
N    1.6113090766740137E+00    2.7938725496089423E+00    8.4774450642302721E+00
Ga    1.6061406218129923E+00    2.7976006714643233E+00    1.0464882666636408E+01
N    1.5924410377089269E+00    4.6584812286358108E+00    1.1054284707994224E+01
Ga    1.5687677915495117E+00    4.6425915202839922E+00    1.3118194138791951E+01
N    1.5888654100983230E+00    2.7895791158152541E+00    1.3466519052545737E+01
Ga   -1.1319326546567969E-02    5.5824497137246807E+00   -1.7387882770765817E-01
N   -1.7236323841611209E-02    7.4414822535564342E+00    6.1235478660295939E-01
Ga   -1.2487576473149674E-02    7.4442148495031955E+00    2.5470192164124130E+00
N   -6.6865761295652549E-03    5.5855107856423816E+00    3.2346100176334462E+00
Ga   -5.6245830617760520E-03    5.5832643764737728E+00    5.1955593562150426E+00
N   -1.1715002690353648E-02    7.4426121305668644E+00    5.8556420242650882E+00
Ga   -8.9443438325092287E-03    7.4444451574903665E+00    7.8242046259450202E+00
N   -3.1943477976864578E-03    5.5868827868762203E+00    8.4735047854435432E+00
Ga   -1.0869987475194172E-02    5.5934803131450010E+00    1.0458436548459568E+01
N   -1.1786626015452403E-02    7.4431374125066716E+00    1.1069845344300241E+01
Ga   -2.9023099422583305E-02    7.4221752309422486E+00    1.3153457016360758E+01
N   -2.1963198246412977E-02    5.5776384357925926E+00    1.3543794694631460E+01
Ga   -1.6230926095332094E+00    8.3742526315353469E+00   -1.7388011081955501E-01
N   -1.6291012938139191E+00    1.0233091412078460E+01    6.1288041709957009E-01
Ga   -1.6243021598911842E+00    1.0235898049289633E+01    2.5475477692627972E+00
N   -1.6186885502488590E+00    8.3772232867514091E+00    3.2354065140025554E+00
Ga   -1.6180661481862226E+00    8.3757263375152302E+00    5.1963795121718181E+00
N   -1.6224301891708586E+00    1.0233508893847416E+01    5.8592115244342233E+00
Ga   -1.6194367302482222E+00    1.0235271453742017E+01    7.8289684633052250E+00
N   -1.6114771165639024E+00    8.3765681129760186E+00    8.4805809932897116E+00
Ga   -1.6157873197660650E+00    8.3790219139738262E+00    1.0469809835798216E+01
N   -1.6293282793077182E+00    1.0240940767372354E+01    1.1059402416086625E+01
Ga   -1.6549631603723516E+00    1.0229297208730527E+01    1.3124763819047356E+01
N   -1.6358337575777504E+00    8.3754076255594452E+00    1.3467503512694453E+01
Ga    6.4235666816285635E+00   -1.2200370666140873E-03   -1.7310143546812690E-01
N    6.4175759062788398E+00    1.8578616468709983E+00    6.1276721406355483E-01
Ga    6.4223467478361114E+00    1.8605849702904793E+00    2.5476112553945041E+00
N    6.4277820777318837E+00    1.9005417422949750E-03    3.2358537859444905E+00
Ga    6.4285551511402588E+00    2.5583055048125842E-04    5.1968237660151004E+00
N    6.4242928594116036E+00    1.8584376336551400E+00    5.8580753081192967E+00
Ga    6.4275040260638265E+00    1.8600577516476038E+00    7.8275993899085394E+00
N    6.4353020977751960E+00    2.1244103250957023E-03    8.4802513433328048E+00
Ga    6.4327262414608510E+00    5.2879521840856038E-03    1.0468656950476493E+01
N    6.4165964485359188E+00    1.8650607003718671E+00    1.1054569702541411E+01
Ga    6.3926815472426641E+00    1.8507507890786417E+00    1.3118409575115297E+01
N    6.4123459899141109E+00   -8.8104567516135901E-04    1.3473940418119247E+01
Ga    4.8116686851340420E+00    2.7904971722388145E+00   -1.7321000130793934E-01
N    4.8057016338254082E+00    4.6496600642457313E+00    6.1235129069149752E-01
Ga    4.8103847066877075E+00    4.6523190483288053E+00    2.5471563977199043E+00
N    4.8163463895150338E+00    2.7937604935221216E+00    3.2355538125057293E+00
Ga    4.8174144296922350E+00    2.7915110702155763E+00    5.1968187569254987E+00
N    4.8111218175332775E+00    4.6513481586534242E+00    5.8542289235325535E+00
Ga    4.8142385537421672E+00    4.6527358400072911E+00    7.8226737386089997E+00
N    4.8213715779291553E+00    2.7949826863562421E+00    8.4718226388655768E+00
Ga    4.8132744445098208E+00    2.8020789557439252E+00    1.0455894541150915E+01
N    4.8122931578377903E+00    4.6546445810256820E+00    1.1060690607681904E+01
Ga    4.7948387143122142E+00    4.6354116575870252E+00    1.3139314728815400E+01
N    4.8001062306428919E+00    2.7896046970590778E+00    1.3529296635841746E+01
Ga    3.1999648552830697E+00    5.5823571607416911E+00   -1.7416814685388837E-01
N    3.1939506226061076E+00    7.4414832416089878E+00    6.1188613817347204E-01
Ga    3.1987976217758618E+00    7.4442398410722506E+00    2.5464967472463198E+00
N    3.2040914576531025E+00    5.5858066979725240E+00    3.2344661022738985E+00
Ga    3.2045134645102626E+00    5.5841243281770252E+00    5.1954690510122745E+00
N    3.1999476996827894E+00    7.4426380977328170E+00    5.8577960991911961E+00
Ga    3.2026384317448731E+00    7.4438379460760684E+00    7.8273700545109959E+00
N    3.2101258839509135E+00    5.5849736830707641E+00    8.4754557733060416E+00
Ga    3.2060128188073334E+00    5.5879419512396122E+00    1.0463011701408169E+01
N    3.1924988027428287E+00    7.4484484019045212E+00    1.1051596511943728E+01
Ga    3.1664717682058861E+00    7.4366407716245879E+00    1.3114596337617554E+01
N    3.1875377407184260E+00    5.5830294441149224E+00    1.3466050083562886E+01
Ga    1.5879548266858132E+00    8.3743989315830163E+00   -1.7375806028714133E-01
N    1.5821048080048512E+00    1.0233154562133089E+01    6.1331074675231989E-01
Ga    1.5869128356449389E+00    1.0235963101469286E+01    2.5481435371310281E+00
N    1.5926250830209983E+00    8.3769840470711330E+00    3.2352832974446621E+00
Ga    1.5937874928377087E+00    8.3751645756243036E+00    5.1961906689296944E+00
N    1.5875915733405672E+00    1.0233949715060453E+01    5.8560061746992345E+00
Ga    1.5904647571655464E+00    1.0235755202077602E+01    7.8245149940746739E+00
N    1.5966295452785502E+00    8.3781868295330071E+00    8.4762726128178247E+00
Ga    1.5883613101844583E+00    8.3849775486325591E+00    1.0462139512825328E+01
N    1.5893744741998781E+00    1.0235430537049689E+01    1.1068024588564345E+01
Ga    1.5717573154745337E+00    1.0216301547599501E+01    1.3150720947676556E+01
N    1.5768326864344526E+00    8.3720720983238515E+00    1.3544888752740615E+01
Ga    9.6344163500113158E+00   -1.0302222241113793E-03   -1.7323210666824834E-01
N    9.6287172567710595E+00    1.8579507925102114E+00    6.1288308832384719E-01
Ga    9.6335186377570086E+00    1.8606129035825050E+00    2.5478273484855936E+00
N    9.6393611098033691E+00    1.7865371098564496E-03    3.2358871256402946E+00
Ga    9.6407389748173564E+00    5.4930143951884956E-05    5.1971188166615656E+00
N    9.6341549472724708E+00    1.8592465228273434E+00    5.8553306902917344E+00
Ga    9.6373810739462495E+00    1.8608667505677714E+00    7.8238844792998812E+00
N    9.6433071145267899E+00    2.8725892633929165E-03    8.4736883884529988E+00
Ga    9.6358483248976565E+00    8.0520389646762530E-03    1.0458716588497204E+01
N    9.6351307508172663E+00    1.8588420022236889E+00    1.1063973062998052E+01
Ga    9.6176720545121270E+00    1.8426585468926766E+00    1.3142790610399324E+01
N    9.6239575965789523E+00   -1.4252343953577228E-04    1.3544801611620210E+01
Ga    8.0228205065482801E+00    2.7905739332275288E+00   -1.7346214204674190E-01
N    8.0169343248656624E+00    4.6497766947771817E+00    6.1213842311279509E-01
Ga    8.0218390768342918E+00    4.6524788864921591E+00    2.5467940657428163E+00
N    8.0271836896561126E+00    2.7939780181679414E+00    3.2347900987206399E+00
Ga    8.0279339872384732E+00    2.7922044326931403E+00    5.1955264346668892E+00
N    8.0223105364481686E+00    4.6506237371231895E+00    5.8566560335708617E+00
Ga    8.0250773628105261E+00    4.6515467687127137E+00    7.8257777525402865E+00
N    8.0347611425525987E+00    2.7943919809934425E+00    8.4786499605249581E+00
Ga    8.0315127510819373E+00    2.7981612742179869E+00    1.0467082788352467E+01
N    8.0151697782234343E+00    4.6574609936406910E+00    1.1057180703916826E+01
Ga    7.9884003937144534E+00    4.6455458759493489E+00    1.3123493937283406E+01
N    8.0101180761783315E+00    2.7920677333645352E+00    1.3466226134828345E+01
Ga    6.4110019138096739E+00    5.5824584752527775E+00   -1.7400805208742129E-01
N    6.4050454166307969E+00    7.4414890258188331E+00    6.1225599238565864E-01
Ga    6.4098346785726070E+00    7.4444568635271775E+00    2.5470006021040916E+00
N    6.4155431932644307E+00    5.5856717183313940E+00    3.2341702572222633E+00
Ga    6.4164307844938788E+00    5.5836058072041812E+00    5.1947955315729821E+00
N    6.4105038150356579E+00    7.4425666019577204E+00    5.8549301526389081E+00
Ga    6.4137154011262592E+00    7.4440751205736868E+00    7.8232274547129075E+00
N    6.4198086819357698E+00    5.5867311717888297E+00    8.4745637053106293E+00
Ga    6.4123225062230267E+00    5.5934023216202187E+00    1.0459895439186965E+01
N    6.4128687486237324E+00    7.4458621052311802E+00    1.1068550772812191E+01
Ga    6.3959185135188354E+00    7.4239781160053022E+00    1.3151733652039068E+01
N    6.3982298727162847E+00    5.5810779033970572E+00    1.3552691653381203E+01
Ga    4.7992684136965735E+00    8.3741467214780450E+00   -1.7423432338860192E-01
N    4.7932547529509071E+00    1.0233172288565438E+01    6.1203232918362627E-01
Ga    4.7980694341237342E+00    1.0236083775882605E+01    2.5468382725945307E+00
N    4.8034714682287341E+00    8.3774835854170870E+00    3.2351328734330860E+00
Ga    4.8042124064744582E+00    8.3760618788932710E+00    5.1962643387226333E+00
N    4.7997938186472755E+00    1.0234012599207983E+01    5.8589496104012015E+00
Ga    4.8034848292838879E+00    1.0236066175322669E+01    7.8289596061879712E+00
N    4.8107801081298733E+00    8.3762729365729509E+00    8.4777399509533531E+00
Ga    4.8085089125068441E+00    8.3792444846068133E+00    1.0466256008113191E+01
N    4.7933002863993996E+00    1.0240469376663050E+01    1.1050477592094468E+01
Ga    4.7654679590517253E+00    1.0230682124823895E+01    1.3112483376734735E+01
N    4.7860915750218718E+00    8.3756978934903614E+00    1.3459673673685939E+01
H    4.7995612031503105E+00    8.3773341181879921E+00   -1.7264533443415679E+00
H    1.5880958673716390E+00    8.3784946893171384E+00   -1.7259999291793928E+00
H   -1.6231734968589289E+00    8.3782985930308413E+00   -1.7261225706849261E+00
H   -4.8345739169770194E+00    8.3786512042210415E+00   -1.7258643413739703E+00
H    6.4110898323951231E+00    5.5856503138485696E+00   -1.7263187714304260E+00
H    3.2005179339798371E+00    5.5858811891925422E+00   -1.7264324650355827E+00
H   -1.1256886561656028E-02    5.5864132489789915E+00   -1.7261464258912755E+00
H   -3.2232137547205233E+00    5.5860442992252848E+00   -1.7264586783598641E+00
H    8.0234450699156810E+00    2.7948164029661426E+00   -1.7257655303508912E+00
H    4.8112427568715583E+00    2.7947386474327334E+00   -1.7255148442793249E+00
H    1.6006541622271933E+00    2.7937849955154839E+00   -1.7259884144279265E+00
H   -1.6109169715936273E+00    2.7935605909016314E+00   -1.7262342914996252E+00
H    2.4704098551709039E-03    2.7148791150298059E-03   -1.7260035023135067E+00
H    3.2122603221801804E+00    2.5107859567094358E-03   -1.7256300947562420E+00
H    6.4234415658435200E+00    2.0603627622575557E-03   -1.7253571274944111E+00
H    9.6336822011616565E+00    3.5352880214209355E-03   -1.7254741233077309E+00
     &END COORD
     &KIND H
       BASIS_SET DZVP-MOLOPT-SR-GTH-q1
       POTENTIAL GTH-PBE-q1
       &POTENTIAL
1
0.2000000000000000E+00 2 -0.4178900440000000E+01  0.7244633100000000E+00
0
       &END POTENTIAL
     &END KIND
     &KIND N
       BASIS_SET DZVP-MOLOPT-SR-GTH
       POTENTIAL GTH-PBE-q5
       &POTENTIAL
2 3
0.2837905100000000E+00 2 -0.1241522559000000E+02  0.1868095920000000E+01
2
0.2554050000000000E+00 1  0.1363026257000000E+02
0.2454945300000000E+00 0
       &END POTENTIAL
     &END KIND
     &KIND Ga
       BASIS_SET DZVP-MOLOPT-SR-GTH
       POTENTIAL GTH-PBE-q13
       &POTENTIAL
2 1 10
0.4900000000000000E+00 0
3
0.4167772300000000E+00 3  0.1047568975000000E+02 -0.4921768140000000E+01  0.8707055900000000E+00
0.7770178090000000E+01 -0.2248152160000000E+01
0.1784415450000000E+01
0.5696265200000000E+00 2  0.1777985340000000E+01  0.1958597600000000E+00
-0.2317443900000000E+00
0.2381265000000000E+00 1 -0.1624868022000000E+02
       &END POTENTIAL
     &END KIND
     &TOPOLOGY
       NUMBER_OF_ATOMS  208
       MULTIPLE_UNIT_CELL  1 1 1
     &END TOPOLOGY
   &END SUBSYS
 &END FORCE_EVAL
