 # Version information for this restart file 
 # current date 2019-05-25 22:33:20.846
 # current working dir /lustre03/project/6004141/rzk/GaN-carbene/00-Surface/00-Preoptimization/443-capped/CELL_OPT
 # Program compiled at                              Sun Apr  7 00:48:11 EDT 2019
 # Program compiled on                          beluga2.int.ets1.calculquebec.ca
 # Program compiled for                        Beluga-Linux-x86-64-intel-openmpi
 # Source code revision number                                         svn:18619
 &GLOBAL
   PRINT_LEVEL  MEDIUM
   PROJECT_NAME TEST
   RUN_TYPE  CELL_OPT
 &END GLOBAL
 &MOTION
   &CELL_OPT
     MAX_ITER  300
     STEP_START_VAL  17
     EXTERNAL_PRESSURE     1.0000000000000000E+00
     KEEP_ANGLES  T
     KEEP_SYMMETRY  T
     CONSTRAINT  Z
     PRESSURE_TOLERANCE     5.0000000000000000E+02
   &END CELL_OPT
 &END MOTION
 &FORCE_EVAL
   METHOD  QS
   STRESS_TENSOR  ANALYTICAL
   &DFT
     BASIS_SET_FILE_NAME BASIS_MOLOPT
     POTENTIAL_FILE_NAME GTH_POTENTIALS
     SURFACE_DIPOLE_CORRECTION  T
     SURF_DIP_DIR  Z
     &SCF
       MAX_SCF  100
       EPS_SCF     5.0000000000000004E-06
       &OT  T
         PRECONDITIONER  FULL_ALL
       &END OT
       &OUTER_SCF  T
         OPTIMIZER  NONE
         EPS_SCF     5.0000000000000004E-06
         MAX_SCF  4
       &END OUTER_SCF
       &PRINT
         &RESTART  OFF
           BACKUP_COPIES  1
           &EACH
             JUST_ENERGY  0
             QS_SCF  0
             MD  20
           &END EACH
         &END RESTART
       &END PRINT
     &END SCF
     &QS
       EPS_DEFAULT     1.0000000000000000E-14
       METHOD  GPW
     &END QS
     &MGRID
       NGRIDS  5
       CUTOFF     1.2000000000000000E+03
     &END MGRID
     &XC
       DENSITY_CUTOFF     1.0000000000000000E-10
       GRADIENT_CUTOFF     1.0000000000000000E-10
       TAU_CUTOFF     1.0000000000000000E-10
       &XC_FUNCTIONAL  NO_SHORTCUT
         &PBE  T
         &END PBE
       &END XC_FUNCTIONAL
       &VDW_POTENTIAL
         POTENTIAL_TYPE  PAIR_POTENTIAL
         &PAIR_POTENTIAL
           R_CUTOFF     1.0000000000000004E+01
           TYPE  DFTD3
           PARAMETER_FILE_NAME dftd3.dat
           REFERENCE_FUNCTIONAL PBE
           EPS_CN     9.9999999999999995E-07
           CALCULATE_C9_TERM  T
           REFERENCE_C9_TERM  T
           LONG_RANGE_CORRECTION  F
           VERBOSE_OUTPUT  F
         &END PAIR_POTENTIAL
       &END VDW_POTENTIAL
     &END XC
   &END DFT
   &SUBSYS
     &CELL
       A     1.2867757715061941E+01    0.0000000000000000E+00    0.0000000000000000E+00
       B    -6.4463540085071429E+00    1.1165412666309694E+01    0.0000000000000000E+00
       C     0.0000000000000000E+00    0.0000000000000000E+00    2.9000000000000000E+01
       MULTIPLE_UNIT_CELL  1 1 1
       &CELL_REF
         A     1.2982353780853531E+01    0.0000000000000000E+00    0.0000000000000000E+00
         B    -6.4911768904267628E+00    1.1243048175136114E+01    0.0000000000000000E+00
         C     0.0000000000000000E+00    0.0000000000000000E+00    2.9000000000000000E+01
         MULTIPLE_UNIT_CELL  1 1 1
       &END CELL_REF
     &END CELL
     &COORD
Ga    1.7305928888069969E-03    3.3040419757479834E-04   -1.6235085398396437E-01
N   -2.3178782500522235E-03    1.8597032952749899E+00    6.2180285715394523E-01
Ga   -1.0273555676175359E-04    1.8602073101435448E+00    2.5560329343597492E+00
N    7.4364608066292517E-04   -2.6045065234828039E-04    3.2407303266863488E+00
Ga    1.8015182814033934E-03   -1.0058658102327582E-03    5.1996168383779651E+00
N   -2.8982683899472550E-04    1.8589053660133796E+00    5.8538505720943119E+00
Ga    1.2261612476310705E-03    1.8572811487627339E+00    7.8208682369642792E+00
N    9.8855634720102208E-03   -2.0528380550497312E-03    8.4687040277779158E+00
Ga    2.5853004571912601E-03    1.4794796423246010E-03    1.0457442987691303E+01
N   -1.0644403053076299E-02    1.8646941090155333E+00    1.1041763712428374E+01
Ga   -1.5759900660888865E-02    1.8571744164753425E+00    1.3112843495919829E+01
N   -2.8807723966568517E-03   -3.2642115883215980E-03    1.3451251426265381E+01
Ga   -1.6098581790577757E+00    2.7913890688888610E+00   -1.6154083292275828E-01
N   -1.6139213028235284E+00    4.6515368899242304E+00    6.2024069564410944E-01
Ga   -1.6120098592385594E+00    4.6521840649795303E+00    2.5539605674770973E+00
N   -1.6095204896943878E+00    2.7927941732302703E+00    3.2396766614935935E+00
Ga   -1.6087616182857580E+00    2.7920931896143233E+00    5.1982618367812652E+00
N   -1.6109927045065640E+00    4.6517302070605542E+00    5.8574523439152202E+00
Ga   -1.6084063229627834E+00    4.6513744632441147E+00    7.8264647415872357E+00
N   -1.6058707605894349E+00    2.7891255461852822E+00    8.4663238988228962E+00
Ga   -1.6177127584843884E+00    2.7991013116185766E+00    1.0451381396801326E+01
N   -1.6145147418098389E+00    4.6547812307151029E+00    1.1048566091585688E+01
Ga   -1.6053942690185761E+00    4.6328772236354210E+00    1.3130486577210673E+01
N   -1.6067060803933779E+00    2.7889266372657109E+00    1.3542780214684027E+01
Ga   -3.2217226521742806E+00    5.5828656276234572E+00   -1.6263260427846593E-01
N   -3.2259664007681739E+00    7.4425204398811280E+00    6.2077250819585350E-01
Ga   -3.2235992106985356E+00    7.4427630017484523E+00    2.5547846253067741E+00
N   -3.2203037243523460E+00    5.5831071355494792E+00    3.2409843183061144E+00
Ga   -3.2200043117566972E+00    5.5828944074874522E+00    5.2000829868689378E+00
N   -3.2234787587236586E+00    7.4418857905221723E+00    5.8588339269489556E+00
Ga   -3.2231791467989965E+00    7.4402852211116164E+00    7.8279993237525458E+00
N   -3.2165360023100873E+00    5.5793631658971812E+00    8.4723762330405705E+00
Ga   -3.2262165863758367E+00    5.5852323975899019E+00    1.0463737793846379E+01
N   -3.2330338969284065E+00    7.4476999353249775E+00    1.1044729895378376E+01
Ga   -3.2366682106812972E+00    7.4406815208607586E+00    1.3117697601950363E+01
N   -3.2216636557159339E+00    5.5779424481341406E+00    1.3430575106971471E+01
Ga   -4.8333825710662977E+00    8.3745470976341174E+00   -1.6249869537910011E-01
N   -4.8376429800814629E+00    1.0233815284328919E+01    6.2188262051676468E-01
Ga   -4.8354953009255155E+00    1.0234165639860176E+01    2.5562425166979068E+00
N   -4.8324727842359136E+00    8.3736922527475137E+00    3.2406842466912988E+00
Ga   -4.8315964035367527E+00    8.3737087602275135E+00    5.1996243149174042E+00
N   -4.8348228366754133E+00    1.0234086210261641E+01    5.8534562208220935E+00
Ga   -4.8309559083836966E+00    1.0231464419103789E+01    7.8199844874817952E+00
N   -4.8288755591902293E+00    8.3763268070786268E+00    8.4718024899653805E+00
Ga   -4.8378012824039676E+00    8.3837141763258156E+00    1.0459433986713808E+01
N   -4.8354467517530493E+00    1.0241611126168516E+01    1.1057784718542818E+01
Ga   -4.8298944807896254E+00    1.0226923069000774E+01    1.3149254415888556E+01
N   -4.8345618540084034E+00    8.3739655937182818E+00    1.3515376641210196E+01
Ga    3.2185202056558180E+00    2.1493766305992606E-04   -1.6111311826657645E-01
N    3.2144006635843940E+00    1.8602365307082300E+00    6.2105683497059216E-01
Ga    3.2165492799497724E+00    1.8606597981591748E+00    2.5550834065607551E+00
N    3.2188257668425160E+00    9.2162360718337747E-04    3.2402575482114826E+00
Ga    3.2196178831459759E+00    6.2837538084303682E-04    5.1993542455889505E+00
N    3.2174924687625781E+00    1.8607587344832011E+00    5.8567237008236228E+00
Ga    3.2209032623032661E+00    1.8600046251385549E+00    7.8252868621966876E+00
N    3.2242256930775470E+00   -8.1415531589813068E-04    8.4667042241315702E+00
Ga    3.2138070365261071E+00    6.8418740193825715E-03    1.0450404267026473E+01
N    3.2092883789876878E+00    1.8595122758831850E+00    1.1045271190876310E+01
Ga    3.2188517149266702E+00    1.8464808869912035E+00    1.3122820976006677E+01
N    3.2223544725364421E+00    2.0068612507511512E-03    1.3540376106974866E+01
Ga    1.6068556944473895E+00    2.7914944159156856E+00   -1.6250172696605225E-01
N    1.6025615564132651E+00    4.6512446060078814E+00    6.2051908504659825E-01
Ga    1.6049263624511616E+00    4.6514409221761444E+00    2.5544827719704202E+00
N    1.6077694508853912E+00    2.7918840940167606E+00    3.2409250291638401E+00
Ga    1.6081624711564004E+00    2.7911542792705037E+00    5.1999907865531352E+00
N    1.6037991553456630E+00    4.6509362169761577E+00    5.8564233768094240E+00
Ga    1.6033058479040814E+00    4.6487068407937775E+00    7.8245641185811294E+00
N    1.6105881596152651E+00    2.7883319141318648E+00    8.4663189423731406E+00
Ga    1.6054394453381589E+00    2.7932750674296494E+00    1.0454457672748738E+01
N    1.6042080008021571E+00    4.6523209860773678E+00    1.1040315806581527E+01
Ga    1.5992643304364909E+00    4.6435919056962813E+00    1.3115743888017635E+01
N    1.6052827910621719E+00    2.7871040037626615E+00    1.3452875433127693E+01
Ga   -4.6482015188137578E-03    5.5830322374485091E+00   -1.6376581669329004E-01
N   -8.8633939776476510E-03    7.4421684136061730E+00    6.2094330672254683E-01
Ga   -7.0517536793715139E-03    7.4428200612366062E+00    2.5549613201280734E+00
N   -4.2945694040383686E-03    5.5826482513900091E+00    3.2398209367317055E+00
Ga   -3.6578361661902562E-03    5.5821670267076495E+00    5.1982766638630693E+00
N   -6.4655720197127342E-03    7.4420412397799396E+00    5.8532969729716777E+00
Ga   -4.4530956966290130E-03    7.4395425861981526E+00    7.8205024134444994E+00
N   -2.9050566981776298E-04    5.5843415894643202E+00    8.4747047748719382E+00
Ga   -4.9943288449010078E-03    5.5922335864470059E+00    1.0465908215785413E+01
N   -6.1027615139374984E-03    7.4518619669672237E+00    1.1055835819840398E+01
Ga   -1.8346306747423187E-03    7.4393278051927814E+00    1.3151032632973749E+01
N   -1.5234327936706823E-03    5.5818078101450173E+00    1.3488892173172427E+01
Ga   -1.6161114927570326E+00    8.3743817981015436E+00   -1.6192977005512732E-01
N   -1.6201838265926478E+00    1.0233903434839911E+01    6.2186048246298564E-01
Ga   -1.6179707351558326E+00    1.0234544924644744E+01    2.5562246596936689E+00
N   -1.6161927637574558E+00    8.3740474469276123E+00    3.2404432652246857E+00
Ga   -1.6162508425409750E+00    8.3733834610490554E+00    5.1994305226429116E+00
N   -1.6177049043350265E+00    1.0233049800299566E+01    5.8552376541202840E+00
Ga   -1.6148834287536784E+00    1.0230822935653656E+01    7.8229669810835230E+00
N   -1.6099752790599928E+00    8.3699997454123700E+00    8.4700797183616068E+00
Ga   -1.6172821871040455E+00    8.3719792677576326E+00    1.0459845508983735E+01
N   -1.6282205654702770E+00    1.0235128100093171E+01    1.1043436088924032E+01
Ga   -1.6339084623994127E+00    1.0235400892209849E+01    1.3112435643715196E+01
N   -1.6191450881000917E+00    8.3751357912483826E+00    1.3449008091380076E+01
Ga    6.4353593947686232E+00    3.9607351986466492E-05   -1.6261226487335254E-01
N    6.4308957523449273E+00    1.8597641772342899E+00    6.2043887606741432E-01
Ga    6.4331635234855984E+00    1.8601514318544181E+00    2.5542586490420587E+00
N    6.4360777338235504E+00    1.2042731671735511E-03    3.2411965253653938E+00
Ga    6.4361348584637890E+00    7.8751887373222716E-04    5.2004205811360036E+00
N    6.4329694554870347E+00    1.8598333030342020E+00    5.8617776136959829E+00
Ga    6.4333740758639424E+00    1.8579758673377706E+00    7.8321478751706719E+00
N    6.4403740878494435E+00   -4.3384324291764467E-03    8.4722428866837927E+00
Ga    6.4350590301473840E+00   -6.3540864554222077E-04    1.0462732826837422E+01
N    6.4277547417595953E+00    1.8586235580293735E+00    1.1048909156202049E+01
Ga    6.4265392849142406E+00    1.8546635519635528E+00    1.3125320881090133E+01
N    6.4380297220629057E+00   -4.5995581453378287E-03    1.3439336839334777E+01
Ga    4.8235946107901411E+00    2.7917757952401971E+00   -1.6330496735877822E-01
N    4.8194109485764471E+00    4.6508056332609300E+00    6.2176061093830226E-01
Ga    4.8215053921233917E+00    4.6513839014295399E+00    2.5561161952349791E+00
N    4.8247196485919206E+00    2.7910286636182651E+00    3.2407708837624281E+00
Ga    4.8252625229071082E+00    2.7903121973835048E+00    5.1995116941817354E+00
N    4.8222780310694811E+00    4.6503852548891969E+00    5.8529053932786272E+00
Ga    4.8263442120345355E+00    4.6471365340617643E+00    7.8198493519329464E+00
N    4.8274216623753263E+00    2.7932294859382027E+00    8.4791465638090742E+00
Ga    4.8198436755875740E+00    2.8016514219758419E+00    1.0472098276348579E+01
N    4.8215206272063096E+00    4.6664764175692133E+00    1.1049476883517499E+01
Ga    4.8204395006597922E+00    4.6584158996800440E+00    1.3138188104980662E+01
N    4.8246390643567425E+00    2.7982963645874022E+00    1.3470773426348448E+01
Ga    3.2124906244069624E+00    5.5830866911981962E+00   -1.6212735181935545E-01
N    3.2086021290013034E+00    7.4425729208708891E+00    6.2122200063807409E-01
Ga    3.2105224359038349E+00    7.4428318067788739E+00    2.5553238836784575E+00
N    3.2120738137694622E+00    5.5828243488104041E+00    3.2405812604291921E+00
Ga    3.2123208928311615E+00    5.5818749903289273E+00    5.1996123535273941E+00
N    3.2112408949896665E+00    7.4428613096830540E+00    5.8526621837139956E+00
Ga    3.2125556018498020E+00    7.4411310290048043E+00    7.8197935019769123E+00
N    3.2176828854760671E+00    5.5790356467534314E+00    8.4592237940072934E+00
Ga    3.2121791606315999E+00    5.5813763853290608E+00    1.0444556296659835E+01
N    3.1963196358772681E+00    7.4401433793961287E+00    1.1029202175513593E+01
Ga    3.1875766750946721E+00    7.4418584669312411E+00    1.3095849419696677E+01
N    3.2065558361370008E+00    5.5878652737368464E+00    1.3473745961014579E+01
Ga    1.6009066862094636E+00    8.3741510174789013E+00   -1.6173295221693954E-01
N    1.5965505332761396E+00    1.0234076227935345E+01    6.2112195023532069E-01
Ga    1.5985925207748395E+00    1.0234844585101346E+01    2.5553994156721700E+00
N    1.6008375801780663E+00    8.3743737501946089E+00    3.2392076324506873E+00
Ga    1.6013088804377120E+00    8.3743048205690833E+00    5.1977859669925168E+00
N    1.5991402721181038E+00    1.0234564721000085E+01    5.8534356175669675E+00
Ga    1.6013312322177087E+00    1.0234903925277816E+01    7.8204911355738540E+00
N    1.6053877196445399E+00    8.3740642754242938E+00    8.4610257722393971E+00
Ga    1.5935946000853716E+00    8.3802230805063598E+00    1.0444186316476110E+01
N    1.6013816584613028E+00    1.0232225218385915E+01    1.1045409152417500E+01
Ga    1.6064564505196897E+00    1.0217273937126617E+01    1.3128550559410478E+01
N    1.6033910972413026E+00    8.3751526546226991E+00    1.3555457642685383E+01
Ga    9.6522956224289427E+00    3.5631281632178221E-04   -1.6309386395016554E-01
N    9.6481252239104869E+00    1.8594749172181622E+00    6.2197571099448223E-01
Ga    9.6500648966597229E+00    1.8601448408387973E+00    2.5564461882585725E+00
N    9.6538558213246297E+00   -4.5319291588494129E-04    3.2405594486736109E+00
Ga    9.6541157158936883E+00   -3.2829578690669805E-04    5.1994174985859667E+00
N    9.6506501569997152E+00    1.8603790043721353E+00    5.8525175552711461E+00
Ga    9.6523076100443408E+00    1.8597452676778445E+00    7.8186886740714865E+00
N    9.6542948757642755E+00    3.7137046677071088E-03    8.4670303512606750E+00
Ga    9.6480504230023261E+00    8.2928243462727022E-03    1.0453723694313458E+01
N    9.6477214513527638E+00    1.8683804171479939E+00    1.1053122688527921E+01
Ga    9.6543249807017180E+00    1.8547094472062529E+00    1.3140810420682854E+01
N    9.6521141404816682E+00    2.9280526201465535E-03    1.3514603709455345E+01
Ga    8.0410038726796227E+00    2.7916909276916595E+00   -1.6150287871225755E-01
N    8.0369184165500496E+00    4.6512600216535569E+00    6.2232840799828371E-01
Ga    8.0390292491792188E+00    4.6516852083970450E+00    2.5568025407499486E+00
N    8.0400622172342739E+00    2.7911437879783199E+00    3.2413877293974371E+00
Ga    8.0401381771738318E+00    2.7909158515222292E+00    5.2004186703268100E+00
N    8.0398353520936041E+00    4.6513463526758549E+00    5.8547941542857824E+00
Ga    8.0424176882363465E+00    4.6494772895293286E+00    7.8221283508920934E+00
N    8.0474015342974248E+00    2.7906440450588343E+00    8.4703754578341570E+00
Ga    8.0368594642632143E+00    2.7943076836683454E+00    1.0459041258591784E+01
N    8.0234226170173581E+00    4.6547507560357717E+00    1.1038998355973133E+01
Ga    8.0200055266928398E+00    4.6524672793500557E+00    1.3108072935821285E+01
N    8.0401505662177506E+00    2.7934581772012228E+00    1.3458379434656349E+01
Ga    6.4292400851425695E+00    5.5828627329085219E+00   -1.6106614539551814E-01
N    6.4247720368032226E+00    7.4428861134422268E+00    6.2094495077672762E-01
Ga    6.4270744193740494E+00    7.4433482461305100E+00    2.5549734761538239E+00
N    6.4293808360696483E+00    5.5836521094705507E+00    3.2404183604330918E+00
Ga    6.4304461622273159E+00    5.5834439378584655E+00    5.1994089142522890E+00
N    6.4270426907496256E+00    7.4441239935342649E+00    5.8551495065612169E+00
Ga    6.4309290324568629E+00    7.4446332345704143E+00    7.8231841382122376E+00
N    6.4336582285750845E+00    5.5831074827030838E+00    8.4620633966344130E+00
Ga    6.4225744123191850E+00    5.5944587682725961E+00    1.0445529892384078E+01
N    6.4285395387919735E+00    7.4454991735581295E+00    1.1049892974479073E+01
Ga    6.4327765963504460E+00    7.4233030943642282E+00    1.3136568778405033E+01
N    6.4306326759366943E+00    5.5814930242420377E+00    1.3556963431599993E+01
Ga    4.8175281444283655E+00    8.3740758941827487E+00   -1.6374619172361318E-01
N    4.8133264835495426E+00    1.0233699250682220E+01    6.1964304378791568E-01
Ga    4.8155424670465976E+00    1.0234122293385415E+01    2.5531022871971789E+00
N    4.8181639291150242E+00    8.3752415939687737E+00    3.2399436652124605E+00
Ga    4.8188433173929610E+00    8.3748594172120772E+00    5.1985769281264460E+00
N    4.8159126810030930E+00    1.0233209693146572E+01    5.8604248938586982E+00
Ga    4.8161800939203205E+00    1.0232799173838730E+01    7.8304885235211366E+00
N    4.8215451261574866E+00    8.3702364086620982E+00    8.4718329998897701E+00
Ga    4.8130673666399728E+00    8.3747504849892174E+00    1.0465244852498788E+01
N    4.8057273362016231E+00    1.0242075153732438E+01    1.1036096363812799E+01
Ga    4.8011205499276466E+00    1.0233534485758623E+01    1.3106436973713851E+01
N    4.8140319775270024E+00    8.3704256823115415E+00    1.3418374269861159E+01
H    4.8157997077001937E+00    8.3738156283998535E+00   -1.7149376994682650E+00
H    1.5997603994291572E+00    8.3739393211678586E+00   -1.7129244412226863E+00
H   -1.6174157528765341E+00    8.3744994558351546E+00   -1.7130386654294631E+00
H   -4.8353259014127454E+00    8.3748382604664311E+00   -1.7137138412020263E+00
H    6.4274114922654721E+00    5.5824799715792208E+00   -1.7122442068088510E+00
H    3.2109780101288710E+00    5.5829999489241287E+00   -1.7133208262054247E+00
H   -5.6051595516814169E-03    5.5830248747069779E+00   -1.7149742371142167E+00
H   -3.2236635523259958E+00    5.5827267329519099E+00   -1.7137629190117301E+00
H    8.0397492110014088E+00    2.7915168563458943E+00   -1.7126415776039703E+00
H    4.8218093653243024E+00    2.7916762727390356E+00   -1.7145466732202352E+00
H    1.6049710914599544E+00    2.7910822515168139E+00   -1.7136664130073391E+00
H   -1.6111522084742453E+00    2.7902203948714202E+00   -1.7126795224499598E+00
H    5.3225057242395780E-04    2.2875542318378817E-04   -1.7134311577509889E+00
H    3.2168028254698338E+00   -2.7222896942099992E-04   -1.7122554789353135E+00
H    6.4337674673495293E+00   -5.2733626067384004E-04   -1.7138012546463761E+00
H    9.6506881965913109E+00    6.4721079937257544E-05   -1.7143501988879157E+00
     &END COORD
     &KIND H
       BASIS_SET DZVP-MOLOPT-SR-GTH-q1
       POTENTIAL GTH-PBE-q1
       &POTENTIAL
1
0.2000000000000000E+00 2 -0.4178900440000000E+01  0.7244633100000000E+00
0
       &END POTENTIAL
     &END KIND
     &KIND N
       BASIS_SET DZVP-MOLOPT-SR-GTH
       POTENTIAL GTH-PBE-q5
       &POTENTIAL
2 3
0.2837905100000000E+00 2 -0.1241522559000000E+02  0.1868095920000000E+01
2
0.2554050000000000E+00 1  0.1363026257000000E+02
0.2454945300000000E+00 0
       &END POTENTIAL
     &END KIND
     &KIND Ga
       BASIS_SET DZVP-MOLOPT-SR-GTH
       POTENTIAL GTH-PBE-q13
       &POTENTIAL
2 1 10
0.4900000000000000E+00 0
3
0.4167772300000000E+00 3  0.1047568975000000E+02 -0.4921768140000000E+01  0.8707055900000000E+00
0.7770178090000000E+01 -0.2248152160000000E+01
0.1784415450000000E+01
0.5696265200000000E+00 2  0.1777985340000000E+01  0.1958597600000000E+00
-0.2317443900000000E+00
0.2381265000000000E+00 1 -0.1624868022000000E+02
       &END POTENTIAL
     &END KIND
     &TOPOLOGY
       NUMBER_OF_ATOMS  208
       MULTIPLE_UNIT_CELL  1 1 1
     &END TOPOLOGY
   &END SUBSYS
 &END FORCE_EVAL
