 # Version information for this restart file 
 # current date 2019-05-25 21:39:24.938
 # current working dir /lustre03/project/6004141/rzk/GaN-carbene/00-Surface/00-Preoptimization/443-capped/CELL_OPT
 # Program compiled at                              Sun Apr  7 00:48:11 EDT 2019
 # Program compiled on                          beluga2.int.ets1.calculquebec.ca
 # Program compiled for                        Beluga-Linux-x86-64-intel-openmpi
 # Source code revision number                                         svn:18619
 &GLOBAL
   PRINT_LEVEL  MEDIUM
   PROJECT_NAME TEST
   RUN_TYPE  CELL_OPT
 &END GLOBAL
 &MOTION
   &CELL_OPT
     MAX_ITER  300
     STEP_START_VAL  6
     EXTERNAL_PRESSURE     1.0000000000000000E+00
     KEEP_ANGLES  T
     KEEP_SYMMETRY  T
     CONSTRAINT  Z
     PRESSURE_TOLERANCE     5.0000000000000000E+02
   &END CELL_OPT
 &END MOTION
 &FORCE_EVAL
   METHOD  QS
   STRESS_TENSOR  ANALYTICAL
   &DFT
     BASIS_SET_FILE_NAME BASIS_MOLOPT
     POTENTIAL_FILE_NAME GTH_POTENTIALS
     SURFACE_DIPOLE_CORRECTION  T
     SURF_DIP_DIR  Z
     &SCF
       MAX_SCF  100
       EPS_SCF     5.0000000000000004E-06
       &OT  T
         PRECONDITIONER  FULL_ALL
       &END OT
       &OUTER_SCF  T
         OPTIMIZER  NONE
         EPS_SCF     5.0000000000000004E-06
         MAX_SCF  4
       &END OUTER_SCF
       &PRINT
         &RESTART  OFF
           BACKUP_COPIES  1
           &EACH
             JUST_ENERGY  0
             QS_SCF  0
             MD  20
           &END EACH
         &END RESTART
       &END PRINT
     &END SCF
     &QS
       EPS_DEFAULT     1.0000000000000000E-14
       METHOD  GPW
     &END QS
     &MGRID
       NGRIDS  5
       CUTOFF     1.2000000000000000E+03
     &END MGRID
     &XC
       DENSITY_CUTOFF     1.0000000000000000E-10
       GRADIENT_CUTOFF     1.0000000000000000E-10
       TAU_CUTOFF     1.0000000000000000E-10
       &XC_FUNCTIONAL  NO_SHORTCUT
         &PBE  T
         &END PBE
       &END XC_FUNCTIONAL
       &VDW_POTENTIAL
         POTENTIAL_TYPE  PAIR_POTENTIAL
         &PAIR_POTENTIAL
           R_CUTOFF     1.0000000000000004E+01
           TYPE  DFTD3
           PARAMETER_FILE_NAME dftd3.dat
           REFERENCE_FUNCTIONAL PBE
           EPS_CN     9.9999999999999995E-07
           CALCULATE_C9_TERM  T
           REFERENCE_C9_TERM  T
           LONG_RANGE_CORRECTION  F
           VERBOSE_OUTPUT  F
         &END PAIR_POTENTIAL
       &END VDW_POTENTIAL
     &END XC
   &END DFT
   &SUBSYS
     &CELL
       A     1.2894269487797100E+01    0.0000000000000000E+00    0.0000000000000000E+00
       B    -6.4474244530871312E+00    1.1167266730708905E+01    0.0000000000000000E+00
       C     0.0000000000000000E+00    0.0000000000000000E+00    2.9000000000000000E+01
       MULTIPLE_UNIT_CELL  1 1 1
       &CELL_REF
         A     1.2982353780853531E+01    0.0000000000000000E+00    0.0000000000000000E+00
         B    -6.4911768904267628E+00    1.1243048175136114E+01    0.0000000000000000E+00
         C     0.0000000000000000E+00    0.0000000000000000E+00    2.9000000000000000E+01
         MULTIPLE_UNIT_CELL  1 1 1
       &END CELL_REF
     &END CELL
     &COORD
Ga    5.4126254145000141E-04   -2.1832123981801779E-04   -1.4844810966785710E-01
N    5.0142595010116420E-04    1.8610818214661933E+00    6.3108038822364387E-01
Ga    8.8150709295857933E-04    1.8610184119431217E+00    2.5652948753885361E+00
N    4.2080235332441802E-04   -4.8348749116243765E-04    3.2468057998463253E+00
Ga    1.6885978842330522E-03    3.2595014447784530E-04    5.2053773883863474E+00
N    8.9544181183884102E-04    1.8609474184951762E+00    5.8579675169891772E+00
Ga    6.7058475499007784E-04    1.8614490479088006E+00    7.8242073015757816E+00
N    4.7365686689167068E-03    2.9495961971024446E-04    8.4654227226590884E+00
Ga    1.5341745001795457E-03   -1.0133479919885078E-03    1.0451838945715233E+01
N   -1.9383395504007700E-03    1.8622451482836169E+00    1.1030726726299005E+01
Ga   -1.0550115370710541E-03    1.8612678269888603E+00    1.3102900289224829E+01
N   -2.6285625339705703E-04   -1.3157125008507790E-03    1.3449784379209884E+01
Ga   -1.6110717684201081E+00    2.7918475780656391E+00   -1.4917397545395253E-01
N   -1.6112705563667022E+00    4.6529884768205214E+00    6.2991486188967116E-01
Ga   -1.6109498236535114E+00    4.6525971640613628E+00    2.5635904843592696E+00
N   -1.6110862135128405E+00    2.7920273877041941E+00    3.2462578604723107E+00
Ga   -1.6105968727505136E+00    2.7907874594350819E+00    5.2048072170391402E+00
N   -1.6110068248894989E+00    4.6531424924853839E+00    5.8575772553866337E+00
Ga   -1.6107384153687534E+00    4.6521519259318032E+00    7.8259699298683687E+00
N   -1.6102125921161503E+00    2.7896457648227080E+00    8.4648594127313697E+00
Ga   -1.6130665069624377E+00    2.7931892046168589E+00    1.0450092714985161E+01
N   -1.6148878765997838E+00    4.6546294931745171E+00    1.1031208860271978E+01
Ga   -1.6092213786059852E+00    4.6519411247512945E+00    1.3108820963580172E+01
N   -1.6096695898246194E+00    2.7905114067130325E+00    1.3466649694999630E+01
Ga   -3.2228047923304168E+00    5.5837571212079871E+00   -1.4998091152069973E-01
N   -3.2231517623309491E+00    7.4447596585314271E+00    6.3025332943240886E-01
Ga   -3.2226503626078675E+00    7.4445511852823554E+00    2.5639622790225398E+00
N   -3.2223307866986652E+00    5.5834133364917973E+00    3.2456023002649488E+00
Ga   -3.2233566473670665E+00    5.5834610883108269E+00    5.2041590867728527E+00
N   -3.2227493376636160E+00    7.4447553932761723E+00    5.8579690635468751E+00
Ga   -3.2235155848877883E+00    7.4454632039620963E+00    7.8258337883628100E+00
N   -3.2220693630496053E+00    5.5821052865831566E+00    8.4637725089088036E+00
Ga   -3.2235908302873737E+00    5.5842933003255064E+00    1.0451600524323769E+01
N   -3.2236563475491011E+00    7.4474888504346568E+00    1.1031395714315718E+01
Ga   -3.2261236052079529E+00    7.4449946626260850E+00    1.3103010321941964E+01
N   -3.2240989815856809E+00    5.5839486606167217E+00    1.3442591563102903E+01
Ga   -4.8349270445221277E+00    8.3754087545864095E+00   -1.4919406369915209E-01
N   -4.8350758914020266E+00    1.0236465925788226E+01    6.3121599217038982E-01
Ga   -4.8347167601258736E+00    1.0236317476664162E+01    2.5653315954652700E+00
N   -4.8345260071223750E+00    8.3746355153599019E+00    3.2465005989155373E+00
Ga   -4.8351132269661532E+00    8.3755499159658022E+00    5.2052364255394625E+00
N   -4.8351564330960768E+00    1.0236407436839402E+01    5.8572460519829566E+00
Ga   -4.8340122472185492E+00    1.0235700039043284E+01    7.8240016845719200E+00
N   -4.8340934913342624E+00    8.3754047379701948E+00    8.4655321895189761E+00
Ga   -4.8354131822853725E+00    8.3747441002221308E+00    1.0452891564668548E+01
N   -4.8365811221820545E+00    1.0238526842167133E+01    1.1031361676029672E+01
Ga   -4.8336531090454820E+00    1.0234076182716276E+01    1.3110216714743281E+01
N   -4.8346959497764512E+00    8.3738931280177180E+00    1.3461677433956936E+01
Ga    3.2242548079174651E+00    2.7431897669377977E-05   -1.4830582491006747E-01
N    3.2241496775720000E+00    1.8611321106312539E+00    6.3100301172725914E-01
Ga    3.2244767864274939E+00    1.8607686090501461E+00    2.5648384053455828E+00
N    3.2245037666091956E+00   -1.5338851489388847E-04    3.2466872740882358E+00
Ga    3.2246214590681581E+00   -7.6601653091743708E-04    5.2054569593415163E+00
N    3.2239762271875407E+00    1.8610543578646952E+00    5.8583185236090669E+00
Ga    3.2241986071519411E+00    1.8592006036576980E+00    7.8266472112402266E+00
N    3.2254118056457672E+00   -2.4866904408453560E-03    8.4660466736583988E+00
Ga    3.2228154875969599E+00   -2.6125249649799079E-04    1.0451574546325872E+01
N    3.2178657805841708E+00    1.8585964521263099E+00    1.1031960438209849E+01
Ga    3.2251895651499587E+00    1.8600695398740794E+00    1.3109670445157821E+01
N    3.2271903263682891E+00   -1.5827145333634416E-03    1.3463849614046421E+01
Ga    1.6125753375067757E+00    2.7918270793047353E+00   -1.4866234668939379E-01
N    1.6121278246097179E+00    4.6529695270066878E+00    6.3067831446967626E-01
Ga    1.6128526194323287E+00    4.6526412844355258E+00    2.5643771243518207E+00
N    1.6129849538178069E+00    2.7918048166293827E+00    3.2466719212454143E+00
Ga    1.6122860414184979E+00    2.7914811917576583E+00    5.2053942000083229E+00
N    1.6125234001964193E+00    4.6531269195101874E+00    5.8588984365496515E+00
Ga    1.6128412843954028E+00    4.6521325665515496E+00    7.8271336074069469E+00
N    1.6129194673302008E+00    2.7899310411273679E+00    8.4644600363477291E+00
Ga    1.6137755898126047E+00    2.7925965184517754E+00    1.0451082195009066E+01
N    1.6141380710635436E+00    4.6528053036704877E+00    1.1030110907721845E+01
Ga    1.6105399178247741E+00    4.6532786563062150E+00    1.3103584207572514E+01
N    1.6112908922628610E+00    2.7931399290905423E+00    1.3445866947955610E+01
Ga    6.5695216916608352E-04    5.5836145536729571E+00   -1.4997479300321584E-01
N    4.1293265397550339E-04    7.4446873596102803E+00    6.3039326241142102E-01
Ga    8.3045025168080385E-04    7.4446390022995095E+00    2.5643122893957786E+00
N    7.9883106607702575E-04    5.5830619749282082E+00    3.2459651113773447E+00
Ga    1.1184021658823412E-03    5.5835670177360663E+00    5.2045363541499716E+00
N    7.5136300686284374E-04    7.4446770002854796E+00    5.8566436318798063E+00
Ga    1.2973222695774759E-03    7.4443375665128251E+00    7.8236894357291478E+00
N    1.7447667869187693E-03    5.5840516216204010E+00    8.4667868341814678E+00
Ga    2.5298432526163262E-03    5.5838830356041615E+00    1.0457595938790067E+01
N   -1.0999010174238438E-03    7.4502069345604403E+00    1.1028206184653472E+01
Ga    2.3582353299311052E-03    7.4434439820541209E+00    1.3110002593204015E+01
N    1.4915424343024831E-03    5.5825020505996221E+00    1.3454709078175924E+01
Ga   -1.6112451460141073E+00    8.3754658216980875E+00   -1.4930480411994887E-01
N   -1.6112948603294910E+00    1.0236588730171217E+01    6.3076043282979100E-01
Ga   -1.6110536008734087E+00    1.0236448469950520E+01    2.5649118996771652E+00
N   -1.6110829069571542E+00    8.3749549652172171E+00    3.2459350793094663E+00
Ga   -1.6107259188686309E+00    8.3755905119872853E+00    5.2043886602313707E+00
N   -1.6108549429966463E+00    1.0236285179809784E+01    5.8576184074204667E+00
Ga   -1.6117365805534416E+00    1.0237086400580061E+01    7.8240178765053754E+00
N   -1.6085842949374924E+00    8.3748938575581260E+00    8.4625355379194218E+00
Ga   -1.6101271616705974E+00    8.3751848167607879E+00    1.0448154714344902E+01
N   -1.6122814800170169E+00    1.0236155651929220E+01    1.1030820978468897E+01
Ga   -1.6124394463366687E+00    1.0235248574987224E+01    1.3104513553203745E+01
N   -1.6126417110959190E+00    8.3726620133359955E+00    1.3450170768078056E+01
Ga    6.4479868241663700E+00    2.3590655312659567E-05   -1.4937742207086904E-01
N    6.4476461653032748E+00    1.8610607985551657E+00    6.3038758604426426E-01
Ga    6.4482090081829497E+00    1.8608127941705930E+00    2.5639968882534250E+00
N    6.4485038643835058E+00    7.9784266233679370E-06    3.2461119840433961E+00
Ga    6.4478638267674686E+00   -5.0766883042616682E-04    5.2047287788571754E+00
N    6.4479205579930259E+00    1.8609704690278994E+00    5.8592872661847784E+00
Ga    6.4480496780143932E+00    1.8611136048371728E+00    7.8284088008589663E+00
N    6.4495927603152419E+00   -3.1601563817469560E-03    8.4643232938720558E+00
Ga    6.4500818348645188E+00    7.4121257578506361E-04    1.0451961355149740E+01
N    6.4473174053131093E+00    1.8602223628472334E+00    1.1032710630622015E+01
Ga    6.4474114489416987E+00    1.8608066911733843E+00    1.3104657043226238E+01
N    6.4475915512953446E+00   -1.4413012614188965E-04    1.3443139508409798E+01
Ga    4.8359513127743083E+00    2.7916294494644744E+00   -1.4931411275551376E-01
N    4.8357401786794467E+00    4.6528012563682637E+00    6.3076566565878989E-01
Ga    4.8361963819384366E+00    4.6527770781351485E+00    2.5648014920584932E+00
N    4.8365299855711283E+00    2.7912144463113617E+00    3.2464500982816871E+00
Ga    4.8356679758224095E+00    2.7915107080489125E+00    5.2053674239187933E+00
N    4.8354842600814907E+00    4.6526144853074491E+00    5.8573259881151198E+00
Ga    4.8371524736807325E+00    4.6521128470692670E+00    7.8247099386345393E+00
N    4.8358579728212572E+00    2.7918789739651828E+00    8.4684791387844740E+00
Ga    4.8345398157992632E+00    2.7921683832237454E+00    1.0459689630026958E+01
N    4.8348430008156953E+00    4.6596672729646293E+00    1.1028456927476164E+01
Ga    4.8361791663505613E+00    4.6518368085208568E+00    1.3109328725420138E+01
N    4.8369103665859541E+00    2.7910977751164321E+00    1.3450290149103763E+01
Ga    3.2240445774001754E+00    5.5836923754774785E+00   -1.4877705664378643E-01
N    3.2239850090636510E+00    7.4448417778911056E+00    6.3087349197811760E-01
Ga    3.2243055433973713E+00    7.4446164450927466E+00    2.5648351393551154E+00
N    3.2242277414267448E+00    5.5833745230226626E+00    3.2463861047656324E+00
Ga    3.2247077582461725E+00    5.5835592225749604E+00    5.2049829176714688E+00
N    3.2246094852409763E+00    7.4447831397059847E+00    5.8582114439064350E+00
Ga    3.2236762485644426E+00    7.4445181588729401E+00    7.8248606931444087E+00
N    3.2267923506854008E+00    5.5831807329896064E+00    8.4624496055436840E+00
Ga    3.2247297601915261E+00    5.5820732554388419E+00    1.0447737927732437E+01
N    3.2190703408143562E+00    7.4412948775488310E+00    1.1027339540632600E+01
Ga    3.2221297545525420E+00    7.4453637375755504E+00    1.3103407120020185E+01
N    3.2227928675544120E+00    5.5826408955991891E+00    1.3453928111491399E+01
Ga    1.6123575982565439E+00    8.3755544466310301E+00   -1.4904957075339212E-01
N    1.6121368440396813E+00    1.0236611138470421E+01    6.3061037375107276E-01
Ga    1.6126212322223361E+00    1.0236239628485881E+01    2.5644373432629273E+00
N    1.6125049547838601E+00    8.3751997002048650E+00    3.2463067865613207E+00
Ga    1.6130737365219461E+00    8.3750753459872236E+00    5.2047817287883920E+00
N    1.6123246188563476E+00    1.0236504464957079E+01    5.8571151820557921E+00
Ga    1.6131868330419068E+00    1.0235844326075677E+01    7.8244976436260627E+00
N    1.6136391786025472E+00    8.3743557245382689E+00    8.4634745749419231E+00
Ga    1.6102290604031104E+00    8.3757467251808908E+00    1.0448982360733803E+01
N    1.6111517108462257E+00    1.0234879058534029E+01    1.1027832342529468E+01
Ga    1.6150112366458123E+00    1.0236144371908729E+01    1.3107769431404000E+01
N    1.6148428166185549E+00    8.3753440027133106E+00    1.3473595120465870E+01
Ga    9.6715973559931037E+00   -2.6537344606315669E-04   -1.4943184757467132E-01
N    9.6712229909360676E+00    1.8609730658593091E+00    6.3047870635901893E-01
Ga    9.6716124205154514E+00    1.8609304036660743E+00    2.5646166097981373E+00
N    9.6720612470399558E+00   -6.7551949681865010E-04    3.2463865620243726E+00
Ga    9.6713062486749379E+00    2.0270371512346766E-05    5.2049597874039222E+00
N    9.6714432274679378E+00    1.8608193686560006E+00    5.8562660703016673E+00
Ga    9.6720696862267967E+00    1.8607142285903684E+00    7.8225787234687170E+00
N    9.6713614953050371E+00    9.9820125497367541E-04    8.4658092334862758E+00
Ga    9.6712077881975294E+00   -1.5353967893648364E-03    1.0454040165694879E+01
N    9.6696296386256151E+00    1.8649653506137533E+00    1.1029021031484023E+01
Ga    9.6720356085304431E+00    1.8592206056995304E+00    1.3107394686116770E+01
N    9.6717107399486721E+00   -4.5921003126336500E-06    1.3461263472672560E+01
Ga    8.0594191064155680E+00    2.7915580511492069E+00   -1.4931784127911368E-01
N    8.0594628897229832E+00    4.6529332975426723E+00    6.3026241487919987E-01
Ga    8.0596605669515906E+00    4.6526362288506240E+00    2.5645224007622089E+00
N    8.0594749624802482E+00    2.7912372596096282E+00    3.2459969832668438E+00
Ga    8.0603253258073231E+00    2.7919966705172854E+00    5.2045980191170154E+00
N    8.0599380339743476E+00    4.6529873152834202E+00    5.8569889295891944E+00
Ga    8.0591969606418044E+00    4.6527633612379411E+00    7.8233139119424182E+00
N    8.0637118217874946E+00    2.7917734742667131E+00    8.4626147596189565E+00
Ga    8.0581204236064181E+00    2.7913981329973150E+00    1.0447748789030994E+01
N    8.0564628268474490E+00    4.6513037490325067E+00    1.1028686914632452E+01
Ga    8.0575114252406763E+00    4.6528191754065995E+00    1.3101934486412135E+01
N    8.0589796111602574E+00    2.7910673959035441E+00    1.3454621429636056E+01
Ga    6.4475164063107204E+00    5.5837936747213099E+00   -1.4892028006338151E-01
N    6.4474383570598697E+00    7.4448127819586549E+00    6.3073449922476199E-01
Ga    6.4479528542939288E+00    7.4443885824865550E+00    2.5644928106466192E+00
N    6.4478057721100646E+00    5.5834943812453721E+00    3.2463093086893049E+00
Ga    6.4479501366677496E+00    5.5826543114093514E+00    5.2050469031871964E+00
N    6.4470986534748622E+00    7.4447045899666264E+00    5.8578424776625795E+00
Ga    6.4494568243449732E+00    7.4427366469930556E+00    7.8258533810401412E+00
N    6.4491130471301341E+00    5.5816149159169308E+00    8.4640730308366976E+00
Ga    6.4457361727942635E+00    5.5830107881369821E+00    1.0449189927873446E+01
N    6.4474311040342727E+00    7.4439610075489115E+00    1.1029669012808149E+01
Ga    6.4503111119458367E+00    7.4434546860586082E+00    1.3108291376542148E+01
N    6.4495226215035277E+00    5.5819243750267473E+00    1.3469785641836854E+01
Ga    4.8358562330333976E+00    8.3756568089448624E+00   -1.4924781276687893E-01
N    4.8355508862010916E+00    1.0236496176784037E+01    6.3088221242871811E-01
Ga    4.8361848606079203E+00    1.0236397482696846E+01    2.5642671731452800E+00
N    4.8362899071727927E+00    8.3755353942731539E+00    3.2464324123094808E+00
Ga    4.8359119226964715E+00    8.3747583396603726E+00    5.2050149353581876E+00
N    4.8360654941808745E+00    1.0236198328427177E+01    5.8602024069809904E+00
Ga    4.8367658073579527E+00    1.0237589512809736E+01    7.8294107642311968E+00
N    4.8371986436249301E+00    8.3725743051329307E+00    8.4665705912366906E+00
Ga    4.8361755302255096E+00    8.3734769192619307E+00    1.0456690553057413E+01
N    4.8340509231586033E+00    1.0238388076462099E+01    1.1032668657785102E+01
Ga    4.8328699885119137E+00    1.0237141180574268E+01    1.3104399687107005E+01
N    4.8352727689932369E+00    8.3756080291134865E+00    1.3440488992061713E+01
H    4.8353994750662110E+00    8.3754587087300543E+00   -1.7007976015321162E+00
H    1.6119759540756129E+00    8.3755788397366473E+00   -1.7008427359040874E+00
H   -1.6114177033732127E+00    8.3756468248541562E+00   -1.7010635102568283E+00
H   -4.8352339808489866E+00    8.3755379075173213E+00   -1.7008062535675179E+00
H    6.4474261889934814E+00    5.5837969860472922E+00   -1.7007215661520723E+00
H    3.2239374889082493E+00    5.5839773098772794E+00   -1.7005064200120246E+00
H    4.1010970978138750E-04    5.5840849567690443E+00   -1.7015476686169175E+00
H   -3.2233289853001188E+00    5.5839434289724617E+00   -1.7016600577460792E+00
H    8.0592429026483270E+00    2.7914386707983212E+00   -1.7011105398725046E+00
H    4.8357043605468819E+00    2.7914981892433359E+00   -1.7008636911828785E+00
H    1.6121007298653431E+00    2.7915934968358371E+00   -1.7003188418361608E+00
H   -1.6115703460199207E+00    2.7913370318839457E+00   -1.7009782391295518E+00
H    3.0743107328692855E-04   -4.8236307008590071E-04   -1.7001134905928166E+00
H    3.2240515787721016E+00   -4.5877284903536646E-04   -1.7000808457081575E+00
H    6.4475600581962862E+00   -4.7699868095888272E-04   -1.7010541562876582E+00
H    9.6708595674268309E+00   -5.1784287603405098E-04   -1.7010312973288897E+00
     &END COORD
     &KIND H
       BASIS_SET DZVP-MOLOPT-SR-GTH-q1
       POTENTIAL GTH-PBE-q1
       &POTENTIAL
1
0.2000000000000000E+00 2 -0.4178900440000000E+01  0.7244633100000000E+00
0
       &END POTENTIAL
     &END KIND
     &KIND N
       BASIS_SET DZVP-MOLOPT-SR-GTH
       POTENTIAL GTH-PBE-q5
       &POTENTIAL
2 3
0.2837905100000000E+00 2 -0.1241522559000000E+02  0.1868095920000000E+01
2
0.2554050000000000E+00 1  0.1363026257000000E+02
0.2454945300000000E+00 0
       &END POTENTIAL
     &END KIND
     &KIND Ga
       BASIS_SET DZVP-MOLOPT-SR-GTH
       POTENTIAL GTH-PBE-q13
       &POTENTIAL
2 1 10
0.4900000000000000E+00 0
3
0.4167772300000000E+00 3  0.1047568975000000E+02 -0.4921768140000000E+01  0.8707055900000000E+00
0.7770178090000000E+01 -0.2248152160000000E+01
0.1784415450000000E+01
0.5696265200000000E+00 2  0.1777985340000000E+01  0.1958597600000000E+00
-0.2317443900000000E+00
0.2381265000000000E+00 1 -0.1624868022000000E+02
       &END POTENTIAL
     &END KIND
     &TOPOLOGY
       NUMBER_OF_ATOMS  208
       MULTIPLE_UNIT_CELL  1 1 1
     &END TOPOLOGY
   &END SUBSYS
 &END FORCE_EVAL
