 # Version information for this restart file 
 # current date 2019-05-26 00:26:58.474
 # current working dir /lustre03/project/6004141/rzk/GaN-carbene/00-Surface/00-Preoptimization/443-capped/CELL_OPT
 # Program compiled at                              Sun Apr  7 00:48:11 EDT 2019
 # Program compiled on                          beluga2.int.ets1.calculquebec.ca
 # Program compiled for                        Beluga-Linux-x86-64-intel-openmpi
 # Source code revision number                                         svn:18619
 &GLOBAL
   PRINT_LEVEL  MEDIUM
   PROJECT_NAME TEST
   RUN_TYPE  CELL_OPT
 &END GLOBAL
 &MOTION
   &CELL_OPT
     MAX_ITER  300
     STEP_START_VAL  37
     EXTERNAL_PRESSURE     1.0000000000000000E+00
     KEEP_ANGLES  T
     KEEP_SYMMETRY  T
     CONSTRAINT  Z
     PRESSURE_TOLERANCE     5.0000000000000000E+02
   &END CELL_OPT
 &END MOTION
 &FORCE_EVAL
   METHOD  QS
   STRESS_TENSOR  ANALYTICAL
   &DFT
     BASIS_SET_FILE_NAME BASIS_MOLOPT
     POTENTIAL_FILE_NAME GTH_POTENTIALS
     SURFACE_DIPOLE_CORRECTION  T
     SURF_DIP_DIR  Z
     &SCF
       MAX_SCF  100
       EPS_SCF     5.0000000000000004E-06
       &OT  T
         PRECONDITIONER  FULL_ALL
       &END OT
       &OUTER_SCF  T
         OPTIMIZER  NONE
         EPS_SCF     5.0000000000000004E-06
         MAX_SCF  4
       &END OUTER_SCF
       &PRINT
         &RESTART  OFF
           BACKUP_COPIES  1
           &EACH
             JUST_ENERGY  0
             QS_SCF  0
             MD  20
           &END EACH
         &END RESTART
       &END PRINT
     &END SCF
     &QS
       EPS_DEFAULT     1.0000000000000000E-14
       METHOD  GPW
     &END QS
     &MGRID
       NGRIDS  5
       CUTOFF     1.2000000000000000E+03
     &END MGRID
     &XC
       DENSITY_CUTOFF     1.0000000000000000E-10
       GRADIENT_CUTOFF     1.0000000000000000E-10
       TAU_CUTOFF     1.0000000000000000E-10
       &XC_FUNCTIONAL  NO_SHORTCUT
         &PBE  T
         &END PBE
       &END XC_FUNCTIONAL
       &VDW_POTENTIAL
         POTENTIAL_TYPE  PAIR_POTENTIAL
         &PAIR_POTENTIAL
           R_CUTOFF     1.0000000000000004E+01
           TYPE  DFTD3
           PARAMETER_FILE_NAME dftd3.dat
           REFERENCE_FUNCTIONAL PBE
           EPS_CN     9.9999999999999995E-07
           CALCULATE_C9_TERM  T
           REFERENCE_C9_TERM  T
           LONG_RANGE_CORRECTION  F
           VERBOSE_OUTPUT  F
         &END PAIR_POTENTIAL
       &END VDW_POTENTIAL
     &END XC
   &END DFT
   &SUBSYS
     &CELL
       A     1.2845446596128889E+01    0.0000000000000000E+00    0.0000000000000000E+00
       B    -6.4476885768386714E+00    1.1167724206466065E+01    0.0000000000000000E+00
       C     0.0000000000000000E+00    0.0000000000000000E+00    2.9000000000000000E+01
       MULTIPLE_UNIT_CELL  1 1 1
       &CELL_REF
         A     1.2982353780853531E+01    0.0000000000000000E+00    0.0000000000000000E+00
         B    -6.4911768904267628E+00    1.1243048175136114E+01    0.0000000000000000E+00
         C     0.0000000000000000E+00    0.0000000000000000E+00    2.9000000000000000E+01
         MULTIPLE_UNIT_CELL  1 1 1
       &END CELL_REF
     &END CELL
     &COORD
Ga    1.2608351540525095E-03   -9.6154026682878529E-04   -1.7189788050173907E-01
N   -5.2048843803488478E-03    1.8580863613519141E+00    6.1399184902702131E-01
Ga   -3.8406625946362812E-04    1.8609040255215952E+00    2.5485066468454232E+00
N    5.0609518605090973E-03    2.2095532708551963E-03    3.2361698451235106E+00
Ga    5.7307653939974532E-03    4.8265366311191579E-04    5.1963678175893024E+00
N    3.8581121862125739E-04    1.8586304220210246E+00    5.8583048345054110E+00
Ga    3.0998800171404780E-03    1.8599366850336698E+00    7.8265040535357366E+00
N    1.2652576027971093E-02    3.3861696738242400E-03    8.4799033658868925E+00
Ga    1.2155662473113801E-02    6.8160056993874568E-03    1.0468277355362304E+01
N   -6.1710606751143697E-03    1.8660029268089771E+00    1.1060173314064851E+01
Ga   -3.0969284543598739E-02    1.8537183236904955E+00    1.3129633407527637E+01
N   -1.1049292986159948E-02   -1.0247544801662836E-03    1.3466334151920446E+01
Ga   -1.6109983471828144E+00    2.7911171447972674E+00   -1.7219374344092467E-01
N   -1.6171692621007603E+00    4.6499727313971038E+00    6.1422049974105264E-01
Ga   -1.6127827564687887E+00    4.6527919603490062E+00    2.5490741218338835E+00
N   -1.6065200705569980E+00    2.7940554032634055E+00    3.2368658237952395E+00
Ga   -1.6056479541553388E+00    2.7915816679056871E+00    5.1969792172684777E+00
N   -1.6122095968934045E+00    4.6509594001683761E+00    5.8551598740020783E+00
Ga   -1.6095551765736535E+00    4.6517902466937331E+00    7.8226811840869788E+00
N   -1.6028041725115052E+00    2.7943136191305880E+00    8.4736420028629098E+00
Ga   -1.6098930181168176E+00    2.7995566934580158E+00    1.0458487768106897E+01
N   -1.6139416780189562E+00    4.6550168180461595E+00    1.1055506481646631E+01
Ga   -1.6273708719455569E+00    4.6365798361094175E+00    1.3129442735163876E+01
N   -1.6217512433763219E+00    2.7939147139209530E+00    1.3538036523587945E+01
Ga   -3.2227537825244839E+00    5.5829676252571012E+00   -1.7236665076465479E-01
N   -3.2288472716690504E+00    7.4417627866357448E+00    6.1413829385616758E-01
Ga   -3.2241852858871516E+00    7.4445291443784640E+00    2.5488775507285082E+00
N   -3.2189408390331953E+00    5.5861273331798591E+00    3.2371769503574677E+00
Ga   -3.2187593912918291E+00    5.5848120591181560E+00    5.1975238556631771E+00
N   -3.2233410030861886E+00    7.4431127473329992E+00    5.8588932293587277E+00
Ga   -3.2213016568371433E+00    7.4460905975514811E+00    7.8271427405244882E+00
N   -3.2140194841569465E+00    5.5856025663207065E+00    8.4731024362062417E+00
Ga   -3.2177946105569530E+00    5.5895437422342509E+00    1.0459429349401782E+01
N   -3.2311463987896563E+00    7.4490841635927731E+00    1.1051582661430309E+01
Ga   -3.2539126405170649E+00    7.4397054101419293E+00    1.3114339470691588E+01
N   -3.2331471699379586E+00    5.5852568435947205E+00    1.3463296510687881E+01
Ga   -4.8346556707014061E+00    8.3750244508214493E+00   -1.7174524512588615E-01
N   -4.8406586801421190E+00    1.0233835827352987E+01    6.1485430707949429E-01
Ga   -4.8357747184366309E+00    1.0236612955800451E+01    2.5497233767010807E+00
N   -4.8302614065836238E+00    8.3776689717612083E+00    3.2367215465196311E+00
Ga   -4.8294522969035540E+00    8.3762047358864571E+00    5.1969908974872272E+00
N   -4.8362874789012942E+00    1.0234877745782057E+01    5.8564850410725873E+00
Ga   -4.8337242606763855E+00    1.0236790108214791E+01    7.8238434522270248E+00
N   -4.8273031561197719E+00    8.3794036392989444E+00    8.4744089369670075E+00
Ga   -4.8340050954724498E+00    8.3858786106836227E+00    1.0458341144091138E+01
N   -4.8334599424755078E+00    1.0235957644577315E+01    1.1068643380081703E+01
Ga   -4.8506252159691119E+00    1.0215126018332926E+01    1.3153035703275039E+01
N   -4.8433696101068335E+00    8.3731211840657789E+00    1.3553805477123493E+01
Ga    3.2124493968909165E+00   -7.8821564934955014E-04   -1.7158284178097236E-01
N    3.2063229988769950E+00    1.8578877488618082E+00    6.1525450247160896E-01
Ga    3.2109412467108607E+00    1.8604332280931097E+00    2.5502674403266226E+00
N    3.2169305872742213E+00    1.7110726473275764E-03    3.2382614972923598E+00
Ga    3.2178265504142431E+00   -7.3782378886805776E-04    5.1989380877173685E+00
N    3.2111378209552539E+00    1.8588163769866461E+00    5.8563080977812634E+00
Ga    3.2138424279830060E+00    1.8596678924550483E+00    7.8239285924939557E+00
N    3.2209778367649586E+00    2.0864659615102664E-03    8.4743773694306022E+00
Ga    3.2147531151811104E+00    6.2643423941475792E-03    1.0458624006722557E+01
N    3.2122844742775838E+00    1.8618045265612475E+00    1.1051327740233713E+01
Ga    3.1962249764806261E+00    1.8439626947313550E+00    1.3122448789009612E+01
N    3.2022250052457064E+00    1.9297966749098050E-03    1.3532924388332438E+01
Ga    1.6007083203679218E+00    2.7908597942524174E+00   -1.7184860076697886E-01
N    1.5943398857079774E+00    4.6498944263497446E+00    6.1386911272454592E-01
Ga    1.5990432997190853E+00    4.6524522490385198E+00    2.5484469483864722E+00
N    1.6044142711286680E+00    2.7939911098163770E+00    3.2368761269114543E+00
Ga    1.6048619317558426E+00    2.7919328631129021E+00    5.1970526234176999E+00
N    1.5997470687196587E+00    4.6505576956056078E+00    5.8568547499886359E+00
Ga    1.6018454988118729E+00    4.6518607466069941E+00    7.8248658137978779E+00
N    1.6103163331737476E+00    2.7940919187995887E+00    8.4758195398958946E+00
Ga    1.6063401273636377E+00    2.7984678860949850E+00    1.0462616372374026E+01
N    1.5930828885389017E+00    4.6575036008124089E+00    1.1052328669947114E+01
Ga    1.5721115360444715E+00    4.6431253513252893E+00    1.3117194016909085E+01
N    1.5911079434120350E+00    2.7904532514008484E+00    1.3465126095196487E+01
Ga   -1.1514923079478354E-02    5.5830037979628173E+00   -1.7209812601593255E-01
N   -1.7615001173885841E-02    7.4419383962193004E+00    6.1425731384127991E-01
Ga   -1.3003565904997190E-02    7.4447823458360842E+00    2.5491182640075727E+00
N   -7.2907407738422650E-03    5.5857427891645681E+00    3.2359296690407549E+00
Ga   -6.2562848349430435E-03    5.5837603117187076E+00    5.1960468854244839E+00
N   -1.2851975522850216E-02    7.4425265417393875E+00    5.8556501579915583E+00
Ga   -9.9972449477747707E-03    7.4444762967683431E+00    7.8231130507131184E+00
N   -3.8004593823075189E-03    5.5866460323780176E+00    8.4725055821519764E+00
Ga   -1.1174692799765226E-02    5.5933810056014135E+00    1.0457054041398923E+01
N   -1.1281911428323087E-02    7.4445007538245500E+00    1.1067368665531134E+01
Ga   -2.8001357673813950E-02    7.4241349438780686E+00    1.3152170012601772E+01
N   -2.0767830464572291E-02    5.5775643374871233E+00    1.3538571066234455E+01
Ga   -1.6233405639002665E+00    8.3749090507180792E+00   -1.7208718850235308E-01
N   -1.6295674600868439E+00    1.0233724972544131E+01    6.1465098849951971E-01
Ga   -1.6248762308882880E+00    1.0236426937757171E+01    2.5494572113363621E+00
N   -1.6194372740550258E+00    8.3777462060206709E+00    3.2368708932314574E+00
Ga   -1.6187822288515035E+00    8.3762643982065441E+00    5.1971394400383026E+00
N   -1.6235877935291865E+00    1.0233738193823250E+01    5.8601167919431161E+00
Ga   -1.6205016851853362E+00    1.0235591299106883E+01    7.8287431515159502E+00
N   -1.6127749630840711E+00    8.3765457244909278E+00    8.4800410230117755E+00
Ga   -1.6148625935692673E+00    8.3797838062647703E+00    1.0468305203228420E+01
N   -1.6292552007488310E+00    1.0241238256792023E+01    1.1057575197144235E+01
Ga   -1.6541681690765575E+00    1.0230709265430566E+01    1.3123480097494927E+01
N   -1.6343746443741836E+00    8.3761603214448641E+00    1.3466274806782243E+01
Ga    6.4238595923324171E+00   -9.1707340851734454E-04   -1.7133432738443138E-01
N    6.4177024874227397E+00    1.8580258673289500E+00    6.1472271786229893E-01
Ga    6.4222317509096936E+00    1.8606056670402642E+00    2.5495291850905146E+00
N    6.4274928542401542E+00    2.0513415743373255E-03    3.2374120056875304E+00
Ga    6.4282321953262471E+00   -3.5597044136795574E-04    5.1978438730386447E+00
N    6.4237608656920617E+00    1.8585372862902130E+00    5.8580849138909254E+00
Ga    6.4268907056455911E+00    1.8596509511610231E+00    7.8264487162656051E+00
N    6.4342150089454355E+00    2.0791185236915407E-03    8.4791421197257328E+00
Ga    6.4326013015883428E+00    5.1049716515172124E-03    1.0466305788182558E+01
N    6.4177054687154902E+00    1.8654789819146869E+00    1.1054222804794705E+01
Ga    6.3958425928386120E+00    1.8511366640295315E+00    1.3118865901232740E+01
N    6.4146069736736342E+00   -7.9284185079198414E-04    1.3470942663467254E+01
Ga    4.8118228675186305E+00    2.7910175895875167E+00   -1.7146256981828059E-01
N    4.8058026884109619E+00    4.6499552793230485E+00    6.1451211128168748E-01
Ga    4.8103345372353168E+00    4.6526359403108222E+00    2.5491606959946882E+00
N    4.8161210622457604E+00    2.7939496762718350E+00    3.2372355753409625E+00
Ga    4.8169566788203539E+00    2.7915258722210736E+00    5.1976143958250303E+00
N    4.8105461924975197E+00    4.6514137725130711E+00    5.8544887959521672E+00
Ga    4.8130714407767092E+00    4.6528877266546385E+00    7.8218913237961667E+00
N    4.8206647919200636E+00    2.7950716616610221E+00    8.4708824981463238E+00
Ga    4.8148524795457064E+00    2.8017817366914031E+00    1.0454819294472106E+01
N    4.8107607681370217E+00    4.6542403378632686E+00    1.1058612475713165E+01
Ga    4.7970398999554957E+00    4.6375318055818910E+00    1.3138516476584373E+01
N    4.8023738406088015E+00    2.7907172809476228E+00    1.3521061112927043E+01
Ga    3.2001078882442555E+00    5.5828925604571653E+00   -1.7221742942226742E-01
N    3.1938194874108001E+00    7.4419873001502914E+00    6.1371637033967263E-01
Ga    3.1983921015772157E+00    7.4447333716145350E+00    2.5483710597165246E+00
N    3.2038025700639090E+00    5.5860647221905397E+00    3.2357796143819497E+00
Ga    3.2039393196724046E+00    5.5847105267698502E+00    5.1958596359870333E+00
N    3.1993500361300597E+00    7.4425559270203410E+00    5.8581643498865192E+00
Ga    3.2013573434156326E+00    7.4442853737337975E+00    7.8266716935801899E+00
N    3.2092988507418463E+00    5.5847292429417532E+00    8.4744703724018891E+00
Ga    3.2063740027084013E+00    5.5882038348296037E+00    1.0461083847874638E+01
N    3.1932310127397074E+00    7.4491609531811509E+00    1.1047528337007158E+01
Ga    3.1679793313681341E+00    7.4375839110554001E+00    1.3110550164269652E+01
N    3.1892719381197319E+00    5.5852966663842736E+00    1.3465174876736725E+01
Ga    1.5879772772373479E+00    8.3751546732075823E+00   -1.7190461073145211E-01
N    1.5818609976542171E+00    1.0233810805923266E+01    6.1521929896547434E-01
Ga    1.5863590339912115E+00    1.0236563068957270E+01    2.5503254971782034E+00
N    1.5922135610696437E+00    8.3774546294653280E+00    3.2368115700942943E+00
Ga    1.5931311596254003E+00    8.3756459192263506E+00    5.1971979936748527E+00
N    1.5869311082809725E+00    1.0234459308974213E+01    5.8560645763155712E+00
Ga    1.5891121154593448E+00    1.0236015088236551E+01    7.8233663691089319E+00
N    1.5955502800296226E+00    8.3786546629691738E+00    8.4746540647569244E+00
Ga    1.5886890700754910E+00    8.3850002739352210E+00    1.0459043423065465E+01
N    1.5897825389335285E+00    1.0237336698183352E+01    1.1064322160590136E+01
Ga    1.5727935201062888E+00    1.0217220832723735E+01    1.3146013959284595E+01
N    1.5783910175072733E+00    8.3726121886609572E+00    1.3539603921521202E+01
Ga    9.6350310043512142E+00   -6.9461163005431420E-04   -1.7140051901425357E-01
N    9.6290574368590214E+00    1.8581541111367257E+00    6.1494629781482757E-01
Ga    9.6335289717268129E+00    1.8607893793025685E+00    2.5497588913163556E+00
N    9.6395080140466689E+00    2.0054682048433895E-03    3.2373476096392966E+00
Ga    9.6402963615874100E+00   -1.1876968041707533E-04    5.1979740331606985E+00
N    9.6338999949543940E+00    1.8595643068831376E+00    5.8557735540189606E+00
Ga    9.6365801570958176E+00    1.8607621659946270E+00    7.8230079597227702E+00
N    9.6430744853113843E+00    3.1587474618627411E-03    8.4721947312647625E+00
Ga    9.6365274896312059E+00    7.6080053193980412E-03    1.0455737534120610E+01
N    9.6356895042916282E+00    1.8603504639860509E+00    1.1061658632703768E+01
Ga    9.6193394017522493E+00    1.8438498963480510E+00    1.3140758649114856E+01
N    9.6258016386117120E+00    3.8186834264125272E-04    1.3539011075691107E+01
Ga    8.0232976731906227E+00    2.7910927439832816E+00   -1.7169148111521756E-01
N    8.0171963969308813E+00    4.6501518585177237E+00    6.1420293400016435E-01
Ga    8.0218599269904605E+00    4.6528180997804602E+00    2.5487028179087892E+00
N    8.0270993300462052E+00    2.7943041848159762E+00    3.2366354958622701E+00
Ga    8.0276476920832316E+00    2.7923270711860741E+00    5.1964843135060139E+00
N    8.0220735639525724E+00    4.6506608800468525E+00    5.8576861507828006E+00
Ga    8.0234831093343697E+00    4.6514978703804468E+00    7.8255889441661965E+00
N    8.0340710386098682E+00    2.7942886746834708E+00    8.4779696955624324E+00
Ga    8.0323647039357695E+00    2.7977044808814289E+00    1.0465315779460610E+01
N    8.0154256804235562E+00    4.6573466262446077E+00    1.1054057933667048E+01
Ga    7.9907652962320519E+00    4.6474166038672777E+00    1.3120438439864101E+01
N    8.0122253972117701E+00    2.7926924112950902E+00    1.3466313123275903E+01
Ga    6.4113138408716441E+00    5.5830515174182800E+00   -1.7216854937585130E-01
N    6.4051757933066984E+00    7.4419136426498831E+00    6.1431262953869814E-01
Ga    6.4097937369367024E+00    7.4448368674287151E+00    2.5491488172054053E+00
N    6.4155938282620282E+00    5.5858867361024380E+00    3.2360478704532345E+00
Ga    6.4162627497334039E+00    5.5840193499011566E+00    5.1958314920871951E+00
N    6.4104993649174649E+00    7.4427559991935404E+00    5.8549256350108072E+00
Ga    6.4130730558648992E+00    7.4441671953717377E+00    7.8222175185505849E+00
N    6.4188773689036216E+00    5.5867695643744533E+00    8.4736566163845914E+00
Ga    6.4125842826796227E+00    5.5945353751097722E+00    1.0458103706173963E+01
N    6.4131110303423648E+00    7.4445811654231280E+00    1.1064976191900502E+01
Ga    6.3981924282855251E+00    7.4251264360979379E+00    1.3148516535017439E+01
N    6.4009964479283674E+00    5.5814781864458416E+00    1.3549885836114241E+01
Ga    4.7995386411447738E+00    8.3749023179785009E+00   -1.7226148097209018E-01
N    4.7932596518787225E+00    1.0233798146062590E+01    6.1389047643632000E-01
Ga    4.7977328309857672E+00    1.0236633236747823E+01    2.5486498022316009E+00
N    4.8032665073673257E+00    8.3780414317055811E+00    3.2363588043201075E+00
Ga    4.8037673991431555E+00    8.3764652184016910E+00    5.1969598654069822E+00
N    4.7995863719847307E+00    1.0234948084141925E+01    5.8587767213306314E+00
Ga    4.8024133008201169E+00    1.0237113712639220E+01    7.8276805564219361E+00
N    4.8100924289065121E+00    8.3772082619095904E+00    8.4756022035858898E+00
Ga    4.8088445303920171E+00    8.3802954507987959E+00    1.0462707876593573E+01
N    4.7932661001675001E+00    1.0241063865642387E+01    1.1049195986211721E+01
Ga    4.7679374439710962E+00    1.0231872774594988E+01    1.3110166361876303E+01
N    4.7891230413260759E+00    8.3769583352315884E+00    1.3453423236712879E+01
H    4.7994470028436247E+00    8.3774149099735116E+00   -1.7246461332758536E+00
H    1.5880718359670434E+00    8.3784767232243809E+00   -1.7243823878790345E+00
H   -1.6235582771327353E+00    8.3785232032415671E+00   -1.7245125970425010E+00
H   -4.8352537721272073E+00    8.3788736236946946E+00   -1.7241758267550880E+00
H    6.4112631570634013E+00    5.5855253408250984E+00   -1.7246166761891988E+00
H    3.2004217255772822E+00    5.5859458997177382E+00   -1.7245820988738760E+00
H   -1.1385411764376309E-02    5.5864506710480883E+00   -1.7244795278982339E+00
H   -3.2239212242136741E+00    5.5860230627507468E+00   -1.7247205631742675E+00
H    8.0237545918430211E+00    2.7947753139648697E+00   -1.7240824496542448E+00
H    4.8112709246324439E+00    2.7947338431365654E+00   -1.7238307123092158E+00
H    1.6001641013615948E+00    2.7936829377506598E+00   -1.7241640318952689E+00
H   -1.6111915725932553E+00    2.7931436516722572E+00   -1.7245862469260442E+00
H    2.1590234795460599E-03    2.5157445643058576E-03   -1.7242623005185815E+00
H    3.2121518563448181E+00    1.9771517671188874E-03   -1.7239981082029414E+00
H    6.4234339162099721E+00    1.6328168635785000E-03   -1.7237658350534260E+00
H    9.6340691567988443E+00    3.2146426978729345E-03   -1.7238159947016538E+00
     &END COORD
     &KIND H
       BASIS_SET DZVP-MOLOPT-SR-GTH-q1
       POTENTIAL GTH-PBE-q1
       &POTENTIAL
1
0.2000000000000000E+00 2 -0.4178900440000000E+01  0.7244633100000000E+00
0
       &END POTENTIAL
     &END KIND
     &KIND N
       BASIS_SET DZVP-MOLOPT-SR-GTH
       POTENTIAL GTH-PBE-q5
       &POTENTIAL
2 3
0.2837905100000000E+00 2 -0.1241522559000000E+02  0.1868095920000000E+01
2
0.2554050000000000E+00 1  0.1363026257000000E+02
0.2454945300000000E+00 0
       &END POTENTIAL
     &END KIND
     &KIND Ga
       BASIS_SET DZVP-MOLOPT-SR-GTH
       POTENTIAL GTH-PBE-q13
       &POTENTIAL
2 1 10
0.4900000000000000E+00 0
3
0.4167772300000000E+00 3  0.1047568975000000E+02 -0.4921768140000000E+01  0.8707055900000000E+00
0.7770178090000000E+01 -0.2248152160000000E+01
0.1784415450000000E+01
0.5696265200000000E+00 2  0.1777985340000000E+01  0.1958597600000000E+00
-0.2317443900000000E+00
0.2381265000000000E+00 1 -0.1624868022000000E+02
       &END POTENTIAL
     &END KIND
     &TOPOLOGY
       NUMBER_OF_ATOMS  208
       MULTIPLE_UNIT_CELL  1 1 1
     &END TOPOLOGY
   &END SUBSYS
 &END FORCE_EVAL
