 # Version information for this restart file 
 # current date 2019-05-25 22:22:38.175
 # current working dir /lustre03/project/6004141/rzk/GaN-carbene/00-Surface/00-Preoptimization/443-capped/CELL_OPT
 # Program compiled at                              Sun Apr  7 00:48:11 EDT 2019
 # Program compiled on                          beluga2.int.ets1.calculquebec.ca
 # Program compiled for                        Beluga-Linux-x86-64-intel-openmpi
 # Source code revision number                                         svn:18619
 &GLOBAL
   PRINT_LEVEL  MEDIUM
   PROJECT_NAME TEST
   RUN_TYPE  CELL_OPT
 &END GLOBAL
 &MOTION
   &CELL_OPT
     MAX_ITER  300
     STEP_START_VAL  15
     EXTERNAL_PRESSURE     1.0000000000000000E+00
     KEEP_ANGLES  T
     KEEP_SYMMETRY  T
     CONSTRAINT  Z
     PRESSURE_TOLERANCE     5.0000000000000000E+02
   &END CELL_OPT
 &END MOTION
 &FORCE_EVAL
   METHOD  QS
   STRESS_TENSOR  ANALYTICAL
   &DFT
     BASIS_SET_FILE_NAME BASIS_MOLOPT
     POTENTIAL_FILE_NAME GTH_POTENTIALS
     SURFACE_DIPOLE_CORRECTION  T
     SURF_DIP_DIR  Z
     &SCF
       MAX_SCF  100
       EPS_SCF     5.0000000000000004E-06
       &OT  T
         PRECONDITIONER  FULL_ALL
       &END OT
       &OUTER_SCF  T
         OPTIMIZER  NONE
         EPS_SCF     5.0000000000000004E-06
         MAX_SCF  4
       &END OUTER_SCF
       &PRINT
         &RESTART  OFF
           BACKUP_COPIES  1
           &EACH
             JUST_ENERGY  0
             QS_SCF  0
             MD  20
           &END EACH
         &END RESTART
       &END PRINT
     &END SCF
     &QS
       EPS_DEFAULT     1.0000000000000000E-14
       METHOD  GPW
     &END QS
     &MGRID
       NGRIDS  5
       CUTOFF     1.2000000000000000E+03
     &END MGRID
     &XC
       DENSITY_CUTOFF     1.0000000000000000E-10
       GRADIENT_CUTOFF     1.0000000000000000E-10
       TAU_CUTOFF     1.0000000000000000E-10
       &XC_FUNCTIONAL  NO_SHORTCUT
         &PBE  T
         &END PBE
       &END XC_FUNCTIONAL
       &VDW_POTENTIAL
         POTENTIAL_TYPE  PAIR_POTENTIAL
         &PAIR_POTENTIAL
           R_CUTOFF     1.0000000000000004E+01
           TYPE  DFTD3
           PARAMETER_FILE_NAME dftd3.dat
           REFERENCE_FUNCTIONAL PBE
           EPS_CN     9.9999999999999995E-07
           CALCULATE_C9_TERM  T
           REFERENCE_C9_TERM  T
           LONG_RANGE_CORRECTION  F
           VERBOSE_OUTPUT  F
         &END PAIR_POTENTIAL
       &END VDW_POTENTIAL
     &END XC
   &END DFT
   &SUBSYS
     &CELL
       A     1.2878071944769879E+01    0.0000000000000000E+00    0.0000000000000000E+00
       B    -6.4478181336776368E+00    1.1167948605493629E+01    0.0000000000000000E+00
       C     0.0000000000000000E+00    0.0000000000000000E+00    2.9000000000000000E+01
       MULTIPLE_UNIT_CELL  1 1 1
       &CELL_REF
         A     1.2982353780853531E+01    0.0000000000000000E+00    0.0000000000000000E+00
         B    -6.4911768904267628E+00    1.1243048175136114E+01    0.0000000000000000E+00
         C     0.0000000000000000E+00    0.0000000000000000E+00    2.9000000000000000E+01
         MULTIPLE_UNIT_CELL  1 1 1
       &END CELL_REF
     &END CELL
     &COORD
Ga    1.6212220189751648E-03    2.3679116687630705E-04   -1.5898838464166665E-01
N   -1.5230065040534692E-03    1.8605228765690727E+00    6.2284153459798464E-01
Ga    3.8547684694498831E-04    1.8609259375660701E+00    2.5580192533578638E+00
N    3.8986622602142331E-04   -5.8096813799886468E-04    3.2420216184241224E+00
Ga    1.2306190186461429E-03   -1.1230770427646559E-03    5.2012598527201774E+00
N    2.6293541151145599E-04    1.8597711432610957E+00    5.8533032482599889E+00
Ga    9.6975185439866665E-04    1.8583501768982940E+00    7.8206245326236186E+00
N    8.6238884115794109E-03   -2.7382177645466337E-03    8.4660774159391270E+00
Ga    1.0152922944775863E-03    3.0655175348658239E-04    1.0456321173119075E+01
N   -9.6425763919913629E-03    1.8649817511453959E+00    1.1037910830141300E+01
Ga   -1.3095246982086967E-02    1.8578947429369328E+00    1.3112641231910430E+01
N   -1.2411177231923429E-03   -2.7757914575361128E-03    1.3450744465518115E+01
Ga   -1.6103007129872846E+00    2.7918962644891923E+00   -1.5838393401077511E-01
N   -1.6133716359598407E+00    4.6529554038979715E+00    6.2148070078473616E-01
Ga   -1.6117375656609669E+00    4.6533862117295959E+00    2.5560283139094779E+00
N   -1.6102700005909794E+00    2.7931268517491610E+00    3.2406999411222697E+00
Ga   -1.6096129099771836E+00    2.7921434885404848E+00    5.1997381161641627E+00
N   -1.6110198059882050E+00    4.6534550970655078E+00    5.8572532857495130E+00
Ga   -1.6080600550035562E+00    4.6522656931570108E+00    7.8266472798424518E+00
N   -1.6071045797173638E+00    2.7902357329880818E+00    8.4647273881643397E+00
Ga   -1.6180541598399241E+00    2.7979446298728270E+00    1.0451855432855348E+01
N   -1.6156429283535070E+00    4.6563816609010953E+00    1.1045174539546810E+01
Ga   -1.6048955977993897E+00    4.6363178643562550E+00    1.3129696113853145E+01
N   -1.6062141301265138E+00    2.7894669159357059E+00    1.3530293851959888E+01
Ga   -3.2225425032750379E+00    5.5839568085892628E+00   -1.5949270391685541E-01
N   -3.2258168817127983E+00    7.4446390510309302E+00    6.2190204151037498E-01
Ga   -3.2237469662316753E+00    7.4446197726413956E+00    2.5566243236442490E+00
N   -3.2213815890674686E+00    5.5840622562463356E+00    3.2423105075094569E+00
Ga   -3.2212197906189037E+00    5.5839941664500481E+00    5.2013305273418986E+00
N   -3.2236810248036720E+00    7.4439266261655881E+00    5.8584548652753705E+00
Ga   -3.2238339993096563E+00    7.4422508638108766E+00    7.8275047467605123E+00
N   -3.2180819123928281E+00    5.5806690182596199E+00    8.4696114929991424E+00
Ga   -3.2264414321727273E+00    5.5854884406876915E+00    1.0463319792674914E+01
N   -3.2327246835248573E+00    7.4492042202622795E+00    1.1041155282462761E+01
Ga   -3.2340835814906042E+00    7.4425507460709666E+00    1.3118915182455886E+01
N   -3.2223577967386809E+00    5.5797714214189007E+00    1.3429834232992405E+01
Ga   -4.8345839040083458E+00    8.3762724275784972E+00   -1.5933103997705178E-01
N   -4.8378738442027256E+00    1.0236487169601592E+01    6.2302015905264796E-01
Ga   -4.8361361824878388E+00    1.0236723756505492E+01    2.5581835940817133E+00
N   -4.8340014651283996E+00    8.3752466192520778E+00    3.2418722662250614E+00
Ga   -4.8335444791366813E+00    8.3755240792348289E+00    5.2011888777840918E+00
N   -4.8354066037860788E+00    1.0236681107414579E+01    5.8534932308707228E+00
Ga   -4.8321608859929732E+00    1.0233849455253306E+01    7.8204126618638821E+00
N   -4.8305853879521257E+00    8.3772749512343143E+00    8.4703748501500264E+00
Ga   -4.8396055944905987E+00    8.3834633976548094E+00    1.0460298759180429E+01
N   -4.8365994742938403E+00    1.0244579821145949E+01    1.1052934276737533E+01
Ga   -4.8304587140771984E+00    1.0231432371505456E+01    1.3144203657373183E+01
N   -4.8349465279250516E+00    8.3759715817367955E+00    1.3503964710696369E+01
Ga    3.2209300403245686E+00    2.0492097418633103E-05   -1.5794057490482319E-01
N    3.2178866167925833E+00    1.8610553863850572E+00    6.2233577790729244E-01
Ga    3.2195790309095025E+00    1.8613291400594725E+00    2.5571324606414749E+00
N    3.2210574932891096E+00    5.4584936215986259E-04    3.2413786559360172E+00
Ga    3.2212250184341040E+00    4.7920243533143851E-04    5.2006557122696542E+00
N    3.2208104995834015E+00    1.8613549032477055E+00    5.8568422876968240E+00
Ga    3.2237126963044429E+00    1.8609390008887809E+00    7.8254310793204773E+00
N    3.2260412503330946E+00   -1.1137665693574765E-03    8.4653545694720123E+00
Ga    3.2175330539551457E+00    5.9799917572644487E-03    1.0451685516652081E+01
N    3.2126683339713185E+00    1.8592519881312515E+00    1.1043662128200506E+01
Ga    3.2223164556866375E+00    1.8477837046126355E+00    1.3124234643464590E+01
N    3.2246461701269413E+00    1.1686648935563034E-03    1.3528864538505697E+01
Ga    1.6089255821821804E+00    2.7919501044207720E+00   -1.5917230565438961E-01
N    1.6056401099942619E+00    4.6527105922677583E+00    6.2158332495655466E-01
Ga    1.6076856846694421E+00    4.6527994967606698E+00    2.5566438260827287E+00
N    1.6096282241698283E+00    2.7922019012695705E+00    3.2421206355385106E+00
Ga    1.6097591098853274E+00    2.7919042808097796E+00    5.2016416840708448E+00
N    1.6063518980117919E+00    4.6524110358670621E+00    5.8563854611665009E+00
Ga    1.6056874509214936E+00    4.6507687655767844E+00    7.8246559371015980E+00
N    1.6126468698877485E+00    2.7884044833443107E+00    8.4642322221882385E+00
Ga    1.6062832528035398E+00    2.7929124007267414E+00    1.0454602301984666E+01
N    1.6073079937712320E+00    4.6537600277208178E+00    1.1036517221524164E+01
Ga    1.6036779523503701E+00    4.6456998087246939E+00    1.3115895751693394E+01
N    1.6076255724056032E+00    2.7885968151882419E+00    1.3450634385895407E+01
Ga   -2.9186489822933624E-03    5.5841613045151606E+00   -1.6048282933618854E-01
N   -6.0696868027250326E-03    7.4442168578205576E+00    6.2210138005940352E-01
Ga   -4.5424723807513858E-03    7.4446590858571149E+00    2.5570811740499599E+00
N   -2.8798006177837461E-03    5.5836131112394600E+00    3.2412113100601863E+00
Ga   -1.8816986919450618E-03    5.5832367451441485E+00    5.1999445456271634E+00
N   -4.4620548922054909E-03    7.4439571401979778E+00    5.8532738720737774E+00
Ga   -1.6845468684403579E-03    7.4411886067918731E+00    7.8207789022509511E+00
N    4.4307842880245000E-04    5.5853893127284699E+00    8.4732121561905078E+00
Ga   -4.2441861622131098E-03    5.5920960796164705E+00    1.0465992264069698E+01
N   -4.6969711884293254E-03    7.4530603708737431E+00    1.1050787671479664E+01
Ga    7.1642113045467133E-04    7.4438485424785306E+00    1.3145597821566502E+01
N    4.9659170049997183E-04    5.5835330611081515E+00    1.3481716076054036E+01
Ga   -1.6147622569527533E+00    8.3761383869323431E+00   -1.5875281127390395E-01
N   -1.6178408432847291E+00    1.0236631121165752E+01    6.2295753898493145E-01
Ga   -1.6159110728327037E+00    1.0236996826947621E+01    2.5579946234476436E+00
N   -1.6150132597046167E+00    8.3756490959449668E+00    3.2416588668047468E+00
Ga   -1.6148928607845485E+00    8.3749926672629140E+00    5.2007436781811309E+00
N   -1.6159741266592658E+00    1.0235940087559076E+01    5.8545992448612587E+00
Ga   -1.6130577588648085E+00    1.0234106326355278E+01    7.8222678430788415E+00
N   -1.6095812663017579E+00    8.3718978507129229E+00    8.4665187447722268E+00
Ga   -1.6168314433120339E+00    8.3741668881209606E+00    1.0458498022654735E+01
N   -1.6261872259380818E+00    1.0237256634476289E+01    1.1039356947152866E+01
Ga   -1.6290900865810740E+00    1.0237571389066606E+01    1.3113212765354069E+01
N   -1.6158178045273710E+00    8.3763732404817635E+00    1.3447899844879361E+01
Ga    6.4403895862055336E+00   -1.5386531689416853E-04   -1.5938336617484269E-01
N    6.4369444410959966E+00    1.8605776104626117E+00    6.2162967818334669E-01
Ga    6.4389601343039935E+00    1.8607445863040424E+00    2.5562600360818886E+00
N    6.4408331418496498E+00    8.1570983080832390E-04    3.2424062606735964E+00
Ga    6.4414664668582873E+00    4.4826826834263109E-04    5.2018865808570318E+00
N    6.4381366070166237E+00    1.8607925640958334E+00    5.8614409544691943E+00
Ga    6.4386976554773270E+00    1.8584729572890260E+00    7.8315989800455004E+00
N    6.4443501631374618E+00   -4.0377035426982328E-03    8.4688909146921976E+00
Ga    6.4390282397349949E+00   -3.9571141375900788E-04    1.0461949355820513E+01
N    6.4336792784958297E+00    1.8583114234673119E+00    1.1045004912214420E+01
Ga    6.4335528665690331E+00    1.8560139081877689E+00    1.3124812843005676E+01
N    6.4427379736961887E+00   -3.9229662477763654E-03    1.3437781162601638E+01
Ga    4.8282257504395103E+00    2.7921735383301627E+00   -1.6006204194291068E-01
N    4.8251020056081915E+00    4.6522875146023308E+00    6.2284498136065092E-01
Ga    4.8266891659989808E+00    4.6526689535480612E+00    2.5580362071313210E+00
N    4.8290896814320119E+00    2.7913088206861816E+00    3.2423058746779252E+00
Ga    4.8292884200826478E+00    2.7908958842143519E+00    5.2011556630695415E+00
N    4.8276839694872136E+00    4.6515096233640874E+00    5.8529927388038052E+00
Ga    4.8314259150189978E+00    4.6484821433092893E+00    7.8202601743095066E+00
N    4.8313650560374821E+00    2.7932092566242654E+00    8.4776011083583054E+00
Ga    4.8241950709243540E+00    2.8010837458390312E+00    1.0472322382929651E+01
N    4.8275299306627621E+00    4.6665825386671500E+00    1.1046121301682625E+01
Ga    4.8272954156519488E+00    4.6603574393168312E+00    1.3134511928506656E+01
N    4.8302563394560760E+00    2.7983276688645282E+00    1.3465708118121437E+01
Ga    3.2167277206909271E+00    5.5842367580198244E+00   -1.5882323731696343E-01
N    3.2138143833998831E+00    7.4446460098470375E+00    6.2230067427599745E-01
Ga    3.2154856787261692E+00    7.4448123222147302E+00    2.5575246393469029E+00
N    3.2161703775967805E+00    5.5837802993929504E+00    3.2417800598605599E+00
Ga    3.2160201817667979E+00    5.5830261129380938E+00    5.2013326101170163E+00
N    3.2164210621188882E+00    7.4451587399176278E+00    5.8523878818680730E+00
Ga    3.2173103127726521E+00    7.4434241558367322E+00    7.8194886617439572E+00
N    3.2214251309442328E+00    5.5802791022226881E+00    8.4569347222449256E+00
Ga    3.2156897115740972E+00    5.5826397211497660E+00    1.0444882058432967E+01
N    3.2019194487701119E+00    7.4422040039071113E+00    1.1027852192210458E+01
Ga    3.1960764357388451E+00    7.4445224796941689E+00    1.3099405459647272E+01
N    3.2127411540139224E+00    5.5871288034777669E+00    1.3471067430361328E+01
Ga    1.6047673955855213E+00    8.3759174298489487E+00   -1.5853630253209072E-01
N    1.6015453232500110E+00    1.0236710655444728E+01    6.2216067497744543E-01
Ga    1.6032551697009771E+00    1.0237260632988239E+01    2.5574676155317020E+00
N    1.6044846701136191E+00    8.3759351645939653E+00    3.2401923791346641E+00
Ga    1.6050658869893506E+00    8.3760269645484335E+00    5.1994580825805690E+00
N    1.6035341542745774E+00    1.0237256449683432E+01    5.8531878439880698E+00
Ga    1.6064775834214626E+00    1.0237365744092958E+01    7.8209719406714848E+00
N    1.6082956594979927E+00    8.3754589516308879E+00    8.4598968013318210E+00
Ga    1.5987358821508928E+00    8.3806944582922025E+00    1.0445889788176308E+01
N    1.6057996040547355E+00    1.0235438560366761E+01    1.1042092045298464E+01
Ga    1.6113024842731365E+00    1.0221101319014387E+01    1.3126982351338505E+01
N    1.6077776733738871E+00    8.3778308831355570E+00    1.3543662705106884E+01
Ga    9.6599483923252460E+00    1.4972897222733037E-04   -1.5982629983618163E-01
N    9.6567380028552687E+00    1.8602091149524353E+00    6.2289061581692318E-01
Ga    9.6583753891240924E+00    1.8606669335059269E+00    2.5584064790363112E+00
N    9.6611786252133616E+00   -8.7570580644566963E-04    3.2416374777183372E+00
Ga    9.6612479046974045E+00   -5.9923970798205417E-04    5.2011041674066760E+00
N    9.6589147367992165E+00    1.8611613576331987E+00    5.8522129410433577E+00
Ga    9.6610079575326857E+00    1.8596445792457525E+00    7.8190246639090217E+00
N    9.6616365163460340E+00    2.9444213886701395E-03    8.4663832766374707E+00
Ga    9.6561339767471921E+00    6.3719999924088232E-03    1.0455106975126954E+01
N    9.6563363232360260E+00    1.8693821602007095E+00    1.1049182505055914E+01
Ga    9.6630909209624622E+00    1.8565957024812085E+00    1.3137791720063099E+01
N    9.6602911147081052E+00    2.7505800133000666E-03    1.3504786321229034E+01
Ga    8.0482457339166658E+00    2.7921463737873742E+00   -1.5836488603080098E-01
N    8.0451205956238763E+00    4.6527344154017509E+00    6.2324309683490298E-01
Ga    8.0469481598039092E+00    4.6529080493654034E+00    2.5584589628723218E+00
N    8.0470695615445855E+00    2.7914814180907452E+00    3.2424518532198139E+00
Ga    8.0474412671670610E+00    2.7910538097190631E+00    5.2017901023476982E+00
N    8.0477761721058059E+00    4.6529029821107946E+00    5.8543439748694022E+00
Ga    8.0498662742174982E+00    4.6511655041685680E+00    7.8213591801986304E+00
N    8.0536590162350290E+00    2.7912350723375452E+00    8.4671465690251839E+00
Ga    8.0433661135698706E+00    2.7943792748652694E+00    1.0457693549537002E+01
N    8.0330248132735456E+00    4.6552497929531418E+00    1.1036800245686123E+01
Ga    8.0304942613448667E+00    4.6538394632934414E+00    1.3109976164164406E+01
N    8.0481607004049032E+00    2.7933480886801236E+00    1.3455965548302146E+01
Ga    6.4360656761309105E+00    5.5840075125480313E+00   -1.5801981296418605E-01
N    6.4326901599119974E+00    7.4449698141721283E+00    6.2216553819374609E-01
Ga    6.4344334717470417E+00    7.4452847638577460E+00    2.5570023016757530E+00
N    6.4359438850476742E+00    5.5845535251326384E+00    3.2415037930846706E+00
Ga    6.4366745847688529E+00    5.5845064920967573E+00    5.2008492668579969E+00
N    6.4344262580194078E+00    7.4460781874667212E+00    5.8551585317512025E+00
Ga    6.4380009237702094E+00    7.4465215254158803E+00    7.8235667401023523E+00
N    6.4401901505027324E+00    5.5835779293188530E+00    8.4606341359824082E+00
Ga    6.4295378896294135E+00    5.5936204855373060E+00    1.0446763337395238E+01
N    6.4358684361334113E+00    7.4476325384098327E+00    1.1046397759796477E+01
Ga    6.4403319044894030E+00    7.4274085138284356E+00    1.3133362972727147E+01
N    6.4383283104825688E+00    5.5830085890177337E+00    1.3543099790715138E+01
Ga    4.8240490630192152E+00    8.3758821064030844E+00   -1.6033602118001108E-01
N    4.8207736542950217E+00    1.0236363158087839E+01    6.2096852263467728E-01
Ga    4.8226898488110379E+00    1.0236560278103752E+01    2.5554415349378026E+00
N    4.8244476652990516E+00    8.3767743009163151E+00    3.2415374052262185E+00
Ga    4.8247978647752854E+00    8.3766069993764916E+00    5.2003282545204641E+00
N    4.8231383421452829E+00    1.0235686921783230E+01    5.8602447020230048E+00
Ga    4.8225487829763658E+00    1.0235813696859850E+01    7.8304127465635434E+00
N    4.8274942043221269E+00    8.3716745055597155E+00    8.4696789930762382E+00
Ga    4.8178981318764977E+00    8.3753778024574927E+00    1.0465292547638482E+01
N    4.8142050133615157E+00    1.0244726834108814E+01    1.1033244315076685E+01
Ga    4.8108764027529771E+00    1.0235808725883631E+01    1.3108379596400448E+01
N    4.8211526551125239E+00    8.3724320341583152E+00    1.3420871948718927E+01
H    4.8225444282030825E+00    8.3757530063032988E+00   -1.7138701816056874E+00
H    1.6038418109249379E+00    8.3758387315722924E+00   -1.7120764324728073E+00
H   -1.6158535350482235E+00    8.3763190680015285E+00   -1.7121492294256389E+00
H   -4.8362516526285253E+00    8.3765984522021029E+00   -1.7128216312308946E+00
H    6.4345435749334845E+00    5.5838077480799786E+00   -1.7113883407774504E+00
H    3.2154579153813678E+00    5.5842537270187567E+00   -1.7123881545071022E+00
H   -3.7180284703029289E-03    5.5842696951383530E+00   -1.7140419874400765E+00
H   -3.2241908376367965E+00    5.5840174679897672E+00   -1.7128872164022533E+00
H    8.0471283388240540E+00    2.7919962150346356E+00   -1.7118524718348898E+00
H    4.8267763505623549E+00    2.7921604961956601E+00   -1.7135753575602162E+00
H    1.6073541641928903E+00    2.7917001333345186E+00   -1.7126700246745816E+00
H   -1.6114736419905671E+00    2.7909271302367706E+00   -1.7118253316342245E+00
H    5.0190043670781325E-04    6.0229756253395033E-05   -1.7123657302672854E+00
H    3.2195172720967746E+00   -3.2160419755394306E-04   -1.7113112867820954E+00
H    6.4390659845216600E+00   -5.3754289124790361E-04   -1.7128990812278644E+00
H    9.6585503628347595E+00   -1.0250893523225622E-04   -1.7134818987400564E+00
     &END COORD
     &KIND H
       BASIS_SET DZVP-MOLOPT-SR-GTH-q1
       POTENTIAL GTH-PBE-q1
       &POTENTIAL
1
0.2000000000000000E+00 2 -0.4178900440000000E+01  0.7244633100000000E+00
0
       &END POTENTIAL
     &END KIND
     &KIND N
       BASIS_SET DZVP-MOLOPT-SR-GTH
       POTENTIAL GTH-PBE-q5
       &POTENTIAL
2 3
0.2837905100000000E+00 2 -0.1241522559000000E+02  0.1868095920000000E+01
2
0.2554050000000000E+00 1  0.1363026257000000E+02
0.2454945300000000E+00 0
       &END POTENTIAL
     &END KIND
     &KIND Ga
       BASIS_SET DZVP-MOLOPT-SR-GTH
       POTENTIAL GTH-PBE-q13
       &POTENTIAL
2 1 10
0.4900000000000000E+00 0
3
0.4167772300000000E+00 3  0.1047568975000000E+02 -0.4921768140000000E+01  0.8707055900000000E+00
0.7770178090000000E+01 -0.2248152160000000E+01
0.1784415450000000E+01
0.5696265200000000E+00 2  0.1777985340000000E+01  0.1958597600000000E+00
-0.2317443900000000E+00
0.2381265000000000E+00 1 -0.1624868022000000E+02
       &END POTENTIAL
     &END KIND
     &TOPOLOGY
       NUMBER_OF_ATOMS  208
       MULTIPLE_UNIT_CELL  1 1 1
     &END TOPOLOGY
   &END SUBSYS
 &END FORCE_EVAL
