 # Version information for this restart file 
 # current date 2019-05-26 00:49:12.792
 # current working dir /lustre03/project/6004141/rzk/GaN-carbene/00-Surface/00-Preoptimization/443-capped/CELL_OPT
 # Program compiled at                              Sun Apr  7 00:48:11 EDT 2019
 # Program compiled on                          beluga2.int.ets1.calculquebec.ca
 # Program compiled for                        Beluga-Linux-x86-64-intel-openmpi
 # Source code revision number                                         svn:18619
 &GLOBAL
   PRINT_LEVEL  MEDIUM
   PROJECT_NAME TEST
   RUN_TYPE  CELL_OPT
 &END GLOBAL
 &MOTION
   &CELL_OPT
     MAX_ITER  300
     STEP_START_VAL  47
     EXTERNAL_PRESSURE     1.0000000000000000E+00
     KEEP_ANGLES  T
     KEEP_SYMMETRY  T
     CONSTRAINT  Z
     PRESSURE_TOLERANCE     5.0000000000000000E+02
   &END CELL_OPT
 &END MOTION
 &FORCE_EVAL
   METHOD  QS
   STRESS_TENSOR  ANALYTICAL
   &DFT
     BASIS_SET_FILE_NAME BASIS_MOLOPT
     POTENTIAL_FILE_NAME GTH_POTENTIALS
     SURFACE_DIPOLE_CORRECTION  T
     SURF_DIP_DIR  Z
     &SCF
       MAX_SCF  100
       EPS_SCF     5.0000000000000004E-06
       &OT  T
         PRECONDITIONER  FULL_ALL
       &END OT
       &OUTER_SCF  T
         OPTIMIZER  NONE
         EPS_SCF     5.0000000000000004E-06
         MAX_SCF  4
       &END OUTER_SCF
       &PRINT
         &RESTART  OFF
           BACKUP_COPIES  1
           &EACH
             JUST_ENERGY  0
             QS_SCF  0
             MD  20
           &END EACH
         &END RESTART
       &END PRINT
     &END SCF
     &QS
       EPS_DEFAULT     1.0000000000000000E-14
       METHOD  GPW
     &END QS
     &MGRID
       NGRIDS  5
       CUTOFF     1.2000000000000000E+03
     &END MGRID
     &XC
       DENSITY_CUTOFF     1.0000000000000000E-10
       GRADIENT_CUTOFF     1.0000000000000000E-10
       TAU_CUTOFF     1.0000000000000000E-10
       &XC_FUNCTIONAL  NO_SHORTCUT
         &PBE  T
         &END PBE
       &END XC_FUNCTIONAL
       &VDW_POTENTIAL
         POTENTIAL_TYPE  PAIR_POTENTIAL
         &PAIR_POTENTIAL
           R_CUTOFF     1.0000000000000004E+01
           TYPE  DFTD3
           PARAMETER_FILE_NAME dftd3.dat
           REFERENCE_FUNCTIONAL PBE
           EPS_CN     9.9999999999999995E-07
           CALCULATE_C9_TERM  T
           REFERENCE_C9_TERM  T
           LONG_RANGE_CORRECTION  F
           VERBOSE_OUTPUT  F
         &END PAIR_POTENTIAL
       &END VDW_POTENTIAL
     &END XC
   &END DFT
   &SUBSYS
     &CELL
       A     1.2846524970087636E+01    0.0000000000000000E+00    0.0000000000000000E+00
       B    -6.4473862626640273E+00    1.1167200582955727E+01    0.0000000000000000E+00
       C     0.0000000000000000E+00    0.0000000000000000E+00    2.9000000000000000E+01
       MULTIPLE_UNIT_CELL  1 1 1
       &CELL_REF
         A     1.2982353780853531E+01    0.0000000000000000E+00    0.0000000000000000E+00
         B    -6.4911768904267628E+00    1.1243048175136114E+01    0.0000000000000000E+00
         C     0.0000000000000000E+00    0.0000000000000000E+00    2.9000000000000000E+01
         MULTIPLE_UNIT_CELL  1 1 1
       &END CELL_REF
     &END CELL
     &COORD
Ga    1.5681649669533637E-03   -1.1054714321738059E-03   -1.7356174391251905E-01
N   -4.3028839883213054E-03    1.8581438890314947E+00    6.1239902191843854E-01
Ga    4.1544996405540579E-04    1.8606383124887524E+00    2.5469152573575831E+00
N    5.5605887011701514E-03    1.9754435565459789E-03    3.2354326450252655E+00
Ga    6.2855897938648136E-03    5.4283207371845824E-04    5.1962035700492892E+00
N    1.6147117099587680E-03    1.8589626833428941E+00    5.8575631492133606E+00
Ga    4.3715125734686087E-03    1.8602897090153723E+00    7.8266653112088092E+00
N    1.3663867511073754E-02    2.3910432017755627E-03    8.4794957567499942E+00
Ga    9.9869446927466615E-03    5.9824644810792579E-03    1.0467479988345881E+01
N   -6.6073876188048669E-03    1.8658459646831800E+00    1.1060288521092049E+01
Ga   -3.2933115656920232E-02    1.8526834549255664E+00    1.3128976865998618E+01
N   -1.2943085449790557E-02   -1.9462902128972919E-03    1.3471138586755332E+01
Ga   -1.6106377165919332E+00    2.7906918621039156E+00   -1.7359608032539467E-01
N   -1.6162787813141419E+00    4.6499571638795976E+00    6.1234402915029795E-01
Ga   -1.6117705609403106E+00    4.6526423519353219E+00    2.5470919661134737E+00
N   -1.6059465959319585E+00    2.7936876162084561E+00    3.2350990267904178E+00
Ga   -1.6047233398974576E+00    2.7919000709762090E+00    5.1956976977211395E+00
N   -1.6108960035221953E+00    4.6510844860413094E+00    5.8551625866734716E+00
Ga   -1.6086810157783893E+00    4.6522292966755296E+00    7.8234546301366308E+00
N   -1.6011648780721017E+00    2.7944127750767840E+00    8.4747398405906136E+00
Ga   -1.6100176460889442E+00    2.8003616801244360E+00    1.0459348217084443E+01
N   -1.6126802252658294E+00    4.6540824811769292E+00    1.1058767029019682E+01
Ga   -1.6274668607411373E+00    4.6360040475795703E+00    1.3135074566405908E+01
N   -1.6230227697778432E+00    2.7927889110717761E+00    1.3540729687573261E+01
Ga   -3.2223876699967140E+00    5.5826345272701641E+00   -1.7397660872664070E-01
N   -3.2279591832944843E+00    7.4417197904031314E+00    6.1230856544883561E-01
Ga   -3.2233526999978670E+00    7.4443837912520170E+00    2.5469362262055140E+00
N   -3.2181712125752462E+00    5.5857270760505715E+00    3.2352794559266762E+00
Ga   -3.2175494284417918E+00    5.5846470926022311E+00    5.1961444592785604E+00
N   -3.2220781827830787E+00    7.4432034139130874E+00    5.8582626471844073E+00
Ga   -3.2194510429073127E+00    7.4445318809178183E+00    7.8275790871116930E+00
N   -3.2121611032239197E+00    5.5854411595132172E+00    8.4760776556078525E+00
Ga   -3.2181881164550128E+00    5.5890533738971717E+00    1.0463094003719924E+01
N   -3.2314068447113646E+00    7.4491551131916669E+00    1.1054143448498936E+01
Ga   -3.2556045382928103E+00    7.4388735719826506E+00    1.3117562463486916E+01
N   -3.2345150884831617E+00    5.5837645514258369E+00    1.3462927164018314E+01
Ga   -4.8340666945169950E+00    8.3744797428935946E+00   -1.7346181264230656E-01
N   -4.8397618308824315E+00    1.0233538538082184E+01    6.1301272620197289E-01
Ga   -4.8351517953551078E+00    1.0236095787308187E+01    2.5477260645793200E+00
N   -4.8296882551638243E+00    8.3771717061391602E+00    3.2354824254521355E+00
Ga   -4.8285305650204906E+00    8.3757102268344941E+00    5.1962001171167369E+00
N   -4.8345491972704284E+00    1.0234840933803747E+01    5.8560678733276985E+00
Ga   -4.8314647179928460E+00    1.0236553662428104E+01    7.8240824481065507E+00
N   -4.8257363563399309E+00    8.3789268135757791E+00    8.4756134958053213E+00
Ga   -4.8342697164331723E+00    8.3862629508370929E+00    1.0460173690813548E+01
N   -4.8337967541404030E+00    1.0237566140836874E+01    1.1069360259976309E+01
Ga   -4.8521749438901738E+00    1.0215606194196535E+01    1.3152483323812579E+01
N   -4.8452116565632490E+00    8.3725668593352527E+00    1.3552954054207541E+01
Ga    3.2131263683120270E+00   -1.0827364966120750E-03   -1.7303813767752932E-01
N    3.2073247228647870E+00    1.8579750023859243E+00    6.1329065160284779E-01
Ga    3.2119719842920111E+00    1.8603953799704556E+00    2.5481009322487491E+00
N    3.2175455886122428E+00    1.5339223150687776E-03    3.2363173941014067E+00
Ga    3.2189760117145192E+00   -1.0123278301243172E-04    5.1970657418637618E+00
N    3.2126393443899892E+00    1.8591312243847469E+00    5.8559357603391291E+00
Ga    3.2155355838676427E+00    1.8602925089937796E+00    7.8242687698766717E+00
N    3.2224913232836836E+00    2.3157293360056728E-03    8.4755594849153777E+00
Ga    3.2143504470665349E+00    7.4523489618554279E-03    1.0460132757579412E+01
N    3.2126338077535852E+00    1.8628544921776486E+00    1.1056968477799050E+01
Ga    3.1951083597682453E+00    1.8434156182261623E+00    1.3130608920136980E+01
N    3.2010866126807658E+00    2.6820559116065676E-04    1.3536481217241112E+01
Ga    1.6013839298506569E+00    2.7905372729258562E+00   -1.7356093353551985E-01
N    1.5955274939573234E+00    4.6498645413085011E+00    6.1204470694008439E-01
Ga    1.6001522385241103E+00    4.6524126385279096E+00    2.5466198701334926E+00
N    1.6053595486770418E+00    2.7937642390708666E+00    3.2352576880745527E+00
Ga    1.6061822757690158E+00    2.7922432091712110E+00    5.1958781499278537E+00
N    1.6010964700317569E+00    4.6507911266998168E+00    5.8570733346982058E+00
Ga    1.6035776939646722E+00    4.6515245079492917E+00    7.8261328848495673E+00
N    1.6119225379855502E+00    2.7933926728079044E+00    8.4773925260147891E+00
Ga    1.6062197361595927E+00    2.7976638573727919E+00    1.0464794828718235E+01
N    1.5928118291295474E+00    4.6577987394495732E+00    1.1053325917932190E+01
Ga    1.5699087309866124E+00    4.6427883082152555E+00    1.3118114406042837E+01
N    1.5890429537049082E+00    2.7896206821266056E+00    1.3466318834699498E+01
Ga   -1.0719743465538301E-02    5.5826242278014666E+00   -1.7376305896505959E-01
N   -1.6394696606428141E-02    7.4417587542630317E+00    6.1240313377555688E-01
Ga   -1.1789655343218793E-02    7.4443510472417183E+00    2.5470789928215383E+00
N   -6.2488062449056886E-03    5.5853827484103240E+00    3.2349947181849847E+00
Ga   -5.1557299484240949E-03    5.5836757702630635E+00    5.1957385824776496E+00
N   -1.0893997973049529E-02    7.4429255592508561E+00    5.8556816520091104E+00
Ga   -8.3127331158756052E-03    7.4445151721285461E+00    7.8239722460709356E+00
N   -2.4798284441387183E-03    5.5867831721288086E+00    8.4740214558605196E+00
Ga   -1.0682154998162661E-02    5.5931993263775865E+00    1.0458565902412607E+01
N   -1.1728329536255161E-02    7.4446958098772118E+00    1.1068162984160230E+01
Ga   -2.7613659964155594E-02    7.4241511736478962E+00    1.3151795300522913E+01
N   -2.1525293639676330E-02    5.5786275843417972E+00    1.3542191175651013E+01
Ga   -1.6225197331807322E+00    8.3744898114399451E+00   -1.7360624569151201E-01
N   -1.6282370186809083E+00    1.0233458965699976E+01    6.1299014627194981E-01
Ga   -1.6235661050583527E+00    1.0235992046762316E+01    2.5475977334071342E+00
N   -1.6182639484579908E+00    8.3772169501553222E+00    3.2354743369510768E+00
Ga   -1.6174940283455170E+00    8.3759490247549131E+00    5.1962035600930063E+00
N   -1.6218804130770379E+00    1.0234155161983768E+01    5.8589703635405970E+00
Ga   -1.6185015373870728E+00    1.0235333129615430E+01    7.8284287110361133E+00
N   -1.6112400407148124E+00    8.3768058148892699E+00    8.4798504224174103E+00
Ga   -1.6155296846091791E+00    8.3798439998733958E+00    1.0468470245982981E+01
N   -1.6296893541176467E+00    1.0240909395794345E+01    1.1057485677862241E+01
Ga   -1.6543465209101977E+00    1.0229808558051710E+01    1.3123756905988847E+01
N   -1.6351912892304670E+00    8.3748830369351754E+00    1.3467505777810706E+01
Ga    6.4246543075289235E+00   -1.1984716917622482E-03   -1.7295356671785755E-01
N    6.4189438705194704E+00    1.8580375817661687E+00    6.1280399922731699E-01
Ga    6.4234934263259609E+00    1.8604760898767292E+00    2.5473912364395956E+00
N    6.4288356487496277E+00    1.8810784779654947E-03    3.2358706140962723E+00
Ga    6.4298225809024556E+00    4.9224052929809007E-04    5.1965962177846095E+00
N    6.4254425557831940E+00    1.8587895890718009E+00    5.8585160554248183E+00
Ga    6.4286894341619458E+00    1.8601850073364976E+00    7.8278509255149986E+00
N    6.4363976248268528E+00    1.5430766520984054E-03    8.4799363546154289E+00
Ga    6.4325504346868971E+00    3.8359482528448306E-03    1.0467636515366854E+01
N    6.4177552177650004E+00    1.8648282613276410E+00    1.1054682648046972E+01
Ga    6.3937067909277321E+00    1.8512838836093013E+00    1.3118832439033996E+01
N    6.4133688012799812E+00   -8.0283051760109093E-04    1.3472832580766816E+01
Ga    4.8127453928230404E+00    2.7905834160941771E+00   -1.7315393706941684E-01
N    4.8070293058475482E+00    4.6498850031528978E+00    6.1246698451014880E-01
Ga    4.8114739463530265E+00    4.6524266887399213E+00    2.5471471754344921E+00
N    4.8173244505637633E+00    2.7935837165410735E+00    3.2358522765761792E+00
Ga    4.8186998099358762E+00    2.7916798409270758E+00    5.1967698746331656E+00
N    4.8124208173526286E+00    4.6514190994081090E+00    5.8545279540280024E+00
Ga    4.8156242571145587E+00    4.6526924558697802E+00    7.8225049835246283E+00
N    4.8223446401190158E+00    2.7949637552356159E+00    8.4727051083406799E+00
Ga    4.8137992651951338E+00    2.8019503166205286E+00    1.0456542745145173E+01
N    4.8125189637887553E+00    4.6550540101553830E+00    1.1060640582408006E+01
Ga    4.7963730812088805E+00    4.6360379555488187E+00    1.3139047082370089E+01
N    4.8012614763183565E+00    2.7899279241951103E+00    1.3528902380392624E+01
Ga    3.2010164901730018E+00    5.5825515631868310E+00   -1.7399769684172547E-01
N    3.1953069715526055E+00    7.4417773219004930E+00    6.1206247469579522E-01
Ga    3.1999670417972306E+00    7.4444350582904955E+00    2.5467510001895350E+00
N    3.2050029915700864E+00    5.5856648363306940E+00    3.2348916057206387E+00
Ga    3.2056640066230582E+00    5.5844591311773044E+00    5.1955803811673409E+00
N    3.2011709808611220E+00    7.4428820614200717E+00    5.8577355865077827E+00
Ga    3.2039149705567382E+00    7.4440786180871070E+00    7.8270541008185708E+00
N    3.2113915049853823E+00    5.5846022903432582E+00    8.4751638608402509E+00
Ga    3.2069418529769269E+00    5.5879457038790799E+00    1.0462052894427245E+01
N    3.1935062738915310E+00    7.4474209900975596E+00    1.1052075968252153E+01
Ga    3.1671116770794452E+00    7.4366709267708622E+00    1.3115916243235242E+01
N    3.1880216772305685E+00    5.5827544388641561E+00    1.3466354875019741E+01
Ga    1.5890061234541637E+00    8.3745713108769415E+00   -1.7347094302375476E-01
N    1.5834256348087743E+00    1.0233506759968073E+01    6.1323765211322245E-01
Ga    1.5880678384893216E+00    1.0236031771851501E+01    2.5480268305915361E+00
N    1.5935178183720113E+00    8.3769740290713326E+00    3.2353949222654013E+00
Ga    1.5948844454320910E+00    8.3754841046400941E+00    5.1959709450920064E+00
N    1.5888460826213009E+00    1.0234463997631414E+01    5.8560710706442718E+00
Ga    1.5917066542577358E+00    1.0235800979872803E+01    7.8241119388415967E+00
N    1.5978178160649459E+00    8.3781618936538411E+00    8.4761376713478374E+00
Ga    1.5887497370193051E+00    8.3838843191116190E+00    1.0461165084733279E+01
N    1.5896331966184973E+00    1.0235339897647943E+01    1.1067618440590012E+01
Ga    1.5729786155335665E+00    1.0216852615305356E+01    1.3150097336099231E+01
N    1.5782390394407471E+00    8.3720766239973496E+00    1.3546013686226063E+01
Ga    9.6359859279432136E+00   -9.9756129637314185E-04   -1.7313606858468006E-01
N    9.6305721450198760E+00    1.8580919101140894E+00    6.1300581341096516E-01
Ga    9.6352085171333890E+00    1.8604187717425587E+00    2.5476370723481945E+00
N    9.6409341292598256E+00    1.6427808102966878E-03    3.2360995095264609E+00
Ga    9.6423815642633990E+00   -1.5284941548215209E-04    5.1970647689974827E+00
N    9.6361302877634074E+00    1.8594397566549490E+00    5.8554044052924565E+00
Ga    9.6389762153328284E+00    1.8607751414509972E+00    7.8236529339014176E+00
N    9.6447989382192141E+00    2.9915368451250866E-03    8.4743172752145188E+00
Ga    9.6371049846315309E+00    7.8351901305223886E-03    1.0458429175493711E+01
N    9.6360203846436789E+00    1.8600903858920190E+00    1.1063163466549630E+01
Ga    9.6199585163396417E+00    1.8434419246738663E+00    1.3142134939170711E+01
N    9.6257136873859199E+00   -9.4575333967928204E-05    1.3544136129159678E+01
Ga    8.0243838122287006E+00    2.7906680942606776E+00   -1.7329359854888993E-01
N    8.0187702405986627E+00    4.6499797015085917E+00    6.1229848025006017E-01
Ga    8.0234452195698420E+00    4.6526278222022333E+00    2.5467951350940550E+00
N    8.0286278050114852E+00    2.7937864469767510E+00    3.2350041333097828E+00
Ga    8.0293696919675970E+00    2.7922543259314550E+00    5.1955973574764887E+00
N    8.0242082565923454E+00    4.6509615617131956E+00    5.8566203597224460E+00
Ga    8.0272860158258794E+00    4.6518759402066809E+00    7.8256569069324025E+00
N    8.0364583852802358E+00    2.7943242018189229E+00    8.4781940569284906E+00
Ga    8.0326417125670613E+00    2.7984864689203115E+00    1.0466027191541272E+01
N    8.0158574372174716E+00    4.6578096476566024E+00    1.1056380106052963E+01
Ga    7.9899654590940736E+00    4.6462326463172055E+00    1.3123088277632187E+01
N    8.0118036568970563E+00    2.7913802946923187E+00    1.3465954345024077E+01
Ga    6.4125442859940058E+00    5.5825707712711328E+00   -1.7371669375012128E-01
N    6.4068654629275867E+00    7.4418178234570131E+00    6.1228428415183134E-01
Ga    6.4113624151952164E+00    7.4446579557873269E+00    2.5470347500218251E+00
N    6.4169114567115315E+00    5.5855797383187653E+00    3.2344613873038037E+00
Ga    6.4179974913194977E+00    5.5839637779825120E+00    5.1948524417212827E+00
N    6.4122620842321254E+00    7.4429949322931943E+00    5.8551581697259341E+00
Ga    6.4151603038363403E+00    7.4443004307391947E+00    7.8232006571310784E+00
N    6.4213779356923313E+00    5.5869238453496664E+00    8.4743294290634452E+00
Ga    6.4143501326459651E+00    5.5942235290748155E+00    1.0459041263406045E+01
N    6.4138153479687894E+00    7.4454611311112071E+00    1.1067780865331871E+01
Ga    6.3968421178089585E+00    7.4246167157167759E+00    1.3150418114745660E+01
N    6.4000322526593783E+00    5.5807083771083255E+00    1.3550765254706926E+01
Ga    4.8007414820657477E+00    8.3743248848070042E+00   -1.7407988644062430E-01
N    4.7950629118885963E+00    1.0233538121583521E+01    6.1221656106221167E-01
Ga    4.7996747343882733E+00    1.0236074191071280E+01    2.5469524003109543E+00
N    4.8048967929321309E+00    8.3775105452575787E+00    3.2353412404870174E+00
Ga    4.8057125004011185E+00    8.3763066407573525E+00    5.1961922659969746E+00
N    4.8014766337827002E+00    1.0234439466387327E+01    5.8594142425878664E+00
Ga    4.8046826699797522E+00    1.0235425846671514E+01    7.8291648912678600E+00
N    4.8122149866495176E+00    8.3761215421808739E+00    8.4783502441318781E+00
Ga    4.8084235065517813E+00    8.3791418599254079E+00    1.0466294974843249E+01
N    4.7938387285587210E+00    1.0240793403209118E+01    1.1051013939109575E+01
Ga    4.7675072581081883E+00    1.0230254882675981E+01    1.3113450924240606E+01
N    4.7875723908891432E+00    8.3759266066799896E+00    1.3460669619633791E+01
H    4.8010602548066972E+00    8.3775339143617611E+00   -1.7258312599290255E+00
H    1.5890284543720314E+00    8.3786415413523283E+00   -1.7252375736648493E+00
H   -1.6226321584198460E+00    8.3783630389218082E+00   -1.7253414053847151E+00
H   -4.8344867167293089E+00    8.3786812351493243E+00   -1.7251963026603661E+00
H    6.4125568950800425E+00    5.5858116488518377E+00   -1.7254890257602926E+00
H    3.2014925327778347E+00    5.5859538031203924E+00   -1.7257199119866939E+00
H   -1.0772713030358906E-02    5.5864400682134043E+00   -1.7254907844386020E+00
H   -3.2229858205246256E+00    5.5861366332023037E+00   -1.7257297864584848E+00
H    8.0248877231280655E+00    2.7946648213392087E+00   -1.7249951889295603E+00
H    4.8123175052984513E+00    2.7945783021114718E+00   -1.7248569952370605E+00
H    1.6013678288775743E+00    2.7937726746686486E+00   -1.7252759344699058E+00
H   -1.6108659130476490E+00    2.7936972582524047E+00   -1.7253578274107011E+00
H    2.4701645182296575E-03    2.5616006784332504E-03   -1.7252729583181485E+00
H    3.2128813150171092E+00    2.5414228508332457E-03   -1.7247803951821157E+00
H    6.4245916947938451E+00    2.0642226569667207E-03   -1.7246647549188487E+00
H    9.6352906698378309E+00    3.3441078418125422E-03   -1.7248492559230273E+00
     &END COORD
     &KIND H
       BASIS_SET DZVP-MOLOPT-SR-GTH-q1
       POTENTIAL GTH-PBE-q1
       &POTENTIAL
1
0.2000000000000000E+00 2 -0.4178900440000000E+01  0.7244633100000000E+00
0
       &END POTENTIAL
     &END KIND
     &KIND N
       BASIS_SET DZVP-MOLOPT-SR-GTH
       POTENTIAL GTH-PBE-q5
       &POTENTIAL
2 3
0.2837905100000000E+00 2 -0.1241522559000000E+02  0.1868095920000000E+01
2
0.2554050000000000E+00 1  0.1363026257000000E+02
0.2454945300000000E+00 0
       &END POTENTIAL
     &END KIND
     &KIND Ga
       BASIS_SET DZVP-MOLOPT-SR-GTH
       POTENTIAL GTH-PBE-q13
       &POTENTIAL
2 1 10
0.4900000000000000E+00 0
3
0.4167772300000000E+00 3  0.1047568975000000E+02 -0.4921768140000000E+01  0.8707055900000000E+00
0.7770178090000000E+01 -0.2248152160000000E+01
0.1784415450000000E+01
0.5696265200000000E+00 2  0.1777985340000000E+01  0.1958597600000000E+00
-0.2317443900000000E+00
0.2381265000000000E+00 1 -0.1624868022000000E+02
       &END POTENTIAL
     &END KIND
     &TOPOLOGY
       NUMBER_OF_ATOMS  208
       MULTIPLE_UNIT_CELL  1 1 1
     &END TOPOLOGY
   &END SUBSYS
 &END FORCE_EVAL
