 # Version information for this restart file 
 # current date 2019-05-25 22:05:20.555
 # current working dir /lustre03/project/6004141/rzk/GaN-carbene/00-Surface/00-Preoptimization/443-capped/CELL_OPT
 # Program compiled at                              Sun Apr  7 00:48:11 EDT 2019
 # Program compiled on                          beluga2.int.ets1.calculquebec.ca
 # Program compiled for                        Beluga-Linux-x86-64-intel-openmpi
 # Source code revision number                                         svn:18619
 &GLOBAL
   PRINT_LEVEL  MEDIUM
   PROJECT_NAME TEST
   RUN_TYPE  CELL_OPT
 &END GLOBAL
 &MOTION
   &CELL_OPT
     MAX_ITER  300
     STEP_START_VAL  12
     EXTERNAL_PRESSURE     1.0000000000000000E+00
     KEEP_ANGLES  T
     KEEP_SYMMETRY  T
     CONSTRAINT  Z
     PRESSURE_TOLERANCE     5.0000000000000000E+02
   &END CELL_OPT
 &END MOTION
 &FORCE_EVAL
   METHOD  QS
   STRESS_TENSOR  ANALYTICAL
   &DFT
     BASIS_SET_FILE_NAME BASIS_MOLOPT
     POTENTIAL_FILE_NAME GTH_POTENTIALS
     SURFACE_DIPOLE_CORRECTION  T
     SURF_DIP_DIR  Z
     &SCF
       MAX_SCF  100
       EPS_SCF     5.0000000000000004E-06
       &OT  T
         PRECONDITIONER  FULL_ALL
       &END OT
       &OUTER_SCF  T
         OPTIMIZER  NONE
         EPS_SCF     5.0000000000000004E-06
         MAX_SCF  4
       &END OUTER_SCF
       &PRINT
         &RESTART  OFF
           BACKUP_COPIES  1
           &EACH
             JUST_ENERGY  0
             QS_SCF  0
             MD  20
           &END EACH
         &END RESTART
       &END PRINT
     &END SCF
     &QS
       EPS_DEFAULT     1.0000000000000000E-14
       METHOD  GPW
     &END QS
     &MGRID
       NGRIDS  5
       CUTOFF     1.2000000000000000E+03
     &END MGRID
     &XC
       DENSITY_CUTOFF     1.0000000000000000E-10
       GRADIENT_CUTOFF     1.0000000000000000E-10
       TAU_CUTOFF     1.0000000000000000E-10
       &XC_FUNCTIONAL  NO_SHORTCUT
         &PBE  T
         &END PBE
       &END XC_FUNCTIONAL
       &VDW_POTENTIAL
         POTENTIAL_TYPE  PAIR_POTENTIAL
         &PAIR_POTENTIAL
           R_CUTOFF     1.0000000000000004E+01
           TYPE  DFTD3
           PARAMETER_FILE_NAME dftd3.dat
           REFERENCE_FUNCTIONAL PBE
           EPS_CN     9.9999999999999995E-07
           CALCULATE_C9_TERM  T
           REFERENCE_C9_TERM  T
           LONG_RANGE_CORRECTION  F
           VERBOSE_OUTPUT  F
         &END PAIR_POTENTIAL
       &END VDW_POTENTIAL
     &END XC
   &END DFT
   &SUBSYS
     &CELL
       A     1.2884638037723844E+01    0.0000000000000000E+00    0.0000000000000000E+00
       B    -6.4446722936639702E+00    1.1162499850757476E+01    0.0000000000000000E+00
       C     0.0000000000000000E+00    0.0000000000000000E+00    2.9000000000000000E+01
       MULTIPLE_UNIT_CELL  1 1 1
       &CELL_REF
         A     1.2982353780853531E+01    0.0000000000000000E+00    0.0000000000000000E+00
         B    -6.4911768904267628E+00    1.1243048175136114E+01    0.0000000000000000E+00
         C     0.0000000000000000E+00    0.0000000000000000E+00    2.9000000000000000E+01
         MULTIPLE_UNIT_CELL  1 1 1
       &END CELL_REF
     &END CELL
     &COORD
Ga    1.1686826848737620E-03   -1.5588807888995874E-04   -1.5866589097206979E-01
N   -4.7191265840334964E-05    1.8603448973052144E+00    6.2532130917064133E-01
Ga    9.7580872758775078E-04    1.8602291162574880E+00    2.5614979769015385E+00
N    1.1855597629629917E-04   -6.5162887040124740E-04    3.2431013427399229E+00
Ga    6.8639881811923746E-04   -1.0810321677093507E-03    5.2042705330850518E+00
N    8.0996648355032149E-04    1.8595172042910655E+00    5.8526317344252519E+00
Ga    2.0858994935908834E-03    1.8570252059244148E+00    7.8209048389689402E+00
N    6.5466021947583599E-03   -2.1721713464085638E-03    8.4608896926477186E+00
Ga   -1.7572502641242401E-04   -9.8346060685737492E-04    1.0452478290355879E+01
N   -8.7930310987758085E-03    1.8633055380326138E+00    1.1032761949237228E+01
Ga   -6.8030652460390395E-03    1.8587141174964792E+00    1.3109306305983729E+01
N   -7.1432138645961352E-04   -3.7991266431212519E-03    1.3455281993495731E+01
Ga   -1.6099050586570527E+00    2.7901267343362761E+00   -1.5839158708412440E-01
N   -1.6110570430230702E+00    4.6512702323776045E+00    6.2404773117086854E-01
Ga   -1.6099670677054518E+00    4.6510528460256495E+00    2.5597161077868282E+00
N   -1.6099782438460146E+00    2.7913489379314180E+00    3.2423061487184097E+00
Ga   -1.6088633711384859E+00    2.7908604513837965E+00    5.2025676766128566E+00
N   -1.6086966223331303E+00    4.6507758237918297E+00    5.8569746201588755E+00
Ga   -1.6080738828245327E+00    4.6511632189000185E+00    7.8274727996885218E+00
N   -1.6075589877879322E+00    2.7890128583210263E+00    8.4616752193169820E+00
Ga   -1.6155809508264249E+00    2.7975767984233615E+00    1.0451910186909544E+01
N   -1.6137756102175524E+00    4.6525857133673529E+00    1.1040169106795535E+01
Ga   -1.6024932005232186E+00    4.6394773452647078E+00    1.3127346806680126E+01
N   -1.6059253937140681E+00    2.7872888320557001E+00    1.3520783336289094E+01
Ga   -3.2212759511344919E+00    5.5810718108744544E+00   -1.5949728151519094E-01
N   -3.2227113215419574E+00    7.4415228814550263E+00    6.2412917038448568E-01
Ga   -3.2212596827472861E+00    7.4410983406472457E+00    2.5601659627693447E+00
N   -3.2201337266546863E+00    5.5811445010485619E+00    3.2431636074696879E+00
Ga   -3.2206230785727095E+00    5.5816999763760817E+00    5.2045756300607593E+00
N   -3.2216381881039666E+00    7.4410164610809080E+00    5.8571375954411256E+00
Ga   -3.2195649164456839E+00    7.4374084072124793E+00    7.8280498517037040E+00
N   -3.2167452180523393E+00    5.5769504134954238E+00    8.4642923484838040E+00
Ga   -3.2259275258499764E+00    5.5802294890071007E+00    1.0458309401172983E+01
N   -3.2281626327458257E+00    7.4451305048814467E+00    1.1038825096298369E+01
Ga   -3.2289818690454752E+00    7.4418757672612248E+00    1.3115448575855874E+01
N   -3.2227310702008842E+00    5.5769343842980730E+00    1.3432160530140314E+01
Ga   -4.8324833533279525E+00    8.3718650014901819E+00   -1.5925260713341430E-01
N   -4.8339486316209399E+00    1.0231945865036678E+01    6.2540110384337988E-01
Ga   -4.8327770295689314E+00    1.0231640814342478E+01    2.5617351828148491E+00
N   -4.8321184114852729E+00    8.3710515299753805E+00    3.2429438944113067E+00
Ga   -4.8315414649368078E+00    8.3712625217954386E+00    5.2040309622613163E+00
N   -4.8323616880396569E+00    1.0231914268612767E+01    5.8529761845050015E+00
Ga   -4.8292753681548781E+00    1.0229740230637296E+01    7.8215737349593262E+00
N   -4.8306856372600402E+00    8.3719157797856951E+00    8.4669824227785888E+00
Ga   -4.8368018828083272E+00    8.3785106236431162E+00    1.0459725601427722E+01
N   -4.8318495213950161E+00    1.0240737111138454E+01    1.1045894626645493E+01
Ga   -4.8260788162713970E+00    1.0227605064947459E+01    1.3133068083648979E+01
N   -4.8324443043325278E+00    8.3715885100268324E+00    1.3495840324868862E+01
Ga    3.2221266046638326E+00   -2.8059100019059522E-04   -1.5777786635574600E-01
N    3.2210981959294154E+00    1.8606390084475040E+00    6.2484821732196871E-01
Ga    3.2221838212640908E+00    1.8602031673460360E+00    2.5607638579472196E+00
N    3.2222223042411469E+00    2.3237699354704714E-04    3.2427468904650252E+00
Ga    3.2228931099551921E+00   -8.1738492854785841E-05    5.2033787852907061E+00
N    3.2228429058638492E+00    1.8604299439271073E+00    5.8569629069784570E+00
Ga    3.2265484748292663E+00    1.8595790952713669E+00    7.8265160604822901E+00
N    3.2263160770007802E+00   -1.0250748327611209E-03    8.4626108278986294E+00
Ga    3.2169101122099915E+00    4.4323510056124543E-03    1.0451206570061849E+01
N    3.2150112766750345E+00    1.8583283611082400E+00    1.1041963382585180E+01
Ga    3.2263764578096183E+00    1.8514497113159425E+00    1.3123656896471143E+01
N    3.2262969109884843E+00   -1.8937324241184565E-03    1.3519129854475544E+01
Ga    1.6109837623155716E+00    2.7903528902781676E+00   -1.5898724204384276E-01
N    1.6096673496100831E+00    4.6510807525514712E+00    6.2424899942848777E-01
Ga    1.6108849168092858E+00    4.6506443590691138E+00    2.5598726821695945E+00
N    1.6115204342513678E+00    2.7909152908123245E+00    3.2431616371246235E+00
Ga    1.6114884517398744E+00    2.7904424972819077E+00    5.2044627442444460E+00
N    1.6098234285635142E+00    4.6509157281751223E+00    5.8568112829250945E+00
Ga    1.6086612122789690E+00    4.6487173261888604E+00    7.8264104006604462E+00
N    1.6137425593920869E+00    2.7867505037352682E+00    8.4599166096418443E+00
Ga    1.6084729469672756E+00    2.7896074868280674E+00    1.0450861732235930E+01
N    1.6095722797354368E+00    4.6515428688722045E+00    1.1033469980437170E+01
Ga    1.6087649101396562E+00    4.6468598542508204E+00    1.3111419267083191E+01
N    1.6089215745764307E+00    2.7886219260758813E+00    1.3452394915596029E+01
Ga    1.6290937601560112E-04    5.5811284196072073E+00   -1.6050016726184840E-01
N   -1.2701375312867784E-03    7.4412122310323596E+00    6.2468582358472813E-01
Ga   -3.7640615473227726E-04    7.4410193776707416E+00    2.5605285891342970E+00
N    1.9416146549820635E-04    5.5807198839965420E+00    3.2430518891984699E+00
Ga    2.1573430647254795E-04    5.5804292477200228E+00    5.2031114885208165E+00
N    7.5751596650007556E-04    7.4403849902012293E+00    5.8533927271176038E+00
Ga    2.6598099603789666E-04    7.4380484970873706E+00    7.8216640285527159E+00
N    2.7670044383489513E-03    5.5825166545918847E+00    8.4712185802976148E+00
Ga   -2.9525046365082687E-03    5.5878823346865660E+00    1.0466493414279514E+01
N   -3.9022849046112712E-04    7.4495664016171670E+00    1.1045106854548388E+01
Ga    7.9007284658435140E-03    7.4422198421286287E+00    1.3135095377548554E+01
N    4.0504917737732874E-03    5.5809128503462988E+00    1.3477998049464077E+01
Ga   -1.6110658929222017E+00    8.3717156221280611E+00   -1.5865778551689186E-01
N   -1.6123972849707744E+00    1.0232182896742387E+01    6.2522866453979631E-01
Ga   -1.6112748249377482E+00    1.0232072113042541E+01    2.5614284416971049E+00
N   -1.6111438403984644E+00    8.3712465011146477E+00    3.2424980902780560E+00
Ga   -1.6121725578423312E+00    8.3712852615172668E+00    5.2037313116633266E+00
N   -1.6112882372743360E+00    1.0231781178657641E+01    5.8533846511982608E+00
Ga   -1.6086092851138909E+00    1.0228774896913002E+01    7.8221792244953701E+00
N   -1.6050708872921571E+00    8.3689179713511184E+00    8.4602106556904779E+00
Ga   -1.6150482900855416E+00    8.3712023136086575E+00    1.0451120026313301E+01
N   -1.6182514618772537E+00    1.0232022521432839E+01    1.1035431241643366E+01
Ga   -1.6210112354060253E+00    1.0232406123550909E+01    1.3111542520138689E+01
N   -1.6119899878476551E+00    8.3697430677105480E+00    1.3450886794235249E+01
Ga    6.4435555006703300E+00   -4.0393103785823717E-04   -1.5936481615984013E-01
N    6.4417493814316238E+00    1.8601866995651539E+00    6.2402986265627758E-01
Ga    6.4432570458517722E+00    1.8599553965113584E+00    2.5596804989098501E+00
N    6.4440458702438441E+00    3.4884776082684977E-04    3.2433434868772211E+00
Ga    6.4429973515793817E+00    7.3684622583753030E-04    5.2047085097183574E+00
N    6.4418069164798357E+00    1.8600893135417913E+00    5.8608260753679069E+00
Ga    6.4440456329088436E+00    1.8583155380009442E+00    7.8322129010291981E+00
N    6.4475704711394402E+00   -4.9751947291499961E-03    8.4634675443484166E+00
Ga    6.4392099838912564E+00   -2.3871231395705184E-03    1.0456249327837156E+01
N    6.4374396504167972E+00    1.8585360091601588E+00    1.1042011703291530E+01
Ga    6.4409721456217133E+00    1.8585395864234586E+00    1.3119246547649229E+01
N    6.4457086839697100E+00   -3.2634388680529655E-03    1.3439407485097311E+01
Ga    4.8320910031582125E+00    2.7904805538945165E+00   -1.6001947195166144E-01
N    4.8307333360227487E+00    4.6505544307469684E+00    6.2515717094879641E-01
Ga    4.8318905649224151E+00    4.6504550921808203E+00    2.5613497923660460E+00
N    4.8327387612285539E+00    2.7898482580860087E+00    3.2439391816623546E+00
Ga    4.8328392769163093E+00    2.7893624482695585E+00    5.2044528990406898E+00
N    4.8322009799462968E+00    4.6498717401189955E+00    5.8534164659405361E+00
Ga    4.8360709607391463E+00    4.6467017485965814E+00    7.8210354826881670E+00
N    4.8335411334156380E+00    2.7916949375593316E+00    8.4760916610972750E+00
Ga    4.8280790893821663E+00    2.7977496343842723E+00    1.0471116393729597E+01
N    4.8330414069527166E+00    4.6633530694589522E+00    1.1043254203422086E+01
Ga    4.8357490185645000E+00    4.6569336219769868E+00    1.3127019194757850E+01
N    4.8327063483485935E+00    2.7949087351230371E+00    1.3464302139117359E+01
Ga    3.2210498229707754E+00    5.5811435134263681E+00   -1.5879863251043563E-01
N    3.2201314451603036E+00    7.4416773458174035E+00    6.2500908296394841E-01
Ga    3.2209393223906488E+00    7.4414052576585403E+00    2.5607201655109026E+00
N    3.2205546577418782E+00    5.5810202095478916E+00    3.2432473663885713E+00
Ga    3.2205294431933655E+00    5.5802601716526121E+00    5.2040037943778685E+00
N    3.2215983844186025E+00    7.4418643713528709E+00    5.8526212927524357E+00
Ga    3.2252021669121436E+00    7.4403304374879191E+00    7.8203917846974855E+00
N    3.2261457734333243E+00    5.5787446608015445E+00    8.4521060016556486E+00
Ga    3.2197371374339023E+00    5.5789689922071455E+00    1.0440124376877792E+01
N    3.2075750161201260E+00    7.4384054791645218E+00    1.1027346617942321E+01
Ga    3.2059951417352495E+00    7.4406672531343432E+00    1.3101940497701960E+01
N    3.2188952590212212E+00    5.5815917544141005E+00    1.3471511113563199E+01
Ga    1.6099501260509879E+00    8.3715438749233879E+00   -1.5852917454914955E-01
N    1.6087777939919981E+00    1.0232314115641499E+01    6.2468405573705399E-01
Ga    1.6099686225629422E+00    1.0232092745532588E+01    2.5605598749721632E+00
N    1.6098248148470204E+00    8.3717342405102144E+00    3.2422567240605313E+00
Ga    1.6103500373856678E+00    8.3715397461159249E+00    5.2018831699283608E+00
N    1.6105946150115802E+00    1.0231503264250724E+01    5.8536566697379664E+00
Ga    1.6124200051253199E+00    1.0233095570245887E+01    7.8218284951727393E+00
N    1.6129546809751996E+00    8.3706976081446935E+00    8.4574040520405536E+00
Ga    1.6047490760469107E+00    8.3759060202796647E+00    1.0445993035183513E+01
N    1.6124697528225800E+00    1.0229764236548183E+01    1.1038702983818036E+01
Ga    1.6179738503674312E+00    1.0221761429891167E+01    1.3122505143122776E+01
N    1.6127967203294995E+00    8.3726597123314690E+00    1.3534573570226803E+01
Ga    9.6645407090184019E+00   -3.4112831464773165E-04   -1.5988651704343521E-01
N    9.6632309054719805E+00    1.8599275709322540E+00    6.2514723260972249E-01
Ga    9.6643762063573515E+00    1.8598171646441291E+00    2.5615439208516801E+00
N    9.6654915910940229E+00   -1.0920855685222280E-03    3.2432166924924326E+00
Ga    9.6660527292389773E+00   -8.6580473269642748E-04    5.2036879466037016E+00
N    9.6653881541581601E+00    1.8597251787670770E+00    5.8515325129606257E+00
Ga    9.6670105262487169E+00    1.8604183143485911E+00    7.8195130488869671E+00
N    9.6655080037910004E+00    1.5864323150705658E-03    8.4644092079218680E+00
Ga    9.6601753285991840E+00    6.4625241193694795E-03    1.0457074983735838E+01
N    9.6615592364108327E+00    1.8673403937196187E+00    1.1044118732283190E+01
Ga    9.6693555529517887E+00    1.8580498336663711E+00    1.3130459516502615E+01
N    9.6645218375742967E+00    1.6131788648291265E-03    1.3498058252897577E+01
Ga    8.0535861303772318E+00    2.7903889653825460E+00   -1.5842801591954878E-01
N    8.0522556932220901E+00    4.6510073205880644E+00    6.2519205814412759E-01
Ga    8.0533787506274130E+00    4.6508439612355010E+00    2.5617855162062737E+00
N    8.0527828393555385E+00    2.7898754871601050E+00    3.2431168784736952E+00
Ga    8.0522173617802508E+00    2.7902142228734648E+00    5.2046454997191800E+00
N    8.0535689287728029E+00    4.6510579888443999E+00    5.8531015139677791E+00
Ga    8.0579489929036807E+00    4.6492918007105688E+00    7.8214466194584773E+00
N    8.0582066580449148E+00    2.7889311299796131E+00    8.4605345997191108E+00
Ga    8.0477472112466071E+00    2.7929667127439348E+00    1.0450786954662277E+01
N    8.0409179174919885E+00    4.6523264254431265E+00    1.1035130597631396E+01
Ga    8.0410837385908636E+00    4.6513541623168120E+00    1.3108407463428961E+01
N    8.0545046953399702E+00    2.7906778442585618E+00    1.3457700656881942E+01
Ga    6.4421860300190712E+00    5.5810996283091505E+00   -1.5797641143145710E-01
N    6.4407956100631649E+00    7.4418323325357152E+00    6.2462091065413350E-01
Ga    6.4421260153980704E+00    7.4415169700834607E+00    2.5605542330690616E+00
N    6.4419078451690819E+00    5.5815928348500714E+00    3.2429636436808784E+00
Ga    6.4430981879069309E+00    5.5812972778473107E+00    5.2034389896388786E+00
N    6.4410111697836783E+00    7.4421798547455191E+00    5.8553302208754596E+00
Ga    6.4449660269733346E+00    7.4430971372589356E+00    7.8244193478039863E+00
N    6.4448892383949614E+00    5.5805211943083100E+00    8.4580547419728269E+00
Ga    6.4375300460656826E+00    5.5882742820546181E+00    1.0445212002368184E+01
N    6.4418313338114537E+00    7.4430923436719603E+00    1.1043212877387678E+01
Ga    6.4501744814042832E+00    7.4289080431226919E+00    1.3126608052136438E+01
N    6.4454493297578566E+00    5.5792513596601738E+00    1.3532365476984195E+01
Ga    4.8309716135358496E+00    8.3715779868739322E+00   -1.6025075428725313E-01
N    4.8296152935603214E+00    1.0231972850138856E+01    6.2386254710380573E-01
Ga    4.8309171952712520E+00    1.0231733144147391E+01    2.5590358004106388E+00
N    4.8311948280107524E+00    8.3723392758635455E+00    3.2435623223315049E+00
Ga    4.8318652123253871E+00    8.3727550879492192E+00    5.2038428873980331E+00
N    4.8306676627204137E+00    1.0230923159216141E+01    5.8604862886303524E+00
Ga    4.8323875842579387E+00    1.0229615793241997E+01    7.8318023647471318E+00
N    4.8324364769985975E+00    8.3674708885519511E+00    8.4657731282409134E+00
Ga    4.8242110532406501E+00    8.3705531217812155E+00    1.0461653327105886E+01
N    4.8239454859294009E+00    1.0238609227672882E+01    1.1030327219994815E+01
Ga    4.8239429746020290E+00    1.0233522430884266E+01    1.3107225646916287E+01
N    4.8289283113327102E+00    8.3680268482834759E+00    1.3428043235073837E+01
H    4.8300202057865027E+00    8.3717559349631703E+00   -1.7102621829821287E+00
H    1.6095506645820319E+00    8.3717980575224491E+00   -1.7086406278086590E+00
H   -1.6117468239823760E+00    8.3721844264406613E+00   -1.7087836892307300E+00
H   -4.8336280495835586E+00    8.3723626606742467E+00   -1.7094836538255005E+00
H    6.4412577363386694E+00    5.5811868928076684E+00   -1.7082141217621063E+00
H    3.2204305090795886E+00    5.5815287937204481E+00   -1.7088929949158547E+00
H   -4.3198121177277457E-04    5.5815386330406396E+00   -1.7105398478234226E+00
H   -3.2223335257074588E+00    5.5813738255310694E+00   -1.7096341856267228E+00
H    8.0528726042162884E+00    2.7904974446782860E+00   -1.7086072332226026E+00
H    4.8311066150913513E+00    2.7906290896392028E+00   -1.7101320278094962E+00
H    1.6100387009692643E+00    2.7903359300630908E+00   -1.7091291128184884E+00
H   -1.6105783510551543E+00    2.7896944629179670E+00   -1.7085251060192328E+00
H    5.1254926576178395E-04   -1.1739645429836225E-04   -1.7088069869806950E+00
H    3.2213910334158120E+00   -3.4579715954307966E-04   -1.7079764574665843E+00
H    6.4425364721757816E+00   -4.8984882239629752E-04   -1.7094511126178220E+00
H    9.6636724183570344E+00   -2.7183672317011772E-04   -1.7100236503876027E+00
     &END COORD
     &KIND H
       BASIS_SET DZVP-MOLOPT-SR-GTH-q1
       POTENTIAL GTH-PBE-q1
       &POTENTIAL
1
0.2000000000000000E+00 2 -0.4178900440000000E+01  0.7244633100000000E+00
0
       &END POTENTIAL
     &END KIND
     &KIND N
       BASIS_SET DZVP-MOLOPT-SR-GTH
       POTENTIAL GTH-PBE-q5
       &POTENTIAL
2 3
0.2837905100000000E+00 2 -0.1241522559000000E+02  0.1868095920000000E+01
2
0.2554050000000000E+00 1  0.1363026257000000E+02
0.2454945300000000E+00 0
       &END POTENTIAL
     &END KIND
     &KIND Ga
       BASIS_SET DZVP-MOLOPT-SR-GTH
       POTENTIAL GTH-PBE-q13
       &POTENTIAL
2 1 10
0.4900000000000000E+00 0
3
0.4167772300000000E+00 3  0.1047568975000000E+02 -0.4921768140000000E+01  0.8707055900000000E+00
0.7770178090000000E+01 -0.2248152160000000E+01
0.1784415450000000E+01
0.5696265200000000E+00 2  0.1777985340000000E+01  0.1958597600000000E+00
-0.2317443900000000E+00
0.2381265000000000E+00 1 -0.1624868022000000E+02
       &END POTENTIAL
     &END KIND
     &TOPOLOGY
       NUMBER_OF_ATOMS  208
       MULTIPLE_UNIT_CELL  1 1 1
     &END TOPOLOGY
   &END SUBSYS
 &END FORCE_EVAL
