 # Version information for this restart file 
 # current date 2019-05-25 23:07:50.834
 # current working dir /lustre03/project/6004141/rzk/GaN-carbene/00-Surface/00-Preoptimization/443-capped/CELL_OPT
 # Program compiled at                              Sun Apr  7 00:48:11 EDT 2019
 # Program compiled on                          beluga2.int.ets1.calculquebec.ca
 # Program compiled for                        Beluga-Linux-x86-64-intel-openmpi
 # Source code revision number                                         svn:18619
 &GLOBAL
   PRINT_LEVEL  MEDIUM
   PROJECT_NAME TEST
   RUN_TYPE  CELL_OPT
 &END GLOBAL
 &MOTION
   &CELL_OPT
     MAX_ITER  300
     STEP_START_VAL  22
     EXTERNAL_PRESSURE     1.0000000000000000E+00
     KEEP_ANGLES  T
     KEEP_SYMMETRY  T
     CONSTRAINT  Z
     PRESSURE_TOLERANCE     5.0000000000000000E+02
   &END CELL_OPT
 &END MOTION
 &FORCE_EVAL
   METHOD  QS
   STRESS_TENSOR  ANALYTICAL
   &DFT
     BASIS_SET_FILE_NAME BASIS_MOLOPT
     POTENTIAL_FILE_NAME GTH_POTENTIALS
     SURFACE_DIPOLE_CORRECTION  T
     SURF_DIP_DIR  Z
     &SCF
       MAX_SCF  100
       EPS_SCF     5.0000000000000004E-06
       &OT  T
         PRECONDITIONER  FULL_ALL
       &END OT
       &OUTER_SCF  T
         OPTIMIZER  NONE
         EPS_SCF     5.0000000000000004E-06
         MAX_SCF  4
       &END OUTER_SCF
       &PRINT
         &RESTART  OFF
           BACKUP_COPIES  1
           &EACH
             JUST_ENERGY  0
             QS_SCF  0
             MD  20
           &END EACH
         &END RESTART
       &END PRINT
     &END SCF
     &QS
       EPS_DEFAULT     1.0000000000000000E-14
       METHOD  GPW
     &END QS
     &MGRID
       NGRIDS  5
       CUTOFF     1.2000000000000000E+03
     &END MGRID
     &XC
       DENSITY_CUTOFF     1.0000000000000000E-10
       GRADIENT_CUTOFF     1.0000000000000000E-10
       TAU_CUTOFF     1.0000000000000000E-10
       &XC_FUNCTIONAL  NO_SHORTCUT
         &PBE  T
         &END PBE
       &END XC_FUNCTIONAL
       &VDW_POTENTIAL
         POTENTIAL_TYPE  PAIR_POTENTIAL
         &PAIR_POTENTIAL
           R_CUTOFF     1.0000000000000004E+01
           TYPE  DFTD3
           PARAMETER_FILE_NAME dftd3.dat
           REFERENCE_FUNCTIONAL PBE
           EPS_CN     9.9999999999999995E-07
           CALCULATE_C9_TERM  T
           REFERENCE_C9_TERM  T
           LONG_RANGE_CORRECTION  F
           VERBOSE_OUTPUT  F
         &END PAIR_POTENTIAL
       &END VDW_POTENTIAL
     &END XC
   &END DFT
   &SUBSYS
     &CELL
       A     1.2819156047976966E+01    0.0000000000000000E+00    0.0000000000000000E+00
       B    -6.4677688772544144E+00    1.1202504307017392E+01    0.0000000000000000E+00
       C     0.0000000000000000E+00    0.0000000000000000E+00    2.9000000000000000E+01
       MULTIPLE_UNIT_CELL  1 1 1
       &CELL_REF
         A     1.2982353780853531E+01    0.0000000000000000E+00    0.0000000000000000E+00
         B    -6.4911768904267628E+00    1.1243048175136114E+01    0.0000000000000000E+00
         C     0.0000000000000000E+00    0.0000000000000000E+00    2.9000000000000000E+01
         MULTIPLE_UNIT_CELL  1 1 1
       &END CELL_REF
     &END CELL
     &COORD
Ga   -5.9490399551115857E-04   -1.4310759378370378E-04   -1.8270575624083113E-01
N   -1.0492003050482299E-02    1.8610923873986813E+00    6.1217969913623405E-01
Ga   -7.2463541644381757E-03    1.8642308488951358E+00    2.5416915738624541E+00
N    1.1745019166397572E-02    6.5834313186209532E-03    3.2250865749023245E+00
Ga    8.5051482420819002E-03    4.7281775204785197E-03    5.1943800752464000E+00
N   -6.5201642845622611E-03    1.8632149428553950E+00    5.8657566597727779E+00
Ga    3.6190433033734641E-03    1.8585950547149439E+00    7.8426317645812844E+00
N    1.0648034894104590E-02    1.0673096776005961E-02    8.5044481853498120E+00
Ga    2.3973714266907090E-02    1.5970893432230210E-02    1.0501395575806679E+01
N   -1.0687141465200370E-02    1.8810887941497738E+00    1.1083578004578518E+01
Ga   -5.1913456226027367E-02    1.8524077993725554E+00    1.3128655138678589E+01
N   -1.1017490155400116E-02    1.2835663688066592E-02    1.3456416976620600E+01
Ga   -1.6187719059121077E+00    2.7984677745062401E+00   -1.8329014565577631E-01
N   -1.6282509448106335E+00    4.6610281537618228E+00    6.1250173619317450E-01
Ga   -1.6236759220558663E+00    4.6632494207167907E+00    2.5414933794159240E+00
N   -1.6081133579290949E+00    2.8044393195735808E+00    3.2325637199496451E+00
Ga   -1.6056050634225338E+00    2.7977594686378762E+00    5.2009201678046599E+00
N   -1.6247114926261472E+00    4.6620225021549935E+00    5.8558869231977857E+00
Ga   -1.6262696018966247E+00    4.6645422429670020E+00    7.8272586132475919E+00
N   -1.6123427522345044E+00    2.8180102457734093E+00    8.4801794257637351E+00
Ga   -1.6006549004288857E+00    2.8156512590894285E+00    1.0470316593934342E+01
N   -1.6164745543506953E+00    4.6624329205525239E+00    1.1048899441072111E+01
Ga   -1.6654982280717108E+00    4.6339595635036481E+00    1.3092266498103328E+01
N   -1.6346024525661342E+00    2.8107088879196320E+00    1.3554702827759071E+01
Ga   -3.2374180491859859E+00    5.6016200872256698E+00   -1.8260953454949971E-01
N   -3.2440808249649522E+00    7.4624411392218839E+00    6.1321328400153363E-01
Ga   -3.2403607370738192E+00    7.4669817325941592E+00    2.5418619247735967E+00
N   -3.2272898513125980E+00    5.6070271701268819E+00    3.2302383965490251E+00
Ga   -3.2289407235767600E+00    5.6037758803691773E+00    5.1964672319977785E+00
N   -3.2373164102587109E+00    7.4606640263461257E+00    5.8609974221406391E+00
Ga   -3.2256223711169434E+00    7.4673831017297418E+00    7.8356306290766184E+00
N   -3.2213780490269275E+00    5.6104587932632528E+00    8.4777541908733696E+00
Ga   -3.2031641192594531E+00    5.6141989780372592E+00    1.0458913526577744E+01
N   -3.2401756638111072E+00    7.4710422520055664E+00    1.1062032824589364E+01
Ga   -3.2921913369291254E+00    7.4505232467184639E+00    1.3076155458130401E+01
N   -3.2561083017555887E+00    5.6169570803472482E+00    1.3495981658894582E+01
Ga   -4.8519694610968518E+00    8.4016220370428076E+00   -1.8106415035692941E-01
N   -4.8599133262347474E+00    1.0263110948630873E+01    6.1289766325978867E-01
Ga   -4.8554584141520563E+00    1.0267502380398195E+01    2.5429776118713980E+00
N   -4.8418026785459416E+00    8.4087320703592976E+00    3.2274792574418085E+00
Ga   -4.8387518143768267E+00    8.4057860293595503E+00    5.1949653111618668E+00
N   -4.8556197409655253E+00    1.0261835316810087E+01    5.8555551106926531E+00
Ga   -4.8626289482811806E+00    1.0280046190872422E+01    7.8304262276467727E+00
N   -4.8462487371017993E+00    8.4051997802460310E+00    8.4698161525388791E+00
Ga   -4.8394092596719425E+00    8.4203820666723370E+00    1.0457428170319821E+01
N   -4.8390711493991434E+00    1.0249561138210440E+01    1.1102137911989489E+01
Ga   -4.8833905091897520E+00    1.0226845836568506E+01    1.3156507337286230E+01
N   -4.8582084806420420E+00    8.4004666754750179E+00    1.3598988463465703E+01
Ga    3.2035109553796790E+00   -1.1227157992215033E-03   -1.8253377649704008E-01
N    3.1948479938671168E+00    1.8603665319216542E+00    6.1267303032865361E-01
Ga    3.1979014339023797E+00    1.8624166059875189E+00    2.5431076328891624E+00
N    3.2149951496488449E+00    4.2040352862406554E-03    3.2334078500151100E+00
Ga    3.2199984779218975E+00   -1.3701344003317550E-03    5.2023638110299890E+00
N    3.2009399877961378E+00    1.8598717148455355E+00    5.8567060944200051E+00
Ga    3.1967375193557981E+00    1.8620355997347657E+00    7.8266894349162888E+00
N    3.2118154492563158E+00    6.2886275034348491E-03    8.4818489784544813E+00
Ga    3.2043047201325692E+00   -3.3461644267136518E-03    1.0468083666092605E+01
N    3.2257648961594958E+00    1.8613087041291823E+00    1.1041505856615924E+01
Ga    3.1649594020912839E+00    1.8344642078755038E+00    1.3057318439495068E+01
N    3.1841010830677603E+00    2.4663744692893074E-02    1.3537768833050999E+01
Ga    1.5854910448763204E+00    2.8002945103726993E+00   -1.8163966413314217E-01
N    1.5783425789601038E+00    4.6614810068648858E+00    6.1269312087795558E-01
Ga    1.5814703731593986E+00    4.6636840970096136E+00    2.5421772011047485E+00
N    1.5951668627487821E+00    2.8052111841688356E+00    3.2251951176977909E+00
Ga    1.5935261858938381E+00    2.7992323505690746E+00    5.1937994649102111E+00
N    1.5873352556200173E+00    4.6633164016492801E+00    5.8550234570391559E+00
Ga    1.5919026998509977E+00    4.6615686713188689E+00    7.8239502816199638E+00
N    1.6032990042855619E+00    2.8129641863897152E+00    8.4911865721032935E+00
Ga    1.5986546765071541E+00    2.8167966792378452E+00    1.0470141504648106E+01
N    1.5666921438065116E+00    4.6775049236395017E+00    1.1084796028252651E+01
Ga    1.5418761921217909E+00    4.6430980813945855E+00    1.3099653796696444E+01
N    1.5805705822889604E+00    2.8047876383351520E+00    1.3480420446393913E+01
Ga   -2.9718903949159856E-02    5.6006670823068410E+00   -1.8115524178214396E-01
N   -3.9164996379292084E-02    7.4637078471576723E+00    6.1177627473891227E-01
Ga   -3.5244998479153716E-02    7.4676612324193323E+00    2.5412651437878662E+00
N   -2.0950298351537958E-02    5.6075158402105103E+00    3.2280167082150069E+00
Ga   -1.9332589128109656E-02    5.6030763031196411E+00    5.1943889914304204E+00
N   -3.5396687954059050E-02    7.4620136323223267E+00    5.8600088352305484E+00
Ga   -4.2692112725362497E-02    7.4706042683885787E+00    7.8309061945091321E+00
N   -1.9479754260170665E-02    5.6034780239970274E+00    8.4698094602925931E+00
Ga   -1.6696312350562650E-02    5.6233542929919924E+00    1.0447543793136949E+01
N   -2.2229570470539972E-02    7.4350177844171235E+00    1.1106412983328029E+01
Ga   -7.1235909742583065E-02    7.4278382513387120E+00    1.3148829169878789E+01
N   -4.4652044012894423E-02    5.5830155074301784E+00    1.3563446496130773E+01
Ga   -1.6487671912127451E+00    8.4022412808321434E+00   -1.8306949137127981E-01
N   -1.6564860258107685E+00    1.0262887022155034E+01    6.1331395684680812E-01
Ga   -1.6542364243144054E+00    1.0266752475589357E+01    2.5419566729741634E+00
N   -1.6377650643841266E+00    8.4081016817750136E+00    3.2288766374196367E+00
Ga   -1.6387935446453115E+00    8.4075865797714808E+00    5.1960760134230277E+00
N   -1.6485816408216787E+00    1.0260889265887466E+01    5.8734463208536347E+00
Ga   -1.6446195559805854E+00    1.0262350247673639E+01    7.8519150198950376E+00
N   -1.6320063685926267E+00    8.4052824406939024E+00    8.5036990067629006E+00
Ga   -1.6174749929057468E+00    8.4192564661436595E+00    1.0490724498789685E+01
N   -1.6474163433994273E+00    1.0282537784784040E+01    1.1073068031493337E+01
Ga   -1.6972763881010045E+00    1.0249749677817402E+01    1.3106349321968972E+01
N   -1.6600688472794938E+00    8.4156517790259322E+00    1.3479416015985352E+01
Ga    6.4078231472984193E+00    1.6186504232649152E-05   -1.8091641874619169E-01
N    6.4001761812481668E+00    1.8612306875753422E+00    6.1279310040189017E-01
Ga    6.4046829493835409E+00    1.8648305081863648E+00    2.5422523308724383E+00
N    6.4166303244949674E+00    4.5274273480108047E-03    3.2272638487381600E+00
Ga    6.4149647816169475E+00    8.5242802809225911E-04    5.1965009861590090E+00
N    6.4082586859528154E+00    1.8615952419875981E+00    5.8573362602333550E+00
Ga    6.4160874427678376E+00    1.8592177497628353E+00    7.8273784994106403E+00
N    6.4221526611118094E+00    1.6540154050697524E-02    8.4932107120871638E+00
Ga    6.4268628420013032E+00    1.5039868350516846E-02    1.0473900781680353E+01
N    6.3975029575584266E+00    1.8799373484959583E+00    1.1070871254544201E+01
Ga    6.3715792831538316E+00    1.8434577101007541E+00    1.3095153299343190E+01
N    6.4017665891582514E+00    2.5629732335010437E-03    1.3502815031841095E+01
Ga    4.7918855860081235E+00    2.8009519572301071E+00   -1.7996801761285078E-01
N    4.7835893184709697E+00    4.6625572450717998E+00    6.1327494482226230E-01
Ga    4.7887075183141690E+00    4.6667198618306394E+00    2.5405618126007399E+00
N    4.8014201625419428E+00    2.8082222055093684E+00    3.2290641022362498E+00
Ga    4.8046254705128080E+00    2.7996304096511238E+00    5.1973121821557742E+00
N    4.7892389799287818E+00    4.6661051390774668E+00    5.8601728072268875E+00
Ga    4.7825051762697699E+00    4.6690512271332869E+00    7.8296011618244039E+00
N    4.8025820247583422E+00    2.8063027700512952E+00    8.4608775334509616E+00
Ga    4.8094385327259435E+00    2.8111412401257279E+00    1.0424938353366743E+01
N    4.7906199340781770E+00    4.6381526100519235E+00    1.1090617154562635E+01
Ga    4.7560972547337723E+00    4.6366460376217429E+00    1.3133125406325357E+01
N    4.7783719094081976E+00    2.7976661177421596E+00    1.3545455254597794E+01
Ga    3.1741246280934945E+00    5.5996848316657939E+00   -1.8252115061078050E-01
N    3.1648764005241090E+00    7.4621848919837879E+00    6.1182913591195587E-01
Ga    3.1678312853412733E+00    7.4661933179986075E+00    2.5400023951099677E+00
N    3.1860334531666341E+00    5.6068215921951694E+00    3.2255812298786628E+00
Ga    3.1839483318226462E+00    5.6049294388824311E+00    5.1896677740828450E+00
N    3.1714355095142337E+00    7.4595284833039566E+00    5.8693783914122903E+00
Ga    3.1835007639040307E+00    7.4660792125831890E+00    7.8430116567971240E+00
N    3.1873516156361821E+00    5.6076536365365879E+00    8.4986530017157182E+00
Ga    3.1914208694698445E+00    5.6106106885597997E+00    1.0491223540164000E+01
N    3.1741453318382309E+00    7.4951666846894955E+00    1.1048725482125930E+01
Ga    3.1240571120033143E+00    7.4575873084886917E+00    1.3062627944099223E+01
N    3.1599826266355957E+00    5.6212727973681158E+00    1.3456108401529766E+01
Ga    1.5573768148814719E+00    8.4022129559934058E+00   -1.8241513190000710E-01
N    1.5486274913660361E+00    1.0263617231713001E+01    6.1325503174722351E-01
Ga    1.5529347485721303E+00    1.0266457756477948E+01    2.5436698818571339E+00
N    1.5683476574371125E+00    8.4075622925986213E+00    3.2306408968450193E+00
Ga    1.5705027758096577E+00    8.4052757343607833E+00    5.1978567874396200E+00
N    1.5523939136321776E+00    1.0260821500685761E+01    5.8570880867809212E+00
Ga    1.5465458903020193E+00    1.0271059604628761E+01    7.8288378647989436E+00
N    1.5620095139030772E+00    8.4041132113659831E+00    8.4819943309284884E+00
Ga    1.5709215936287453E+00    8.4206176430246966E+00    1.0468467056780790E+01
N    1.5726742574499120E+00    1.0261182595144485E+01    1.1086244722170443E+01
Ga    1.5219812809120494E+00    1.0228566133180527E+01    1.3123978304889585E+01
N    1.5362101104340797E+00    8.4058698800742047E+00    1.3525222271404852E+01
Ga    9.6116225900372498E+00    1.1056843226239046E-03   -1.8003192128136081E-01
N    9.6042350141132573E+00    1.8626669461400205E+00    6.1309160830916831E-01
Ga    9.6088019503782913E+00    1.8664474343526865E+00    2.5420172550173619E+00
N    9.6212184496992812E+00    9.0299612073916277E-03    3.2279151398284518E+00
Ga    9.6231580961497496E+00    2.7929708007596935E-03    5.1980591442883188E+00
N    9.6069630899968654E+00    1.8660380936815104E+00    5.8597436342942411E+00
Ga    9.6082528674219780E+00    1.8700291757519829E+00    7.8355987941942145E+00
N    9.6287252637199376E+00   -2.5953576652636265E-04    8.4664933868906598E+00
Ga    9.6163502571220825E+00    1.3323976294863959E-02    1.0449896881283429E+01
N    9.6246168448936693E+00    1.8432668536941135E+00    1.1080083697259870E+01
Ga    9.5669775284926839E+00    1.8355756807529562E+00    1.3125913641916119E+01
N    9.5990651330451335E+00    7.8179139512151493E-03    1.3560390407140281E+01
Ga    7.9959570756181977E+00    2.8010582175973320E+00   -1.8241822545844241E-01
N    7.9868284433946455E+00    4.6612424685994869E+00    6.1376324420651018E-01
Ga    7.9901580933249265E+00    4.6645509534743947E+00    2.5403519987242862E+00
N    8.0077507596083066E+00    2.8083662783824903E+00    3.2268850798395268E+00
Ga    8.0045133171313783E+00    2.8038686809551181E+00    5.1937800415849340E+00
N    7.9905400733932428E+00    4.6615137761897367E+00    5.8714494257806082E+00
Ga    7.9966492606617061E+00    4.6626242262522357E+00    7.8464327885378564E+00
N    8.0014515142585552E+00    2.8078261760091991E+00    8.4940489590305663E+00
Ga    8.0249688623910824E+00    2.8124245899030420E+00    1.0479930419494483E+01
N    7.9938665662205075E+00    4.6787603309056927E+00    1.1064722994760816E+01
Ga    7.9454003180544719E+00    4.6484955993050834E+00    1.3094467483032682E+01
N    7.9841413249780491E+00    2.8192173625487591E+00    1.3483497468452358E+01
Ga    6.3799215008303527E+00    5.5996707394239760E+00   -1.8336074109365896E-01
N    6.3713982561415126E+00    7.4613709105065071E+00    6.1295843740715628E-01
Ga    6.3766556843059652E+00    7.4654323085000751E+00    2.5413922716614152E+00
N    6.3909877234867656E+00    5.6060242074572990E+00    3.2323408652318997E+00
Ga    6.3929736885292243E+00    5.6015431972120275E+00    5.1966412323259652E+00
N    6.3756890043789420E+00    7.4580286913466551E+00    5.8547245279865550E+00
Ga    6.3727157457407255E+00    7.4707121683415583E+00    7.8223371789202849E+00
N    6.3830298696050081E+00    5.6095269242899963E+00    8.4842754971757142E+00
Ga    6.3831997082067593E+00    5.6087799858682219E+00    1.0474481477913342E+01
N    6.3832761674048069E+00    7.4621093687743345E+00    1.1084713836079798E+01
Ga    6.3477707549820579E+00    7.4317460860157949E+00    1.3139952305740605E+01
N    6.3635003609223730E+00    5.6025230266463426E+00    1.3556961757294120E+01
Ga    4.7622682725736842E+00    8.4011726116220728E+00   -1.8142755744152136E-01
N    4.7535523528667740E+00    1.0263915306619568E+01    6.1182414259200124E-01
Ga    4.7577959991049870E+00    1.0269289058715806E+01    2.5429350840043923E+00
N    4.7723932782785097E+00    8.4054961903619656E+00    3.2275991945716451E+00
Ga    4.7706822339972499E+00    8.4057062483694711E+00    5.1947627787897206E+00
N    4.7601701855758805E+00    1.0262057092857944E+01    5.8521956695908051E+00
Ga    4.7766334497988057E+00    1.0271068521659073E+01    7.8235376515292501E+00
N    4.7798299545096841E+00    8.4146470351650784E+00    8.4723563011951573E+00
Ga    4.8029107005752376E+00    8.4208044884671907E+00    1.0446268924649853E+01
N    4.7572846236142858E+00    1.0270587425482301E+01    1.1055333974731656E+01
Ga    4.7079269408409248E+00    1.0253883790646032E+01    1.3088133212972275E+01
N    4.7494830826012642E+00    8.4097099405033955E+00    1.3453348149686516E+01
H    4.7628517961321650E+00    8.4027930770519159E+00   -1.7272477141271492E+00
H    1.5585156577203039E+00    8.4043858490757355E+00   -1.7280419146129444E+00
H   -1.6469454016234286E+00    8.4050987923706142E+00   -1.7290910078834802E+00
H   -4.8521021522176913E+00    8.4054472437870835E+00   -1.7265450632255264E+00
H    6.3800470900131199E+00    5.6019815119254419E+00   -1.7277061452516915E+00
H    3.1759733806629460E+00    5.6033915398443979E+00   -1.7279834240050918E+00
H   -2.9258316873949447E-02    5.6040727368573098E+00   -1.7265776164899185E+00
H   -3.2366019104245582E+00    5.6030958146244654E+00   -1.7278029961872392E+00
H    7.9978928080322316E+00    2.8044479148162758E+00   -1.7279168893590915E+00
H    4.7914124583045359E+00    2.8042806526327726E+00   -1.7253291175479486E+00
H    1.5862064048160827E+00    2.8024013145590168E+00   -1.7278992522598271E+00
H   -1.6179597964102432E+00    2.8010984693815595E+00   -1.7284449690422010E+00
H    1.3229606550953443E-03    3.5688293655622471E-03   -1.7295057722970675E+00
H    3.2038919983827303E+00    1.6455576914496985E-03   -1.7283644310195234E+00
H    6.4081650133329404E+00    1.3055455910228879E-03   -1.7272269770647641E+00
H    9.6120428991053615E+00    4.3533313270032632E-03   -1.7258903526993961E+00
     &END COORD
     &KIND H
       BASIS_SET DZVP-MOLOPT-SR-GTH-q1
       POTENTIAL GTH-PBE-q1
       &POTENTIAL
1
0.2000000000000000E+00 2 -0.4178900440000000E+01  0.7244633100000000E+00
0
       &END POTENTIAL
     &END KIND
     &KIND N
       BASIS_SET DZVP-MOLOPT-SR-GTH
       POTENTIAL GTH-PBE-q5
       &POTENTIAL
2 3
0.2837905100000000E+00 2 -0.1241522559000000E+02  0.1868095920000000E+01
2
0.2554050000000000E+00 1  0.1363026257000000E+02
0.2454945300000000E+00 0
       &END POTENTIAL
     &END KIND
     &KIND Ga
       BASIS_SET DZVP-MOLOPT-SR-GTH
       POTENTIAL GTH-PBE-q13
       &POTENTIAL
2 1 10
0.4900000000000000E+00 0
3
0.4167772300000000E+00 3  0.1047568975000000E+02 -0.4921768140000000E+01  0.8707055900000000E+00
0.7770178090000000E+01 -0.2248152160000000E+01
0.1784415450000000E+01
0.5696265200000000E+00 2  0.1777985340000000E+01  0.1958597600000000E+00
-0.2317443900000000E+00
0.2381265000000000E+00 1 -0.1624868022000000E+02
       &END POTENTIAL
     &END KIND
     &TOPOLOGY
       NUMBER_OF_ATOMS  208
       MULTIPLE_UNIT_CELL  1 1 1
     &END TOPOLOGY
   &END SUBSYS
 &END FORCE_EVAL
