 # Version information for this restart file 
 # current date 2019-05-26 00:08:07.004
 # current working dir /lustre03/project/6004141/rzk/GaN-carbene/00-Surface/00-Preoptimization/443-capped/CELL_OPT
 # Program compiled at                              Sun Apr  7 00:48:11 EDT 2019
 # Program compiled on                          beluga2.int.ets1.calculquebec.ca
 # Program compiled for                        Beluga-Linux-x86-64-intel-openmpi
 # Source code revision number                                         svn:18619
 &GLOBAL
   PRINT_LEVEL  MEDIUM
   PROJECT_NAME TEST
   RUN_TYPE  CELL_OPT
 &END GLOBAL
 &MOTION
   &CELL_OPT
     MAX_ITER  300
     STEP_START_VAL  31
     EXTERNAL_PRESSURE     1.0000000000000000E+00
     KEEP_ANGLES  T
     KEEP_SYMMETRY  T
     CONSTRAINT  Z
     PRESSURE_TOLERANCE     5.0000000000000000E+02
   &END CELL_OPT
 &END MOTION
 &FORCE_EVAL
   METHOD  QS
   STRESS_TENSOR  ANALYTICAL
   &DFT
     BASIS_SET_FILE_NAME BASIS_MOLOPT
     POTENTIAL_FILE_NAME GTH_POTENTIALS
     SURFACE_DIPOLE_CORRECTION  T
     SURF_DIP_DIR  Z
     &SCF
       MAX_SCF  100
       EPS_SCF     5.0000000000000004E-06
       &OT  T
         PRECONDITIONER  FULL_ALL
       &END OT
       &OUTER_SCF  T
         OPTIMIZER  NONE
         EPS_SCF     5.0000000000000004E-06
         MAX_SCF  4
       &END OUTER_SCF
       &PRINT
         &RESTART  OFF
           BACKUP_COPIES  1
           &EACH
             JUST_ENERGY  0
             QS_SCF  0
             MD  20
           &END EACH
         &END RESTART
       &END PRINT
     &END SCF
     &QS
       EPS_DEFAULT     1.0000000000000000E-14
       METHOD  GPW
     &END QS
     &MGRID
       NGRIDS  5
       CUTOFF     1.2000000000000000E+03
     &END MGRID
     &XC
       DENSITY_CUTOFF     1.0000000000000000E-10
       GRADIENT_CUTOFF     1.0000000000000000E-10
       TAU_CUTOFF     1.0000000000000000E-10
       &XC_FUNCTIONAL  NO_SHORTCUT
         &PBE  T
         &END PBE
       &END XC_FUNCTIONAL
       &VDW_POTENTIAL
         POTENTIAL_TYPE  PAIR_POTENTIAL
         &PAIR_POTENTIAL
           R_CUTOFF     1.0000000000000004E+01
           TYPE  DFTD3
           PARAMETER_FILE_NAME dftd3.dat
           REFERENCE_FUNCTIONAL PBE
           EPS_CN     9.9999999999999995E-07
           CALCULATE_C9_TERM  T
           REFERENCE_C9_TERM  T
           LONG_RANGE_CORRECTION  F
           VERBOSE_OUTPUT  F
         &END PAIR_POTENTIAL
       &END VDW_POTENTIAL
     &END XC
   &END DFT
   &SUBSYS
     &CELL
       A     1.2845275714726728E+01    0.0000000000000000E+00    0.0000000000000000E+00
       B    -6.4489428320526470E+00    1.1169896640222335E+01    0.0000000000000000E+00
       C     0.0000000000000000E+00    0.0000000000000000E+00    2.9000000000000000E+01
       MULTIPLE_UNIT_CELL  1 1 1
       &CELL_REF
         A     1.2982353780853531E+01    0.0000000000000000E+00    0.0000000000000000E+00
         B    -6.4911768904267628E+00    1.1243048175136114E+01    0.0000000000000000E+00
         C     0.0000000000000000E+00    0.0000000000000000E+00    2.9000000000000000E+01
         MULTIPLE_UNIT_CELL  1 1 1
       &END CELL_REF
     &END CELL
     &COORD
Ga    1.3381299478848808E-03   -5.9763635827933125E-04   -1.7113776519637472E-01
N   -5.7655722614660294E-03    1.8583633661973826E+00    6.1507687699302516E-01
Ga   -1.2892383652203683E-03    1.8612566360255578E+00    2.5502048809559263E+00
N    4.5645923868711880E-03    2.3151443991492114E-03    3.2369755800112769E+00
Ga    5.0871864380835153E-03    6.8100620568228713E-04    5.1971045200512229E+00
N   -7.1528253423741312E-04    1.8582101089011536E+00    5.8581854454391573E+00
Ga    1.9805120359396959E-03    1.8600846280014109E+00    7.8267309078499387E+00
N    1.1962159515247138E-02    3.2240518356683205E-03    8.4791859703009518E+00
Ga    1.2651216179094215E-02    6.8569365714973044E-03    1.0467740416240430E+01
N   -6.2977305206008806E-03    1.8659233617075615E+00    1.1058394957712238E+01
Ga   -2.9954493612321036E-02    1.8548411853329179E+00    1.3129209079847140E+01
N   -9.4791794040900903E-03   -9.0759807052028581E-04    1.3463410398335769E+01
Ga   -1.6113430861162079E+00    2.7919817505750935E+00   -1.7139572231296385E-01
N   -1.6179167258584044E+00    4.6507768808112413E+00    6.1531499783012500E-01
Ga   -1.6137123651516412E+00    4.6535787811278873E+00    2.5509935048493197E+00
N   -1.6071768851102566E+00    2.7948140816825098E+00    3.2381577799979704E+00
Ga   -1.6061083807394680E+00    2.7928659065536703E+00    5.1986681513351405E+00
N   -1.6130741154447523E+00    4.6517243788054863E+00    5.8548024159248087E+00
Ga   -1.6107101863333027E+00    4.6531364782548090E+00    7.8225586450220588E+00
N   -1.6039191721589607E+00    2.7947624748574178E+00    8.4716792129722958E+00
Ga   -1.6102494875579572E+00    2.8008471233872374E+00    1.0456740420446065E+01
N   -1.6153242513077330E+00    4.6548463803164637E+00    1.1052700431375568E+01
Ga   -1.6272852386897700E+00    4.6367213500214737E+00    1.3127837649789358E+01
N   -1.6205073904117822E+00    2.7946998043259068E+00    1.3538575716936435E+01
Ga   -3.2234849901441969E+00    5.5843103451621596E+00   -1.7149971805194172E-01
N   -3.2299095500049737E+00    7.4431417935883095E+00    6.1509663295628203E-01
Ga   -3.2254580656351344E+00    7.4455199111369366E+00    2.5506525324130780E+00
N   -3.2197789211941554E+00    5.5870879383425764E+00    3.2382590392301762E+00
Ga   -3.2197061529613982E+00    5.5858722778960086E+00    5.1994089571151871E+00
N   -3.2251556810263380E+00    7.4444702568117220E+00    5.8585892718011818E+00
Ga   -3.2224697572512562E+00    7.4466123076133419E+00    7.8278597139824981E+00
N   -3.2148832964020890E+00    5.5866184333296980E+00    8.4706607639764488E+00
Ga   -3.2189531643214071E+00    5.5914202236495258E+00    1.0456420662879763E+01
N   -3.2320395444511787E+00    7.4504402265386789E+00    1.1047410549574863E+01
Ga   -3.2537078103210813E+00    7.4413144749154565E+00    1.3113840264389218E+01
N   -3.2323620915308986E+00    5.5868266598031520E+00    1.3462685272375589E+01
Ga   -4.8357238402587175E+00    8.3770115310979012E+00   -1.7097462433377539E-01
N   -4.8420375557035626E+00    1.0235808332968343E+01    6.1604162437227883E-01
Ga   -4.8372337580284963E+00    1.0238479014432000E+01    2.5515502689183922E+00
N   -4.8315666382584483E+00    8.3793864134037541E+00    3.2380138881865768E+00
Ga   -4.8302359288656334E+00    8.3775773454143891E+00    5.1982440533855385E+00
N   -4.8384647189472121E+00    1.0236408552129348E+01    5.8561003765421429E+00
Ga   -4.8362336749069854E+00    1.0238302682016416E+01    7.8236623884721315E+00
N   -4.8295525962357218E+00    8.3816202139927114E+00    8.4731774644135545E+00
Ga   -4.8347856232887567E+00    8.3869714523550751E+00    1.0457758460132437E+01
N   -4.8347213072790938E+00    1.0237665078740871E+01    1.1068247966240225E+01
Ga   -4.8495589714540905E+00    1.0216954544109685E+01    1.3153251689672027E+01
N   -4.8426743805960921E+00    8.3745721022702959E+00    1.3552417992295219E+01
Ga    3.2122950666046224E+00   -5.4550499862627882E-04   -1.7076918577207295E-01
N    3.2058833833309008E+00    1.8582046022407623E+00    6.1627312712930349E-01
Ga    3.2104595957793345E+00    1.8607969310441224E+00    2.5520577418666468E+00
N    3.2166102064516369E+00    1.8888163072239620E-03    3.2395624465398107E+00
Ga    3.2177327845346317E+00   -5.8687391311244993E-04    5.2006244766566514E+00
N    3.2106527830063256E+00    1.8589074328042345E+00    5.8563563840803150E+00
Ga    3.2127759769550472E+00    1.8603208963392384E+00    7.8241512447614170E+00
N    3.2197008242323220E+00    1.8798844730846349E-03    8.4725012281423879E+00
Ga    3.2146892384415531E+00    5.7530774989126886E-03    1.0456448021497483E+01
N    3.2117794218149536E+00    1.8627149471011013E+00    1.1048386801765480E+01
Ga    3.1974520153505197E+00    1.8440950157802933E+00    1.3118211648046849E+01
N    3.2037132564835535E+00    2.4582716809262114E-03    1.3533147884803306E+01
Ga    1.6001755471314492E+00    2.7917196385627863E+00   -1.7099831829859402E-01
N    1.5934760524988085E+00    4.6507251619697314E+00    6.1496040738660940E-01
Ga    1.5976905954681104E+00    4.6532691514084270E+00    2.5502366837990942E+00
N    1.6036146448832209E+00    2.7944829880431921E+00    3.2377795288930966E+00
Ga    1.6040748742833915E+00    2.7923008126788940E+00    5.1984871327606870E+00
N    1.5986536557703583E+00    4.6516510998218070E+00    5.8562216049912870E+00
Ga    1.5994257809439694E+00    4.6523941487546958E+00    7.8247424865831556E+00
N    1.6092802084996849E+00    2.7945882912810771E+00    8.4732398467340584E+00
Ga    1.6061083065300679E+00    2.7983540514592495E+00    1.0459696898620983E+01
N    1.5925770254838512E+00    4.6580891140461391E+00    1.1049835912471508E+01
Ga    1.5738731881402004E+00    4.6443203014589436E+00    1.3117817787973783E+01
N    1.5928219046059926E+00    2.7904454278387965E+00    1.3464780626376751E+01
Ga   -1.2301615333665271E-02    5.5845192755740847E+00   -1.7139157383255207E-01
N   -1.8762589160141577E-02    7.4433227286720003E+00    6.1538061027424840E-01
Ga   -1.4392418858788799E-02    7.4458536670843731E+00    2.5509524908993648E+00
N   -8.4838248573448922E-03    5.5868849574660135E+00    3.2371604324992411E+00
Ga   -7.7946743931105343E-03    5.5847453941906000E+00    5.1972376990763847E+00
N   -1.3972517876830072E-02    7.4435337686117036E+00    5.8549621550851869E+00
Ga   -1.3113600824595537E-02    7.4443556404102198E+00    7.8226560700730214E+00
N   -4.3218310997733865E-03    5.5874125631046025E+00    8.4718235754699407E+00
Ga   -1.2356022894162898E-02    5.5953090166863335E+00    1.0456261124005458E+01
N   -1.1562450024437137E-02    7.4458326190028119E+00    1.1067393445092055E+01
Ga   -2.7449393711807487E-02    7.4262874922474431E+00    1.3152100234271355E+01
N   -1.9810656059752102E-02    5.5789336776984220E+00    1.3533836510113032E+01
Ga   -1.6243614635232217E+00    8.3768266399113465E+00   -1.7128033484454572E-01
N   -1.6310459921471805E+00    1.0235685711121695E+01    6.1554139506155670E-01
Ga   -1.6265623948571071E+00    1.0238252079293444E+01    2.5509833596578768E+00
N   -1.6207670866231050E+00    8.3795055412095660E+00    3.2378355603369640E+00
Ga   -1.6206340822342222E+00    8.3778480334991183E+00    5.1986409042281929E+00
N   -1.6252215045620682E+00    1.0235447196068517E+01    5.8603547212381057E+00
Ga   -1.6230434427209437E+00    1.0236228110033753E+01    7.8294970121484546E+00
N   -1.6134731048716158E+00    8.3778485233549720E+00    8.4788731539300706E+00
Ga   -1.6154511248407193E+00    8.3807711723752423E+00    1.0467009108938321E+01
N   -1.6296490404024213E+00    1.0243010918366117E+01    1.1056719065399223E+01
Ga   -1.6543583038878988E+00    1.0233666513656441E+01    1.3123050782890482E+01
N   -1.6330375613221044E+00    8.3794061291605750E+00    1.3465530535016983E+01
Ga    6.4236605054051230E+00   -6.8738225959788003E-04   -1.7067438735280285E-01
N    6.4171923423309325E+00    1.8583694826982846E+00    6.1562494595722683E-01
Ga    6.4212823898241398E+00    1.8609222820036864E+00    2.5511293715778836E+00
N    6.4269699547417289E+00    2.2359537046954224E-03    3.2387386266110627E+00
Ga    6.4271726157530980E+00   -2.4711208299796773E-04    5.1993748499857091E+00
N    6.4225115592521682E+00    1.8587148392830142E+00    5.8577853685118457E+00
Ga    6.4251954318145179E+00    1.8596941878919155E+00    7.8262644849160257E+00
N    6.4339950250401712E+00    2.3997618322578536E-03    8.4774501667189526E+00
Ga    6.4320793304958173E+00    5.7441607559183955E-03    1.0464584386835249E+01
N    6.4177296265072199E+00    1.8648673351315976E+00    1.1053084310623678E+01
Ga    6.3975605480803281E+00    1.8514030992286010E+00    1.3120195416833333E+01
N    6.4163444695676972E+00   -1.0228556593212506E-03    1.3467968373875816E+01
Ga    4.8113382479413778E+00    2.7920426444548765E+00   -1.7077381883564818E-01
N    4.8050813205627367E+00    4.6508592460653340E+00    6.1573921081310623E-01
Ga    4.8095173625544874E+00    4.6531572363619826E+00    2.5511051431122422E+00
N    4.8154213694720589E+00    2.7946129485666633E+00    3.2387966857193917E+00
Ga    4.8160090600777616E+00    2.7920725339496619E+00    5.1991417474086390E+00
N    4.8092209621610404E+00    4.6521458906388613E+00    5.8538980289715639E+00
Ga    4.8114083964680150E+00    4.6528405894466536E+00    7.8212454073651889E+00
N    4.8196107191015507E+00    2.7956103477043053E+00    8.4695793988220771E+00
Ga    4.8152133669297417E+00    2.8015372955515514E+00    1.0454774418436562E+01
N    4.8096138849284635E+00    4.6555962716927626E+00    1.1058333171758226E+01
Ga    4.7979857936817440E+00    4.6402417954903843E+00    1.3138306428479323E+01
N    4.8033192122559587E+00    2.7924938090540432E+00    1.3514120083303201E+01
Ga    3.1994423453659673E+00    5.5843618806169708E+00   -1.7135151283181327E-01
N    3.1926666295532873E+00    7.4433761200312381E+00    6.1483520575526074E-01
Ga    3.1969836052732461E+00    7.4461076103239998E+00    2.5498845585087713E+00
N    3.2028256599538385E+00    5.5873183494522198E+00    3.2368188942290614E+00
Ga    3.2027014219986949E+00    5.5856262671195918E+00    5.1967747140764207E+00
N    3.1980140771224628E+00    7.4438132884798698E+00    5.8575845765041645E+00
Ga    3.1991085367534682E+00    7.4450549386578393E+00    7.8265334036869341E+00
N    3.2078680735023348E+00    5.5855462018672180E+00    8.4726480108042388E+00
Ga    3.2055906528117131E+00    5.5884372325950196E+00    1.0459202728195040E+01
N    3.1923187814990350E+00    7.4512806939043132E+00    1.1043120183336081E+01
Ga    3.1677137485763844E+00    7.4395966523570580E+00    1.3106346268026295E+01
N    3.1906431538313389E+00    5.5883325951942258E+00    1.3466333357791028E+01
Ga    1.5869101563636565E+00    8.3770956174017446E+00   -1.7111037442856375E-01
N    1.5803937458592994E+00    1.0235732946976276E+01    6.1629581587474536E-01
Ga    1.5846289113612737E+00    1.0238542407325154E+01    2.5520246045692843E+00
N    1.5909201308553649E+00    8.3791418212878241E+00    3.2383697557342379E+00
Ga    1.5913395098422194E+00    8.3769444138576485E+00    5.1984808486336442E+00
N    1.5853971295598857E+00    1.0236104431196672E+01    5.8559466608303161E+00
Ga    1.5867018335698335E+00    1.0237969701106733E+01    7.8228768263116946E+00
N    1.5937516874782380E+00    8.3803778296488041E+00    8.4722997234139434E+00
Ga    1.5871415889333356E+00    8.3880029276638552E+00    1.0456575583894374E+01
N    1.5881786667456019E+00    1.0239232461259169E+01    1.1062080696139267E+01
Ga    1.5723072974500940E+00    1.0218981874344658E+01    1.3142136638256845E+01
N    1.5788336088552775E+00    8.3749914850830649E+00    1.3539172973067853E+01
Ga    9.6348709948025295E+00   -2.3277238338317984E-04   -1.7076090837682692E-01
N    9.6285196167591369E+00    1.8585286243432606E+00    6.1608083293468852E-01
Ga    9.6328835890031481E+00    1.8611903067868010E+00    2.5515477223743868E+00
N    9.6391570717849326E+00    2.1958651692831621E-03    3.2388251711430431E+00
Ga    9.6399847552496674E+00    9.5349107292394165E-05    5.1991267366436222E+00
N    9.6327012500441516E+00    1.8593516223757189E+00    5.8554110176064684E+00
Ga    9.6351415044233075E+00    1.8612812957114020E+00    7.8226542452737595E+00
N    9.6420269335247735E+00    3.1054686819820283E-03    8.4699130882068232E+00
Ga    9.6355847029651116E+00    9.1093462159780262E-03    1.0453945617389707E+01
N    9.6334165902775908E+00    1.8592746293689877E+00    1.1060629381465347E+01
Ga    9.6205571207573648E+00    1.8449499797660116E+00    1.3141237987298833E+01
N    9.6272943179791532E+00    6.7161674228515401E-04    1.3535743684591658E+01
Ga    8.0229853285938457E+00    2.7921514511245169E+00   -1.7092269929567053E-01
N    8.0162794415382823E+00    4.6510701923183051E+00    6.1527538870920895E-01
Ga    8.0208738037811269E+00    4.6537914354881744E+00    2.5505827827664764E+00
N    8.0262827436425841E+00    2.7949676737184750E+00    3.2379078825230585E+00
Ga    8.0263366483609246E+00    2.7934074444868942E+00    5.1982556544623275E+00
N    8.0204789432757675E+00    4.6513107163224117E+00    5.8576996184647250E+00
Ga    8.0222660481689676E+00    4.6520633720995530E+00    7.8261914721109838E+00
N    8.0328523296384002E+00    2.7942063698326387E+00    8.4760752142491480E+00
Ga    8.0312897147403142E+00    2.7978202653595439E+00    1.0464143457804967E+01
N    8.0146020839445935E+00    4.6574901698107638E+00    1.1050265444119761E+01
Ga    7.9906632171774605E+00    4.6489298551958358E+00    1.3118576101468470E+01
N    8.0134487291864858E+00    2.7944665815934067E+00    1.3466760470751808E+01
Ga    6.4105813130009235E+00    5.5844631369362379E+00   -1.7131160159743575E-01
N    6.4039909753163586E+00    7.4432339404820214E+00    6.1554717970125106E-01
Ga    6.4084324659640366E+00    7.4460337698641430E+00    2.5510189134432673E+00
N    6.4145535507279163E+00    5.5871125334490701E+00    3.2377389864690822E+00
Ga    6.4156776325826126E+00    5.5849548475710131E+00    5.1976508275540292E+00
N    6.4086519496691503E+00    7.4441144040791185E+00    5.8542299142459875E+00
Ga    6.4120236862424207E+00    7.4452949919881695E+00    7.8216402769480364E+00
N    6.4163012953400438E+00    5.5880304232833558E+00    8.4720242541441895E+00
Ga    6.4109483127098779E+00    5.5960434652319408E+00    1.0456752394109037E+01
N    6.4111149338430158E+00    7.4455073853691571E+00    1.1062593258989565E+01
Ga    6.3992784741304183E+00    7.4259349577879972E+00    1.3147018025641316E+01
N    6.4021414030845083E+00    5.5833826899776371E+00    1.3552222150346360E+01
Ga    4.7984733503068968E+00    8.3767616452864377E+00   -1.7152417329748645E-01
N    4.7917629999466023E+00    1.0235710927388039E+01    6.1510946983571013E-01
Ga    4.7959142461107183E+00    1.0238436795911971E+01    2.5502991998720939E+00
N    4.8017857977124008E+00    8.3798169978569330E+00    3.2374373072065481E+00
Ga    4.8024034345536251E+00    8.3783834362849792E+00    5.1978279205309308E+00
N    4.7973976606485769E+00    1.0236608469686148E+01    5.8581105657311179E+00
Ga    4.8005773079539065E+00    1.0239519911043690E+01    7.8270244844836219E+00
N    4.8084379820600258E+00    8.3796268522127448E+00    8.4726598737486878E+00
Ga    4.8079412877920449E+00    8.3831174466185772E+00    1.0460394350567027E+01
N    4.7917654210558451E+00    1.0242481554295154E+01    1.1046028507261601E+01
Ga    4.7675741706074417E+00    1.0234590253883011E+01    1.3109554618360296E+01
N    4.7889225987893456E+00    8.3783170643664491E+00    1.3447166993928548E+01
H    4.7979539092601975E+00    8.3786349227828918E+00   -1.7239335765335106E+00
H    1.5869426047100297E+00    8.3795858560229028E+00   -1.7236754664173197E+00
H   -1.6248031866204253E+00    8.3798629670611486E+00   -1.7238013484842065E+00
H   -4.8365242680082616E+00    8.3802036420570634E+00   -1.7235583052547434E+00
H    6.4102474035643091E+00    5.5861501296825251E+00   -1.7238482326576452E+00
H    3.1994020978548021E+00    5.5867569641654455E+00   -1.7238136967667288E+00
H   -1.2162299182672859E-02    5.5871974766217551E+00   -1.7239270364745163E+00
H   -3.2249883091097011E+00    5.5867508989093499E+00   -1.7240050129686852E+00
H    8.0230862732242070E+00    2.7950687387579936E+00   -1.7234279872149041E+00
H    4.8105920322653573E+00    2.7950494685449270E+00   -1.7232420714541421E+00
H    1.5992903251907251E+00    2.7939476356898520E+00   -1.7235161937012899E+00
H   -1.6116305865370828E+00    2.7931212500434217E+00   -1.7239515708411930E+00
H    1.8713904034969946E-03    2.3252698071709156E-03   -1.7236713773362540E+00
H    3.2118364765648528E+00    1.4938723772610707E-03   -1.7233088145586486E+00
H    6.4229588661933752E+00    1.2404541783813928E-03   -1.7231193481610299E+00
H    9.6337308448759646E+00    2.8806008533220693E-03   -1.7232780450726388E+00
     &END COORD
     &KIND H
       BASIS_SET DZVP-MOLOPT-SR-GTH-q1
       POTENTIAL GTH-PBE-q1
       &POTENTIAL
1
0.2000000000000000E+00 2 -0.4178900440000000E+01  0.7244633100000000E+00
0
       &END POTENTIAL
     &END KIND
     &KIND N
       BASIS_SET DZVP-MOLOPT-SR-GTH
       POTENTIAL GTH-PBE-q5
       &POTENTIAL
2 3
0.2837905100000000E+00 2 -0.1241522559000000E+02  0.1868095920000000E+01
2
0.2554050000000000E+00 1  0.1363026257000000E+02
0.2454945300000000E+00 0
       &END POTENTIAL
     &END KIND
     &KIND Ga
       BASIS_SET DZVP-MOLOPT-SR-GTH
       POTENTIAL GTH-PBE-q13
       &POTENTIAL
2 1 10
0.4900000000000000E+00 0
3
0.4167772300000000E+00 3  0.1047568975000000E+02 -0.4921768140000000E+01  0.8707055900000000E+00
0.7770178090000000E+01 -0.2248152160000000E+01
0.1784415450000000E+01
0.5696265200000000E+00 2  0.1777985340000000E+01  0.1958597600000000E+00
-0.2317443900000000E+00
0.2381265000000000E+00 1 -0.1624868022000000E+02
       &END POTENTIAL
     &END KIND
     &TOPOLOGY
       NUMBER_OF_ATOMS  208
       MULTIPLE_UNIT_CELL  1 1 1
     &END TOPOLOGY
   &END SUBSYS
 &END FORCE_EVAL
