 # Version information for this restart file 
 # current date 2019-05-26 00:45:14.131
 # current working dir /lustre03/project/6004141/rzk/GaN-carbene/00-Surface/00-Preoptimization/443-capped/CELL_OPT
 # Program compiled at                              Sun Apr  7 00:48:11 EDT 2019
 # Program compiled on                          beluga2.int.ets1.calculquebec.ca
 # Program compiled for                        Beluga-Linux-x86-64-intel-openmpi
 # Source code revision number                                         svn:18619
 &GLOBAL
   PRINT_LEVEL  MEDIUM
   PROJECT_NAME TEST
   RUN_TYPE  CELL_OPT
 &END GLOBAL
 &MOTION
   &CELL_OPT
     MAX_ITER  300
     STEP_START_VAL  45
     EXTERNAL_PRESSURE     1.0000000000000000E+00
     KEEP_ANGLES  T
     KEEP_SYMMETRY  T
     CONSTRAINT  Z
     PRESSURE_TOLERANCE     5.0000000000000000E+02
   &END CELL_OPT
 &END MOTION
 &FORCE_EVAL
   METHOD  QS
   STRESS_TENSOR  ANALYTICAL
   &DFT
     BASIS_SET_FILE_NAME BASIS_MOLOPT
     POTENTIAL_FILE_NAME GTH_POTENTIALS
     SURFACE_DIPOLE_CORRECTION  T
     SURF_DIP_DIR  Z
     &SCF
       MAX_SCF  100
       EPS_SCF     5.0000000000000004E-06
       &OT  T
         PRECONDITIONER  FULL_ALL
       &END OT
       &OUTER_SCF  T
         OPTIMIZER  NONE
         EPS_SCF     5.0000000000000004E-06
         MAX_SCF  4
       &END OUTER_SCF
       &PRINT
         &RESTART  OFF
           BACKUP_COPIES  1
           &EACH
             JUST_ENERGY  0
             QS_SCF  0
             MD  20
           &END EACH
         &END RESTART
       &END PRINT
     &END SCF
     &QS
       EPS_DEFAULT     1.0000000000000000E-14
       METHOD  GPW
     &END QS
     &MGRID
       NGRIDS  5
       CUTOFF     1.2000000000000000E+03
     &END MGRID
     &XC
       DENSITY_CUTOFF     1.0000000000000000E-10
       GRADIENT_CUTOFF     1.0000000000000000E-10
       TAU_CUTOFF     1.0000000000000000E-10
       &XC_FUNCTIONAL  NO_SHORTCUT
         &PBE  T
         &END PBE
       &END XC_FUNCTIONAL
       &VDW_POTENTIAL
         POTENTIAL_TYPE  PAIR_POTENTIAL
         &PAIR_POTENTIAL
           R_CUTOFF     1.0000000000000004E+01
           TYPE  DFTD3
           PARAMETER_FILE_NAME dftd3.dat
           REFERENCE_FUNCTIONAL PBE
           EPS_CN     9.9999999999999995E-07
           CALCULATE_C9_TERM  T
           REFERENCE_C9_TERM  T
           LONG_RANGE_CORRECTION  F
           VERBOSE_OUTPUT  F
         &END PAIR_POTENTIAL
       &END VDW_POTENTIAL
     &END XC
   &END DFT
   &SUBSYS
     &CELL
       A     1.2851092463046806E+01    0.0000000000000000E+00    0.0000000000000000E+00
       B    -6.4480265223894548E+00    1.1168309545330208E+01    0.0000000000000000E+00
       C     0.0000000000000000E+00    0.0000000000000000E+00    2.9000000000000000E+01
       MULTIPLE_UNIT_CELL  1 1 1
       &CELL_REF
         A     1.2982353780853531E+01    0.0000000000000000E+00    0.0000000000000000E+00
         B    -6.4911768904267628E+00    1.1243048175136114E+01    0.0000000000000000E+00
         C     0.0000000000000000E+00    0.0000000000000000E+00    2.9000000000000000E+01
         MULTIPLE_UNIT_CELL  1 1 1
       &END CELL_REF
     &END CELL
     &COORD
Ga    1.6521932405081973E-03   -1.0711913772368489E-03   -1.7300830330747469E-01
N   -3.8009261571724964E-03    1.8585972377315720E+00    6.1311907947778743E-01
Ga    7.0804613591205748E-04    1.8606907473082430E+00    2.5472698551003790E+00
N    5.2670770680336510E-03    1.7829785908832143E-03    3.2359517566664673E+00
Ga    5.8659611416886463E-03    2.1340958925253353E-04    5.1963670371065298E+00
N    1.8431768588689902E-03    1.8595066038867278E+00    5.8574260489430268E+00
Ga    4.4073952116442730E-03    1.8601261740007455E+00    7.8258226351368307E+00
N    1.3954299252436296E-02    2.2564644352944677E-03    8.4786271578491075E+00
Ga    8.6748000616768319E-03    5.6236085654036202E-03    1.0465390411660870E+01
N   -6.8324239042024427E-03    1.8656847325039769E+00    1.1058627915313142E+01
Ga   -3.1426111970454834E-02    1.8536042162422959E+00    1.3126910373901797E+01
N   -1.2697994893120250E-02   -2.6765433698644914E-03    1.3471114276783696E+01
Ga   -1.6106890998321615E+00    2.7909933024048339E+00   -1.7294756182904364E-01
N   -1.6159543581821763E+00    4.6507214824258174E+00    6.1277680408341240E-01
Ga   -1.6116577188881613E+00    4.6532892064659732E+00    2.5471281649660513E+00
N   -1.6063564716289132E+00    2.7938272380625104E+00    3.2353263005724662E+00
Ga   -1.6050405331528501E+00    2.7923897166696827E+00    5.1954336227990865E+00
N   -1.6107268345095596E+00    4.6515798924557359E+00    5.8556220282057154E+00
Ga   -1.6086105265188662E+00    4.6531264638617023E+00    7.8236757281982801E+00
N   -1.6012939936449508E+00    2.7939103269779770E+00    8.4745715763633029E+00
Ga   -1.6110033908082406E+00    2.8007051650579156E+00    1.0458422312015799E+01
N   -1.6125614272015818E+00    4.6545612529840605E+00    1.1058805481917780E+01
Ga   -1.6260003975655846E+00    4.6366149753285812E+00    1.3135618988097184E+01
N   -1.6220645018564193E+00    2.7922344374861021E+00    1.3541531224492690E+01
Ga   -3.2226182991008465E+00    5.5832648375965519E+00   -1.7342362611758214E-01
N   -3.2278532893774052E+00    7.4427503911368058E+00    6.1272175259468631E-01
Ga   -3.2234541217676460E+00    7.4452980501756256E+00    2.5472417985704343E+00
N   -3.2185989721605868E+00    5.5859656735748304E+00    3.2354075989391946E+00
Ga   -3.2178555023513149E+00    5.5853202944698461E+00    5.1959453423527986E+00
N   -3.2222983800054550E+00    7.4439950258575243E+00    5.8583941204628474E+00
Ga   -3.2195679367139283E+00    7.4449410906975801E+00    7.8272324095735053E+00
N   -3.2126975335313221E+00    5.5851990968385934E+00    8.4770081322315747E+00
Ga   -3.2200142077462619E+00    5.5883915704003604E+00    1.0463686124468465E+01
N   -3.2317939325666831E+00    7.4503467939633987E+00    1.1054752331853264E+01
Ga   -3.2545322403119052E+00    7.4395424440472189E+00    1.3117893141791793E+01
N   -3.2338006640107126E+00    5.5836731208442050E+00    1.3459975010476967E+01
Ga   -4.8344381041443132E+00    8.3753403242205380E+00   -1.7292214840974462E-01
N   -4.8398640851354235E+00    1.0234841771883863E+01    6.1350162419324961E-01
Ga   -4.8355471669526064E+00    1.0237007661984308E+01    2.5480015047388767E+00
N   -4.8303917200929618E+00    8.3777464211790971E+00    3.2358110606132442E+00
Ga   -4.8292891243566149E+00    8.3763322478422548E+00    5.1961155070214557E+00
N   -4.8345346130331164E+00    1.0236221854768537E+01    5.8560858019894004E+00
Ga   -4.8314285411169173E+00    1.0237188971719211E+01    7.8233696448905166E+00
N   -4.8258700645579315E+00    8.3796553366549009E+00    8.4760881280140410E+00
Ga   -4.8352522295749116E+00    8.3870891129284857E+00    1.0459738858782689E+01
N   -4.8346800750117405E+00    1.0239785602358475E+01    1.1068330477496907E+01
Ga   -4.8507455441086256E+00    1.0218024718605623E+01    1.3151135163060811E+01
N   -4.8454499689665642E+00    8.3740222705547129E+00    1.3549183921140063E+01
Ga    3.2144083612428549E+00   -1.0698907238004805E-03   -1.7238243064377706E-01
N    3.2088878075942970E+00    1.8584761164066954E+00    6.1371049297793501E-01
Ga    3.2133402948309007E+00    1.8605807670197152E+00    2.5481060823856847E+00
N    3.2183351364260799E+00    1.4819127628594971E-03    3.2363875123670010E+00
Ga    3.2200379982782898E+00   -1.1157974317312221E-04    5.1964873958512241E+00
N    3.2139785369180944E+00    1.8597123720949846E+00    5.8563251752076617E+00
Ga    3.2172886785683681E+00    1.8604759494115186E+00    7.8241180652826356E+00
N    3.2234578030902505E+00    2.3600498632381636E-03    8.4753849809669468E+00
Ga    3.2149185066982295E+00    7.5662280536590593E-03    1.0459186926638306E+01
N    3.2127235757917001E+00    1.8628549696763472E+00    1.1057327298566127E+01
Ga    3.1972180221136020E+00    1.8444757113914843E+00    1.3131986208325802E+01
N    3.2035160736451647E+00   -6.1889592732977585E-04    1.3537377591851813E+01
Ga    1.6024785358412081E+00    2.7908873973335280E+00   -1.7309409582243893E-01
N    1.5969283566283985E+00    4.6505829136109460E+00    6.1256521392975860E-01
Ga    1.6013919167059729E+00    4.6530103727919689E+00    2.5468374381963197E+00
N    1.6061948157179977E+00    2.7938699646447605E+00    3.2356095795510260E+00
Ga    1.6070535244880582E+00    2.7926339123554813E+00    5.1956807536621623E+00
N    1.6021844746513041E+00    4.6513497034326328E+00    5.8575299794715230E+00
Ga    1.6043143602586634E+00    4.6520885097018265E+00    7.8261920341986730E+00
N    1.6125762895138913E+00    2.7928372405148143E+00    8.4771753138596537E+00
Ga    1.6064232293504093E+00    2.7978603030646436E+00    1.0464229961376908E+01
N    1.5943717793773011E+00    4.6573248298033878E+00    1.1052419475174688E+01
Ga    1.5728740764799349E+00    4.6432439386739199E+00    1.3117435563850785E+01
N    1.5902079926029749E+00    2.7896833867297395E+00    1.3465771208277076E+01
Ga   -9.7724177524374754E-03    5.5832391524511307E+00   -1.7334354595216714E-01
N   -1.5164112922622488E-02    7.4427250761613228E+00    6.1276945360962887E-01
Ga   -1.0765341960713644E-02    7.4452077757667379E+00    2.5473633718989679E+00
N   -5.6151190050785938E-03    5.5855833004413613E+00    3.2353707692058844E+00
Ga   -4.6029650588991508E-03    5.5844211529209300E+00    5.1957936744003588E+00
N   -9.6890094497920701E-03    7.4438143571626512E+00    5.8557077931919368E+00
Ga   -7.3230067379465224E-03    7.4452656123286154E+00    7.8236219741923660E+00
N   -1.5177656141751607E-03    5.5869629984107396E+00    8.4747466826698972E+00
Ga   -9.8853981336018137E-03    5.5936423827453057E+00    1.0459095106537481E+01
N   -1.1284798417308685E-02    7.4468046413358779E+00    1.1066739920907626E+01
Ga   -2.4811548784968107E-02    7.4272833666239118E+00    1.3150837573037053E+01
N   -1.9909236552211981E-02    5.5797996905933731E+00    1.3538858040324952E+01
Ga   -1.6217298769959709E+00    8.3753797766500835E+00   -1.7292919757912870E-01
N   -1.6271010600038389E+00    1.0234777684496324E+01    6.1348485543135944E-01
Ga   -1.6225920869780661E+00    1.0236999351827716E+01    2.5480183473675555E+00
N   -1.6178442261070805E+00    8.3777837570335194E+00    3.2356651603500741E+00
Ga   -1.6170306396931537E+00    8.3767034012219046E+00    5.1960144214115074E+00
N   -1.6212321885541789E+00    1.0235625548874429E+01    5.8585839016984744E+00
Ga   -1.6173124131133119E+00    1.0236060700422369E+01    7.8274297719957548E+00
N   -1.6110441071699535E+00    8.3775024724094802E+00    8.4790866960332139E+00
Ga   -1.6156045189973756E+00    8.3804883592821184E+00    1.0466843241984513E+01
N   -1.6296556910876765E+00    1.0241651252575901E+01    1.1055972581718512E+01
Ga   -1.6525952610358656E+00    1.0231304721705428E+01    1.3122323286210243E+01
N   -1.6338940838424372E+00    8.3750506035375825E+00    1.3466627826702780E+01
Ga    6.4270380659970971E+00   -1.1827894508713991E-03   -1.7243892160228427E-01
N    6.4216108866724575E+00    1.8584690408015270E+00    6.1319201514646682E-01
Ga    6.4259279690533218E+00    1.8604890194950889E+00    2.5474494864644410E+00
N    6.4310037232520330E+00    1.8509554825073002E-03    3.2360121446402457E+00
Ga    6.4320318175589781E+00    6.1443309701888626E-04    5.1963752554830505E+00
N    6.4277919933915486E+00    1.8594062179946136E+00    5.8592132675674327E+00
Ga    6.4310375294405375E+00    1.8602479182266265E+00    7.8284397723778696E+00
N    6.4383929753877345E+00    7.5467575055575904E-04    8.4797281361492249E+00
Ga    6.4334695330526896E+00    2.6148329565283917E-03    1.0466631012831323E+01
N    6.4198986266341933E+00    1.8646643131066165E+00    1.1054616542776770E+01
Ga    6.3976049263238473E+00    1.8521189617963303E+00    1.3118833153892156E+01
N    6.4165584328083813E+00   -9.2260471132193434E-04    1.3470689667542132E+01
Ga    4.8149739078349416E+00    2.7908867675307398E+00   -1.7278540171051573E-01
N    4.8095084130751715E+00    4.6505538415128376E+00    6.1294541044703432E-01
Ga    4.8136923510926737E+00    4.6529647364350764E+00    2.5474228370076215E+00
N    4.8192537939137932E+00    2.7935754459667814E+00    3.2361265116948856E+00
Ga    4.8208628432431455E+00    2.7919542273409408E+00    5.1965931622669892E+00
N    4.8147749924750203E+00    4.6518752934351664E+00    5.8547975597739370E+00
Ga    4.8184037576057195E+00    4.6528847419328185E+00    7.8221895112236597E+00
N    4.8239323782900057E+00    2.7951408069984418E+00    8.4741765954356154E+00
Ga    4.8152566464991438E+00    2.8022387674462128E+00    1.0458006710492764E+01
N    4.8139902820592617E+00    4.6570419081194814E+00    1.1059979133038405E+01
Ga    4.7998347092611269E+00    4.6381832850025093E+00    1.3138723649244204E+01
N    4.8041983772982819E+00    2.7907511099347326E+00    1.3526129830901123E+01
Ga    3.2030719712345506E+00    5.5831815880770366E+00   -1.7344608968138869E-01
N    3.1977498581108774E+00    7.4427827904848591E+00    6.1255420383249271E-01
Ga    3.2021619570561910E+00    7.4452851972921943E+00    2.5472791337540923E+00
N    3.2066854705794356E+00    5.5858595091064895E+00    3.2354424003222735E+00
Ga    3.2075416061625139E+00    5.5850846707555872E+00    5.1956461142222627E+00
N    3.2032705125727023E+00    7.4436855001618474E+00    5.8575484269723113E+00
Ga    3.2061851526121887E+00    7.4450098045223498E+00    7.8262354854306651E+00
N    3.2132807059807416E+00    5.5845508207792314E+00    8.4741912225889031E+00
Ga    3.2086297360558058E+00    5.5879525460943906E+00    1.0459994678418632E+01
N    3.1949988048005369E+00    7.4469022513365148E+00    1.1051594739192002E+01
Ga    3.1695405041789648E+00    7.4375833080388531E+00    1.3115699051024398E+01
N    3.1896070673515591E+00    5.5831779205434504E+00    1.3467469701615503E+01
Ga    1.5909256953737543E+00    8.3754112705660653E+00   -1.7277441372475666E-01
N    1.5856566069758349E+00    1.0234835616681554E+01    6.1350269115211398E-01
Ga    1.5900764193643302E+00    1.0236997168920819E+01    2.5481914023926291E+00
N    1.5950613416777866E+00    8.3775926497453312E+00    3.2355441464852635E+00
Ga    1.5965325753014235E+00    8.3764783740147415E+00    5.1955556489045671E+00
N    1.5909302773376044E+00    1.0235843421800608E+01    5.8561217034357052E+00
Ga    1.5937971822228971E+00    1.0236893569973319E+01    7.8235228589162320E+00
N    1.5999768143897464E+00    8.3786391794886494E+00    8.4756012412091533E+00
Ga    1.5895811982063592E+00    8.3836145011850096E+00    1.0459469310228416E+01
N    1.5910335950492900E+00    1.0235941333851338E+01    1.1066647057124056E+01
Ga    1.5762387745957365E+00    1.0218349108184331E+01    1.3148759069335071E+01
N    1.5808759446571992E+00    8.3729219331256939E+00    1.3548569097721590E+01
Ga    9.6394694396727605E+00   -1.0083847725459044E-03   -1.7269436006189612E-01
N    9.6343989391527280E+00    1.8584920633774826E+00    6.1354526566503265E-01
Ga    9.6387994944015425E+00    1.8603914062299076E+00    2.5477567875584408E+00
N    9.6442562265784719E+00    1.4569252746144336E-03    3.2363253157255447E+00
Ga    9.6457125813864657E+00   -4.6901974371715805E-04    5.1968868550873450E+00
N    9.6399695834149171E+00    1.8598930179357056E+00    5.8553387011800915E+00
Ga    9.6425163927251436E+00    1.8609066393451910E+00    7.8231013360991328E+00
N    9.6478903576801613E+00    3.1874505347729929E-03    8.4747676217165164E+00
Ga    9.6402665329091217E+00    7.6944310918520267E-03    1.0457960829642081E+01
N    9.6388265066672663E+00    1.8617502713708940E+00    1.1062322999277418E+01
Ga    9.6251017707184090E+00    1.8452050419657622E+00    1.3141376888234404E+01
N    9.6299573820803133E+00    1.6488725035935983E-04    1.3543088449076762E+01
Ga    8.0277251028154186E+00    2.7909490712559601E+00   -1.7272512236679549E-01
N    8.0224875933056126E+00    4.6506624242105348E+00    6.1291624665323829E-01
Ga    8.0268978067784449E+00    4.6531772684543826E+00    2.5471838572414938E+00
N    8.0316466173609165E+00    2.7937419688353491E+00    3.2353707984639919E+00
Ga    8.0322981424409114E+00    2.7924920019993071E+00    5.1956323264487327E+00
N    8.0277796906381393E+00    4.6516428285616227E+00    5.8563790010870296E+00
Ga    8.0312387486571204E+00    4.6524339457571431E+00    7.8250522041458881E+00
N    8.0398376684482145E+00    2.7943856542970837E+00    8.4777067570775664E+00
Ga    8.0348321816592883E+00    2.7986578076011490E+00    1.0464774584869616E+01
N    8.0182376878148691E+00    4.6582292172293993E+00    1.1055495831105052E+01
Ga    7.9939299958557903E+00    4.6475771776890022E+00    1.3122037917217025E+01
N    8.0157144238142539E+00    2.7909166859863554E+00    1.3465624436734091E+01
Ga    6.4157461280524242E+00    5.5831448552664922E+00   -1.7301183545399884E-01
N    6.4103819410758787E+00    7.4428791190186248E+00    6.1262350436458413E-01
Ga    6.4146124172371195E+00    7.4455613479646132E+00    2.5473242337112758E+00
N    6.4197385736297035E+00    5.5858814598783475E+00    3.2348043076922894E+00
Ga    6.4209558384834109E+00    5.5847758538692522E+00    5.1948003570756596E+00
N    6.4156412299362051E+00    7.4439946956141920E+00    5.8555417650915578E+00
Ga    6.4183277741668636E+00    7.4452016009610906E+00    7.8231682566693053E+00
N    6.4246539249365142E+00    5.5872316144165337E+00    8.4737364382926739E+00
Ga    6.4174576928102480E+00    5.5955493258799729E+00    1.0457417873794217E+01
N    6.4166968096409054E+00    7.4457413630234059E+00    1.1066860427421556E+01
Ga    6.4009017429478297E+00    7.4257880592613201E+00    1.3148887187463229E+01
N    6.4042493317239266E+00    5.5806755927746794E+00    1.3551218359446333E+01
Ga    4.8037341565359784E+00    8.3751689993475527E+00   -1.7360973458978818E-01
N    4.7984443520231155E+00    1.0234843998618961E+01    6.1258028443122947E-01
Ga    4.8028258028801218E+00    1.0236956348615518E+01    2.5471822308789758E+00
N    4.8076856456349626E+00    8.3781813434547079E+00    3.2355848669453500E+00
Ga    4.8085812735399207E+00    8.3771972889295174E+00    5.1960803511613589E+00
N    4.8045934482580721E+00    1.0235759782436622E+01    5.8600542638520166E+00
Ga    4.8073767891017747E+00    1.0235655585956167E+01    7.8295169239604370E+00
N    4.8147582581395287E+00    8.3762863128669682E+00    8.4790934075634965E+00
Ga    4.8095509950357345E+00    8.3793746691566415E+00    1.0466551277570662E+01
N    4.7960198413328490E+00    1.0242079707797281E+01    1.1051018031177408E+01
Ga    4.7720730819988377E+00    1.0230890150073284E+01    1.3113238083665063E+01
N    4.7912262716935654E+00    8.3767969603964634E+00    1.3459474548793011E+01
H    4.8040108380284927E+00    8.3783022540675152E+00   -1.7249416207718147E+00
H    1.5908252199842119E+00    8.3793314039007942E+00   -1.7241246829359103E+00
H   -1.6219167448247349E+00    8.3790257029251922E+00   -1.7242117425967696E+00
H   -4.8349419590701999E+00    8.3793324084543066E+00   -1.7241929905094766E+00
H    6.4156275067054285E+00    5.5863127671432169E+00   -1.7242952557287905E+00
H    3.2034229931358427E+00    5.5863943415720572E+00   -1.7246496683889858E+00
H   -9.9539440681020077E-03    5.5868356312605805E+00   -1.7245535645722216E+00
H   -3.2231654025514667E+00    5.5865732415824434E+00   -1.7246835175728723E+00
H    8.0281061035711563E+00    2.7946924322746081E+00   -1.7238495954186916E+00
H    4.8144566547068868E+00    2.7946123651494830E+00   -1.7239419663856772E+00
H    1.6024369831694647E+00    2.7939055008075147E+00   -1.7242450451671281E+00
H   -1.6110002599199678E+00    2.7939066825344869E+00   -1.7241522522221069E+00
H    2.3820933236214322E-03    2.3465392408986759E-03   -1.7242021467192621E+00
H    3.2140417189553894E+00    2.4506146068180505E-03   -1.7236008455812066E+00
H    6.4269386216269764E+00    1.9558633454315084E-03   -1.7236728929346294E+00
H    9.6388003701308911E+00    3.0687373974654362E-03   -1.7239210789856296E+00
     &END COORD
     &KIND H
       BASIS_SET DZVP-MOLOPT-SR-GTH-q1
       POTENTIAL GTH-PBE-q1
       &POTENTIAL
1
0.2000000000000000E+00 2 -0.4178900440000000E+01  0.7244633100000000E+00
0
       &END POTENTIAL
     &END KIND
     &KIND N
       BASIS_SET DZVP-MOLOPT-SR-GTH
       POTENTIAL GTH-PBE-q5
       &POTENTIAL
2 3
0.2837905100000000E+00 2 -0.1241522559000000E+02  0.1868095920000000E+01
2
0.2554050000000000E+00 1  0.1363026257000000E+02
0.2454945300000000E+00 0
       &END POTENTIAL
     &END KIND
     &KIND Ga
       BASIS_SET DZVP-MOLOPT-SR-GTH
       POTENTIAL GTH-PBE-q13
       &POTENTIAL
2 1 10
0.4900000000000000E+00 0
3
0.4167772300000000E+00 3  0.1047568975000000E+02 -0.4921768140000000E+01  0.8707055900000000E+00
0.7770178090000000E+01 -0.2248152160000000E+01
0.1784415450000000E+01
0.5696265200000000E+00 2  0.1777985340000000E+01  0.1958597600000000E+00
-0.2317443900000000E+00
0.2381265000000000E+00 1 -0.1624868022000000E+02
       &END POTENTIAL
     &END KIND
     &TOPOLOGY
       NUMBER_OF_ATOMS  208
       MULTIPLE_UNIT_CELL  1 1 1
     &END TOPOLOGY
   &END SUBSYS
 &END FORCE_EVAL
