 # Version information for this restart file 
 # current date 2019-05-26 00:20:50.980
 # current working dir /lustre03/project/6004141/rzk/GaN-carbene/00-Surface/00-Preoptimization/443-capped/CELL_OPT
 # Program compiled at                              Sun Apr  7 00:48:11 EDT 2019
 # Program compiled on                          beluga2.int.ets1.calculquebec.ca
 # Program compiled for                        Beluga-Linux-x86-64-intel-openmpi
 # Source code revision number                                         svn:18619
 &GLOBAL
   PRINT_LEVEL  MEDIUM
   PROJECT_NAME TEST
   RUN_TYPE  CELL_OPT
 &END GLOBAL
 &MOTION
   &CELL_OPT
     MAX_ITER  300
     STEP_START_VAL  35
     EXTERNAL_PRESSURE     1.0000000000000000E+00
     KEEP_ANGLES  T
     KEEP_SYMMETRY  T
     CONSTRAINT  Z
     PRESSURE_TOLERANCE     5.0000000000000000E+02
   &END CELL_OPT
 &END MOTION
 &FORCE_EVAL
   METHOD  QS
   STRESS_TENSOR  ANALYTICAL
   &DFT
     BASIS_SET_FILE_NAME BASIS_MOLOPT
     POTENTIAL_FILE_NAME GTH_POTENTIALS
     SURFACE_DIPOLE_CORRECTION  T
     SURF_DIP_DIR  Z
     &SCF
       MAX_SCF  100
       EPS_SCF     5.0000000000000004E-06
       &OT  T
         PRECONDITIONER  FULL_ALL
       &END OT
       &OUTER_SCF  T
         OPTIMIZER  NONE
         EPS_SCF     5.0000000000000004E-06
         MAX_SCF  4
       &END OUTER_SCF
       &PRINT
         &RESTART  OFF
           BACKUP_COPIES  1
           &EACH
             JUST_ENERGY  0
             QS_SCF  0
             MD  20
           &END EACH
         &END RESTART
       &END PRINT
     &END SCF
     &QS
       EPS_DEFAULT     1.0000000000000000E-14
       METHOD  GPW
     &END QS
     &MGRID
       NGRIDS  5
       CUTOFF     1.2000000000000000E+03
     &END MGRID
     &XC
       DENSITY_CUTOFF     1.0000000000000000E-10
       GRADIENT_CUTOFF     1.0000000000000000E-10
       TAU_CUTOFF     1.0000000000000000E-10
       &XC_FUNCTIONAL  NO_SHORTCUT
         &PBE  T
         &END PBE
       &END XC_FUNCTIONAL
       &VDW_POTENTIAL
         POTENTIAL_TYPE  PAIR_POTENTIAL
         &PAIR_POTENTIAL
           R_CUTOFF     1.0000000000000004E+01
           TYPE  DFTD3
           PARAMETER_FILE_NAME dftd3.dat
           REFERENCE_FUNCTIONAL PBE
           EPS_CN     9.9999999999999995E-07
           CALCULATE_C9_TERM  T
           REFERENCE_C9_TERM  T
           LONG_RANGE_CORRECTION  F
           VERBOSE_OUTPUT  F
         &END PAIR_POTENTIAL
       &END VDW_POTENTIAL
     &END XC
   &END DFT
   &SUBSYS
     &CELL
       A     1.2844444434758515E+01    0.0000000000000000E+00    0.0000000000000000E+00
       B    -6.4483030427703474E+00    1.1168788492679251E+01    0.0000000000000000E+00
       C     0.0000000000000000E+00    0.0000000000000000E+00    2.9000000000000000E+01
       MULTIPLE_UNIT_CELL  1 1 1
       &CELL_REF
         A     1.2982353780853531E+01    0.0000000000000000E+00    0.0000000000000000E+00
         B    -6.4911768904267628E+00    1.1243048175136114E+01    0.0000000000000000E+00
         C     0.0000000000000000E+00    0.0000000000000000E+00    2.9000000000000000E+01
         MULTIPLE_UNIT_CELL  1 1 1
       &END CELL_REF
     &END CELL
     &COORD
Ga    1.2676867252763074E-03   -9.5937100354382277E-04   -1.7239027362944370E-01
N   -5.6152171448344080E-03    1.8581239305157506E+00    6.1390438134689851E-01
Ga   -7.0520953223046883E-04    1.8611345754602064E+00    2.5485700579493824E+00
N    5.0717365645331748E-03    2.2538153034787822E-03    3.2362319428634083E+00
Ga    5.7104624311099033E-03    8.9237240639733115E-04    5.1960833693722037E+00
N    1.6983438888565407E-04    1.8582912195439250E+00    5.8585019526236790E+00
Ga    2.6544236208347056E-03    1.8605551430965606E+00    7.8265095690479658E+00
N    1.2665024431859307E-02    2.9555297354364198E-03    8.4801098918955145E+00
Ga    1.2740172484300998E-02    5.9811475538924398E-03    1.0468660444204602E+01
N   -5.8123744771740654E-03    1.8667497273793636E+00    1.1061645574931440E+01
Ga   -3.1777960033305047E-02    1.8538693146657292E+00    1.3130533280914040E+01
N   -1.0916416740581492E-02   -1.0010568549938005E-03    1.3466152829808072E+01
Ga   -1.6111728374644161E+00    2.7914774173096855E+00   -1.7265967642407981E-01
N   -1.6176781713213180E+00    4.6502510356526434E+00    6.1426707799629454E-01
Ga   -1.6132379479527792E+00    4.6531466417709186E+00    2.5492879343202319E+00
N   -1.6066231424018760E+00    2.7945102673852853E+00    3.2371133441940914E+00
Ga   -1.6057730272721291E+00    2.7918281426981197E+00    5.1972770408567701E+00
N   -1.6124456743570630E+00    4.6515506757600020E+00    5.8550625462421815E+00
Ga   -1.6102821903865481E+00    4.6517881541753159E+00    7.8223722537546809E+00
N   -1.6026132742256400E+00    2.7947627507820707E+00    8.4735172685296387E+00
Ga   -1.6102909600247652E+00    2.8001157586373409E+00    1.0457913124785835E+01
N   -1.6146592716431942E+00    4.6550772065415833E+00    1.1055824533240727E+01
Ga   -1.6278754949442433E+00    4.6367336966468482E+00    1.3129246216092723E+01
N   -1.6222405913490443E+00    2.7944375541109721E+00    1.3539408677135436E+01
Ga   -3.2230502363369875E+00    5.5835318559600084E+00   -1.7280415380677713E-01
N   -3.2295097313277479E+00    7.4423121625276263E+00    6.1422547259029214E-01
Ga   -3.2247561114504211E+00    7.4450229779505941E+00    2.5488930593617343E+00
N   -3.2191781877780659E+00    5.5868462617845518E+00    3.2375340051866193E+00
Ga   -3.2192243026892116E+00    5.5850747351105241E+00    5.1977468408178273E+00
N   -3.2238776761792787E+00    7.4440832253172999E+00    5.8591858539721509E+00
Ga   -3.2218574782089031E+00    7.4462758723000482E+00    7.8273482055781844E+00
N   -3.2141115798199626E+00    5.5869570164415245E+00    8.4721864325421219E+00
Ga   -3.2176598416916593E+00    5.5909397955797262E+00    1.0458082631225997E+01
N   -3.2316968701739301E+00    7.4496545489240180E+00    1.1050970641351537E+01
Ga   -3.2548631113150202E+00    7.4408092616053016E+00    1.3114150920739435E+01
N   -3.2334276632982797E+00    5.5860824970902927E+00    1.3464447835089457E+01
Ga   -4.8351469105665341E+00    8.3758611506327050E+00   -1.7225949009614919E-01
N   -4.8414560906809054E+00    1.0234696785957015E+01    6.1494327660851322E-01
Ga   -4.8364281894352397E+00    1.0237581442070502E+01    2.5498036198392477E+00
N   -4.8306788384773167E+00    8.3785774740504735E+00    3.2370750844331884E+00
Ga   -4.8297289441495295E+00    8.3770305313397557E+00    5.1967976397494633E+00
N   -4.8371906940441001E+00    1.0235431264296503E+01    5.8566551624369669E+00
Ga   -4.8348062975136994E+00    1.0238134468058144E+01    7.8238679905033726E+00
N   -4.8282451348540256E+00    8.3802570738407951E+00    8.4740591758501846E+00
Ga   -4.8340045781002887E+00    8.3870164800353599E+00    1.0458396270595413E+01
N   -4.8335118982783882E+00    1.0236592032350883E+01    1.1068759473599869E+01
Ga   -4.8514105903293734E+00    1.0215420070611520E+01    1.3153984022841263E+01
N   -4.8435598972615743E+00    8.3729105607770471E+00    1.3556450062211827E+01
Ga    3.2121664791176303E+00   -7.7037944724270030E-04   -1.7208942479709932E-01
N    3.2057405973206041E+00    1.8579066396299886E+00    6.1529828927422525E-01
Ga    3.2104912363689011E+00    1.8606471038673473E+00    2.5505103731091614E+00
N    3.2167979413042667E+00    1.7629032452086747E-03    3.2386744825988520E+00
Ga    3.2176181854887069E+00   -5.0128936342246490E-04    5.1991998750393957E+00
N    3.2106746750903494E+00    1.8585612672522021E+00    5.8563442532371424E+00
Ga    3.2130821150793882E+00    1.8602942853287598E+00    7.8238245565307167E+00
N    3.2207324466384821E+00    1.4279544018160914E-03    8.4740546226278610E+00
Ga    3.2144085175663815E+00    6.4763638171563831E-03    1.0458446870684755E+01
N    3.2127992765215629E+00    1.8623730242746510E+00    1.1050893018355856E+01
Ga    3.1956443232511624E+00    1.8435679295481835E+00    1.3121305415988585E+01
N    3.2013736064674734E+00    2.5590070809463294E-03    1.3534791572933663E+01
Ga    1.6002714001471474E+00    2.7911683141886203E+00   -1.7225231044841910E-01
N    1.5935494041542284E+00    4.6501927540459640E+00    6.1388183332825019E-01
Ga    1.5983376870274748E+00    4.6528010008867131E+00    2.5485561322648662E+00
N    1.6040312242352708E+00    2.7943842379856076E+00    3.2370386653033347E+00
Ga    1.6043564775233450E+00    2.7920463405458609E+00    5.1972746800315823E+00
N    1.5990164425700997E+00    4.6510628780939216E+00    5.8568707010025394E+00
Ga    1.6012993573942400E+00    4.6517905079251776E+00    7.8245936146490287E+00
N    1.6099040126187614E+00    2.7947351645564180E+00    8.4754728351141875E+00
Ga    1.6066165439778690E+00    2.7986660667800862E+00    1.0461666571205358E+01
N    1.5920734877394433E+00    4.6585912299832151E+00    1.1052486931174538E+01
Ga    1.5712607108222048E+00    4.6436461260901805E+00    1.3117540572666275E+01
N    1.5913920676606639E+00    2.7904601452842339E+00    1.3465403767422993E+01
Ga   -1.2138284396109218E-02    5.5836267684343621E+00   -1.7255204883656577E-01
N   -1.8543668444909477E-02    7.4425129570174589E+00    6.1442335898957656E-01
Ga   -1.3818119449335663E-02    7.4453676001244826E+00    2.5491299631102677E+00
N   -7.8685212211875716E-03    5.5865144138130498E+00    3.2361922868388033E+00
Ga   -6.8560962238852644E-03    5.5838703211627534E+00    5.1958441914485860E+00
N   -1.3707717280733889E-02    7.4432128624027936E+00    5.8558465899614820E+00
Ga   -1.1025212587479686E-02    7.4447336952344463E+00    7.8229496616988747E+00
N   -4.3098164511290943E-03    5.5876398478938833E+00    8.4720854581192491E+00
Ga   -1.1792838792524980E-02    5.5940429644486791E+00    1.0456751405884210E+01
N   -1.1615964127185449E-02    7.4449606740420355E+00    1.1067748423949412E+01
Ga   -2.9184812948583300E-02    7.4238364939951733E+00    1.3152716356906064E+01
N   -2.1221579889717415E-02    5.5779175389055524E+00    1.3539509722160707E+01
Ga   -1.6240482694333724E+00    8.3757031062237068E+00   -1.7261766748679105E-01
N   -1.6306638323863802E+00    1.0234571716117976E+01    6.1466524200427841E-01
Ga   -1.6258508406942886E+00    1.0237382066179940E+01    2.5493771803550085E+00
N   -1.6200708013936556E+00    8.3786549776576518E+00    3.2372867663124953E+00
Ga   -1.6197213452950241E+00    8.3770897933526278E+00    5.1970545126447973E+00
N   -1.6243993984870424E+00    1.0234347874864094E+01    5.8607158861134696E+00
Ga   -1.6219130783498423E+00    1.0236420219775695E+01    7.8289843505058565E+00
N   -1.6129486365433290E+00    8.3773882773231758E+00    8.4800972272052810E+00
Ga   -1.6151272903092135E+00    8.3802273429868510E+00    1.0468755908255659E+01
N   -1.6295019651707419E+00    1.0242452402753392E+01    1.1058157431331749E+01
Ga   -1.6550531645079309E+00    1.0231747470285082E+01    1.3123845522495861E+01
N   -1.6350044641989980E+00    8.3774160933996278E+00    1.3466919977104023E+01
Ga    6.4233329186029833E+00   -9.0899818502331649E-04   -1.7181791242965211E-01
N    6.4168444627715466E+00    1.8580716821923697E+00    6.1473914646878769E-01
Ga    6.4214796950404889E+00    1.8608701163496151E+00    2.5496996483527012E+00
N    6.4269988101448448E+00    2.0891417476188784E-03    3.2378136827727420E+00
Ga    6.4275808338307554E+00   -2.1568825822074024E-04    5.1978706390748677E+00
N    6.4228799779518404E+00    1.8582259388416082E+00    5.8579445073850342E+00
Ga    6.4261462352339214E+00    1.8604315707468615E+00    7.8261707074858382E+00
N    6.4339913146903447E+00    1.8538863788226012E-03    8.4789300472916782E+00
Ga    6.4326798070997180E+00    6.2881574996888640E-03    1.0466422117502114E+01
N    6.4173509634360366E+00    1.8653723397082409E+00    1.1054281806970732E+01
Ga    6.3948533292221077E+00    1.8512728938909353E+00    1.3119298982725422E+01
N    6.4138965961242853E+00   -6.2472919126398227E-04    1.3471500811409367E+01
Ga    4.8111547269932986E+00    2.7913715647745536E+00   -1.7188638400707160E-01
N    4.8048287155697125E+00    4.6502585330752382E+00    6.1459346944944893E-01
Ga    4.8095242733937109E+00    4.6529673668608478E+00    2.5493588232668660E+00
N    4.8155360126583595E+00    2.7943783902142045E+00    3.2375129612728286E+00
Ga    4.8161845889860082E+00    2.7918104634220091E+00    5.1977690786272817E+00
N    4.8095389292062194E+00    4.6518773384911567E+00    5.8543762060315965E+00
Ga    4.8118048924586772E+00    4.6529818661234064E+00    7.8215506901542193E+00
N    4.8202458363982048E+00    2.7956236941726504E+00    8.4701613063084586E+00
Ga    4.8146740385285032E+00    2.8018095952452970E+00    1.0454290659056332E+01
N    4.8105083477025321E+00    4.6547352423840476E+00    1.1058582409769684E+01
Ga    4.7961772924136730E+00    4.6382396142371833E+00    1.3138800102562399E+01
N    4.8015017284074775E+00    2.7906116558593697E+00    1.3521571455745596E+01
Ga    3.1993197159849740E+00    5.5834822819906549E+00   -1.7266304507753683E-01
N    3.1926406501439923E+00    7.4425803637499142E+00    6.1376920686683800E-01
Ga    3.1973716736269275E+00    7.4453663990881527E+00    2.5482864309872153E+00
N    3.2030621492977795E+00    5.5868218191263228E+00    3.2358902614957037E+00
Ga    3.2030881795789132E+00    5.5851219221690291E+00    5.1956923011030600E+00
N    3.1981887915445242E+00    7.4432637929399146E+00    5.8584148813911048E+00
Ga    3.2001181588001120E+00    7.4444593802773111E+00    7.8266027846212536E+00
N    3.2083377529677839E+00    5.5857132859290690E+00    8.4743773481941798E+00
Ga    3.2057134229814519E+00    5.5884462170138969E+00    1.0461059904400013E+01
N    3.1924442770052517E+00    7.4501017722041283E+00    1.1046596451631331E+01
Ga    3.1669840873418513E+00    7.4384147410015071E+00    1.3109619550862714E+01
N    3.1890475640949356E+00    5.5856758763046006E+00    1.3466025877619563E+01
Ga    1.5869886264583848E+00    8.3759871572274083E+00   -1.7246755809545719E-01
N    1.5805356660604801E+00    1.0234642797479159E+01    6.1539919689771228E-01
Ga    1.5851616270015241E+00    1.0237586265302257E+01    2.5504326360393454E+00
N    1.5912679166247281E+00    8.3783800649088214E+00    3.2372825215383285E+00
Ga    1.5922720929302909E+00    8.3762840121332260E+00    5.1971557419960464E+00
N    1.5855393067641796E+00    1.0235037215817689E+01    5.8563053607996771E+00
Ga    1.5880031333468501E+00    1.0237168179137951E+01    7.8231975983089770E+00
N    1.5943325110231015E+00    8.3794190698169810E+00    8.4742760397188608E+00
Ga    1.5875750843439840E+00    8.3865495362788369E+00    1.0459099267320269E+01
N    1.5885398948082126E+00    1.0237939324838374E+01    1.1064040595519264E+01
Ga    1.5717503035186144E+00    1.0218119244528616E+01    1.3145964744164688E+01
N    1.5776454862179579E+00    8.3735600564153962E+00    1.3541108317029142E+01
Ga    9.6342949577604884E+00   -6.4529023845643393E-04   -1.7186356287648824E-01
N    9.6279769699017503E+00    1.8582150037673306E+00    6.1494629503001585E-01
Ga    9.6325575604091096E+00    1.8610671691215701E+00    2.5500273166791168E+00
N    9.6387612646190668E+00    2.0385250079026532E-03    3.2376666668722502E+00
Ga    9.6397273573721023E+00    3.1040479865882063E-04    5.1979398616865513E+00
N    9.6327281172560308E+00    1.8593407731928051E+00    5.8557609813570517E+00
Ga    9.6353358215361489E+00    1.8613290840853227E+00    7.8228278644229894E+00
N    9.6419131689626205E+00    2.8616849182652891E-03    8.4715433960177737E+00
Ga    9.6361128324028051E+00    8.3431409933714621E-03    1.0455225274725763E+01
N    9.6344233525552525E+00    1.8592056139009652E+00    1.1062452044366770E+01
Ga    9.6182822757704631E+00    1.8440792519307923E+00    1.3141893647572132E+01
N    9.6249913323086069E+00   -1.1401417587415404E-04    1.3540359462607867E+01
Ga    8.0224182159208439E+00    2.7914565202763040E+00   -1.7212918323658555E-01
N    8.0159281661381581E+00    4.6504975822255554E+00    6.1419303871691311E-01
Ga    8.0207698332752937E+00    4.6532342190958165E+00    2.5488338736078355E+00
N    8.0261793937588592E+00    2.7947333630772593E+00    3.2368699296404073E+00
Ga    8.0268482222197477E+00    2.7928043786219510E+00    5.1966994009544933E+00
N    8.0206993529929527E+00    4.6511069217278660E+00    5.8579468514277684E+00
Ga    8.0223327988107478E+00    4.6513152432610561E+00    7.8256419418795815E+00
N    8.0332832094031090E+00    2.7947569814705968E+00    8.4778513956563621E+00
Ga    8.0315414571200776E+00    2.7975402392207105E+00    1.0465098364974311E+01
N    8.0143966965057238E+00    4.6580427361782579E+00    1.1054318161818768E+01
Ga    7.9895786319650490E+00    4.6475261812113260E+00    1.3120538235448638E+01
N    8.0115645139776124E+00    2.7937624435108663E+00    1.3466548671156790E+01
Ga    6.4102659547574206E+00    5.5836691460389432E+00   -1.7270143104024402E-01
N    6.4037539682477922E+00    7.4424643708514600E+00    6.1447782776528037E-01
Ga    6.4085092374858110E+00    7.4454429364985284E+00    2.5492501051183654E+00
N    6.4145875866777784E+00    5.5866441568516585E+00    3.2363819282190627E+00
Ga    6.4154320332131531E+00    5.5842268427673156E+00    5.1958964444170448E+00
N    6.4091588673569868E+00    7.4434230638089769E+00    5.8549284738597178E+00
Ga    6.4118291059495522E+00    7.4445682377089435E+00    7.8217981107767383E+00
N    6.4174223188987876E+00    5.5878823858339022E+00    8.4736967603598981E+00
Ga    6.4110896983279426E+00    5.5943002146864371E+00    1.0458209918987393E+01
N    6.4117797988369114E+00    7.4463031860688806E+00    1.1064850191503117E+01
Ga    6.3974608268381612E+00    7.4252520604079173E+00    1.3149183087486184E+01
N    6.3995695537717330E+00    5.5824672094612007E+00    1.3552673537950071E+01
Ga    4.7983546544262676E+00    8.3757275501492590E+00   -1.7274869355569114E-01
N    4.7916889679354542E+00    1.0234628060605363E+01    6.1398776187111193E-01
Ga    4.7962481368017249E+00    1.0237592732525641E+01    2.5486892649569923E+00
N    4.8020744156886233E+00    8.3789675819780651E+00    3.2365640140992991E+00
Ga    4.8024984210471935E+00    8.3773593582086203E+00    5.1967274605911609E+00
N    4.7980206690172542E+00    1.0235635327751355E+01    5.8586696213149958E+00
Ga    4.8010978746802637E+00    1.0238676429671232E+01    7.8274191766403831E+00
N    4.8090747302926786E+00    8.3780915093603614E+00    8.4747177870537413E+00
Ga    4.8083739871563855E+00    8.3818764113239368E+00    1.0462089606764028E+01
N    4.7920940788910222E+00    1.0242281001733986E+01    1.1048649377423240E+01
Ga    4.7658144069220985E+00    1.0233015736162598E+01    1.3109881283767107E+01
N    4.7873586617068380E+00    8.3775116059935915E+00    1.3452594396087992E+01
H    4.7981401249266815E+00    8.3781532401010210E+00   -1.7251552437316848E+00
H    1.5871116073726723E+00    8.3792209311693551E+00   -1.7249295036455996E+00
H   -1.6243448636093032E+00    8.3793419374929297E+00   -1.7250495814688174E+00
H   -4.8358023009079298E+00    8.3797033697826127E+00   -1.7247108863022305E+00
H    6.4101638639580267E+00    5.5859743494375209E+00   -1.7252068086227883E+00
H    3.1995671419464151E+00    5.5864681567692065E+00   -1.7251301595434332E+00
H   -1.1950245602447264E-02    5.5869721901769678E+00   -1.7250091453435468E+00
H   -3.2243916471104699E+00    5.5865244068329094E+00   -1.7252406978038277E+00
H    8.0228362994635649E+00    2.7951067147259354E+00   -1.7246702391810418E+00
H    4.8105436560227570E+00    2.7950709817326245E+00   -1.7243724941007637E+00
H    1.5996039041187036E+00    2.7939514305019792E+00   -1.7247046331346783E+00
H   -1.6113651152662074E+00    2.7933008580797294E+00   -1.7252051461149294E+00
H    2.1479359902232828E-03    2.5857201838990524E-03   -1.7248252097212797E+00
H    3.2118344428881027E+00    1.9181473938682215E-03   -1.7245807490255844E+00
H    6.4228221645126045E+00    1.5997393629376023E-03   -1.7242994150857212E+00
H    9.6332477231533655E+00    3.2780699347265368E-03   -1.7243667464854859E+00
     &END COORD
     &KIND H
       BASIS_SET DZVP-MOLOPT-SR-GTH-q1
       POTENTIAL GTH-PBE-q1
       &POTENTIAL
1
0.2000000000000000E+00 2 -0.4178900440000000E+01  0.7244633100000000E+00
0
       &END POTENTIAL
     &END KIND
     &KIND N
       BASIS_SET DZVP-MOLOPT-SR-GTH
       POTENTIAL GTH-PBE-q5
       &POTENTIAL
2 3
0.2837905100000000E+00 2 -0.1241522559000000E+02  0.1868095920000000E+01
2
0.2554050000000000E+00 1  0.1363026257000000E+02
0.2454945300000000E+00 0
       &END POTENTIAL
     &END KIND
     &KIND Ga
       BASIS_SET DZVP-MOLOPT-SR-GTH
       POTENTIAL GTH-PBE-q13
       &POTENTIAL
2 1 10
0.4900000000000000E+00 0
3
0.4167772300000000E+00 3  0.1047568975000000E+02 -0.4921768140000000E+01  0.8707055900000000E+00
0.7770178090000000E+01 -0.2248152160000000E+01
0.1784415450000000E+01
0.5696265200000000E+00 2  0.1777985340000000E+01  0.1958597600000000E+00
-0.2317443900000000E+00
0.2381265000000000E+00 1 -0.1624868022000000E+02
       &END POTENTIAL
     &END KIND
     &TOPOLOGY
       NUMBER_OF_ATOMS  208
       MULTIPLE_UNIT_CELL  1 1 1
     &END TOPOLOGY
   &END SUBSYS
 &END FORCE_EVAL
