 # Version information for this restart file 
 # current date 2019-05-26 00:17:48.160
 # current working dir /lustre03/project/6004141/rzk/GaN-carbene/00-Surface/00-Preoptimization/443-capped/CELL_OPT
 # Program compiled at                              Sun Apr  7 00:48:11 EDT 2019
 # Program compiled on                          beluga2.int.ets1.calculquebec.ca
 # Program compiled for                        Beluga-Linux-x86-64-intel-openmpi
 # Source code revision number                                         svn:18619
 &GLOBAL
   PRINT_LEVEL  MEDIUM
   PROJECT_NAME TEST
   RUN_TYPE  CELL_OPT
 &END GLOBAL
 &MOTION
   &CELL_OPT
     MAX_ITER  300
     STEP_START_VAL  34
     EXTERNAL_PRESSURE     1.0000000000000000E+00
     KEEP_ANGLES  T
     KEEP_SYMMETRY  T
     CONSTRAINT  Z
     PRESSURE_TOLERANCE     5.0000000000000000E+02
   &END CELL_OPT
 &END MOTION
 &FORCE_EVAL
   METHOD  QS
   STRESS_TENSOR  ANALYTICAL
   &DFT
     BASIS_SET_FILE_NAME BASIS_MOLOPT
     POTENTIAL_FILE_NAME GTH_POTENTIALS
     SURFACE_DIPOLE_CORRECTION  T
     SURF_DIP_DIR  Z
     &SCF
       MAX_SCF  100
       EPS_SCF     5.0000000000000004E-06
       &OT  T
         PRECONDITIONER  FULL_ALL
       &END OT
       &OUTER_SCF  T
         OPTIMIZER  NONE
         EPS_SCF     5.0000000000000004E-06
         MAX_SCF  4
       &END OUTER_SCF
       &PRINT
         &RESTART  OFF
           BACKUP_COPIES  1
           &EACH
             JUST_ENERGY  0
             QS_SCF  0
             MD  20
           &END EACH
         &END RESTART
       &END PRINT
     &END SCF
     &QS
       EPS_DEFAULT     1.0000000000000000E-14
       METHOD  GPW
     &END QS
     &MGRID
       NGRIDS  5
       CUTOFF     1.2000000000000000E+03
     &END MGRID
     &XC
       DENSITY_CUTOFF     1.0000000000000000E-10
       GRADIENT_CUTOFF     1.0000000000000000E-10
       TAU_CUTOFF     1.0000000000000000E-10
       &XC_FUNCTIONAL  NO_SHORTCUT
         &PBE  T
         &END PBE
       &END XC_FUNCTIONAL
       &VDW_POTENTIAL
         POTENTIAL_TYPE  PAIR_POTENTIAL
         &PAIR_POTENTIAL
           R_CUTOFF     1.0000000000000004E+01
           TYPE  DFTD3
           PARAMETER_FILE_NAME dftd3.dat
           REFERENCE_FUNCTIONAL PBE
           EPS_CN     9.9999999999999995E-07
           CALCULATE_C9_TERM  T
           REFERENCE_C9_TERM  T
           LONG_RANGE_CORRECTION  F
           VERBOSE_OUTPUT  F
         &END PAIR_POTENTIAL
       &END VDW_POTENTIAL
     &END XC
   &END DFT
   &SUBSYS
     &CELL
       A     1.2844107985515658E+01    0.0000000000000000E+00    0.0000000000000000E+00
       B    -6.4485986011334608E+00    1.1169300414780766E+01    0.0000000000000000E+00
       C     0.0000000000000000E+00    0.0000000000000000E+00    2.9000000000000000E+01
       MULTIPLE_UNIT_CELL  1 1 1
       &CELL_REF
         A     1.2982353780853531E+01    0.0000000000000000E+00    0.0000000000000000E+00
         B    -6.4911768904267628E+00    1.1243048175136114E+01    0.0000000000000000E+00
         C     0.0000000000000000E+00    0.0000000000000000E+00    2.9000000000000000E+01
         MULTIPLE_UNIT_CELL  1 1 1
       &END CELL_REF
     &END CELL
     &COORD
Ga    1.2956527810487801E-03   -9.5179854078771681E-04   -1.7272376391835367E-01
N   -5.7595731432320985E-03    1.8581481335216889E+00    6.1368400925287836E-01
Ga   -7.7860575871810476E-04    1.8612244404261020E+00    2.5484605052540030E+00
N    5.0993513495745353E-03    2.2697975819468827E-03    3.2360503697463212E+00
Ga    5.7104663799286866E-03    1.0000096055124577E-03    5.1960000066132244E+00
N    1.0869842597293513E-04    1.8582423015456633E+00    5.8583916349749225E+00
Ga    2.6007333633295362E-03    1.8606749633585147E+00    7.8265793295201753E+00
N    1.2723757294016796E-02    2.8141312844888093E-03    8.4801394879823597E+00
Ga    1.2861782941715203E-02    5.8695239607360599E-03    1.0469008902882466E+01
N   -5.8975331931101988E-03    1.8670128229725331E+00    1.1062130402538477E+01
Ga   -3.2248342419650203E-02    1.8538786893863213E+00    1.3130994988469977E+01
N   -1.0943850361981504E-02   -9.7321369516173320E-04    1.3466090585302572E+01
Ga   -1.6112344196495223E+00    2.7916269176499653E+00   -1.7296637480716642E-01
N   -1.6178856957490102E+00    4.6503999567048568E+00    6.1407952851782843E-01
Ga   -1.6133941963069751E+00    4.6533443942040407E+00    2.5492092183314701E+00
N   -1.6066569851436421E+00    2.7946957221416162E+00    3.2369497508281158E+00
Ga   -1.6057845229029215E+00    2.7919900042385914E+00    5.1973016086085790E+00
N   -1.6125243196200323E+00    4.6517789092098187E+00    5.8549182748220012E+00
Ga   -1.6105069025075915E+00    4.6519223180604792E+00    7.8224200227289540E+00
N   -1.6025788854702234E+00    2.7949519203675113E+00    8.4734337316330279E+00
Ga   -1.6103983791548639E+00    2.8004836192373150E+00    1.0458007532250246E+01
N   -1.6148230210744805E+00    4.6551704924120880E+00    1.1056139883891490E+01
Ga   -1.6280176489998957E+00    4.6365544733420503E+00    1.3129544290420537E+01
N   -1.6224159996570857E+00    2.7946325476564873E+00    1.3540656446444221E+01
Ga   -3.2231859234996953E+00    5.5837976990337337E+00   -1.7310614157315810E-01
N   -3.2297957551854362E+00    7.4425895377793072E+00    6.1405413700604350E-01
Ga   -3.2249802535881908E+00    7.4453057258343964E+00    2.5487659248749193E+00
N   -3.2192825010262678E+00    5.5871648571453303E+00    3.2374308322747596E+00
Ga   -3.2193444300813772E+00    5.5852744593107566E+00    5.1978014692915906E+00
N   -3.2240959309087218E+00    7.4444667516025653E+00    5.8591467750337891E+00
Ga   -3.2219935585955204E+00    7.4463871640029371E+00    7.8275406355173978E+00
N   -3.2141228481462378E+00    5.5874183872941616E+00    8.4720212272393542E+00
Ga   -3.2176199424480725E+00    5.5914548118709115E+00    1.0458078631933828E+01
N   -3.2320721890386479E+00    7.4500341185152719E+00    1.1051061103830255E+01
Ga   -3.2553972005949081E+00    7.4411552255568951E+00    1.3114392300447955E+01
N   -3.2336226742229726E+00    5.5863315289005291E+00    1.3464564893064244E+01
Ga   -4.8353574054185779E+00    8.3762621936105397E+00   -1.7258687843569595E-01
N   -4.8418128857296336E+00    1.0235115012811312E+01    6.1477174064352358E-01
Ga   -4.8367100592421055E+00    1.0238039906254299E+01    2.5496861157101547E+00
N   -4.8308730922775363E+00    8.3790113705336200E+00    3.2369607821084974E+00
Ga   -4.8298231209950790E+00    8.3774139636736003E+00    5.1967138463843732E+00
N   -4.8374954633803702E+00    1.0235781266630054E+01    5.8565678264508136E+00
Ga   -4.8351527380838615E+00    1.0238668598744585E+01    7.8239556232896232E+00
N   -4.8285736833240227E+00    8.3806997042305333E+00    8.4740004373725366E+00
Ga   -4.8341802122950854E+00    8.3875883768457431E+00    1.0458659815895569E+01
N   -4.8335742937440100E+00    1.0237073662654614E+01    1.1069255378171251E+01
Ga   -4.8517479783598523E+00    1.0215627973269619E+01    1.3154886283935822E+01
N   -4.8437576576550700E+00    8.3731020707756869E+00    1.3557731109357015E+01
Ga    3.2120926312848983E+00   -7.7191043077374198E-04   -1.7241375229759695E-01
N    3.2055259117164274E+00    1.8579355132397299E+00    6.1511358749775269E-01
Ga    3.2103445289486552E+00    1.8607442745305773E+00    2.5504331474557649E+00
N    3.2167649585290166E+00    1.7963386231017466E-03    3.2385711794402261E+00
Ga    3.2175723646214478E+00   -4.1920808493018551E-04    5.1992065696079006E+00
N    3.2105811297570486E+00    1.8585323432675624E+00    5.8562523408456046E+00
Ga    3.2129029460189478E+00    1.8605442633482254E+00    7.8238700802705150E+00
N    3.2207620835579691E+00    1.3255589577540550E-03    8.4739382068509208E+00
Ga    3.2142040506847653E+00    6.6697492633756780E-03    1.0458600232744708E+01
N    3.2129589084353540E+00    1.8625401075380446E+00    1.1051002553143697E+01
Ga    3.1954363937609798E+00    1.8432994510850176E+00    1.3121309196327147E+01
N    3.2010613955682476E+00    2.7817761907892821E-03    1.3536083896138683E+01
Ga    1.6001186564672205E+00    2.7913098337884517E+00   -1.7256279562398391E-01
N    1.5932502181331565E+00    4.6503405474207975E+00    6.1367671278392100E-01
Ga    1.5980929244521889E+00    4.6529787269744380E+00    2.5484477913301080E+00
N    1.6039092252144445E+00    2.7945538099048215E+00    3.2368770672346492E+00
Ga    1.6041913002804888E+00    2.7921507727159476E+00    5.1973050502574791E+00
N    1.5987847837701790E+00    4.6512817997241305E+00    5.8567435730489308E+00
Ga    1.6010269644297705E+00    4.6518382214114311E+00    7.8245648575945088E+00
N    1.6098638133682193E+00    2.7949686612818185E+00    8.4754067083435753E+00
Ga    1.6065426260611013E+00    2.7987441397490351E+00    1.0461674967198128E+01
N    1.5917104666225548E+00    4.6589704204436719E+00    1.1052751654210057E+01
Ga    1.5708408972713086E+00    4.6437207607312239E+00    1.3117905699785910E+01
N    1.5913392331978991E+00    2.7904211083047459E+00    1.3465534722479701E+01
Ga   -1.2370884238176024E-02    5.5839133267242653E+00   -1.7286940980948293E-01
N   -1.8914868227735401E-02    7.4427904600770658E+00    6.1426921973077830E-01
Ga   -1.4129968980317901E-02    7.4456681413478192E+00    2.5489930799823437E+00
N   -8.0766667567621665E-03    5.5868455628944602E+00    3.2360549500860936E+00
Ga   -7.0697917874659160E-03    5.5840031029373307E+00    5.1957584207509493E+00
N   -1.3984510766024010E-02    7.4435248708892541E+00    5.8557720041426879E+00
Ga   -1.1421795008600459E-02    7.4449233835707602E+00    7.8230093842705166E+00
N   -4.4039740695472228E-03    5.5880265741546609E+00    8.4720031709164036E+00
Ga   -1.2123145399784029E-02    5.5945090407300961E+00    1.0456835062084929E+01
N   -1.1741261266068052E-02    7.4451754932802983E+00    1.1068379443829423E+01
Ga   -2.9614617787245376E-02    7.4238428137075285E+00    1.3153524286335111E+01
N   -2.1420302454978737E-02    5.5781271971918320E+00    1.3540236794851982E+01
Ga   -1.6243361903200912E+00    8.3760898294546848E+00   -1.7294457452479339E-01
N   -1.6311127386372419E+00    1.0234986199286206E+01    6.1449412978128826E-01
Ga   -1.6262225743764049E+00    1.0237840229095633E+01    2.5492276121832522E+00
N   -1.6203318683740340E+00    8.3790845980559823E+00    3.2371975870230010E+00
Ga   -1.6200803666812389E+00    8.3774563887002866E+00    5.1970245837082603E+00
N   -1.6247303420194681E+00    1.0234737402366479E+01    5.8607252081572323E+00
Ga   -1.6223039688348975E+00    1.0236734163115109E+01    7.8291447339661238E+00
N   -1.6130419221110088E+00    8.3777827378671130E+00    8.4801755805013848E+00
Ga   -1.6154225404727929E+00    8.3804449821641924E+00    1.0469160769128589E+01
N   -1.6297827299225434E+00    1.0243026373519170E+01    1.1058566152450704E+01
Ga   -1.6556367491162614E+00    1.0232212198245612E+01    1.3124185392514592E+01
N   -1.6352916054767128E+00    8.3780081665851380E+00    1.3466991915359118E+01
Ga    6.4231710785669902E+00   -9.1055225767371442E-04   -1.7213747220864611E-01
N    6.4165347513272799E+00    1.8581003674340475E+00    6.1455158165099621E-01
Ga    6.4212402236483772E+00    1.8609689897848647E+00    2.5496094984955757E+00
N    6.4268538187917690E+00    2.1171255350159565E-03    3.2377359227405966E+00
Ga    6.4274108816824853E+00   -1.4835380368108714E-04    5.1978564844998703E+00
N    6.4225881726113121E+00    1.8581861289137984E+00    5.8578465823605983E+00
Ga    6.4259902099267201E+00    1.8605971261305063E+00    7.8262287167138078E+00
N    6.4339585575950036E+00    1.8630502587302766E-03    8.4789666860097253E+00
Ga    6.4325723484484065E+00    6.6034913559575538E-03    1.0466793612788377E+01
N    6.4170629326516213E+00    1.8654291187622760E+00    1.1054458717820996E+01
Ga    6.3944580079880007E+00    1.8511974586670248E+00    1.3119744056609571E+01
N    6.4136926399371310E+00   -6.6247730205264968E-04    1.3471620424328741E+01
Ga    4.8109227392883636E+00    2.7915268374939561E+00   -1.7219930738736097E-01
N    4.8044542527794114E+00    4.6504080135234611E+00    6.1442581325500534E-01
Ga    4.8092281271138813E+00    4.6531405031529083E+00    2.5492760962575081E+00
N    4.8153306324100518E+00    2.7945601465218819E+00    3.2373929780555688E+00
Ga    4.8159868308877725E+00    2.7919255556553688E+00    5.1977461844786230E+00
N    4.8092288099574931E+00    4.6520639218467439E+00    5.8542282522694791E+00
Ga    4.8114723117084406E+00    4.6530842913727781E+00    7.8215142169910239E+00
N    4.8201070136839643E+00    2.7958126884747809E+00    8.4700530523377378E+00
Ga    4.8145052498913179E+00    2.8019979624469671E+00    1.0454420331412077E+01
N    4.8104034268875697E+00    4.6549298915786634E+00    1.1058963203514461E+01
Ga    4.7957803955564255E+00    4.6385954142567591E+00    1.3139366712520630E+01
N    4.8011751331875034E+00    2.7907348086320676E+00    1.3522034515850759E+01
Ga    3.1990277801933180E+00    5.5837587430477820E+00   -1.7298153310365633E-01
N    3.1921909740427874E+00    7.4428629834922013E+00    6.1358899880728368E-01
Ga    3.1969981281070918E+00    7.4456788396391538E+00    2.5481230355082931E+00
N    3.2027902133644175E+00    5.5871454548687911E+00    3.2357378180378116E+00
Ga    3.2027480733210134E+00    5.5853154545472776E+00    5.1956147083123465E+00
N    3.1977910095505311E+00    7.4435949980152927E+00    5.8583343739630687E+00
Ga    3.1998006568485313E+00    7.4446454711877212E+00    7.8266564693773431E+00
N    3.2080781400872187E+00    5.5860628133678487E+00    8.4742993640998812E+00
Ga    3.2054438870071866E+00    5.5887262143067513E+00    1.0461260040499685E+01
N    3.1920415260159931E+00    7.4506581530815525E+00    1.1046465793903737E+01
Ga    3.1663187024889035E+00    7.4387459145514772E+00    1.3109385360023744E+01
N    3.1887958263649581E+00    5.5859697463147748E+00    1.3466354121540240E+01
Ga    1.5866079228700227E+00    8.3763783718712421E+00   -1.7280383231245863E-01
N    1.5800073828694190E+00    1.0235053550092571E+01    6.1525442205332126E-01
Ga    1.5847046133776066E+00    1.0238074129694763E+01    2.5503308118321604E+00
N    1.5909114365209645E+00    8.3788115750655230E+00    3.2371937609117554E+00
Ga    1.5919080779890706E+00    8.3766488740210061E+00    5.1970687578363028E+00
N    1.5850594508958100E+00    1.0235391552493015E+01    5.8562525062037052E+00
Ga    1.5875976509722800E+00    1.0237730650023778E+01    7.8232278410929252E+00
N    1.5939774001086096E+00    8.3798460078035077E+00    8.4741240114530090E+00
Ga    1.5872145165484026E+00    8.3871812837601496E+00    1.0459291147927329E+01
N    1.5882252605294020E+00    1.0238290606081721E+01    1.1064340250378390E+01
Ga    1.5713378401415825E+00    1.0218265892584895E+01    1.3146383173008546E+01
N    1.5771862386463598E+00    8.3740240960591450E+00    1.3542362292431289E+01
Ga    9.6340562568578534E+00   -6.2391993228710127E-04   -1.7218032147304910E-01
N    9.6275923259439242E+00    1.8582445149440239E+00    6.1475921891773511E-01
Ga    9.6322383296842808E+00    1.8611671229627942E+00    2.5499797668144133E+00
N    9.6385353094195239E+00    2.0565809766275047E-03    3.2375499475283127E+00
Ga    9.6395971372239870E+00    4.2313538619704748E-04    5.1978886831604330E+00
N    9.6323654921170512E+00    1.8593058134423406E+00    5.8556253707979868E+00
Ga    9.6349935602417069E+00    1.8615398430980212E+00    7.8228751060917565E+00
N    9.6416252632865511E+00    2.7622491186968757E-03    8.4713534167601274E+00
Ga    9.6358749303209823E+00    8.6808628978053241E-03    1.0455303331161655E+01
N    9.6340273238037142E+00    1.8589123177979467E+00    1.1063010749665192E+01
Ga    9.6179467762106352E+00    1.8440957195333296E+00    1.3142712323209029E+01
N    9.6246833755729249E+00   -1.5554045846587322E-04    1.3541354428678801E+01
Ga    8.0221207843535502E+00    2.7916148802805028E+00   -1.7242647641321898E-01
N    8.0154672606325867E+00    4.6506613595125090E+00    6.1401200463519223E-01
Ga    8.0204019234107928E+00    4.6534305631549291E+00    2.5487533595401888E+00
N    8.0258667646304822E+00    2.7949095529582402E+00    3.2367384588386363E+00
Ga    8.0265627174285648E+00    2.7929932961213622E+00    5.1967367527778672E+00
N    8.0202341471116991E+00    4.6512975153348082E+00    5.8578733932001086E+00
Ga    8.0220762352426256E+00    4.6513442533397766E+00    7.8257401797654111E+00
N    8.0329653530867322E+00    2.7949002404827956E+00    8.4779032153722973E+00
Ga    8.0312430524047045E+00    2.7976271149645466E+00    1.0465402309592255E+01
N    8.0139185626424521E+00    4.6583624672016741E+00    1.1054611155496037E+01
Ga    7.9888941029137968E+00    4.6475960746306431E+00    1.3120787710387622E+01
N    8.0112725593360903E+00    2.7941169159535808E+00    1.3466548938428231E+01
Ga    6.4098893419054788E+00    5.5839441495838944E+00   -1.7302638395645409E-01
N    6.4032150701037098E+00    7.4427448319376506E+00    6.1432218022060892E-01
Ga    6.4080536117473352E+00    7.4457651048944431E+00    2.5491329835465608E+00
N    6.4142138839475473E+00    5.5869737804249056E+00    3.2362650328452052E+00
Ga    6.4151539133048932E+00    5.5844283968158344E+00    5.1958592300008606E+00
N    6.4086779837060224E+00    7.4437419204148876E+00    5.8548261915506590E+00
Ga    6.4114262433658036E+00    7.4449260230136058E+00    7.8217809173195203E+00
N    6.4169557690817829E+00    5.5883102136509430E+00    8.4736377922929922E+00
Ga    6.4105356901604909E+00    5.5945794875356185E+00    1.0458380892809151E+01
N    6.4113661444464700E+00    7.4468834088525044E+00    1.1065206766193828E+01
Ga    6.3971256123249978E+00    7.4251578180774418E+00    1.3149864104893256E+01
N    6.3989881152377794E+00    5.5828466151793616E+00    1.3554309701985256E+01
Ga    4.7979005671504957E+00    8.3761151739282447E+00   -1.7308776429111566E-01
N    4.7910780762039753E+00    1.0235034422541267E+01    6.1379741473463501E-01
Ga    4.7956993078069408E+00    1.0238061310311194E+01    2.5485456409688032E+00
N    4.8016263884346770E+00    8.3793960287533729E+00    3.2364336211344424E+00
Ga    4.8020707733281167E+00    8.3778172877129595E+00    5.1966301060735907E+00
N    4.7974452437112562E+00    1.0236002745575437E+01    5.8585467413851067E+00
Ga    4.8006379885108732E+00    1.0239226233481046E+01    7.8274459391237929E+00
N    4.8086899179945197E+00    8.3785378679416098E+00    8.4745268592579439E+00
Ga    4.8079893784096859E+00    8.3824625611852444E+00    1.0462204882658332E+01
N    4.7915510096530749E+00    1.0242845882066975E+01    1.1048557374791024E+01
Ga    4.7649028134862856E+00    1.0233492329893815E+01    1.3109921720669957E+01
N    4.7866748660841711E+00    8.3777739447175303E+00    1.3452194325279837E+01
H    4.7976446646849462E+00    8.3785294206298264E+00   -1.7255034701515788E+00
H    1.5867262004670315E+00    8.3796020028426685E+00   -1.7252657581733077E+00
H   -1.6246673890934298E+00    8.3797427495762111E+00   -1.7253813096283146E+00
H   -4.8360512580816142E+00    8.3801131538720419E+00   -1.7250529047943490E+00
H    6.4097500935117129E+00    5.5862156225626585E+00   -1.7255463911557798E+00
H    3.1992423574228597E+00    5.5867288165172164E+00   -1.7254786854238724E+00
H   -1.2181924678942918E-02    5.5872330297186155E+00   -1.7253537070979905E+00
H   -3.2245837679346554E+00    5.5867777658339985E+00   -1.7255695621384290E+00
H    8.0225130646723581E+00    2.7952668637023526E+00   -1.7250126528393661E+00
H    4.8102762717879415E+00    2.7952331070436069E+00   -1.7247238830295011E+00
H    1.5994067519625623E+00    2.7940874378599463E+00   -1.7250602027283395E+00
H   -1.6114407655279439E+00    2.7934079213972525E+00   -1.7255557540515751E+00
H    2.1542962894795102E-03    2.6208635672405715E-03   -1.7251838343033039E+00
H    3.2117299599246856E+00    1.9191429587007269E-03   -1.7249272113626317E+00
H    6.4226266967940493E+00    1.6014366492127377E-03   -1.7246378864034300E+00
H    9.6329769207826317E+00    3.3133059306180595E-03   -1.7247176918045140E+00
     &END COORD
     &KIND H
       BASIS_SET DZVP-MOLOPT-SR-GTH-q1
       POTENTIAL GTH-PBE-q1
       &POTENTIAL
1
0.2000000000000000E+00 2 -0.4178900440000000E+01  0.7244633100000000E+00
0
       &END POTENTIAL
     &END KIND
     &KIND N
       BASIS_SET DZVP-MOLOPT-SR-GTH
       POTENTIAL GTH-PBE-q5
       &POTENTIAL
2 3
0.2837905100000000E+00 2 -0.1241522559000000E+02  0.1868095920000000E+01
2
0.2554050000000000E+00 1  0.1363026257000000E+02
0.2454945300000000E+00 0
       &END POTENTIAL
     &END KIND
     &KIND Ga
       BASIS_SET DZVP-MOLOPT-SR-GTH
       POTENTIAL GTH-PBE-q13
       &POTENTIAL
2 1 10
0.4900000000000000E+00 0
3
0.4167772300000000E+00 3  0.1047568975000000E+02 -0.4921768140000000E+01  0.8707055900000000E+00
0.7770178090000000E+01 -0.2248152160000000E+01
0.1784415450000000E+01
0.5696265200000000E+00 2  0.1777985340000000E+01  0.1958597600000000E+00
-0.2317443900000000E+00
0.2381265000000000E+00 1 -0.1624868022000000E+02
       &END POTENTIAL
     &END KIND
     &TOPOLOGY
       NUMBER_OF_ATOMS  208
       MULTIPLE_UNIT_CELL  1 1 1
     &END TOPOLOGY
   &END SUBSYS
 &END FORCE_EVAL
