 # Version information for this restart file 
 # current date 2019-05-25 22:59:38.866
 # current working dir /lustre03/project/6004141/rzk/GaN-carbene/00-Surface/00-Preoptimization/443-capped/CELL_OPT
 # Program compiled at                              Sun Apr  7 00:48:11 EDT 2019
 # Program compiled on                          beluga2.int.ets1.calculquebec.ca
 # Program compiled for                        Beluga-Linux-x86-64-intel-openmpi
 # Source code revision number                                         svn:18619
 &GLOBAL
   PRINT_LEVEL  MEDIUM
   PROJECT_NAME TEST
   RUN_TYPE  CELL_OPT
 &END GLOBAL
 &MOTION
   &CELL_OPT
     MAX_ITER  300
     STEP_START_VAL  21
     EXTERNAL_PRESSURE     1.0000000000000000E+00
     KEEP_ANGLES  T
     KEEP_SYMMETRY  T
     CONSTRAINT  Z
     PRESSURE_TOLERANCE     5.0000000000000000E+02
   &END CELL_OPT
 &END MOTION
 &FORCE_EVAL
   METHOD  QS
   STRESS_TENSOR  ANALYTICAL
   &DFT
     BASIS_SET_FILE_NAME BASIS_MOLOPT
     POTENTIAL_FILE_NAME GTH_POTENTIALS
     SURFACE_DIPOLE_CORRECTION  T
     SURF_DIP_DIR  Z
     &SCF
       MAX_SCF  100
       EPS_SCF     5.0000000000000004E-06
       &OT  T
         PRECONDITIONER  FULL_ALL
       &END OT
       &OUTER_SCF  T
         OPTIMIZER  NONE
         EPS_SCF     5.0000000000000004E-06
         MAX_SCF  4
       &END OUTER_SCF
       &PRINT
         &RESTART  OFF
           BACKUP_COPIES  1
           &EACH
             JUST_ENERGY  0
             QS_SCF  0
             MD  20
           &END EACH
         &END RESTART
       &END PRINT
     &END SCF
     &QS
       EPS_DEFAULT     1.0000000000000000E-14
       METHOD  GPW
     &END QS
     &MGRID
       NGRIDS  5
       CUTOFF     1.2000000000000000E+03
     &END MGRID
     &XC
       DENSITY_CUTOFF     1.0000000000000000E-10
       GRADIENT_CUTOFF     1.0000000000000000E-10
       TAU_CUTOFF     1.0000000000000000E-10
       &XC_FUNCTIONAL  NO_SHORTCUT
         &PBE  T
         &END PBE
       &END XC_FUNCTIONAL
       &VDW_POTENTIAL
         POTENTIAL_TYPE  PAIR_POTENTIAL
         &PAIR_POTENTIAL
           R_CUTOFF     1.0000000000000004E+01
           TYPE  DFTD3
           PARAMETER_FILE_NAME dftd3.dat
           REFERENCE_FUNCTIONAL PBE
           EPS_CN     9.9999999999999995E-07
           CALCULATE_C9_TERM  T
           REFERENCE_C9_TERM  T
           LONG_RANGE_CORRECTION  F
           VERBOSE_OUTPUT  F
         &END PAIR_POTENTIAL
       &END VDW_POTENTIAL
     &END XC
   &END DFT
   &SUBSYS
     &CELL
       A     1.2854407308340848E+01    0.0000000000000000E+00    0.0000000000000000E+00
       B    -6.4482425293660492E+00    1.1168683680388472E+01    0.0000000000000000E+00
       C     0.0000000000000000E+00    0.0000000000000000E+00    2.9000000000000000E+01
       MULTIPLE_UNIT_CELL  1 1 1
       &CELL_REF
         A     1.2982353780853531E+01    0.0000000000000000E+00    0.0000000000000000E+00
         B    -6.4911768904267628E+00    1.1243048175136114E+01    0.0000000000000000E+00
         C     0.0000000000000000E+00    0.0000000000000000E+00    2.9000000000000000E+01
         MULTIPLE_UNIT_CELL  1 1 1
       &END CELL_REF
     &END CELL
     &COORD
Ga    1.7440183199575001E-03    5.3845043617417490E-04   -1.6498959907373822E-01
N   -4.1299560075861693E-03    1.8591742557844433E+00    6.1948801661080377E-01
Ga   -1.2838728368957861E-03    1.8602140330705335E+00    2.5533398443730015E+00
N    2.2253825621465851E-03    6.9751411831838329E-04    3.2375755603486933E+00
Ga    3.0983065477830974E-03   -1.5472147363946009E-04    5.1973635453527312E+00
N   -1.3818258113920173E-03    1.8586081715077281E+00    5.8559021912057663E+00
Ga    1.1047272886907679E-03    1.8576085685057000E+00    7.8241328983568099E+00
N    1.1414266097884063E-02    1.5126107749446733E-04    8.4764780095404149E+00
Ga    6.3420454683405991E-03    4.0282463155034264E-03    1.0464189646462378E+01
N   -1.0111831457045547E-02    1.8662330729211396E+00    1.1050259814902041E+01
Ga   -2.2071270879458354E-02    1.8565889259174746E+00    1.3114305748858147E+01
N   -5.5273064725994423E-03   -1.8178541850201110E-03    1.3448835408014817E+01
Ga   -1.6104563842684636E+00    2.7923709186088872E+00   -1.6407771442354377E-01
N   -1.6164420565688224E+00    4.6518057521364309E+00    6.1775869802674621E-01
Ga   -1.6139054621963993E+00    4.6529540662384585E+00    2.5513515444007457E+00
N   -1.6089415351796652E+00    2.7940570186948368E+00    3.2372146516136873E+00
Ga   -1.6083168950250140E+00    2.7934580304373795E+00    5.1971451455180446E+00
N   -1.6129730538402618E+00    4.6517818113662006E+00    5.8568023569591272E+00
Ga   -1.6112547809348967E+00    4.6525557012165484E+00    7.8266157468791864E+00
N   -1.6051613415216237E+00    2.7907275124171251E+00    8.4701422299294897E+00
Ga   -1.6168248383382524E+00    2.8019408819641693E+00    1.0452909217176305E+01
N   -1.6132653938510546E+00    4.6549508575941170E+00    1.1052003149828526E+01
Ga   -1.6127862118476894E+00    4.6309497203869681E+00    1.3125263867252494E+01
N   -1.6103419629713329E+00    2.7909681964779409E+00    1.3548547811367255E+01
Ga   -3.2228776730975475E+00    5.5848264329066524E+00   -1.6493824166684826E-01
N   -3.2286985412777973E+00    7.4437080188201117E+00    6.1863140891396717E-01
Ga   -3.2258538436100053E+00    7.4446502483107793E+00    2.5524048750049029E+00
N   -3.2206832925963438E+00    5.5856831462032224E+00    3.2376792626889586E+00
Ga   -3.2201675770820226E+00    5.5846083018041490E+00    5.1983552198315595E+00
N   -3.2254529257856355E+00    7.4433974161333110E+00    5.8589869811085720E+00
Ga   -3.2240566591039062E+00    7.4425974889183371E+00    7.8293891890012075E+00
N   -3.2168582046039469E+00    5.5832701248650727E+00    8.4769897190069248E+00
Ga   -3.2240900783384849E+00    5.5892813647262090E+00    1.0464231835150342E+01
N   -3.2349511542738862E+00    7.4507120007063294E+00    1.1049677829588978E+01
Ga   -3.2447472641128856E+00    7.4405847516367283E+00    1.3112182004189140E+01
N   -3.2234574419843116E+00    5.5812721073656935E+00    1.3437261938822774E+01
Ga   -4.8348509649551943E+00    8.3772672781988078E+00   -1.6471442236429756E-01
N   -4.8407680232580290E+00    1.0235954508818201E+01    6.1958954694095292E-01
Ga   -4.8378315706791932E+00    1.0236841754422802E+01    2.5535677295572268E+00
N   -4.8328580092649851E+00    8.3773190008915019E+00    3.2377174420523898E+00
Ga   -4.8314303460507100E+00    8.3765306729322049E+00    5.1974751336205660E+00
N   -4.8373653730616475E+00    1.0236250787444483E+01    5.8540547249285435E+00
Ga   -4.8338503958894377E+00    1.0235622610652124E+01    7.8212252909435493E+00
N   -4.8298466213458386E+00    8.3804942476624884E+00    8.4735825687003388E+00
Ga   -4.8363903655103000E+00    8.3880075717853444E+00    1.0458139669397241E+01
N   -4.8369699204134387E+00    1.0240534223029851E+01    1.1065989524268874E+01
Ga   -4.8366443297318149E+00    1.0225056411482388E+01    1.3155021832600010E+01
N   -4.8376823515492502E+00    8.3758567388776548E+00    1.3527836478519069E+01
Ga    3.2152650312310387E+00    4.6058559067192035E-04   -1.6369427431854555E-01
N    3.2091924544992967E+00    1.8596809550307822E+00    6.1865470184707416E-01
Ga    3.2120544657739156E+00    1.8605882742661286E+00    2.5524694423593854E+00
N    3.2165710772406468E+00    1.6093347238946914E-03    3.2379613491748804E+00
Ga    3.2182961668156751E+00    8.4899301863050765E-04    5.1981918517734647E+00
N    3.2126871066881693E+00    1.8601565306942138E+00    5.8562754703545226E+00
Ga    3.2155377950050599E+00    1.8600991243766964E+00    7.8256812083809688E+00
N    3.2210779857416552E+00   -4.0973732603581507E-04    8.4701555893002496E+00
Ga    3.2107099686483527E+00    6.2802438683549032E-03    1.0451893842451264E+01
N    3.2074668337268153E+00    1.8604158861098163E+00    1.1045076199511589E+01
Ga    3.2103651576385346E+00    1.8451754094456079E+00    1.3113216858562140E+01
N    3.2173648905986507E+00    5.3678579156500985E-03    1.3544525800487055E+01
Ga    1.6030075199401590E+00    2.7926140793272185E+00   -1.6492809475414238E-01
N    1.5969857370449438E+00    4.6514932424950572E+00    6.1835105203783503E-01
Ga    1.5999463143984489E+00    4.6521721251501935E+00    2.5520075956464563E+00
N    1.6048112742583351E+00    2.7932727112304092E+00    3.2377559360453514E+00
Ga    1.6052357509050301E+00    2.7919642088813550E+00    5.1976747126175722E+00
N    1.5998365110225046E+00    4.6511745990911075E+00    5.8557783675747785E+00
Ga    1.6000005796997203E+00    4.6493752240667821E+00    7.8247504579357248E+00
N    1.6076697707523828E+00    2.7913067126824602E+00    8.4724980284656795E+00
Ga    1.6046694280040774E+00    2.7969416292607896E+00    1.0457610978632124E+01
N    1.5981168755512682E+00    4.6542830274842846E+00    1.1048902148413259E+01
Ga    1.5894468364225367E+00    4.6418534550077819E+00    1.3114798749407546E+01
N    1.6012102564379769E+00    2.7878737595637118E+00    1.3454732476710937E+01
Ga   -9.0087505759201079E-03    5.5849062065602206E+00   -1.6587361332435133E-01
N   -1.5107076629078346E-02    7.4435482168953238E+00    6.1843212060060926E-01
Ga   -1.2598288670259937E-02    7.4448407046282865E+00    2.5521997870968454E+00
N   -7.5919874534806798E-03    5.5852572478248570E+00    3.2362859586417616E+00
Ga   -7.2616437980134859E-03    5.5843896985215622E+00    5.1962320804048820E+00
N   -1.1871284337905325E-02    7.4438595619757413E+00    5.8537017644952778E+00
Ga   -1.1063529673252885E-02    7.4424769606990564E+00    7.8219386178267252E+00
N   -2.6615671957316562E-03    5.5861071527849777E+00    8.4752425079563523E+00
Ga   -5.9234387669412280E-03    5.5953579683396946E+00    1.0462718716973486E+01
N   -9.7817473742396223E-03    7.4502444325159605E+00    1.1064604518300257E+01
Ga   -1.3150711040807228E-02    7.4354446409295747E+00    1.3155919485812468E+01
N   -8.3327405566031246E-03    5.5812345500002598E+00    1.3497163340874270E+01
Ga   -1.6210295638065411E+00    8.3771526203394977E+00   -1.6451695980209846E-01
N   -1.6267851452293476E+00    1.0235914954403563E+01    6.1965289758946063E-01
Ga   -1.6240997423304162E+00    1.0237184164392522E+01    2.5537117686846806E+00
N   -1.6201292472827387E+00    8.3775702153173679E+00    3.2375597197154069E+00
Ga   -1.6199063548197361E+00    8.3764789744406727E+00    5.1977679093578484E+00
N   -1.6231693226218911E+00    1.0234994874355474E+01    5.8577045296522190E+00
Ga   -1.6205711174028898E+00    1.0232593487557354E+01    7.8274236538353099E+00
N   -1.6139113311668349E+00    8.3738010334513611E+00    8.4785437628954163E+00
Ga   -1.6175307805403414E+00    8.3759705001279343E+00    1.0466031038664735E+01
N   -1.6323584285865471E+00    1.0239550366418957E+01    1.1049483577551989E+01
Ga   -1.6447872020971037E+00    1.0237211026603919E+01    1.3110062885216291E+01
N   -1.6264835948917211E+00    8.3794754309958588E+00    1.3450850299860404E+01
Ga    6.4286057328194701E+00    3.7518595701076333E-04   -1.6492539197068193E-01
N    6.4225263733096316E+00    1.8593755843431401E+00    6.1825247012836726E-01
Ga    6.4253121038648073E+00    1.8603789687014085E+00    2.5518818753763273E+00
N    6.4301314912020153E+00    1.9396794701410389E-03    3.2380559425836553E+00
Ga    6.4300200625965092E+00    1.1522128817874598E-03    5.1983496813109067E+00
N    6.4263076718067262E+00    1.8591163423977781E+00    5.8608546587346373E+00
Ga    6.4267885277023060E+00    1.8584863527830278E+00    7.8321862325659168E+00
N    6.4350000689463984E+00   -2.3348235693836064E-03    8.4789584755671346E+00
Ga    6.4318332894675310E+00    1.1717191522902794E-03    1.0466108334745092E+01
N    6.4204174379717402E+00    1.8611634394745455E+00    1.1054281893239796E+01
Ga    6.4148920088386419E+00    1.8517015793468474E+00    1.3123584372353635E+01
N    6.4304757233751069E+00   -4.5069569692790766E-03    1.3445584584253153E+01
Ga    4.8164671956798975E+00    2.7929437338731722E+00   -1.6530110313308582E-01
N    4.8105360997603075E+00    4.6513001392588409E+00    6.1948349750182863E-01
Ga    4.8135520425834262E+00    4.6524942309548871E+00    2.5534300994114267E+00
N    4.8185012412399963E+00    2.7929338555625356E+00    3.2371389934171586E+00
Ga    4.8198185091242687E+00    2.7916102320491367E+00    5.1973829557850930E+00
N    4.8140537901765033E+00    4.6515082409595436E+00    5.8532938167512025E+00
Ga    4.8169519584873566E+00    4.6493403569946858E+00    7.8213989466696434E+00
N    4.8213721090306914E+00    2.7944374373793033E+00    8.4781559701238223E+00
Ga    4.8150482388893270E+00    2.8031154049643994E+00    1.0466596158375612E+01
N    4.8121820239942714E+00    4.6632555339622499E+00    1.1055479562060277E+01
Ga    4.8058286150524641E+00    4.6558429803528529E+00    1.3141305987607314E+01
N    4.8155338854609040E+00    2.7986657014095120E+00    1.3478212471700211E+01
Ga    3.2049146823384898E+00    5.5848800203594680E+00   -1.6462483607800382E-01
N    3.1991120937997248E+00    7.4436910019047406E+00    6.1882808058215211E-01
Ga    3.2016143408510174E+00    7.4444870797721236E+00    2.5524923419717509E+00
N    3.2057014598974294E+00    5.5852662331517964E+00    3.2372969388727597E+00
Ga    3.2062465835135123E+00    5.5841128726431659E+00    5.1971327019981599E+00
N    3.2021833741506951E+00    7.4437267989667140E+00    5.8544325316411925E+00
Ga    3.2041711286185417E+00    7.4421214172374146E+00    7.8233703300596629E+00
N    3.2106736519584755E+00    5.5820231980383621E+00    8.4679986472750652E+00
Ga    3.2069179097556035E+00    5.5843110922531061E+00    1.0451269431777728E+01
N    3.1904552497268304E+00    7.4453338451216569E+00    1.1032370165393418E+01
Ga    3.1738034928392285E+00    7.4432475630302690E+00    1.3088284348089687E+01
N    3.1959097953592357E+00    5.5932370797309252E+00    1.3470640248601171E+01
Ga    1.5929011146737737E+00    8.3769831641300136E+00   -1.6424221956801929E-01
N    1.5865045157574118E+00    1.0236198529831587E+01    6.1898321458163352E-01
Ga    1.5892499642974742E+00    1.0237497718632319E+01    2.5528927176221563E+00
N    1.5938833282432465E+00    8.3777599671264458E+00    3.2366726372965031E+00
Ga    1.5943553302355338E+00    8.3772605100626407E+00    5.1962734575393110E+00
N    1.5896854501889248E+00    1.0236793713962538E+01    5.8539957964632992E+00
Ga    1.5903309695178371E+00    1.0237569373727446E+01    7.8215844293439201E+00
N    1.5980160514110784E+00    8.3777263005238218E+00    8.4654627841451511E+00
Ga    1.5864034988577302E+00    8.3842820545500043E+00    1.0445888992080672E+01
N    1.5933196282148585E+00    1.0234412875762439E+01    1.1051443748562480E+01
Ga    1.5934236620133975E+00    1.0216331085543880E+01    1.3128605710442150E+01
N    1.5926771757772269E+00    8.3767677984638826E+00    1.3554938403277902E+01
Ga    9.6421063425815117E+00    8.4304486834370785E-04   -1.6519811751705860E-01
N    9.6362672254246231E+00    1.8593173852652167E+00    6.1981047493615249E-01
Ga    9.6388197517423677E+00    1.8606143131904864E+00    2.5537668161636353E+00
N    9.6445822382457429E+00    9.1022531582344679E-04    3.2375486143204149E+00
Ga    9.6450349703203546E+00    6.7538122070461351E-04    5.1974749612533984E+00
N    9.6390040035325555E+00    1.8603573662476971E+00    5.8538494618091086E+00
Ga    9.6396315217824249E+00    1.8611477004530581E+00    7.8211555212586106E+00
N    9.6455044910831678E+00    4.0397140578934390E-03    8.4680174249264386E+00
Ga    9.6386810862179608E+00    1.0367448686269333E-02    1.0451853270749144E+01
N    9.6377129305305029E+00    1.8645338832185727E+00    1.1058130034383609E+01
Ga    9.6374702399516163E+00    1.8518907846470753E+00    1.3141227591603197E+01
N    9.6406029165441414E+00    3.2997781097122178E-03    1.3522121098101938E+01
Ga    8.0304545681903257E+00    2.7928218820901503E+00   -1.6395524408398848E-01
N    8.0246260134003027E+00    4.6515597233433441E+00    6.2016531657960972E-01
Ga    8.0272405521750780E+00    4.6525100376209521E+00    2.5542844220189784E+00
N    8.0307561978519093E+00    2.7930067707594159E+00    3.2383174445165812E+00
Ga    8.0307574103524697E+00    2.7928262372090100E+00    5.1984077197157825E+00
N    8.0279368737480574E+00    4.6514640410516428E+00    5.8567178440944998E+00
Ga    8.0305049824408101E+00    4.6499880558315336E+00    7.8261337518006755E+00
N    8.0373711003129689E+00    2.7924468480692357E+00    8.4779747572098998E+00
Ga    8.0315834422359966E+00    2.7959389647634887E+00    1.0464239813285309E+01
N    8.0135704181290510E+00    4.6570857865553217E+00    1.1043106579969526E+01
Ga    8.0034287144169660E+00    4.6522382364851911E+00    1.3104203742789426E+01
N    8.0274708386793296E+00    2.7964353200762839E+00    1.3460655352491585E+01
Ga    6.4183641516605423E+00    5.5846002838696780E+00   -1.6355173971615125E-01
N    6.4120469571649688E+00    7.4439539211911674E+00    6.1861190567101543E-01
Ga    6.4152931193356926E+00    7.4449357238317342E+00    2.5523133892411769E+00
N    6.4196748901397482E+00    5.5860589957917233E+00    3.2377715340336022E+00
Ga    6.4210757703511163E+00    5.5851522137827061E+00    5.1978639245421219E+00
N    6.4155952509927650E+00    7.4451832885508198E+00    5.8548906688540630E+00
Ga    6.4183873706979586E+00    7.4459532086496063E+00    7.8234088190097664E+00
N    6.4230043279647075E+00    5.5864551830368443E+00    8.4671765354311042E+00
Ga    6.4120276608862108E+00    5.5980179118681486E+00    1.0448242744420872E+01
N    6.4170033356518665E+00    7.4459810474120349E+00    1.1055114538499986E+01
Ga    6.4169922997287205E+00    7.4222669625935334E+00    1.3139135013077651E+01
N    6.4171286033061072E+00    5.5829138410889758E+00    1.3561042737387364E+01
Ga    4.8060983706732747E+00    8.3767825077881284E+00   -1.6599038905851629E-01
N    4.8001704725968821E+00    1.0235847075605301E+01    6.1728035436456619E-01
Ga    4.8029454541117405E+00    1.0237071108894618E+01    2.5505626781588475E+00
N    4.8077900130354108E+00    8.3783647976546067E+00    3.2362021713647429E+00
Ga    4.8083720627984992E+00    8.3773443053572834E+00    5.1963194267533837E+00
N    4.8036520090031916E+00    1.0235977209366931E+01    5.8590261602393356E+00
Ga    4.8052558482334451E+00    1.0235471344476593E+01    7.8296809410252317E+00
N    4.8121165906417769E+00    8.3755475676594422E+00    8.4750858006157657E+00
Ga    4.8079986895628499E+00    8.3799979511689919E+00    1.0463797544085487E+01
N    4.7935791130971106E+00    1.0243441422155460E+01    1.1041840557500864E+01
Ga    4.7822343277205537E+00    1.0234539500388969E+01    1.3103206025095572E+01
N    4.8012796931939592E+00    8.3746326016178436E+00    1.3418277490173208E+01
H    4.8041724532018346E+00    8.3763002871422128E+00   -1.7164722553633749E+00
H    1.5914546879506393E+00    8.3765998772402455E+00   -1.7147486514656207E+00
H   -1.6224249030954578E+00    8.3772300126761206E+00   -1.7149841651584308E+00
H   -4.8370076870264862E+00    8.3776085308701909E+00   -1.7152100273274005E+00
H    6.4162636889533111E+00    5.5841226680527472E+00   -1.7140757292021405E+00
H    3.2032439189512134E+00    5.5847941984816405E+00   -1.7150799470267617E+00
H   -1.0083867351773048E-02    5.5849001974100849E+00   -1.7163902324676104E+00
H   -3.2250457269618944E+00    5.5844713779579589E+00   -1.7154420928220442E+00
H    8.0291725462850376E+00    2.7927646447567005E+00   -1.7144254168909061E+00
H    4.8144002851286434E+00    2.7928909784024376E+00   -1.7158607720776533E+00
H    1.6008330859209712E+00    2.7920763122688279E+00   -1.7154188620623882E+00
H   -1.6119133173091893E+00    2.7911239615703165E+00   -1.7145553065880150E+00
H    5.4539997857835649E-04    6.4046256830866451E-04   -1.7154500931050283E+00
H    3.2132009571506486E+00   -1.0068951737813779E-04   -1.7142100350193346E+00
H    6.4267868111878244E+00   -3.9794762588577046E-04   -1.7154230784001980E+00
H    9.6402749292086458E+00    5.6616055724546224E-04   -1.7156763485845667E+00
     &END COORD
     &KIND H
       BASIS_SET DZVP-MOLOPT-SR-GTH-q1
       POTENTIAL GTH-PBE-q1
       &POTENTIAL
1
0.2000000000000000E+00 2 -0.4178900440000000E+01  0.7244633100000000E+00
0
       &END POTENTIAL
     &END KIND
     &KIND N
       BASIS_SET DZVP-MOLOPT-SR-GTH
       POTENTIAL GTH-PBE-q5
       &POTENTIAL
2 3
0.2837905100000000E+00 2 -0.1241522559000000E+02  0.1868095920000000E+01
2
0.2554050000000000E+00 1  0.1363026257000000E+02
0.2454945300000000E+00 0
       &END POTENTIAL
     &END KIND
     &KIND Ga
       BASIS_SET DZVP-MOLOPT-SR-GTH
       POTENTIAL GTH-PBE-q13
       &POTENTIAL
2 1 10
0.4900000000000000E+00 0
3
0.4167772300000000E+00 3  0.1047568975000000E+02 -0.4921768140000000E+01  0.8707055900000000E+00
0.7770178090000000E+01 -0.2248152160000000E+01
0.1784415450000000E+01
0.5696265200000000E+00 2  0.1777985340000000E+01  0.1958597600000000E+00
-0.2317443900000000E+00
0.2381265000000000E+00 1 -0.1624868022000000E+02
       &END POTENTIAL
     &END KIND
     &TOPOLOGY
       NUMBER_OF_ATOMS  208
       MULTIPLE_UNIT_CELL  1 1 1
     &END TOPOLOGY
   &END SUBSYS
 &END FORCE_EVAL
