 # Version information for this restart file 
 # current date 2019-05-25 21:56:24.052
 # current working dir /lustre03/project/6004141/rzk/GaN-carbene/00-Surface/00-Preoptimization/443-capped/CELL_OPT
 # Program compiled at                              Sun Apr  7 00:48:11 EDT 2019
 # Program compiled on                          beluga2.int.ets1.calculquebec.ca
 # Program compiled for                        Beluga-Linux-x86-64-intel-openmpi
 # Source code revision number                                         svn:18619
 &GLOBAL
   PRINT_LEVEL  MEDIUM
   PROJECT_NAME TEST
   RUN_TYPE  CELL_OPT
 &END GLOBAL
 &MOTION
   &CELL_OPT
     MAX_ITER  300
     STEP_START_VAL  10
     EXTERNAL_PRESSURE     1.0000000000000000E+00
     KEEP_ANGLES  T
     KEEP_SYMMETRY  T
     CONSTRAINT  Z
     PRESSURE_TOLERANCE     5.0000000000000000E+02
   &END CELL_OPT
 &END MOTION
 &FORCE_EVAL
   METHOD  QS
   STRESS_TENSOR  ANALYTICAL
   &DFT
     BASIS_SET_FILE_NAME BASIS_MOLOPT
     POTENTIAL_FILE_NAME GTH_POTENTIALS
     SURFACE_DIPOLE_CORRECTION  T
     SURF_DIP_DIR  Z
     &SCF
       MAX_SCF  100
       EPS_SCF     5.0000000000000004E-06
       &OT  T
         PRECONDITIONER  FULL_ALL
       &END OT
       &OUTER_SCF  T
         OPTIMIZER  NONE
         EPS_SCF     5.0000000000000004E-06
         MAX_SCF  4
       &END OUTER_SCF
       &PRINT
         &RESTART  OFF
           BACKUP_COPIES  1
           &EACH
             JUST_ENERGY  0
             QS_SCF  0
             MD  20
           &END EACH
         &END RESTART
       &END PRINT
     &END SCF
     &QS
       EPS_DEFAULT     1.0000000000000000E-14
       METHOD  GPW
     &END QS
     &MGRID
       NGRIDS  5
       CUTOFF     1.2000000000000000E+03
     &END MGRID
     &XC
       DENSITY_CUTOFF     1.0000000000000000E-10
       GRADIENT_CUTOFF     1.0000000000000000E-10
       TAU_CUTOFF     1.0000000000000000E-10
       &XC_FUNCTIONAL  NO_SHORTCUT
         &PBE  T
         &END PBE
       &END XC_FUNCTIONAL
       &VDW_POTENTIAL
         POTENTIAL_TYPE  PAIR_POTENTIAL
         &PAIR_POTENTIAL
           R_CUTOFF     1.0000000000000004E+01
           TYPE  DFTD3
           PARAMETER_FILE_NAME dftd3.dat
           REFERENCE_FUNCTIONAL PBE
           EPS_CN     9.9999999999999995E-07
           CALCULATE_C9_TERM  T
           REFERENCE_C9_TERM  T
           LONG_RANGE_CORRECTION  F
           VERBOSE_OUTPUT  F
         &END PAIR_POTENTIAL
       &END VDW_POTENTIAL
     &END XC
   &END DFT
   &SUBSYS
     &CELL
       A     1.2886935578043749E+01    0.0000000000000000E+00    0.0000000000000000E+00
       B    -6.4440360888368566E+00    1.1161397911672891E+01    0.0000000000000000E+00
       C     0.0000000000000000E+00    0.0000000000000000E+00    2.9000000000000000E+01
       MULTIPLE_UNIT_CELL  1 1 1
       &CELL_REF
         A     1.2982353780853531E+01    0.0000000000000000E+00    0.0000000000000000E+00
         B    -6.4911768904267628E+00    1.1243048175136114E+01    0.0000000000000000E+00
         C     0.0000000000000000E+00    0.0000000000000000E+00    2.9000000000000000E+01
         MULTIPLE_UNIT_CELL  1 1 1
       &END CELL_REF
     &END CELL
     &COORD
Ga    7.9816342626531152E-04   -5.0514255627538110E-04   -1.5442477977767338E-01
N    4.3175129888063830E-04    1.8605077603870601E+00    6.2775572145939107E-01
Ga    8.8063754854434523E-04    1.8601060527661473E+00    2.5638226298988003E+00
N    1.7666960425346753E-04   -5.5389209729648299E-04    3.2452609777373094E+00
Ga    9.3413127133051832E-04   -7.3478694885212271E-04    5.2045881845562052E+00
N    1.0148106986372658E-03    1.8595403652453328E+00    5.8557417030469336E+00
Ga    1.3332149827803214E-03    1.8584770764535656E+00    7.8210881297631509E+00
N    6.2320466545786584E-03   -8.5752527467408744E-04    8.4624949546409312E+00
Ga    1.0174481512261566E-03   -9.6402332736999607E-04    1.0448659379036361E+01
N   -4.8925343178783847E-03    1.8618925568874374E+00    1.1031811966899566E+01
Ga   -2.6215860649032728E-03    1.8591590956613924E+00    1.3103403324247235E+01
N   -6.7230333361584227E-04   -3.5096623207391013E-03    1.3457111499521506E+01
Ga   -1.6100405330834311E+00    2.7898262479396556E+00   -1.5451701145657581E-01
N   -1.6104492866150379E+00    4.6510661516271385E+00    6.2632335445366949E-01
Ga   -1.6097546776268838E+00    4.6503601421272798E+00    2.5621385418543352E+00
N   -1.6100535476661446E+00    2.7907790446847209E+00    3.2449173477267754E+00
Ga   -1.6091818816184282E+00    2.7904837304289618E+00    5.2035566394941002E+00
N   -1.6090217694883606E+00    4.6502285071945515E+00    5.8583382545259823E+00
Ga   -1.6082569861607126E+00    4.6503164649686948E+00    7.8261296447048547E+00
N   -1.6076549027641751E+00    2.7879201706999384E+00    8.4634603632389478E+00
Ga   -1.6139963099904842E+00    2.7962090040110281E+00    1.0448488898131595E+01
N   -1.6142788942237314E+00    4.6520027510070401E+00    1.1037454854099330E+01
Ga   -1.6039034888702544E+00    4.6446552689752796E+00    1.3119131153208803E+01
N   -1.6068487592842642E+00    2.7873274136995452E+00    1.3504356421721091E+01
Ga   -3.2210480358472746E+00    5.5805065053132195E+00   -1.5554934863796563E-01
N   -3.2217697418130586E+00    7.4410658870957782E+00    6.2653207357726770E-01
Ga   -3.2208283928494916E+00    7.4404455073909901E+00    2.5624106159044646E+00
N   -3.2201946298339696E+00    5.5806124928446419E+00    3.2447486912359667E+00
Ga   -3.2208738145237468E+00    5.5807868194704584E+00    5.2045823324172575E+00
N   -3.2211939998426167E+00    7.4409072950672863E+00    5.8585147725931668E+00
Ga   -3.2199740127593097E+00    7.4383231291727876E+00    7.8266465443927116E+00
N   -3.2179214063879771E+00    5.5769689177102464E+00    8.4642655215180014E+00
Ga   -3.2255823907866357E+00    5.5794140226618190E+00    1.0452206004737610E+01
N   -3.2251239001855074E+00    7.4440974184961259E+00    1.1036953695706146E+01
Ga   -3.2268123603187622E+00    7.4416776964983349E+00    1.3106933903181419E+01
N   -3.2221778249018183E+00    5.5791565025754082E+00    1.3437867515790151E+01
Ga   -4.8321817021400628E+00    8.3707663110647044E+00   -1.5515086291843641E-01
N   -4.8328653291436847E+00    1.0231281094105663E+01    6.2775622811930909E-01
Ga   -4.8321247198749520E+00    1.0230673055308895E+01    2.5639825339149049E+00
N   -4.8317057433475545E+00    8.3701521671411587E+00    3.2452204817857719E+00
Ga   -4.8320911196991219E+00    8.3705642614039686E+00    5.2045785374750571E+00
N   -4.8320387741885726E+00    1.0231073103468534E+01    5.8553909273168214E+00
Ga   -4.8291226143800623E+00    1.0229345772049856E+01    7.8213126344812558E+00
N   -4.8305105864316209E+00    8.3712940537123934E+00    8.4666652043843644E+00
Ga   -4.8335204905601508E+00    8.3755161429189346E+00    1.0454616159271623E+01
N   -4.8328545647608907E+00    1.0237844480297358E+01    1.1039213082384043E+01
Ga   -4.8272681775423951E+00    1.0227173539449147E+01    1.3120802432575559E+01
N   -4.8323451222996940E+00    8.3699029080482852E+00    1.3486752403017576E+01
Ga    3.2225040384576760E+00   -3.3232802947064273E-04   -1.5380481871243282E-01
N    3.2221932533867461E+00    1.8606319011253638E+00    6.2720807355521979E-01
Ga    3.2229282251718252E+00    1.8598474538719763E+00    2.5631986932761586E+00
N    3.2226174247139969E+00    2.0092384058623262E-06    3.2452656716606461E+00
Ga    3.2235311502201394E+00   -3.5909940100827410E-04    5.2042507487513676E+00
N    3.2224206385099601E+00    1.8599982006286588E+00    5.8584106558473428E+00
Ga    3.2263782441765350E+00    1.8585405717173933E+00    7.8259352153896673E+00
N    3.2255685194211026E+00   -2.3845508423816467E-03    8.4643435464116923E+00
Ga    3.2179976959578411E+00    2.2835591258772853E-03    1.0448496186273278E+01
N    3.2152018233811277E+00    1.8588255398117841E+00    1.1038498850082160E+01
Ga    3.2253637515218405E+00    1.8558742541768640E+00    1.3116792785891178E+01
N    3.2269804924812080E+00   -2.0169113302302834E-03    1.3502446198971635E+01
Ga    1.6116679351541516E+00    2.7899929660814680E+00   -1.5475152976016457E-01
N    1.6109413438442910E+00    4.6509276951856187E+00    6.2687213632383909E-01
Ga    1.6118001674795330E+00    4.6502396454379733E+00    2.5623631839128360E+00
N    1.6120340917646976E+00    2.7906120267781338E+00    3.2452575827099004E+00
Ga    1.6119919759611956E+00    2.7900978153394558E+00    5.2047011843816140E+00
N    1.6111373452789914E+00    4.6505267438241136E+00    5.8591140280078768E+00
Ga    1.6104476091480995E+00    4.6488767538868903E+00    7.8265919990431518E+00
N    1.6126199005142956E+00    2.7866842117259840E+00    8.4614162863258127E+00
Ga    1.6107316171581805E+00    2.7895910112870652E+00    1.0447317710475913E+01
N    1.6117955122707488E+00    4.6504766331102010E+00    1.1032495449536292E+01
Ga    1.6102076224594808E+00    4.6487070356827873E+00    1.3104656382738598E+01
N    1.6099386877248008E+00    2.7902575779138252E+00    1.3453187297333091E+01
Ga    8.5520432059972031E-04    5.5803554154066459E+00   -1.5620933281601104E-01
N    1.1190541568108454E-04    7.4409119589125350E+00    6.2700946059530061E-01
Ga    7.6144053370528282E-04    7.4403850665470275E+00    2.5628584569945003E+00
N    1.0264290537424193E-03    5.5800816290055728E+00    3.2450495921417399E+00
Ga    4.7054704155465320E-04    5.5802636673184702E+00    5.2039945132756547E+00
N    1.4651777249162872E-03    7.4404218581931767E+00    5.8554847794523086E+00
Ga    1.7812637320176225E-03    7.4385858905363369E+00    7.8214152271987389E+00
N    2.7224447143574882E-03    5.5814755805535112E+00    8.4708500111254992E+00
Ga   -2.8517050432770141E-04    5.5849138854362117E+00    1.0462343506294159E+01
N   -4.2058352679218245E-04    7.4490644327170887E+00    1.1038188576352297E+01
Ga    7.4649674218018082E-03    7.4406411636135932E+00    1.3122843061518163E+01
N    3.6376098694000320E-03    5.5800526438903244E+00    1.3472194857793747E+01
Ga   -1.6102883696180756E+00    8.3707044330712623E+00   -1.5472479205353690E-01
N   -1.6107846610940497E+00    1.0231493665539933E+01    6.2736385709872333E-01
Ga   -1.6102545071801253E+00    1.0231123380127954E+01    2.5636358874220773E+00
N   -1.6102928236939025E+00    8.3703715023659537E+00    3.2445917993198981E+00
Ga   -1.6107904264467436E+00    8.3708064440629268E+00    5.2039359724766916E+00
N   -1.6101891421050223E+00    1.0230729676410316E+01    5.8560633072644652E+00
Ga   -1.6092891208274054E+00    1.0229498844229010E+01    7.8216524959222440E+00
N   -1.6053122284862484E+00    8.3694619401563255E+00    8.4606755475678561E+00
Ga   -1.6121110582196794E+00    8.3708109933488490E+00    1.0445516577825801E+01
N   -1.6145904764860532E+00    1.0230566223044177E+01    1.1033286896103213E+01
Ga   -1.6158463691021208E+00    1.0230331759723411E+01    1.3105311783124421E+01
N   -1.6117037180156928E+00    8.3674084618286244E+00    1.3453973055884733E+01
Ga    6.4445505286533695E+00   -4.1823418777167616E-04   -1.5525669906081283E-01
N    6.4435615773983663E+00    1.8603133666509679E+00    6.2640849811096155E-01
Ga    6.4445678644617397E+00    1.8598407492679294E+00    2.5621277435674408E+00
N    6.4451313813120299E+00    1.2451358321205003E-04    3.2450616935374210E+00
Ga    6.4436241264521454E+00    3.9060609798927017E-04    5.2046547113280832E+00
N    6.4438252831713809E+00    1.8597964315549753E+00    5.8614795932092409E+00
Ga    6.4446553493951955E+00    1.8595145796681800E+00    7.8307311623675080E+00
N    6.4474983595360724E+00   -5.4559433429578405E-03    8.4635479146123131E+00
Ga    6.4432418957830473E+00   -2.4152839244212260E-03    1.0450584668086124E+01
N    6.4410969358983801E+00    1.8581526813543539E+00    1.1039652162066949E+01
Ga    6.4437275585964180E+00    1.8603780156645733E+00    1.3110365386717110E+01
N    6.4453510883862952E+00   -1.5753389352620413E-03    1.3443161533168276E+01
Ga    4.8332912539151822E+00    2.7899483611426130E+00   -1.5568544960932257E-01
N    4.8325992194151643E+00    4.6504668010223247E+00    6.2732106193025750E-01
Ga    4.8334711247930917E+00    4.6501466166447560E+00    2.5636126287368204E+00
N    4.8339294017768673E+00    2.7895778214070210E+00    3.2455736405422688E+00
Ga    4.8334433943670208E+00    2.7896610924313556E+00    5.2052133967704526E+00
N    4.8330418958449011E+00    4.6500773163252198E+00    5.8557219457666765E+00
Ga    4.8370803634217090E+00    4.6475043567638661E+00    7.8215528623468336E+00
N    4.8338256680403493E+00    2.7912115223312526E+00    8.4745069504322306E+00
Ga    4.8297359281862713E+00    2.7952274285650289E+00    1.0465706952096754E+01
N    4.8323431637459997E+00    4.6627485068522789E+00    1.1037135695159511E+01
Ga    4.8366741821572337E+00    4.6533979375645202E+00    1.3117654820966724E+01
N    4.8336962232182268E+00    2.7922509385348042E+00    1.3462392034405541E+01
Ga    3.2222524655898468E+00    5.5803392951777262E+00   -1.5465509718946152E-01
N    3.2220313035213075E+00    7.4413105236827057E+00    6.2736450358356033E-01
Ga    3.2224120089556143E+00    7.4407532527732316E+00    2.5632419425930673E+00
N    3.2219248086235801E+00    5.5804332646890904E+00    3.2451804783577445E+00
Ga    3.2226271888107316E+00    5.5802350649365815E+00    5.2043836404672570E+00
N    3.2227101370850852E+00    7.4408898754873229E+00    5.8559141929696139E+00
Ga    3.2245575153365844E+00    7.4404280708537360E+00    7.8210097315755345E+00
N    3.2262992534253443E+00    5.5793908364455760E+00    8.4556535231947691E+00
Ga    3.2222825251656917E+00    5.5768347906986140E+00    1.0437827340256568E+01
N    3.2114529707478670E+00    7.4359174423926993E+00    1.1027764749129513E+01
Ga    3.2131984870818950E+00    7.4398982320098765E+00    1.3100473846719925E+01
N    3.2202556512452207E+00    5.5796875673039406E+00    1.3468908916430268E+01
Ga    1.6113406109254718E+00    8.3706536278688617E+00   -1.5455796803379418E-01
N    1.6109115544045893E+00    1.0231644345110823E+01    6.2705072507057724E-01
Ga    1.6118040486965139E+00    1.0230868947667759E+01    2.5627738489670153E+00
N    1.6113032831551444E+00    8.3708880828673831E+00    3.2449166569444254E+00
Ga    1.6120985926540845E+00    8.3704242788623286E+00    5.2031387012669725E+00
N    1.6118090565562513E+00    1.0230637086991349E+01    5.8559587000870010E+00
Ga    1.6137380720307866E+00    1.0230884177132159E+01    7.8220252972912228E+00
N    1.6140570104429279E+00    8.3692132946512618E+00    8.4599420836535835E+00
Ga    1.6059830871012284E+00    8.3745532037036803E+00    1.0443829669481277E+01
N    1.6114758324862446E+00    1.0229264713868258E+01    1.1034369421555953E+01
Ga    1.6179768433882273E+00    1.0225765533159466E+01    1.3114680278661631E+01
N    1.6143974296594734E+00    8.3714666646920897E+00    1.3517102329468170E+01
Ga    9.6661253497358857E+00   -6.5496354646202759E-04   -1.5566182411824595E-01
N    9.6655249716239044E+00    1.8601628175177254E+00    6.2729916550924381E-01
Ga    9.6663087425819239E+00    1.8597378950091836E+00    2.5635190851011456E+00
N    9.6669040266099397E+00   -1.0009238593274975E-03    3.2453072239365834E+00
Ga    9.6669918720848358E+00   -6.8448775454937134E-04    5.2042469948037020E+00
N    9.6669174300859044E+00    1.8596377198297007E+00    5.8539602962256287E+00
Ga    9.6684980360953645E+00    1.8602870418372164E+00    7.8191529989828510E+00
N    9.6666788130431982E+00    1.8339905505237366E-03    8.4655026765449488E+00
Ga    9.6616918393193050E+00    3.7884210203083910E-03    1.0454058509461129E+01
N    9.6628613130804411E+00    1.8672337251973137E+00    1.1038306091780637E+01
Ga    9.6693581008276261E+00    1.8580782292258420E+00    1.3118839099970378E+01
N    9.6663876828241122E+00    4.7575291540531201E-04    1.3487831353736023E+01
Ga    8.0550360179901688E+00    2.7898299257773074E+00   -1.5460913758184708E-01
N    8.0546358037081465E+00    4.6508116776737616E+00    6.2720095816123755E-01
Ga    8.0551793617404659E+00    4.6503804049357482E+00    2.5637688099264024E+00
N    8.0547349243546389E+00    2.7895971572618277E+00    3.2449073729056446E+00
Ga    8.0544588970774260E+00    2.7904578943738430E+00    5.2046077186629081E+00
N    8.0554418567818740E+00    4.6506252632929970E+00    5.8552528471773728E+00
Ga    8.0574119462671394E+00    4.6497590220749476E+00    7.8210819911382874E+00
N    8.0607025970078272E+00    2.7891867968577198E+00    8.4607083299110126E+00
Ga    8.0504757834290857E+00    2.7913532737842690E+00    1.0444923381634606E+01
N    8.0462105703873359E+00    4.6501527785999839E+00    1.1033065773405138E+01
Ga    8.0468893554538479E+00    4.6502958474876079E+00    1.3102783511874511E+01
N    8.0549282749361772E+00    2.7898267957694594E+00    1.3460445647199446E+01
Ga    6.4439536651914660E+00    5.5804873148552367E+00   -1.5417400148901086E-01
N    6.4433614501864556E+00    7.4413392067893245E+00    6.2700141454985769E-01
Ga    6.4443253468693369E+00    7.4405969231867468E+00    2.5629941471328981E+00
N    6.4439242753095849E+00    5.5808601764351708E+00    3.2451488776131803E+00
Ga    6.4446038556302181E+00    5.5802321701794737E+00    5.2043292463852096E+00
N    6.4433835711843033E+00    7.4412287231155787E+00    5.8572163587234867E+00
Ga    6.4466610799422037E+00    7.4400931704433315E+00    7.8241917696542673E+00
N    6.4467537605320295E+00    5.5795217986794059E+00    8.4606070027559248E+00
Ga    6.4402544433060482E+00    5.5849978067120372E+00    1.0442833997400887E+01
N    6.4418691743682563E+00    7.4413942296533753E+00    1.1038381246822935E+01
Ga    6.4516611489640594E+00    7.4334371641415169E+00    1.3117317499529051E+01
N    6.4475820784360502E+00    5.5779070211184374E+00    1.3514323019475150E+01
Ga    4.8330482250171913E+00    8.3707377281586517E+00   -1.5579257426827142E-01
N    4.8323812583060324E+00    1.0231339361205032E+01    6.2660248198101265E-01
Ga    4.8332500388712427E+00    1.0230797658082137E+01    2.5618938367520787E+00
N    4.8333216497426568E+00    8.3713681616384150E+00    3.2452812346923552E+00
Ga    4.8335671365277193E+00    8.3711539285075780E+00    5.2045851739732880E+00
N    4.8330833670272977E+00    1.0230542519742368E+01    5.8619652976008902E+00
Ga    4.8344683159847319E+00    1.0229516186254186E+01    7.8309408420029269E+00
N    4.8341824351726714E+00    8.3667041073145185E+00    8.4671228629460540E+00
Ga    4.8298743107186786E+00    8.3689162803161565E+00    1.0456954176524031E+01
N    4.8285477952933027E+00    1.0235233596995537E+01    1.1032788625890481E+01
Ga    4.8282000248198953E+00    1.0232939459393069E+01    1.3103845873872567E+01
N    4.8317263629582099E+00    8.3691718519172404E+00    1.3435313015405795E+01
H    4.8323397769296230E+00    8.3709839754749105E+00   -1.7075323872132337E+00
H    1.6110970478784015E+00    8.3710356452461063E+00   -1.7063509500272176E+00
H   -1.6106669176225688E+00    8.3713051151538274E+00   -1.7065712200940300E+00
H   -4.8329325402825196E+00    8.3713643488509391E+00   -1.7069619161255287E+00
H    6.4434602118875883E+00    5.5807290105591028E+00   -1.7061888393183866E+00
H    3.2219511535204162E+00    5.5809812089684332E+00   -1.7064563482852015E+00
H    4.2439296559149071E-04    5.5810195962835571E+00   -1.7079305809644012E+00
H   -3.2218102223965550E+00    5.5808989291561986E+00   -1.7074455555965653E+00
H    8.0547108932101121E+00    2.7900959595661714E+00   -1.7065023367005556E+00
H    4.8326409076777228E+00    2.7901923934645603E+00   -1.7074956275735731E+00
H    1.6109548367891158E+00    2.7900660424504622E+00   -1.7064948327009102E+00
H   -1.6104810454781133E+00    2.7895794383994996E+00   -1.7064285134713357E+00
H    4.4786766732688398E-04   -3.0271587768523049E-04   -1.7062134441995893E+00
H    3.2221191644902745E+00   -3.9058819267503064E-04   -1.7057577092986853E+00
H    6.4438042250216663E+00   -4.7153872712631003E-04   -1.7070187595157287E+00
H    9.6654435286945795E+00   -4.1482266272578264E-04   -1.7073682590193322E+00
     &END COORD
     &KIND H
       BASIS_SET DZVP-MOLOPT-SR-GTH-q1
       POTENTIAL GTH-PBE-q1
       &POTENTIAL
1
0.2000000000000000E+00 2 -0.4178900440000000E+01  0.7244633100000000E+00
0
       &END POTENTIAL
     &END KIND
     &KIND N
       BASIS_SET DZVP-MOLOPT-SR-GTH
       POTENTIAL GTH-PBE-q5
       &POTENTIAL
2 3
0.2837905100000000E+00 2 -0.1241522559000000E+02  0.1868095920000000E+01
2
0.2554050000000000E+00 1  0.1363026257000000E+02
0.2454945300000000E+00 0
       &END POTENTIAL
     &END KIND
     &KIND Ga
       BASIS_SET DZVP-MOLOPT-SR-GTH
       POTENTIAL GTH-PBE-q13
       &POTENTIAL
2 1 10
0.4900000000000000E+00 0
3
0.4167772300000000E+00 3  0.1047568975000000E+02 -0.4921768140000000E+01  0.8707055900000000E+00
0.7770178090000000E+01 -0.2248152160000000E+01
0.1784415450000000E+01
0.5696265200000000E+00 2  0.1777985340000000E+01  0.1958597600000000E+00
-0.2317443900000000E+00
0.2381265000000000E+00 1 -0.1624868022000000E+02
       &END POTENTIAL
     &END KIND
     &TOPOLOGY
       NUMBER_OF_ATOMS  208
       MULTIPLE_UNIT_CELL  1 1 1
     &END TOPOLOGY
   &END SUBSYS
 &END FORCE_EVAL
