 # Version information for this restart file 
 # current date 2019-05-26 00:51:24.305
 # current working dir /lustre03/project/6004141/rzk/GaN-carbene/00-Surface/00-Preoptimization/443-capped/CELL_OPT
 # Program compiled at                              Sun Apr  7 00:48:11 EDT 2019
 # Program compiled on                          beluga2.int.ets1.calculquebec.ca
 # Program compiled for                        Beluga-Linux-x86-64-intel-openmpi
 # Source code revision number                                         svn:18619
 &GLOBAL
   PRINT_LEVEL  MEDIUM
   PROJECT_NAME TEST
   RUN_TYPE  CELL_OPT
 &END GLOBAL
 &MOTION
   &CELL_OPT
     MAX_ITER  300
     STEP_START_VAL  48
     EXTERNAL_PRESSURE     1.0000000000000000E+00
     KEEP_ANGLES  T
     KEEP_SYMMETRY  T
     CONSTRAINT  Z
     PRESSURE_TOLERANCE     5.0000000000000000E+02
   &END CELL_OPT
 &END MOTION
 &FORCE_EVAL
   METHOD  QS
   STRESS_TENSOR  ANALYTICAL
   &DFT
     BASIS_SET_FILE_NAME BASIS_MOLOPT
     POTENTIAL_FILE_NAME GTH_POTENTIALS
     SURFACE_DIPOLE_CORRECTION  T
     SURF_DIP_DIR  Z
     &SCF
       MAX_SCF  100
       EPS_SCF     5.0000000000000004E-06
       &OT  T
         PRECONDITIONER  FULL_ALL
       &END OT
       &OUTER_SCF  T
         OPTIMIZER  NONE
         EPS_SCF     5.0000000000000004E-06
         MAX_SCF  4
       &END OUTER_SCF
       &PRINT
         &RESTART  OFF
           BACKUP_COPIES  1
           &EACH
             JUST_ENERGY  0
             QS_SCF  0
             MD  20
           &END EACH
         &END RESTART
       &END PRINT
     &END SCF
     &QS
       EPS_DEFAULT     1.0000000000000000E-14
       METHOD  GPW
     &END QS
     &MGRID
       NGRIDS  5
       CUTOFF     1.2000000000000000E+03
     &END MGRID
     &XC
       DENSITY_CUTOFF     1.0000000000000000E-10
       GRADIENT_CUTOFF     1.0000000000000000E-10
       TAU_CUTOFF     1.0000000000000000E-10
       &XC_FUNCTIONAL  NO_SHORTCUT
         &PBE  T
         &END PBE
       &END XC_FUNCTIONAL
       &VDW_POTENTIAL
         POTENTIAL_TYPE  PAIR_POTENTIAL
         &PAIR_POTENTIAL
           R_CUTOFF     1.0000000000000004E+01
           TYPE  DFTD3
           PARAMETER_FILE_NAME dftd3.dat
           REFERENCE_FUNCTIONAL PBE
           EPS_CN     9.9999999999999995E-07
           CALCULATE_C9_TERM  T
           REFERENCE_C9_TERM  T
           LONG_RANGE_CORRECTION  F
           VERBOSE_OUTPUT  F
         &END PAIR_POTENTIAL
       &END VDW_POTENTIAL
     &END XC
   &END DFT
   &SUBSYS
     &CELL
       A     1.2841582278298498E+01    0.0000000000000000E+00    0.0000000000000000E+00
       B    -6.4456595139108916E+00    1.1164209766383381E+01    0.0000000000000000E+00
       C     0.0000000000000000E+00    0.0000000000000000E+00    2.9000000000000000E+01
       MULTIPLE_UNIT_CELL  1 1 1
       &CELL_REF
         A     1.2982353780853531E+01    0.0000000000000000E+00    0.0000000000000000E+00
         B    -6.4911768904267628E+00    1.1243048175136114E+01    0.0000000000000000E+00
         C     0.0000000000000000E+00    0.0000000000000000E+00    2.9000000000000000E+01
         MULTIPLE_UNIT_CELL  1 1 1
       &END CELL_REF
     &END CELL
     &COORD
Ga    2.0008794286543430E-03   -4.5338313896952363E-04   -1.7324059108810011E-01
N   -4.3626296564077943E-03    1.8572723817967514E+00    6.1285606538151505E-01
Ga    5.6056349860580956E-04    1.8600059144457259E+00    2.5464655758854260E+00
N    5.8819151983334032E-03    2.2091907826089379E-03    3.2365760352833988E+00
Ga    7.0766342327928397E-03    5.3072316541426076E-05    5.1961463173919933E+00
N    2.0506739300638118E-03    1.8586769101111573E+00    5.8590693162211291E+00
Ga    4.0124752614843799E-03    1.8596111388223311E+00    7.8271464150738925E+00
N    1.4101486771442876E-02    4.1568649470379148E-03    8.4798831069239640E+00
Ga    1.0227627845250619E-02    1.0685194106888363E-02    1.0466929715241914E+01
N   -6.2374636653126491E-03    1.8621998762908916E+00    1.1055566560115505E+01
Ga   -3.3064455047300406E-02    1.8518366177951799E+00    1.3127549874652978E+01
N   -1.2793016972199230E-02   -1.6289029290002944E-03    1.3471230385176112E+01
Ga   -1.6096147876127882E+00    2.7903798073037556E+00   -1.7338768002323593E-01
N   -1.6158043621280322E+00    4.6483371486042477E+00    6.1286583251309146E-01
Ga   -1.6108070770406584E+00    4.6514533352773118E+00    2.5469648820623330E+00
N   -1.6049934810703628E+00    2.7928966750097106E+00    3.2363199221229961E+00
Ga   -1.6039215290908162E+00    2.7916736519935990E+00    5.1960790497382696E+00
N   -1.6109906388338493E+00    4.6497414620714057E+00    5.8552431051642690E+00
Ga   -1.6061741659588067E+00    4.6522077545037153E+00    7.8230377187827278E+00
N   -1.6009687315496919E+00    2.7929192895200923E+00    8.4734430797646656E+00
Ga   -1.6079097032788319E+00    2.7967073773782967E+00    1.0459035758563070E+01
N   -1.6096628386212619E+00    4.6540219334296609E+00    1.1057805863212170E+01
Ga   -1.6304816284734189E+00    4.6342735577867868E+00    1.3135759786666910E+01
N   -1.6231023328621506E+00    2.7913771132420346E+00    1.3533555762207856E+01
Ga   -3.2210545591660709E+00    5.5812950282979079E+00   -1.7369751509578996E-01
N   -3.2270116827354443E+00    7.4394753426798044E+00    6.1252298402579375E-01
Ga   -3.2221855518586175E+00    7.4425246955889399E+00    2.5472550200202879E+00
N   -3.2169407649266053E+00    5.5840802111808108E+00    3.2357986024082934E+00
Ga   -3.2158977180273012E+00    5.5838852886874726E+00    5.1954064594441824E+00
N   -3.2212092579931699E+00    7.4401977201541047E+00    5.8583161689390604E+00
Ga   -3.2180116301903516E+00    7.4447797649770999E+00    7.8268530226993436E+00
N   -3.2115431743709291E+00    5.5828416103893037E+00    8.4758175636527149E+00
Ga   -3.2183362006297664E+00    5.5842048476163590E+00    1.0462929531810179E+01
N   -3.2281965486715523E+00    7.4479932278461574E+00    1.1051924712224151E+01
Ga   -3.2553803621680895E+00    7.4374591417715461E+00    1.3118728620737865E+01
N   -3.2354850722828239E+00    5.5815541609856831E+00    1.3466263862835797E+01
Ga   -4.8324064379835425E+00    8.3726934799287385E+00   -1.7315278376242554E-01
N   -4.8384434130572735E+00    1.0230506603330269E+01    6.1345998522193490E-01
Ga   -4.8335528048208776E+00    1.0233195685814385E+01    2.5479015748099596E+00
N   -4.8280505687267192E+00    8.3750299741083740E+00    3.2364207622020449E+00
Ga   -4.8267676320248745E+00    8.3736424848522937E+00    5.1964865059964671E+00
N   -4.8332215740065632E+00    1.0232478646904926E+01    5.8566649113146934E+00
Ga   -4.8294768227591227E+00    1.0232420095964455E+01    7.8234819185425550E+00
N   -4.8230979236303879E+00    8.3773280561297430E+00    8.4754117871838890E+00
Ga   -4.8342098666545521E+00    8.3809510371442801E+00    1.0458874346653106E+01
N   -4.8348943202444481E+00    1.0233219342914914E+01    1.1067305797097227E+01
Ga   -4.8518630423848759E+00    1.0213346864969122E+01    1.3148178449708439E+01
N   -4.8456778234766773E+00    8.3732869613846361E+00    1.3548749315419878E+01
Ga    3.2121943142859006E+00   -4.6253011823214261E-04   -1.7285792105824746E-01
N    3.2062004926850678E+00    1.8571618808025683E+00    6.1377984143206321E-01
Ga    3.2112010058909171E+00    1.8598873581584197E+00    2.5476928294294692E+00
N    3.2167410490651869E+00    1.8134948876268552E-03    3.2369545889597209E+00
Ga    3.2188312566694628E+00   -8.3459480940373731E-04    5.1972400240457342E+00
N    3.2114930731423210E+00    1.8595301919927727E+00    5.8563567560876582E+00
Ga    3.2146227609331901E+00    1.8579389673067046E+00    7.8237642836245431E+00
N    3.2197018629483649E+00    5.1042026330894658E-03    8.4744713108084770E+00
Ga    3.2164053957749665E+00    8.3000732767425384E-03    1.0459225877048189E+01
N    3.2083654940291328E+00    1.8599880198198844E+00    1.1055627298373214E+01
Ga    3.1936653183067532E+00    1.8420447451513002E+00    1.3133360652309312E+01
N    3.2007003715615845E+00   -1.4511791884891374E-03    1.3530121193501394E+01
Ga    1.6009632347595397E+00    2.7901592877714267E+00   -1.7325357411960376E-01
N    1.5947409789107398E+00    4.6483214607946177E+00    6.1262953594276914E-01
Ga    1.5994177808002417E+00    4.6515723123569419E+00    2.5467607101385279E+00
N    1.6049104486922927E+00    2.7928675338636446E+00    3.2360533845249662E+00
Ga    1.6062639270131900E+00    2.7920746973310617E+00    5.1952316475507097E+00
N    1.6013876186007772E+00    4.6493407054421763E+00    5.8578086424812019E+00
Ga    1.6010930295017836E+00    4.6524665742340510E+00    7.8262532773743052E+00
N    1.6118852466232716E+00    2.7928480621741523E+00    8.4770149159868975E+00
Ga    1.6057170727066286E+00    2.7973108636571919E+00    1.0465358796350220E+01
N    1.5928376671840068E+00    4.6532412851935678E+00    1.1051477163755935E+01
Ga    1.5662756910884201E+00    4.6439554521086919E+00    1.3119064599486546E+01
N    1.5861916845116126E+00    2.7898398239258033E+00    1.3468155082377423E+01
Ga   -1.0681090778298890E-02    5.5812488536417320E+00   -1.7338942639524021E-01
N   -1.6735028866556818E-02    7.4394487584196050E+00    6.1266147893811140E-01
Ga   -1.1786467560071335E-02    7.4422888011197523E+00    2.5478634829271001E+00
N   -6.3027355040881170E-03    5.5837422050206298E+00    3.2360343340901490E+00
Ga   -4.9480805306146005E-03    5.5838711245948076E+00    5.1964894741779375E+00
N   -1.1252441031599761E-02    7.4407814137255510E+00    5.8555616243636841E+00
Ga   -8.5706016520282254E-03    7.4425582234514458E+00    7.8235438675312770E+00
N   -8.8709636209444588E-04    5.5844055453464891E+00    8.4733573698740141E+00
Ga   -1.3120625973000736E-02    5.5911700276329830E+00    1.0455699698533264E+01
N   -1.1737773478488924E-02    7.4451713016965089E+00    1.1065804964146638E+01
Ga   -2.9680366993788260E-02    7.4233637636404435E+00    1.3147816279355819E+01
N   -2.3009000776349771E-02    5.5777972902655213E+00    1.3545199714861420E+01
Ga   -1.6220890682461910E+00    8.3726175618041268E+00   -1.7329612037064046E-01
N   -1.6281398756199650E+00    1.0230434420041913E+01    6.1303588858263947E-01
Ga   -1.6231505010067537E+00    1.0232913704463456E+01    2.5477878732121306E+00
N   -1.6179314163268310E+00    8.3751780782333913E+00    3.2358931843157945E+00
Ga   -1.6158600336344686E+00    8.3744456496661606E+00    5.1964645455786673E+00
N   -1.6219717356099244E+00    1.0231817764593181E+01    5.8593504034758723E+00
Ga   -1.6182221641189265E+00    1.0233419292604236E+01    7.8290075039356903E+00
N   -1.6117492449352240E+00    8.3747096996757957E+00    8.4789951801043859E+00
Ga   -1.6135285163478599E+00    8.3811851662682901E+00    1.0464770755427562E+01
N   -1.6297104858099347E+00    1.0236405466224893E+01    1.1054965315145289E+01
Ga   -1.6560148521408220E+00    1.0227202462075287E+01    1.3122767786559175E+01
N   -1.6355132414017430E+00    8.3718180649348461E+00    1.3469315348802796E+01
Ga    6.4226144320413736E+00   -5.9586270597434719E-04   -1.7270197956947370E-01
N    6.4165863379346142E+00    1.8573005745386408E+00    6.1317105765479052E-01
Ga    6.4211056531313133E+00    1.8598120527975710E+00    2.5471884638222146E+00
N    6.4266511147869894E+00    2.1450911708260191E-03    3.2364186015727836E+00
Ga    6.4283178510361481E+00   -6.2647761270577621E-05    5.1969151625267722E+00
N    6.4232423021568223E+00    1.8589807665980405E+00    5.8579759853979994E+00
Ga    6.4266674004093458E+00    1.8580318970082481E+00    7.8265849737492568E+00
N    6.4342792214040774E+00    2.1775625102327702E-03    8.4785951783966755E+00
Ga    6.4293895479003025E+00    1.1035390239879596E-03    1.0464480342168706E+01
N    6.4169306903866241E+00    1.8657043499884809E+00    1.1055129625690387E+01
Ga    6.3880882658249352E+00    1.8505499610247422E+00    1.3119827356240544E+01
N    6.4082225595538764E+00   -9.6783524988621557E-04    1.3472810819015676E+01
Ga    4.8110425815685200E+00    2.7902728205327536E+00   -1.7293834482943601E-01
N    4.8051407286441901E+00    4.6483963950907770E+00    6.1297895681266845E-01
Ga    4.8096880270232312E+00    4.6511091669161013E+00    2.5470223398789975E+00
N    4.8156245318138771E+00    2.7928294197247747E+00    3.2370528685940116E+00
Ga    4.8176123551414536E+00    2.7912869735682553E+00    5.1968512551916257E+00
N    4.8107570620226543E+00    4.6503128304939549E+00    5.8552371538933787E+00
Ga    4.8135748012512174E+00    4.6519726776695070E+00    7.8224135117750713E+00
N    4.8203836388489458E+00    2.7945644817730777E+00    8.4714402171639236E+00
Ga    4.8140504277624494E+00    2.7994948375793922E+00    1.0454962108653866E+01
N    4.8052351251141836E+00    4.6510877112704492E+00    1.1060768352554524E+01
Ga    4.7937833668249388E+00    4.6326145574738948E+00    1.3138411815838147E+01
N    4.7993234247774135E+00    2.7891165810782605E+00    1.3532432608292403E+01
Ga    3.1998653246438460E+00    5.5813555180048207E+00   -1.7373608983280184E-01
N    3.1937320455074154E+00    7.4394526674362220E+00    6.1252185463468589E-01
Ga    3.1983460507659149E+00    7.4423839706958077E+00    2.5470065151339742E+00
N    3.2039294559976113E+00    5.5842389669149224E+00    3.2358289478341864E+00
Ga    3.2047694449488882E+00    5.5838014566331333E+00    5.1954156590742668E+00
N    3.2004943306672029E+00    7.4405618239505804E+00    5.8588890831070861E+00
Ga    3.2006147000269802E+00    7.4431960677132913E+00    7.8279923005621965E+00
N    3.2115393404515240E+00    5.5829230417958424E+00    8.4771504382792795E+00
Ga    3.2070532747808107E+00    5.5875017726207741E+00    1.0463007291382938E+01
N    3.1937496887568586E+00    7.4466515793019719E+00    1.1054441965813407E+01
Ga    3.1659637632134996E+00    7.4339522504556808E+00    1.3119980966294724E+01
N    3.1863919409590258E+00    5.5823121967730165E+00    1.3462332325731925E+01
Ga    1.5884225241665602E+00    8.3726832710243926E+00   -1.7311465376202922E-01
N    1.5823032506115042E+00    1.0230420142779762E+01    6.1342421889492316E-01
Ga    1.5870264991632450E+00    1.0232921457202224E+01    2.5483779534847089E+00
N    1.5930391879348786E+00    8.3747187826775900E+00    3.2363077346279621E+00
Ga    1.5936917271720203E+00    8.3737200558947933E+00    5.1968964687725299E+00
N    1.5886516591931397E+00    1.0232189228312846E+01    5.8562622950112795E+00
Ga    1.5894200861068335E+00    1.0231690219981145E+01    7.8240495798008043E+00
N    1.5974789832044836E+00    8.3768566930311934E+00    8.4769663737750811E+00
Ga    1.5892102626436113E+00    8.3801353989962717E+00    1.0459709900308908E+01
N    1.5899467357789014E+00    1.0236930831215314E+01    1.1068575536429288E+01
Ga    1.5675701546325271E+00    1.0213712140892445E+01    1.3149990393064328E+01
N    1.5756387119922151E+00    8.3688761701316263E+00    1.3535956910275317E+01
Ga    9.6330114115698624E+00   -3.7645660214654834E-04   -1.7286766609604290E-01
N    9.6269135581047109E+00    1.8572938682200675E+00    6.1329247974420498E-01
Ga    9.6317965038058855E+00    1.8596889457075283E+00    2.5470658587918016E+00
N    9.6378952896625520E+00    1.8830957471699511E-03    3.2372702564034586E+00
Ga    9.6382045528789995E+00   -4.5196948750108300E-04    5.1976293003510268E+00
N    9.6329056512225186E+00    1.8591325992743013E+00    5.8562706815469392E+00
Ga    9.6355281320445609E+00    1.8592281504234960E+00    7.8235813376609844E+00
N    9.6439951761112201E+00    3.2387367797898623E-03    8.4748386672226523E+00
Ga    9.6304804954310157E+00    4.8657712447163744E-03    1.0457045638442404E+01
N    9.6328227433087754E+00    1.8640471963714316E+00    1.1060030806170568E+01
Ga    9.6145442735810960E+00    1.8412160656961225E+00    1.3138373907414268E+01
N    9.6213215566654995E+00   -4.3367633642972926E-04    1.3539908811067656E+01
Ga    8.0216586185110721E+00    2.7904115615357714E+00   -1.7324444286260818E-01
N    8.0154723803699675E+00    4.6484434680023252E+00    6.1240391435129116E-01
Ga    8.0202247909884843E+00    4.6514814458216360E+00    2.5462710246409861E+00
N    8.0258613216185832E+00    2.7931455725784091E+00    3.2359705803526206E+00
Ga    8.0266979079138991E+00    2.7915699113978674E+00    5.1956999831307860E+00
N    8.0216859768781461E+00    4.6498038727865572E+00    5.8576868993535909E+00
Ga    8.0224711439464027E+00    4.6516964672440109E+00    7.8265320126562870E+00
N    8.0331755110263181E+00    2.7930434103231394E+00    8.4776460298146574E+00
Ga    8.0299613637159215E+00    2.7980829493494084E+00    1.0464126514426274E+01
N    8.0135440907349409E+00    4.6562364899184905E+00    1.1052936862507096E+01
Ga    7.9867851637477791E+00    4.6450935111043448E+00    1.3121638573233119E+01
N    8.0070301895170175E+00    2.7885612137915845E+00    1.3467649891887962E+01
Ga    6.4101251587429422E+00    5.5813098916911175E+00   -1.7352252304483615E-01
N    6.4040809723270433E+00    7.4394528963506596E+00    6.1280070186426816E-01
Ga    6.4087519291521797E+00    7.4424636414453058E+00    2.5473046721323853E+00
N    6.4145236749133359E+00    5.5839223551519446E+00    3.2356874613135003E+00
Ga    6.4157423757212202E+00    5.5830318076409675E+00    5.1953281733222845E+00
N    6.4098208111568455E+00    7.4411732139945643E+00    5.8552400130433178E+00
Ga    6.4129166153386441E+00    7.4416663397311895E+00    7.8231119781254019E+00
N    6.4184775129051506E+00    5.5856882922844573E+00    8.4744522991793438E+00
Ga    6.4141188727264531E+00    5.5959627792414333E+00    1.0458742009805322E+01
N    6.4098537094580150E+00    7.4384823061598544E+00    1.1065641157302039E+01
Ga    6.3899402376163961E+00    7.4249908051619711E+00    1.3148794510143938E+01
N    6.3961961684345070E+00    5.5776775456342849E+00    1.3538498267004639E+01
Ga    4.7988109611995338E+00    8.3725868654465145E+00   -1.7358407778309834E-01
N    4.7927549271376506E+00    1.0230509300913575E+01    6.1313178024984649E-01
Ga    4.7974490155910203E+00    1.0233111201769754E+01    2.5472734268305461E+00
N    4.8028135693234715E+00    8.3753983748801186E+00    3.2364057728405018E+00
Ga    4.8038736208830590E+00    8.3739139696259368E+00    5.1963186766466860E+00
N    4.8000395762564292E+00    1.0231975254631642E+01    5.8597699997732091E+00
Ga    4.8008701930079969E+00    1.0232820355721625E+01    7.8280486778225953E+00
N    4.8099370697675203E+00    8.3754055713809130E+00    8.4785037487516668E+00
Ga    4.8059297731934816E+00    8.3763018593932159E+00    1.0464493129333587E+01
N    4.7910495684665282E+00    1.0236076576480569E+01    1.1053974184953058E+01
Ga    4.7647607631425322E+00    1.0227863763753268E+01    1.3116793349847466E+01
N    4.7859847105992390E+00    8.3741711657418065E+00    1.3465844125213760E+01
H    4.7989427059460485E+00    8.3755523137945520E+00   -1.7243355181236504E+00
H    1.5879439586901762E+00    8.3766445475044389E+00   -1.7241025870699058E+00
H   -1.6223258633185842E+00    8.3762118544216406E+00   -1.7242469083095415E+00
H   -4.8327577834002868E+00    8.3764164417369216E+00   -1.7240250956885674E+00
H    6.4099824836190438E+00    5.5845686778059127E+00   -1.7242508220578070E+00
H    3.2000726587871862E+00    5.5845938675889766E+00   -1.7244308400439399E+00
H   -1.1010261119631449E-02    5.5850507567822882E+00   -1.7241412976995685E+00
H   -3.2216424569390205E+00    5.5848587442232844E+00   -1.7244372672342758E+00
H    8.0217141236884526E+00    2.7938004907799772E+00   -1.7238194679476058E+00
H    4.8106443152719152E+00    2.7936706331695378E+00   -1.7234283567928912E+00
H    1.6010472188430298E+00    2.7931188838371899E+00   -1.7238685417588007E+00
H   -1.6102963619750430E+00    2.7932859350381301E+00   -1.7239640664484817E+00
H    2.5948827890227961E-03    2.4996980415988058E-03   -1.7239411906481237E+00
H    3.2119996411881795E+00    2.6930540656385895E-03   -1.7235394922069336E+00
H    6.4224637383670462E+00    2.2220596225358655E-03   -1.7234352888152060E+00
H    9.6318307579707749E+00    3.2676172498371900E-03   -1.7235509991280589E+00
     &END COORD
     &KIND H
       BASIS_SET DZVP-MOLOPT-SR-GTH-q1
       POTENTIAL GTH-PBE-q1
       &POTENTIAL
1
0.2000000000000000E+00 2 -0.4178900440000000E+01  0.7244633100000000E+00
0
       &END POTENTIAL
     &END KIND
     &KIND N
       BASIS_SET DZVP-MOLOPT-SR-GTH
       POTENTIAL GTH-PBE-q5
       &POTENTIAL
2 3
0.2837905100000000E+00 2 -0.1241522559000000E+02  0.1868095920000000E+01
2
0.2554050000000000E+00 1  0.1363026257000000E+02
0.2454945300000000E+00 0
       &END POTENTIAL
     &END KIND
     &KIND Ga
       BASIS_SET DZVP-MOLOPT-SR-GTH
       POTENTIAL GTH-PBE-q13
       &POTENTIAL
2 1 10
0.4900000000000000E+00 0
3
0.4167772300000000E+00 3  0.1047568975000000E+02 -0.4921768140000000E+01  0.8707055900000000E+00
0.7770178090000000E+01 -0.2248152160000000E+01
0.1784415450000000E+01
0.5696265200000000E+00 2  0.1777985340000000E+01  0.1958597600000000E+00
-0.2317443900000000E+00
0.2381265000000000E+00 1 -0.1624868022000000E+02
       &END POTENTIAL
     &END KIND
     &TOPOLOGY
       NUMBER_OF_ATOMS  208
       MULTIPLE_UNIT_CELL  1 1 1
     &END TOPOLOGY
   &END SUBSYS
 &END FORCE_EVAL
