 # Version information for this restart file 
 # current date 2019-05-25 21:44:32.232
 # current working dir /lustre03/project/6004141/rzk/GaN-carbene/00-Surface/00-Preoptimization/443-capped/CELL_OPT
 # Program compiled at                              Sun Apr  7 00:48:11 EDT 2019
 # Program compiled on                          beluga2.int.ets1.calculquebec.ca
 # Program compiled for                        Beluga-Linux-x86-64-intel-openmpi
 # Source code revision number                                         svn:18619
 &GLOBAL
   PRINT_LEVEL  MEDIUM
   PROJECT_NAME TEST
   RUN_TYPE  CELL_OPT
 &END GLOBAL
 &MOTION
   &CELL_OPT
     MAX_ITER  300
     STEP_START_VAL  7
     EXTERNAL_PRESSURE     1.0000000000000000E+00
     KEEP_ANGLES  T
     KEEP_SYMMETRY  T
     CONSTRAINT  Z
     PRESSURE_TOLERANCE     5.0000000000000000E+02
   &END CELL_OPT
 &END MOTION
 &FORCE_EVAL
   METHOD  QS
   STRESS_TENSOR  ANALYTICAL
   &DFT
     BASIS_SET_FILE_NAME BASIS_MOLOPT
     POTENTIAL_FILE_NAME GTH_POTENTIALS
     SURFACE_DIPOLE_CORRECTION  T
     SURF_DIP_DIR  Z
     &SCF
       MAX_SCF  100
       EPS_SCF     5.0000000000000004E-06
       &OT  T
         PRECONDITIONER  FULL_ALL
       &END OT
       &OUTER_SCF  T
         OPTIMIZER  NONE
         EPS_SCF     5.0000000000000004E-06
         MAX_SCF  4
       &END OUTER_SCF
       &PRINT
         &RESTART  OFF
           BACKUP_COPIES  1
           &EACH
             JUST_ENERGY  0
             QS_SCF  0
             MD  20
           &END EACH
         &END RESTART
       &END PRINT
     &END SCF
     &QS
       EPS_DEFAULT     1.0000000000000000E-14
       METHOD  GPW
     &END QS
     &MGRID
       NGRIDS  5
       CUTOFF     1.2000000000000000E+03
     &END MGRID
     &XC
       DENSITY_CUTOFF     1.0000000000000000E-10
       GRADIENT_CUTOFF     1.0000000000000000E-10
       TAU_CUTOFF     1.0000000000000000E-10
       &XC_FUNCTIONAL  NO_SHORTCUT
         &PBE  T
         &END PBE
       &END XC_FUNCTIONAL
       &VDW_POTENTIAL
         POTENTIAL_TYPE  PAIR_POTENTIAL
         &PAIR_POTENTIAL
           R_CUTOFF     1.0000000000000004E+01
           TYPE  DFTD3
           PARAMETER_FILE_NAME dftd3.dat
           REFERENCE_FUNCTIONAL PBE
           EPS_CN     9.9999999999999995E-07
           CALCULATE_C9_TERM  T
           REFERENCE_C9_TERM  T
           LONG_RANGE_CORRECTION  F
           VERBOSE_OUTPUT  F
         &END PAIR_POTENTIAL
       &END VDW_POTENTIAL
     &END XC
   &END DFT
   &SUBSYS
     &CELL
       A     1.2894231276982303E+01    0.0000000000000000E+00    0.0000000000000000E+00
       B    -6.4475919551803571E+00    1.1167556852844749E+01    0.0000000000000000E+00
       C     0.0000000000000000E+00    0.0000000000000000E+00    2.9000000000000000E+01
       MULTIPLE_UNIT_CELL  1 1 1
       &CELL_REF
         A     1.2982353780853531E+01    0.0000000000000000E+00    0.0000000000000000E+00
         B    -6.4911768904267628E+00    1.1243048175136114E+01    0.0000000000000000E+00
         C     0.0000000000000000E+00    0.0000000000000000E+00    2.9000000000000000E+01
         MULTIPLE_UNIT_CELL  1 1 1
       &END CELL_REF
     &END CELL
     &COORD
Ga    5.8374600384146567E-04   -3.0425663332078669E-04   -1.4873205198568387E-01
N    4.7093508717530058E-04    1.8612359851105429E+00    6.3001527823233783E-01
Ga    8.2074371028221409E-04    1.8611154078997914E+00    2.5654371585300919E+00
N    3.8503903405070361E-04   -4.7283330740964318E-04    3.2465247559155297E+00
Ga    1.4402019979496224E-03   -2.4368341672271572E-05    5.2052856741527140E+00
N    9.0958894571054115E-04    1.8609081579658735E+00    5.8578369877618366E+00
Ga    6.8335607898927354E-04    1.8612596585623262E+00    7.8233890616944057E+00
N    5.0478588546392306E-03    2.3957732234715690E-04    8.4652499643655670E+00
Ga    1.5009946540276695E-03   -1.1250493108405756E-03    1.0450419571894784E+01
N   -1.9692987218757935E-03    1.8624115440724038E+00    1.1031039041534443E+01
Ga   -9.6088962382089580E-04    1.8607916062565883E+00    1.3102340470983684E+01
N   -2.2396020207113450E-04   -1.6877834952480463E-03    1.3451668452401686E+01
Ga   -1.6110857155947129E+00    2.7918096799654686E+00   -1.4933645455340461E-01
N   -1.6113390564351395E+00    4.6532476154528020E+00    6.2873796595989917E-01
Ga   -1.6109402992668813E+00    4.6527476997437800E+00    2.5637794190100758E+00
N   -1.6110778403555395E+00    2.7921069115790833E+00    3.2460714786357023E+00
Ga   -1.6106463551202255E+00    2.7911845019002621E+00    5.2046844194625814E+00
N   -1.6109731369084304E+00    4.6531299792705108E+00    5.8579506543816908E+00
Ga   -1.6102776416544218E+00    4.6523253562068501E+00    7.8256646442489792E+00
N   -1.6096893411138891E+00    2.7896547775098779E+00    8.4650364955121784E+00
Ga   -1.6133892236392462E+00    2.7939903513284969E+00    1.0449076030000548E+01
N   -1.6150576161422363E+00    4.6550590785996544E+00    1.1032751786974405E+01
Ga   -1.6084831373128308E+00    4.6512945424083334E+00    1.3110453391002954E+01
N   -1.6095587458458296E+00    2.7903296860483411E+00    1.3474038576001309E+01
Ga   -3.2228735992631758E+00    5.5838265778471472E+00   -1.5019054747301688E-01
N   -3.2233025096476755E+00    7.4450315927122439E+00    6.2908790263517256E-01
Ga   -3.2227377804175044E+00    7.4447051258920132E+00    2.5640785784651303E+00
N   -3.2223801043593410E+00    5.5836043053051503E+00    3.2454078681338205E+00
Ga   -3.2232135730766882E+00    5.5835712526333756E+00    5.2043008824866162E+00
N   -3.2229043553261745E+00    7.4450220485253480E+00    5.8583272816832448E+00
Ga   -3.2234444833140663E+00    7.4452030543592862E+00    7.8257643749836383E+00
N   -3.2216960657680476E+00    5.5818062051693094E+00    8.4642209763288765E+00
Ga   -3.2248040968722567E+00    5.5841452710518835E+00    1.0450928507891280E+01
N   -3.2240299609439584E+00    7.4475658130142959E+00    1.1032500604873544E+01
Ga   -3.2266942675070696E+00    7.4452327354991361E+00    1.3102989947767368E+01
N   -3.2240088528621831E+00    5.5840668685317123E+00    1.3442237257940652E+01
Ga   -4.8350073549554589E+00    8.3755468291943949E+00   -1.4948338879723067E-01
N   -4.8352854711298932E+00    1.0236810598189594E+01    6.3010792364535873E-01
Ga   -4.8348387663671568E+00    1.0236531495582852E+01    2.5655032536706837E+00
N   -4.8345664048457504E+00    8.3748161944242909E+00    3.2462987922926421E+00
Ga   -4.8353802348387642E+00    8.3756036765343431E+00    5.2052338943003722E+00
N   -4.8351620220074505E+00    1.0236732307526026E+01    5.8571023343930131E+00
Ga   -4.8335230048137356E+00    1.0235663457155372E+01    7.8231787519911498E+00
N   -4.8337797663228672E+00    8.3757872657601666E+00    8.4659669321345259E+00
Ga   -4.8355121315676852E+00    8.3759685109407318E+00    1.0452411708683904E+01
N   -4.8370416819158786E+00    1.0239694934350211E+01    1.1032884437114088E+01
Ga   -4.8331224859180004E+00    1.0234100157467729E+01    1.3111633481945326E+01
N   -4.8349298397308118E+00    8.3741047947074367E+00    1.3466942082411766E+01
Ga    3.2242576362141526E+00   -5.5834610838581235E-05   -1.4850312953569836E-01
N    3.2241069035613452E+00    1.8613125793537162E+00    6.2978769258210043E-01
Ga    3.2245403171114453E+00    1.8608223404880166E+00    2.5649784236970281E+00
N    3.2244495732344243E+00   -1.6105176529292476E-04    3.2464709344317866E+00
Ga    3.2247779444684044E+00   -6.3725084681983833E-04    5.2053545993663670E+00
N    3.2238295297302217E+00    1.8610065077083242E+00    5.8584981409030341E+00
Ga    3.2252271363959668E+00    1.8592679503709519E+00    7.8262715988938956E+00
N    3.2258538476431426E+00   -2.7607202752276089E-03    8.4661461948582915E+00
Ga    3.2222131242845111E+00    1.6577725067769939E-04    1.0450241761898191E+01
N    3.2173164457987822E+00    1.8592797002714692E+00    1.1033421132273945E+01
Ga    3.2252084142249617E+00    1.8596822039585870E+00    1.3110620389844510E+01
N    3.2274777087747362E+00   -1.4620293671406038E-03    1.3471451683094539E+01
Ga    1.6125590322160555E+00    2.7918172802234666E+00   -1.4896350442933801E-01
N    1.6120196962404210E+00    4.6532013045315459E+00    6.2947292682795386E-01
Ga    1.6127568378343862E+00    4.6528097810374502E+00    2.5644626822880552E+00
N    1.6128878142303020E+00    2.7919203282265292E+00    3.2464116818676665E+00
Ga    1.6124598686309806E+00    2.7916075798284732E+00    5.2053271436867394E+00
N    1.6123655095648175E+00    4.6531725692650312E+00    5.8591984143937070E+00
Ga    1.6125902295136816E+00    4.6521800264113677E+00    7.8268862387533211E+00
N    1.6126651157993974E+00    2.7896803035842219E+00    8.4641888346379428E+00
Ga    1.6133775877126615E+00    2.7923063044633532E+00    1.0449498614912242E+01
N    1.6139071976732755E+00    4.6526949234595376E+00    1.1030760539517553E+01
Ga    1.6108873049390295E+00    4.6529355735421900E+00    1.3103196734990222E+01
N    1.6113342178227119E+00    2.7930511651050036E+00    1.3447834732918139E+01
Ga    6.3508063650102658E-04    5.5836762645396663E+00   -1.5027730565605590E-01
N    2.6144430029445895E-04    7.4449372691219651E+00    6.2925931450776984E-01
Ga    7.4811728340035545E-04    7.4447607193905831E+00    2.5645125283237409E+00
N    7.9224584085331679E-04    5.5831705000844929E+00    3.2457467779423115E+00
Ga    8.4671169054438436E-04    5.5837095831590107E+00    5.2046277879657410E+00
N    6.3878345965072208E-04    7.4448982371180756E+00    5.8565327415101311E+00
Ga    1.7794165374092953E-03    7.4442292058313244E+00    7.8230205600726892E+00
N    1.6961767652801498E-03    5.5841261717071662E+00    8.4680523312037845E+00
Ga    2.1430726713255132E-03    5.5848525889819509E+00    1.0457940052551960E+01
N   -1.4285024600691532E-03    7.4512892835441660E+00    1.1030196789716982E+01
Ga    3.1692764182050838E-03    7.4438356990795267E+00    1.3112041858282280E+01
N    1.6621058153044467E-03    5.5827960085514503E+00    1.3458121406015254E+01
Ga   -1.6113418219890263E+00    8.3755840040218654E+00   -1.4947784612804471E-01
N   -1.6114723716734036E+00    1.0236957205269638E+01    6.2962499342693290E-01
Ga   -1.6111995442735141E+00    1.0236752232866724E+01    2.5651095044409140E+00
N   -1.6112538063829440E+00    8.3751184522066495E+00    3.2456840899815718E+00
Ga   -1.6108537314341100E+00    8.3757326963531824E+00    5.2043555270499500E+00
N   -1.6111041221332418E+00    1.0236406737121998E+01    5.8576178940284480E+00
Ga   -1.6117104746417872E+00    1.0237217254124211E+01    7.8232272817807997E+00
N   -1.6085305326460733E+00    8.3749526562841226E+00    8.4624718496515232E+00
Ga   -1.6105273942957856E+00    8.3752793958107699E+00    1.0446789851212118E+01
N   -1.6130859196037004E+00    1.0236223961491890E+01    1.1031392010371659E+01
Ga   -1.6130294877317131E+00    1.0235363693069061E+01    1.3103995671002229E+01
N   -1.6127457881282037E+00    8.3724085305134501E+00    1.3451415415633992E+01
Ga    6.4480091853274528E+00   -8.1133017500554592E-05   -1.4961927504367220E-01
N    6.4475417561645747E+00    1.8611970536106441E+00    6.2911772643918806E-01
Ga    6.4481556444106110E+00    1.8608617884495473E+00    2.5641011933410152E+00
N    6.4485113738674720E+00    1.3671808593682616E-05    3.2458337129271193E+00
Ga    6.4478271797243849E+00   -3.6771536677499570E-04    5.2048184405563465E+00
N    6.4479136939938027E+00    1.8609799376526084E+00    5.8599133887200940E+00
Ga    6.4477737351620501E+00    1.8611558765791025E+00    7.8287180503425589E+00
N    6.4495507820474254E+00   -3.7179728602798252E-03    8.4644799791561613E+00
Ga    6.4500546394614151E+00    9.1594185660856973E-05    1.0450723945121524E+01
N    6.4469718936979934E+00    1.8596595515483503E+00    1.1034247682446754E+01
Ga    6.4476793209145198E+00    1.8611569759231832E+00    1.3105137982747534E+01
N    6.4477348040872213E+00   -2.0597035077883416E-04    1.3443665657133600E+01
Ga    4.8359217072825889E+00    2.7916230681754648E+00   -1.4965382185363074E-01
N    4.8356000180184804E+00    4.6529868666712444E+00    6.2961635604245225E-01
Ga    4.8361411682857334E+00    4.6528681860553220E+00    2.5650496217073182E+00
N    4.8365062453505301E+00    2.7912432370966642E+00    3.2461998227737658E+00
Ga    4.8356361573155189E+00    2.7915990448242600E+00    5.2055463838617779E+00
N    4.8354848076048738E+00    4.6528021660802477E+00    5.8571309343144851E+00
Ga    4.8377895849496104E+00    4.6518508168498940E+00    7.8239111876700838E+00
N    4.8359080938090653E+00    2.7920067653131193E+00    8.4700287941470975E+00
Ga    4.8340179450115759E+00    2.7932181911007188E+00    1.0460232064446178E+01
N    4.8344070947156688E+00    4.6610471478287128E+00    1.1030158936223492E+01
Ga    4.8367128419282714E+00    4.6527788580728240E+00    1.3110510670710051E+01
N    4.8368312655139318E+00    2.7916208361739163E+00    1.3452826492387901E+01
Ga    3.2239710941353943E+00    5.5837232673398907E+00   -1.4901683598382864E-01
N    3.2238729980830505E+00    7.4451431084775868E+00    6.2969149749354669E-01
Ga    3.2241806180303758E+00    7.4448553622666136E+00    2.5650590156564212E+00
N    3.2240289656396230E+00    5.5834902399851929E+00    3.2460874897279406E+00
Ga    3.2246706502483398E+00    5.5837159768769897E+00    5.2050239605885400E+00
N    3.2245001841502927E+00    7.4449197738895183E+00    5.8579271606270211E+00
Ga    3.2237095065663959E+00    7.4449147160553402E+00    7.8239071586048325E+00
N    3.2267476258050034E+00    5.5831325071317872E+00    8.4615848342095052E+00
Ga    3.2246626697383105E+00    5.5814993033671563E+00    1.0444722100499991E+01
N    3.2181919358542626E+00    7.4407472500266385E+00    1.1027674483499670E+01
Ga    3.2208512410843921E+00    7.4451729072405470E+00    1.3102362192057297E+01
N    3.2224127955586161E+00    5.5825821160296103E+00    1.3457286498529767E+01
Ga    1.6122242663088524E+00    8.3756703222068207E+00   -1.4922281288222944E-01
N    1.6119565815079318E+00    1.0236993343345670E+01    6.2942161994459855E-01
Ga    1.6125334619796960E+00    1.0236493747609211E+01    2.5646077894816095E+00
N    1.6123152298181735E+00    8.3754084193808236E+00    3.2460078064537385E+00
Ga    1.6130292413400795E+00    8.3752523411938675E+00    5.2047486891885280E+00
N    1.6121611858955824E+00    1.0236752855125976E+01    5.8569702301012674E+00
Ga    1.6135108948613472E+00    1.0235833863107608E+01    7.8238379915557106E+00
N    1.6138896677428372E+00    8.3742073193950386E+00    8.4631330316306368E+00
Ga    1.6092287781138497E+00    8.3767756324886502E+00    1.0447021476645729E+01
N    1.6106960472336620E+00    1.0235397409343124E+01    1.1029252245351481E+01
Ga    1.6157477375755285E+00    1.0235465267737601E+01    1.3108499313814248E+01
N    1.6148475245082448E+00    8.3757795826493417E+00    1.3482235263275424E+01
Ga    9.6715749265755040E+00   -3.7246580001993446E-04   -1.4973409742373295E-01
N    9.6711323483875606E+00    1.8610843514386490E+00    6.2939297003191930E-01
Ga    9.6715971835248276E+00    1.8609262703929987E+00    2.5648558297195123E+00
N    9.6721065123101475E+00   -7.3743159301222535E-04    3.2461134695839879E+00
Ga    9.6714037838989650E+00   -2.2779569919909081E-04    5.2050219540042280E+00
N    9.6715969850907015E+00    1.8609718153843133E+00    5.8559808771461048E+00
Ga    9.6724332509000615E+00    1.8605641915464439E+00    7.8215889098580913E+00
N    9.6716500289808103E+00    1.4884314543957154E-03    8.4661040859773795E+00
Ga    9.6699494315447243E+00   -5.5980731297995158E-04    1.0453282145762778E+01
N    9.6690096982435918E+00    1.8660563249261841E+00    1.1030869379344901E+01
Ga    9.6723918244002629E+00    1.8591216447327339E+00    1.3108917854091281E+01
N    9.6718068363235048E+00    7.5198740118590364E-05    1.3466637862871430E+01
Ga    8.0593717763661594E+00    2.7915448481857714E+00   -1.4946621581110145E-01
N    8.0593458385202954E+00    4.6531593144514050E+00    6.2922527967672337E-01
Ga    8.0595768310527003E+00    4.6527914442944569E+00    2.5648016570398600E+00
N    8.0593882981419185E+00    2.7912973090335012E+00    3.2457569257520849E+00
Ga    8.0600274097525908E+00    2.7920286140902326E+00    5.2046591472944979E+00
N    8.0599215640043447E+00    4.6531530034382955E+00    5.8568403904455870E+00
Ga    8.0592218452237976E+00    4.6529046681925541E+00    7.8226474605390406E+00
N    8.0641454400631698E+00    2.7918129382462364E+00    8.4625005642831628E+00
Ga    8.0574807925456540E+00    2.7916986637270091E+00    1.0446262298188230E+01
N    8.0556161982884742E+00    4.6512206194958461E+00    1.1029472334154908E+01
Ga    8.0562274970149446E+00    4.6528423954463038E+00    1.3101361050899021E+01
N    8.0588330113970077E+00    2.7911540365037517E+00    1.3456510376294007E+01
Ga    6.4474451049394013E+00    5.5838432567586187E+00   -1.4907758739655655E-01
N    6.4472434866242638E+00    7.4451331901421343E+00    6.2954223757863204E-01
Ga    6.4478414717733967E+00    7.4446067375592531E+00    2.5646812279629247E+00
N    6.4476985244131777E+00    5.5836796816262702E+00    3.2460800957303331E+00
Ga    6.4477552840905759E+00    5.5829000649328906E+00    5.2051157858333434E+00
N    6.4471520216047598E+00    7.4449893090383803E+00    5.8578382599167966E+00
Ga    6.4495119061644424E+00    7.4429543000270675E+00    7.8253550130358294E+00
N    6.4494985781862377E+00    5.5818344063269016E+00    8.4637384834028264E+00
Ga    6.4451369176647590E+00    5.5843313184546783E+00    1.0447088286442812E+01
N    6.4466869377481553E+00    7.4445712262009422E+00    1.1031368475940546E+01
Ga    6.4514963409694737E+00    7.4423878855701666E+00    1.3109432223843969E+01
N    6.4498666987385995E+00    5.5818993518799660E+00    1.3478746670093743E+01
Ga    4.8357460795049825E+00    8.3757641430947274E+00   -1.4959956855174877E-01
N    4.8353341553257465E+00    1.0236829225001097E+01    6.2955220550895052E-01
Ga    4.8359698113120260E+00    1.0236619884037365E+01    2.5643265235327268E+00
N    4.8361414882069793E+00    8.3757854155374982E+00    3.2460801023024550E+00
Ga    4.8357674016822667E+00    8.3750331050776747E+00    5.2051412797964405E+00
N    4.8360113598591310E+00    1.0236564925818840E+01    5.8607622648560866E+00
Ga    4.8364920578891386E+00    1.0237274159750536E+01    7.8295731392582733E+00
N    4.8371477625735482E+00    8.3725113109779024E+00    8.4672701431575117E+00
Ga    4.8355547495188302E+00    8.3734028227452946E+00    1.0455923807119671E+01
N    4.8338202107926209E+00    1.0238982589962818E+01    1.1033199940587954E+01
Ga    4.8323275257820653E+00    1.0237613071250770E+01    1.3103866295233530E+01
N    4.8349590657833081E+00    8.3757102744043568E+00    1.3440056951712462E+01
H    4.8352290187235525E+00    8.3756609083935238E+00   -1.7026486994947923E+00
H    1.6118807206633847E+00    8.3757637729341372E+00   -1.7024264107151414E+00
H   -1.6115401584241518E+00    8.3758710938464311E+00   -1.7026542579211066E+00
H   -4.8353985608696934E+00    8.3757912476023701E+00   -1.7025207462448764E+00
H    6.4472883440150319E+00    5.5839178185624530E+00   -1.7023231083653392E+00
H    3.2238345282577625E+00    5.5841049170343497E+00   -1.7021877905898481E+00
H    3.4842665859281157E-04    5.5841981169905903E+00   -1.7033226901249132E+00
H   -3.2234355918072271E+00    5.5840677841206805E+00   -1.7033246546382592E+00
H    8.0591952823741266E+00    2.7915257864058645E+00   -1.7026838471944437E+00
H    4.8356069243772168E+00    2.7915930429160047E+00   -1.7026931534596943E+00
H    1.6120267383352234E+00    2.7916505801900526E+00   -1.7020233946726648E+00
H   -1.6115645081978680E+00    2.7913507837135345E+00   -1.7025660272136827E+00
H    3.2995655322037181E-04   -4.6258976216212748E-04   -1.7018034961639221E+00
H    3.2240320962912303E+00   -4.4798609343595785E-04   -1.7017081168541484E+00
H    6.4475310987004706E+00   -4.7545767039931867E-04   -1.7027346896139481E+00
H    9.6708531910377449E+00   -5.1251188883713573E-04   -1.7027830229636649E+00
     &END COORD
     &KIND H
       BASIS_SET DZVP-MOLOPT-SR-GTH-q1
       POTENTIAL GTH-PBE-q1
       &POTENTIAL
1
0.2000000000000000E+00 2 -0.4178900440000000E+01  0.7244633100000000E+00
0
       &END POTENTIAL
     &END KIND
     &KIND N
       BASIS_SET DZVP-MOLOPT-SR-GTH
       POTENTIAL GTH-PBE-q5
       &POTENTIAL
2 3
0.2837905100000000E+00 2 -0.1241522559000000E+02  0.1868095920000000E+01
2
0.2554050000000000E+00 1  0.1363026257000000E+02
0.2454945300000000E+00 0
       &END POTENTIAL
     &END KIND
     &KIND Ga
       BASIS_SET DZVP-MOLOPT-SR-GTH
       POTENTIAL GTH-PBE-q13
       &POTENTIAL
2 1 10
0.4900000000000000E+00 0
3
0.4167772300000000E+00 3  0.1047568975000000E+02 -0.4921768140000000E+01  0.8707055900000000E+00
0.7770178090000000E+01 -0.2248152160000000E+01
0.1784415450000000E+01
0.5696265200000000E+00 2  0.1777985340000000E+01  0.1958597600000000E+00
-0.2317443900000000E+00
0.2381265000000000E+00 1 -0.1624868022000000E+02
       &END POTENTIAL
     &END KIND
     &TOPOLOGY
       NUMBER_OF_ATOMS  208
       MULTIPLE_UNIT_CELL  1 1 1
     &END TOPOLOGY
   &END SUBSYS
 &END FORCE_EVAL
