 # Version information for this restart file 
 # current date 2019-05-26 00:47:20.513
 # current working dir /lustre03/project/6004141/rzk/GaN-carbene/00-Surface/00-Preoptimization/443-capped/CELL_OPT
 # Program compiled at                              Sun Apr  7 00:48:11 EDT 2019
 # Program compiled on                          beluga2.int.ets1.calculquebec.ca
 # Program compiled for                        Beluga-Linux-x86-64-intel-openmpi
 # Source code revision number                                         svn:18619
 &GLOBAL
   PRINT_LEVEL  MEDIUM
   PROJECT_NAME TEST
   RUN_TYPE  CELL_OPT
 &END GLOBAL
 &MOTION
   &CELL_OPT
     MAX_ITER  300
     STEP_START_VAL  46
     EXTERNAL_PRESSURE     1.0000000000000000E+00
     KEEP_ANGLES  T
     KEEP_SYMMETRY  T
     CONSTRAINT  Z
     PRESSURE_TOLERANCE     5.0000000000000000E+02
   &END CELL_OPT
 &END MOTION
 &FORCE_EVAL
   METHOD  QS
   STRESS_TENSOR  ANALYTICAL
   &DFT
     BASIS_SET_FILE_NAME BASIS_MOLOPT
     POTENTIAL_FILE_NAME GTH_POTENTIALS
     SURFACE_DIPOLE_CORRECTION  T
     SURF_DIP_DIR  Z
     &SCF
       MAX_SCF  100
       EPS_SCF     5.0000000000000004E-06
       &OT  T
         PRECONDITIONER  FULL_ALL
       &END OT
       &OUTER_SCF  T
         OPTIMIZER  NONE
         EPS_SCF     5.0000000000000004E-06
         MAX_SCF  4
       &END OUTER_SCF
       &PRINT
         &RESTART  OFF
           BACKUP_COPIES  1
           &EACH
             JUST_ENERGY  0
             QS_SCF  0
             MD  20
           &END EACH
         &END RESTART
       &END PRINT
     &END SCF
     &QS
       EPS_DEFAULT     1.0000000000000000E-14
       METHOD  GPW
     &END QS
     &MGRID
       NGRIDS  5
       CUTOFF     1.2000000000000000E+03
     &END MGRID
     &XC
       DENSITY_CUTOFF     1.0000000000000000E-10
       GRADIENT_CUTOFF     1.0000000000000000E-10
       TAU_CUTOFF     1.0000000000000000E-10
       &XC_FUNCTIONAL  NO_SHORTCUT
         &PBE  T
         &END PBE
       &END XC_FUNCTIONAL
       &VDW_POTENTIAL
         POTENTIAL_TYPE  PAIR_POTENTIAL
         &PAIR_POTENTIAL
           R_CUTOFF     1.0000000000000004E+01
           TYPE  DFTD3
           PARAMETER_FILE_NAME dftd3.dat
           REFERENCE_FUNCTIONAL PBE
           EPS_CN     9.9999999999999995E-07
           CALCULATE_C9_TERM  T
           REFERENCE_C9_TERM  T
           LONG_RANGE_CORRECTION  F
           VERBOSE_OUTPUT  F
         &END PAIR_POTENTIAL
       &END VDW_POTENTIAL
     &END XC
   &END DFT
   &SUBSYS
     &CELL
       A     1.2846862162395810E+01    0.0000000000000000E+00    0.0000000000000000E+00
       B    -6.4475495405362553E+00    1.1167483388526179E+01    0.0000000000000000E+00
       C     0.0000000000000000E+00    0.0000000000000000E+00    2.9000000000000000E+01
       MULTIPLE_UNIT_CELL  1 1 1
       &CELL_REF
         A     1.2982353780853531E+01    0.0000000000000000E+00    0.0000000000000000E+00
         B    -6.4911768904267628E+00    1.1243048175136114E+01    0.0000000000000000E+00
         C     0.0000000000000000E+00    0.0000000000000000E+00    2.9000000000000000E+01
         MULTIPLE_UNIT_CELL  1 1 1
       &END CELL_REF
     &END CELL
     &COORD
Ga    1.5433877693403605E-03   -1.1420945173722047E-03   -1.7359933938596486E-01
N   -4.3185994057056091E-03    1.8582012840849904E+00    6.1235339629079921E-01
Ga    4.1140616524049236E-04    1.8606970566865944E+00    2.5468918288032247E+00
N    5.5511550376150390E-03    1.9662154876829256E-03    3.2353410418002015E+00
Ga    6.2650971099531489E-03    5.8432551204725574E-04    5.1961758523227992E+00
N    1.5841908199495346E-03    1.8589925414147712E+00    5.8574860707041783E+00
Ga    4.4022891121160363E-03    1.8603561267975814E+00    7.8266575073432083E+00
N    1.3636152104243838E-02    2.3031998591422440E-03    8.4795120703143283E+00
Ga    1.0016869223484421E-02    5.7526004514415561E-03    1.0467580162139960E+01
N   -6.6447959899650381E-03    1.8660761138767710E+00    1.1060620014381097E+01
Ga   -3.2935368965738648E-02    1.8527178737517236E+00    1.3129075525878712E+01
N   -1.2975121060758011E-02   -1.9235359913394891E-03    1.3471140947888351E+01
Ga   -1.6107101103998247E+00    2.7907387174796270E+00   -1.7363015919745572E-01
N   -1.6163438545820030E+00    4.6500836478265892E+00    6.1229962505515279E-01
Ga   -1.6118473075751751E+00    4.6527550003276961E+00    2.5470576639378932E+00
N   -1.6060114535421051E+00    2.7937619283955240E+00    3.2350057441995723E+00
Ga   -1.6047791277922421E+00    2.7919407023988567E+00    5.1956528385166694E+00
N   -1.6109220319250497E+00    4.6511979112021082E+00    5.8551414723726323E+00
Ga   -1.6088386723319459E+00    4.6522595055308402E+00    7.8234968494739485E+00
N   -1.6012058676601630E+00    2.7945184749384739E+00    8.4748322368545761E+00
Ga   -1.6101008592871207E+00    2.8006450138523493E+00    1.0459405994559292E+01
N   -1.6128762694525578E+00    4.6541604530123069E+00    1.1058877050613699E+01
Ga   -1.6273184739310553E+00    4.6361412523286099E+00    1.3134993355582068E+01
N   -1.6230674660764772E+00    2.7929105229543438E+00    1.3541173413089840E+01
Ga   -3.2224915432400421E+00    5.5827644422728913E+00   -1.7401195002108560E-01
N   -3.2280654342771991E+00    7.4419071789305340E+00    6.1228689322645347E-01
Ga   -3.2234519634019110E+00    7.4445645420046072E+00    2.5468782488017196E+00
N   -3.2182736723732268E+00    5.5858898478380343E+00    3.2352311608307680E+00
Ga   -3.2176683931785881E+00    5.5847432402168211E+00    5.1961636904422210E+00
N   -3.2221688311806442E+00    7.4434459955788457E+00    5.8582597555037461E+00
Ga   -3.2195577172220449E+00    7.4446137424283174E+00    7.8276375300848180E+00
N   -3.2122388102850685E+00    5.5856744711486757E+00    8.4760953379196131E+00
Ga   -3.2181183698027298E+00    5.5894267766196295E+00    1.0463107965976244E+01
N   -3.2316462762451281E+00    7.4493147938696760E+00    1.1054334136028332E+01
Ga   -3.2557255889469432E+00    7.4390173486497631E+00    1.3117436370787773E+01
N   -3.2345405472876494E+00    5.5839726544411858E+00    1.3462814357210039E+01
Ga   -4.8342087344481692E+00    8.3746671637888532E+00   -1.7349701900528250E-01
N   -4.8399046585229106E+00    1.0233802399684002E+01    6.1297422790563849E-01
Ga   -4.8352871252443341E+00    1.0236365911679895E+01    2.5476705944748836E+00
N   -4.8298272205174593E+00    8.3773873769413481E+00    3.2354063405310916E+00
Ga   -4.8286609617799687E+00    8.3759201867620021E+00    5.1961556471938328E+00
N   -4.8346829094888468E+00    1.0235065840815471E+01    5.8560410246696399E+00
Ga   -4.8316093018255071E+00    1.0236902559491085E+01    7.8241448724903524E+00
N   -4.8259645551648731E+00    8.3791264003244610E+00    8.4756229391128102E+00
Ga   -4.8342979661422731E+00    8.3866339116428907E+00    1.0460253663761412E+01
N   -4.8337922432737148E+00    1.0237904775720354E+01    1.1069552746122161E+01
Ga   -4.8522984016708266E+00    1.0215802344615993E+01    1.3152802110981808E+01
N   -4.8452535644516095E+00    8.3726146275347535E+00    1.3553365892611017E+01
Ga    3.2131934271451996E+00   -1.1124088146993332E-03   -1.7307028427969021E-01
N    3.2073817823769781E+00    1.8580286579532221E+00    6.1325197352803329E-01
Ga    3.2120232355463130E+00    1.8604402102031128E+00    2.5480859239669118E+00
N    3.2176118130666813E+00    1.5232695101374575E-03    3.2362652048191918E+00
Ga    3.2190026688792952E+00   -6.3773454816361453E-05    5.1970436696912516E+00
N    3.2127113556069400E+00    1.8591179378778477E+00    5.8558999086958377E+00
Ga    3.2155925702909998E+00    1.8604339331436484E+00    7.8243054747483365E+00
N    3.2226895847014054E+00    2.1457973254363333E-03    8.4756489187313608E+00
Ga    3.2142449452675774E+00    7.4003360779559303E-03    1.0460221095991654E+01
N    3.2129208125639894E+00    1.8630308603026797E+00    1.1057045983433632E+01
Ga    3.1951873348601385E+00    1.8435163080276920E+00    1.3130380951067472E+01
N    3.2010708520995803E+00    4.1741790852065314E-04    1.3536827144744981E+01
Ga    1.6014090091476942E+00    2.7905874825035033E+00   -1.7359474151229057E-01
N    1.5955516603307247E+00    4.6499848648255888E+00    6.1199753821690650E-01
Ga    1.6001922496368979E+00    4.6524974187721408E+00    2.5465666961356699E+00
N    1.6053896497660258E+00    2.7938512804872606E+00    3.2351900959884250E+00
Ga    1.6061768935321050E+00    2.7922795371399314E+00    5.1958900087936675E+00
N    1.6010961910163786E+00    4.6509138683627134E+00    5.8570264576440740E+00
Ga    1.6037001152029111E+00    4.6515225925336727E+00    7.8261198244885719E+00
N    1.6119267192220972E+00    2.7934714535448424E+00    8.4774630246551119E+00
Ga    1.6062572965143316E+00    2.7977037031746521E+00    1.0464796028596373E+01
N    1.5928558852868895E+00    4.6581032505132649E+00    1.1053539732096432E+01
Ga    1.5700277936368576E+00    4.6427791924998836E+00    1.3118051896396885E+01
N    1.5891697106363480E+00    2.7896258845833763E+00    1.3466255626492169E+01
Ga   -1.0738902817027893E-02    5.5827534135585877E+00   -1.7379874656624170E-01
N   -1.6414191882943997E-02    7.4419520637920309E+00    6.1237754713952652E-01
Ga   -1.1813939729938076E-02    7.4445449965241144E+00    2.5469932193338187E+00
N   -6.2548682978242585E-03    5.5855408196143541E+00    3.2349026020193961E+00
Ga   -5.1823714902342949E-03    5.5837192103043511E+00    5.1956658790968486E+00
N   -1.0891487471624701E-02    7.4431240838585948E+00    5.8556951640965424E+00
Ga   -8.3156967582065887E-03    7.4447194420347120E+00    7.8240246356311225E+00
N   -2.5511039939944032E-03    5.5869754204618145E+00    8.4740499314840960E+00
Ga   -1.0565885826196456E-02    5.5934152553611636E+00    1.0458700487535351E+01
N   -1.1728572453525257E-02    7.4446724553046648E+00    1.1068420865716044E+01
Ga   -2.7590952425140487E-02    7.4241867591402997E+00    1.3152087396862150E+01
N   -2.1458594779885681E-02    5.5786812544221078E+00    1.3542145970007537E+01
Ga   -1.6225780876311273E+00    8.3746792495727806E+00   -1.7364449175457147E-01
N   -1.6282981375803887E+00    1.0233722096296596E+01    6.1297787117237623E-01
Ga   -1.6236295262693796E+00    1.0236271603994648E+01    2.5475484024480188E+00
N   -1.6183125404479843E+00    8.3774249076356782E+00    3.2354336191692368E+00
Ga   -1.6176140336518028E+00    8.3761166533627751E+00    5.1961693746682522E+00
N   -1.6219076066166023E+00    1.0234380185005138E+01    5.8589625433471584E+00
Ga   -1.6185611389173691E+00    1.0235552046994604E+01    7.8284227090601588E+00
N   -1.6112388940599409E+00    8.3770144525453620E+00    8.4799606605199642E+00
Ga   -1.6156713639515079E+00    8.3798209600146798E+00    1.0468714570817200E+01
N   -1.6296759552578919E+00    1.0241267776349149E+01    1.1057760338214306E+01
Ga   -1.6542980128245433E+00    1.0230020534614498E+01    1.3123810418277827E+01
N   -1.6352285733240060E+00    8.3751713489705573E+00    1.3467410217037296E+01
Ga    6.4248034255331703E+00   -1.2263640680066990E-03   -1.7298405229953467E-01
N    6.4190857683924385E+00    1.8580880810611360E+00    6.1277667473323305E-01
Ga    6.4236557200148523E+00    1.8605340288808181E+00    2.5473663902106569E+00
N    6.4289944511852317E+00    1.8710059385676767E-03    3.2358229527777449E+00
Ga    6.4299337522734064E+00    5.1097395149689339E-04    5.1965560684995182E+00
N    6.4256011616046873E+00    1.8587941597189552E+00    5.8585323428382932E+00
Ga    6.4288490085469245E+00    1.8602969312029412E+00    7.8279319070111626E+00
N    6.4365528588334335E+00    1.5407596658184651E-03    8.4800557168021058E+00
Ga    6.4328066745385142E+00    4.0532403226554029E-03    1.0467872819179487E+01
N    6.4178161348812344E+00    1.8648246310054375E+00    1.1054669650026684E+01
Ga    6.3940248059569225E+00    1.8513123739536430E+00    1.3118724503999918E+01
N    6.4136577399093291E+00   -8.0491794680821228E-04    1.3472913085410518E+01
Ga    4.8128567761763064E+00    2.7906295843237152E+00   -1.7317968727464930E-01
N    4.8071273498251541E+00    4.6500030785206201E+00    6.1242809632131312E-01
Ga    4.8115853568422500E+00    4.6525470306941328E+00    2.5471057373400416E+00
N    4.8174382380212872E+00    2.7936667446829548E+00    3.2357501450292379E+00
Ga    4.8187791292208466E+00    2.7917266228090130E+00    5.1967285293450427E+00
N    4.8125237647940455E+00    4.6515358485909051E+00    5.8544900162616340E+00
Ga    4.8157616483178849E+00    4.6527921853346328E+00    7.8225357388305099E+00
N    4.8224563101678939E+00    2.7950266992681505E+00    8.4727555548301741E+00
Ga    4.8138196487050129E+00    2.8021094380462386E+00    1.0456623826674623E+01
N    4.8129339238436506E+00    4.6553295133394119E+00    1.1060645699173248E+01
Ga    4.7964790677042108E+00    4.6362363330557086E+00    1.3139103366403114E+01
N    4.8013693042651528E+00    2.7899843777691276E+00    1.3528812054064012E+01
Ga    3.2010799083624502E+00    5.5826723905436610E+00   -1.7403155262464573E-01
N    3.1953728376378070E+00    7.4419703360691871E+00    6.1202525871524072E-01
Ga    3.2000498898616359E+00    7.4446211735328500E+00    2.5466842130983243E+00
N    3.2050700855307821E+00    5.5858131491611331E+00    3.2348135629330859E+00
Ga    3.2057090068264293E+00    5.5845424315385914E+00    5.1955530504035305E+00
N    3.2012047769982384E+00    7.4430795508279717E+00    5.8576994929914337E+00
Ga    3.2040767535120356E+00    7.4442139261892919E+00    7.8270304098706038E+00
N    3.2113884670549155E+00    5.5847870398864954E+00    8.4751156529118443E+00
Ga    3.2069508106191895E+00    5.5880251040197013E+00    1.0462065972934102E+01
N    3.1934821338522381E+00    7.4476234637615946E+00    1.1051983512691811E+01
Ga    3.1672099346914502E+00    7.4368917461775412E+00    1.3115645923734421E+01
N    3.1880871411818963E+00    5.5828604384202398E+00    1.3466556248060975E+01
Ga    1.5890229938857559E+00    8.3747645214497570E+00   -1.7351274341762124E-01
N    1.5834474274587154E+00    1.0233774006960264E+01    6.1322373408965625E-01
Ga    1.5881009492528515E+00    1.0236312736337291E+01    2.5479697169204574E+00
N    1.5935363378885592E+00    8.3771955398505309E+00    3.2353267778420522E+00
Ga    1.5949210988087144E+00    8.3756704646950322E+00    5.1958981293519306E+00
N    1.5888365586125941E+00    1.0234686200457110E+01    5.8560691994694762E+00
Ga    1.5917990729962765E+00    1.0236140417186645E+01    7.8241516896062802E+00
N    1.5978464259235723E+00    8.3783368167913430E+00    8.4761283837973718E+00
Ga    1.5887323861886204E+00    8.3842318183671924E+00    1.0461298160301157E+01
N    1.5896623293177932E+00    1.0235386293871004E+01    1.1067637902401788E+01
Ga    1.5732081705713026E+00    1.0217095670805339E+01    1.3150159382109502E+01
N    1.5782957188049076E+00    8.3723523398284811E+00    1.3546525610883805E+01
Ga    9.6362032957642629E+00   -1.0293889758891618E-03   -1.7316585066769019E-01
N    9.6308021211175951E+00    1.8581467740197488E+00    6.1297745529528835E-01
Ga    9.6354419372554041E+00    1.8604852779818175E+00    2.5476268713244488E+00
N    9.6411525394998225E+00    1.6363581726050818E-03    3.2360108542266675E+00
Ga    9.6426570275424890E+00   -1.2545829220759287E-04    5.1970058133858474E+00
N    9.6363384288795153E+00    1.8594698205764781E+00    5.8553602889486180E+00
Ga    9.6392270958749844E+00    1.8608918573409261E+00    7.8236772402490793E+00
N    9.6449222795025005E+00    2.9656344452519945E-03    8.4742872093910826E+00
Ga    9.6374801497501164E+00    7.9821823969163166E-03    1.0458531988399136E+01
N    9.6362787444495996E+00    1.8598563274895668E+00    1.1063392838814352E+01
Ga    9.6202309633592247E+00    1.8435427712335104E+00    1.3142341372259761E+01
N    9.6259859948832691E+00   -7.4250434178512373E-05    1.3544428934498134E+01
Ga    8.0245668580404992E+00    2.7907092783854757E+00   -1.7331521406879805E-01
N    8.0189645841617647E+00    4.6501020000690048E+00    6.1228026738340080E-01
Ga    8.0236547283856492E+00    4.6527353803556100E+00    2.5467780437738683E+00
N    8.0288178083208877E+00    2.7938601104974645E+00    3.2349267909855297E+00
Ga    8.0295634098921393E+00    2.7923289022925122E+00    5.1955565967625175E+00
N    8.0243634022188424E+00    4.6510605817353685E+00    5.8565653997028146E+00
Ga    8.0275573822122173E+00    4.6519287339747182E+00    7.8256183803116670E+00
N    8.0366706570850486E+00    2.7944274895872527E+00    8.4782847001937878E+00
Ga    8.0328093271778052E+00    2.7985181698831645E+00    1.0466191221414899E+01
N    8.0160616212681450E+00    4.6579135865347778E+00    1.1056648428721690E+01
Ga    7.9901451050015293E+00    4.6462906127703354E+00    1.3123165201866083E+01
N    8.0120507437994313E+00    2.7915719831059151E+00    1.3465892699696886E+01
Ga    6.4126938415507855E+00    5.5826987962100922E+00   -1.7375248645306177E-01
N    6.4070124172997609E+00    7.4420138293892828E+00    6.1224847436960084E-01
Ga    6.4115263154812832E+00    7.4448561435486633E+00    2.5469715414597318E+00
N    6.4170622777717261E+00    5.5857389287214678E+00    3.2343668145307793E+00
Ga    6.4181432202157511E+00    5.5840675731808824E+00    5.1947915952033146E+00
N    6.4124019029227188E+00    7.4431564460456041E+00    5.8551625506420715E+00
Ga    6.4153215415220979E+00    7.4445190451846601E+00    7.8232293401270496E+00
N    6.4215709368967433E+00    5.5870423680120540E+00    8.4743512773268979E+00
Ga    6.4143426912664570E+00    5.5941840016006301E+00    1.0459099288296107E+01
N    6.4140642267860200E+00    7.4459196448400826E+00    1.1067966086896028E+01
Ga    6.3972295735618960E+00    7.4246472069065437E+00    1.3150580405672496E+01
N    6.4002024534137654E+00    5.5809314245547919E+00    1.3551519980957405E+01
Ga    4.8008489284581746E+00    8.3745121973632504E+00   -1.7412630665517448E-01
N    4.7951679026947112E+00    1.0233800664915970E+01    6.1215157376795093E-01
Ga    4.7997950336149140E+00    1.0236353826068282E+01    2.5468827234777880E+00
N    4.8050145187070861E+00    8.3777207869621293E+00    3.2352616430513863E+00
Ga    4.8058205830144898E+00    8.3765225391351645E+00    5.1961566639843673E+00
N    4.8015502628452698E+00    1.0234668679740913E+01    5.8593901473617089E+00
Ga    4.8049030631105483E+00    1.0235716349473650E+01    7.8292283785158485E+00
N    4.8123340942089072E+00    8.3762621389919101E+00    8.4783722639208960E+00
Ga    4.8086349433779434E+00    8.3793625742805364E+00    1.0466430704727713E+01
N    4.7940325849092336E+00    1.0241133062878946E+01    1.1050900826531834E+01
Ga    4.7676032522675280E+00    1.0230509949618408E+01    1.3113226158003638E+01
N    4.7876348652217207E+00    8.3761066754784803E+00    1.3460408756751676E+01
H    4.8011740300048800E+00    8.3777332889055174E+00   -1.7259397743632507E+00
H    1.5890681557245960E+00    8.3788448198376280E+00   -1.7253316716757050E+00
H   -1.6226863517504215E+00    8.3785752854692639E+00   -1.7254343904315184E+00
H   -4.8346359751438577E+00    8.3789009803806440E+00   -1.7252872782521176E+00
H    6.4127128928968560E+00    5.5859411706991171E+00   -1.7255903768988980E+00
H    3.2015696300828256E+00    5.5860907872177163E+00   -1.7258209547166532E+00
H   -1.0779044390024905E-02    5.5865810646748226E+00   -1.7255903155086618E+00
H   -3.2230995445023782E+00    5.5862692910397422E+00   -1.7258306633356666E+00
H    8.0250953528230848E+00    2.7947512337467781E+00   -1.7250905436943427E+00
H    4.8124226575145208E+00    2.7946670557730084E+00   -1.7249615306485633E+00
H    1.6013806024377748E+00    2.7938427610301759E+00   -1.7253820649719656E+00
H   -1.6109166603801073E+00    2.7937522136454001E+00   -1.7254682710776410E+00
H    2.4656766964562702E-03    2.5723463104334980E-03   -1.7253755093550109E+00
H    3.2129434453711583E+00    2.5371081430013739E-03   -1.7248834440577465E+00
H    6.4247385190679447E+00    2.0593064139774160E-03   -1.7247611042367705E+00
H    9.6355258078917352E+00    3.3583923554843490E-03   -1.7249448971236081E+00
     &END COORD
     &KIND H
       BASIS_SET DZVP-MOLOPT-SR-GTH-q1
       POTENTIAL GTH-PBE-q1
       &POTENTIAL
1
0.2000000000000000E+00 2 -0.4178900440000000E+01  0.7244633100000000E+00
0
       &END POTENTIAL
     &END KIND
     &KIND N
       BASIS_SET DZVP-MOLOPT-SR-GTH
       POTENTIAL GTH-PBE-q5
       &POTENTIAL
2 3
0.2837905100000000E+00 2 -0.1241522559000000E+02  0.1868095920000000E+01
2
0.2554050000000000E+00 1  0.1363026257000000E+02
0.2454945300000000E+00 0
       &END POTENTIAL
     &END KIND
     &KIND Ga
       BASIS_SET DZVP-MOLOPT-SR-GTH
       POTENTIAL GTH-PBE-q13
       &POTENTIAL
2 1 10
0.4900000000000000E+00 0
3
0.4167772300000000E+00 3  0.1047568975000000E+02 -0.4921768140000000E+01  0.8707055900000000E+00
0.7770178090000000E+01 -0.2248152160000000E+01
0.1784415450000000E+01
0.5696265200000000E+00 2  0.1777985340000000E+01  0.1958597600000000E+00
-0.2317443900000000E+00
0.2381265000000000E+00 1 -0.1624868022000000E+02
       &END POTENTIAL
     &END KIND
     &TOPOLOGY
       NUMBER_OF_ATOMS  208
       MULTIPLE_UNIT_CELL  1 1 1
     &END TOPOLOGY
   &END SUBSYS
 &END FORCE_EVAL
