 # Version information for this restart file 
 # current date 2019-05-25 23:21:03.441
 # current working dir /lustre03/project/6004141/rzk/GaN-carbene/00-Surface/00-Preoptimization/443-capped/CELL_OPT
 # Program compiled at                              Sun Apr  7 00:48:11 EDT 2019
 # Program compiled on                          beluga2.int.ets1.calculquebec.ca
 # Program compiled for                        Beluga-Linux-x86-64-intel-openmpi
 # Source code revision number                                         svn:18619
 &GLOBAL
   PRINT_LEVEL  MEDIUM
   PROJECT_NAME TEST
   RUN_TYPE  CELL_OPT
 &END GLOBAL
 &MOTION
   &CELL_OPT
     MAX_ITER  300
     STEP_START_VAL  23
     EXTERNAL_PRESSURE     1.0000000000000000E+00
     KEEP_ANGLES  T
     KEEP_SYMMETRY  T
     CONSTRAINT  Z
     PRESSURE_TOLERANCE     5.0000000000000000E+02
   &END CELL_OPT
 &END MOTION
 &FORCE_EVAL
   METHOD  QS
   STRESS_TENSOR  ANALYTICAL
   &DFT
     BASIS_SET_FILE_NAME BASIS_MOLOPT
     POTENTIAL_FILE_NAME GTH_POTENTIALS
     SURFACE_DIPOLE_CORRECTION  T
     SURF_DIP_DIR  Z
     &SCF
       MAX_SCF  100
       EPS_SCF     5.0000000000000004E-06
       &OT  T
         PRECONDITIONER  FULL_ALL
       &END OT
       &OUTER_SCF  T
         OPTIMIZER  NONE
         EPS_SCF     5.0000000000000004E-06
         MAX_SCF  4
       &END OUTER_SCF
       &PRINT
         &RESTART  OFF
           BACKUP_COPIES  1
           &EACH
             JUST_ENERGY  0
             QS_SCF  0
             MD  20
           &END EACH
         &END RESTART
       &END PRINT
     &END SCF
     &QS
       EPS_DEFAULT     1.0000000000000000E-14
       METHOD  GPW
     &END QS
     &MGRID
       NGRIDS  5
       CUTOFF     1.2000000000000000E+03
     &END MGRID
     &XC
       DENSITY_CUTOFF     1.0000000000000000E-10
       GRADIENT_CUTOFF     1.0000000000000000E-10
       TAU_CUTOFF     1.0000000000000000E-10
       &XC_FUNCTIONAL  NO_SHORTCUT
         &PBE  T
         &END PBE
       &END XC_FUNCTIONAL
       &VDW_POTENTIAL
         POTENTIAL_TYPE  PAIR_POTENTIAL
         &PAIR_POTENTIAL
           R_CUTOFF     1.0000000000000004E+01
           TYPE  DFTD3
           PARAMETER_FILE_NAME dftd3.dat
           REFERENCE_FUNCTIONAL PBE
           EPS_CN     9.9999999999999995E-07
           CALCULATE_C9_TERM  T
           REFERENCE_C9_TERM  T
           LONG_RANGE_CORRECTION  F
           VERBOSE_OUTPUT  F
         &END PAIR_POTENTIAL
       &END VDW_POTENTIAL
     &END XC
   &END DFT
   &SUBSYS
     &CELL
       A     1.2852546426144828E+01    0.0000000000000000E+00    0.0000000000000000E+00
       B    -6.4502170642828291E+00    1.1172103675185657E+01    0.0000000000000000E+00
       C     0.0000000000000000E+00    0.0000000000000000E+00    2.9000000000000000E+01
       MULTIPLE_UNIT_CELL  1 1 1
       &CELL_REF
         A     1.2982353780853531E+01    0.0000000000000000E+00    0.0000000000000000E+00
         B    -6.4911768904267628E+00    1.1243048175136114E+01    0.0000000000000000E+00
         C     0.0000000000000000E+00    0.0000000000000000E+00    2.9000000000000000E+01
         MULTIPLE_UNIT_CELL  1 1 1
       &END CELL_REF
     &END CELL
     &COORD
Ga    1.3977625014978691E-03    3.4941584441139801E-04   -1.6636870473820159E-01
N   -4.5516112668285954E-03    1.8595305482022961E+00    6.1886375717037534E-01
Ga   -1.7996193648419200E-03    1.8607615920085905E+00    2.5525215150891745E+00
N    3.1849183296064881E-03    1.2727287545087134E-03    3.2368350058229569E+00
Ga    3.5241043577429704E-03    2.8116803248948050E-04    5.1976005625971728E+00
N   -1.7174478336914091E-03    1.8592420008757697E+00    5.8568198923434229E+00
Ga    1.3535432258529989E-03    1.8578144028507013E+00    7.8258933657246859E+00
N    1.0875865441122646E-02    9.8344571580296063E-04    8.4783597577905425E+00
Ga    7.8456158253523405E-03    4.9932221554249007E-03    1.0467753675513729E+01
N   -1.0076078103145602E-02    1.8678514386768825E+00    1.1052513761647392E+01
Ga   -2.4648682707601413E-02    1.8561964810410836E+00    1.3116346800040700E+01
N   -5.5637134881559814E-03   -2.3197359356371926E-04    1.3450640465373962E+01
Ga   -1.6114183386526144E+00    2.7928066373377494E+00   -1.6571299387578911E-01
N   -1.6173533400743145E+00    4.6528464893198196E+00    6.1750700385603530E-01
Ga   -1.6146680746231483E+00    4.6540290357167731E+00    2.5508672051087076E+00
N   -1.6088817345006867E+00    2.7950384272765003E+00    3.2373695253487407E+00
Ga   -1.6080304685922480E+00    2.7935374550442611E+00    5.1981212373727690E+00
N   -1.6140418182487795E+00    4.6531039945873482E+00    5.8568482495851288E+00
Ga   -1.6123771478254452E+00    4.6537164577125099E+00    7.8264911507998383E+00
N   -1.6062771907494213E+00    2.7940970112239927E+00    8.4705829525855911E+00
Ga   -1.6146481701207871E+00    2.8026209314199586E+00    1.0454912819446603E+01
N   -1.6141177018834887E+00    4.6559776966399875E+00    1.1050389672575280E+01
Ga   -1.6185637157878368E+00    4.6320087823432319E+00    1.3122086265988925E+01
N   -1.6129369252439003E+00    2.7930161107480473E+00    1.3546716494090436E+01
Ga   -3.2245045755550286E+00    5.5863782084752129E+00   -1.6639502746762835E-01
N   -3.2299820770643115E+00    7.4457409416718692E+00    6.1824670379821733E-01
Ga   -3.2271060422662501E+00    7.4469905717245597E+00    2.5516850790914734E+00
N   -3.2213829758095156E+00    5.5877487107038526E+00    3.2376921077300089E+00
Ga   -3.2212475598073107E+00    5.5865403741239295E+00    5.1986536900664113E+00
N   -3.2263805285741860E+00    7.4451734356494992E+00    5.8592919663318188E+00
Ga   -3.2240265947219515E+00    7.4453007322082581E+00    7.8297475807687107E+00
N   -3.2172512741923414E+00    5.5858855893628858E+00    8.4756658728859104E+00
Ga   -3.2213917880073737E+00    5.5914808594460199E+00    1.0463212496845275E+01
N   -3.2349146973386702E+00    7.4524736258231945E+00    1.1049579115453144E+01
Ga   -3.2489993592647148E+00    7.4417337547886238E+00    1.3108865372407154E+01
N   -3.2275432396901889E+00    5.5851939043683902E+00    1.3444053360798952E+01
Ga   -4.8366835910627204E+00    8.3795657981095211E+00   -1.6601221995611307E-01
N   -4.8424059452893253E+00    1.0238793200237811E+01    6.1907050253118634E-01
Ga   -4.8394390935808058E+00    1.0240068608765231E+01    2.5529188230971336E+00
N   -4.8337897366439098E+00    8.3803967572019555E+00    3.2372289997693158E+00
Ga   -4.8323803771463467E+00    8.3794819288235907E+00    5.1978465835900307E+00
N   -4.8390512126429961E+00    1.0238913770743725E+01    5.8541984723230307E+00
Ga   -4.8369992320169484E+00    1.0240302776058659E+01    7.8221736892397633E+00
N   -4.8315982014143701E+00    8.3825133726431194E+00    8.4725730897739737E+00
Ga   -4.8369742059467988E+00    8.3906649938605788E+00    1.0458361073168875E+01
N   -4.8367862768628598E+00    1.0241707466010054E+01    1.1068666604875302E+01
Ga   -4.8414803322454025E+00    1.0225471301474078E+01    1.3153543773556873E+01
N   -4.8396662549019833E+00    8.3783568069845842E+00    1.3534151177127979E+01
Ga    3.2143370588396198E+00    1.1538029720216503E-04   -1.6527165959951293E-01
N    3.2084658521502605E+00    1.8598611388514903E+00    6.1829586853125773E-01
Ga    3.2111920409301882E+00    1.8608331837636578E+00    2.5520235629196311E+00
N    3.2168713661021111E+00    1.7532535627054907E-03    3.2381175396524577E+00
Ga    3.2187150155013873E+00    4.3795297838722863E-04    5.1992353468360779E+00
N    3.2122413958381588E+00    1.8601929821156435E+00    5.8564955455320886E+00
Ga    3.2142181401866718E+00    1.8603563665920591E+00    7.8256491694824506E+00
N    3.2204613304550449E+00    3.6381462693911597E-04    8.4709440708479598E+00
Ga    3.2109287585397621E+00    5.0228506942991153E-03    1.0453881216973222E+01
N    3.2105597692152625E+00    1.8601866741518629E+00    1.1044364156548490E+01
Ga    3.2058752524115386E+00    1.8440527483290832E+00    1.3108049847730802E+01
N    3.2136451441413829E+00    6.9171046079648775E-03    1.3541360488499546E+01
Ga    1.6014929332039525E+00    2.7932194466625129E+00   -1.6621530584943234E-01
N    1.5958138306583816E+00    4.6526587262431471E+00    6.1793356593630600E-01
Ga    1.5986630176061949E+00    4.6534712923544710E+00    2.5514570860671810E+00
N    1.6041906364368372E+00    2.7944330573230425E+00    3.2369971238644615E+00
Ga    1.6043339690065515E+00    2.7926789249227477E+00    5.1978530992065588E+00
N    1.5991131466089483E+00    4.6526194847189046E+00    5.8558502862151407E+00
Ga    1.5997134932277715E+00    4.6509496733973252E+00    7.8245208707536316E+00
N    1.6078997017358472E+00    2.7933995084349053E+00    8.4733695971151040E+00
Ga    1.6039543306456261E+00    2.7985719442445784E+00    1.0458677470719612E+01
N    1.5953438438318863E+00    4.6569582429013749E+00    1.1051185072072576E+01
Ga    1.5852356844788269E+00    4.6423995583109585E+00    1.3113165602627486E+01
N    1.5993222268102558E+00    2.7898883674929009E+00    1.3457813307880620E+01
Ga   -1.0767746415117118E-02    5.5863425545390468E+00   -1.6701190871567678E-01
N   -1.6785512827123664E-02    7.4457270904260788E+00    6.1798132282266882E-01
Ga   -1.4221868273073252E-02    7.4472311615225770E+00    2.5515842504129855E+00
N   -8.5649516228629621E-03    5.5874403007016138E+00    3.2362338637942645E+00
Ga   -7.9371466590287629E-03    5.5861648291962762E+00    5.1966960961263426E+00
N   -1.3797970930453776E-02    7.4456604691376098E+00    5.8545206688724862E+00
Ga   -1.3502679572182447E-02    7.4452738457191527E+00    7.8227558206824295E+00
N   -4.4898606561611081E-03    5.5878370073735448E+00    8.4742350111887497E+00
Ga   -7.3153256518068742E-03    5.5979678573865455E+00    1.0461181794247674E+01
N   -1.0589877677199041E-02    7.4482225847510470E+00    1.1067807403997877E+01
Ga   -1.8640042618366395E-02    7.4350852050068887E+00    1.3153361557238016E+01
N   -1.1939875906155299E-02    5.5813867000524988E+00    1.3504386231330177E+01
Ga   -1.6235672771087668E+00    8.3795489103089107E+00   -1.6604152262300609E-01
N   -1.6291137105457163E+00    1.0238767624349121E+01    6.1913737159235371E-01
Ga   -1.6265717510673436E+00    1.0240237857200677E+01    2.5528229142363066E+00
N   -1.6214597908800137E+00    8.3805752457671918E+00    3.2372777932020460E+00
Ga   -1.6214050169938450E+00    8.3796083984903955E+00    5.1980648003363736E+00
N   -1.6251759413419566E+00    1.0237711899355890E+01    5.8593834387183339E+00
Ga   -1.6223608273724908E+00    1.0236130103200876E+01    7.8296257951430412E+00
N   -1.6153805593286896E+00    8.3768934055014057E+00    8.4797135367973784E+00
Ga   -1.6172293113030465E+00    8.3806713451326935E+00    1.0468005106901479E+01
N   -1.6332602893813233E+00    1.0244021642828093E+01    1.1050914697328313E+01
Ga   -1.6491660255978973E+00    1.0238221614985315E+01    1.3110612134475712E+01
N   -1.6291689137936287E+00    8.3828402058954641E+00    1.3454487917920172E+01
Ga    6.4272189034866400E+00    1.7946285081306561E-04   -1.6613521182929686E-01
N    6.4214085824552356E+00    1.8596872569370408E+00    6.1788851971091274E-01
Ga    6.4243219160131133E+00    1.8609038603761037E+00    2.5513242597348005E+00
N    6.4295660727104629E+00    2.0794605230311028E-03    3.2375508561232516E+00
Ga    6.4294217030692096E+00    9.2480949635666949E-04    5.1987415306988902E+00
N    6.4253164961724041E+00    1.8596036380182583E+00    5.8605966858335012E+00
Ga    6.4267268313185539E+00    1.8584449505311602E+00    7.8312644028731295E+00
N    6.4343399077812471E+00   -9.7412965036236193E-05    8.4789417239585099E+00
Ga    6.4319349077744663E+00    2.8974295564465746E-03    1.0466337137983016E+01
N    6.4191190522987158E+00    1.8629209545451562E+00    1.1054694765935901E+01
Ga    6.4114817003161333E+00    1.8513169194130812E+00    1.3120049773641107E+01
N    6.4279478800427841E+00   -3.4672737508414718E-03    1.3452262119364658E+01
Ga    4.8147205926824244E+00    2.7935795099445193E+00   -1.6639298902847335E-01
N    4.8089763694637124E+00    4.6525915037204557E+00    6.1900247046291135E-01
Ga    4.8120471103477174E+00    4.6540500238692077E+00    2.5524901918290634E+00
N    4.8176057847512492E+00    2.7944310287269851E+00    3.2371857064241567E+00
Ga    4.8189136156754611E+00    2.7923235340846100E+00    5.1981151426834229E+00
N    4.8126139867183451E+00    4.6530474854397932E+00    5.8541733970699257E+00
Ga    4.8144863834499150E+00    4.6514066523760116E+00    7.8221083509670786E+00
N    4.8202148099672470E+00    2.7955920434185915E+00    8.4756371654748683E+00
Ga    4.8154486969130676E+00    2.8035979609955644E+00    1.0461890392031130E+01
N    4.8115613614175325E+00    4.6602227999489356E+00    1.1058575519066540E+01
Ga    4.8025808286652465E+00    4.6534340483010084E+00    1.3139134124063675E+01
N    4.8124977291697455E+00    2.7980824003029929E+00    1.3485984932664676E+01
Ga    3.2024778155389217E+00    5.5862038755834318E+00   -1.6606158510756500E-01
N    3.1967198644392618E+00    7.4456996663904524E+00    6.1825859640168579E-01
Ga    3.1991914862104065E+00    7.4468500258958183E+00    2.5516651867054745E+00
N    3.2045483149055949E+00    5.5874039512970368E+00    3.2366248411052601E+00
Ga    3.2046491873241423E+00    5.5862149797881422E+00    5.1968735464860307E+00
N    3.2002908937112435E+00    7.4454787247856142E+00    5.8561175229022107E+00
Ga    3.2032408405532475E+00    7.4450532165637435E+00    7.8251277835151223E+00
N    3.2091383581450699E+00    5.5845904968479765E+00    8.4700015579452419E+00
Ga    3.2060849108024034E+00    5.5870274899025496E+00    1.0455422691050709E+01
N    3.1899836157128831E+00    7.4507236449626300E+00    1.1033664344956160E+01
Ga    3.1705520017430846E+00    7.4447663103458304E+00    1.3087324334280876E+01
N    3.1937373477558428E+00    5.5951924284550749E+00    1.3469091153086787E+01
Ga    1.5899714815248276E+00    8.3793899317420095E+00   -1.6573138544650098E-01
N    1.5838454939277804E+00    1.0239065701966791E+01    6.1855472509909193E-01
Ga    1.5866478173428633E+00    1.0240463043202883E+01    2.5524416515097101E+00
N    1.5921295188859352E+00    8.3806628235550757E+00    3.2366227748130094E+00
Ga    1.5928555311006352E+00    8.3799677668747190E+00    5.1971361182767772E+00
N    1.5869007525261181E+00    1.0239233402064690E+01    5.8542844202909059E+00
Ga    1.5872501332867883E+00    1.0241071785630709E+01    7.8223194418228879E+00
N    1.5947871234056625E+00    8.3801062356768607E+00    8.4667308452958832E+00
Ga    1.5862108246418407E+00    8.3878238017800566E+00    1.0448837395314218E+01
N    1.5924885371644724E+00    1.0237468555964524E+01    1.1054581328650379E+01
Ga    1.5864903079147221E+00    1.0218135349120887E+01    1.3128148508665431E+01
N    1.5874164687751577E+00    8.3799807465310838E+00    1.3549791091123597E+01
Ga    9.6401690284662092E+00    7.0044810434762494E-04   -1.6628694764916635E-01
N    9.6345872357541822E+00    1.8597707179271481E+00    6.1921799778214159E-01
Ga    9.6373078123610920E+00    1.8612693587771159E+00    2.5529736193905608E+00
N    9.6434400953273318E+00    1.6592372910957485E-03    3.2371543819051576E+00
Ga    9.6439714467408368E+00    6.7637667130829499E-04    5.1982525938463509E+00
N    9.6372677948379337E+00    1.8611196585200158E+00    5.8543799134052126E+00
Ga    9.6383741555212872E+00    1.8618072440638589E+00    7.8225224190739011E+00
N    9.6452412399015834E+00    3.3182494127966347E-03    8.4675990046844376E+00
Ga    9.6378718290975378E+00    9.8506889091537347E-03    1.0452052008637821E+01
N    9.6383651116939575E+00    1.8627200638916592E+00    1.1059651126472000E+01
Ga    9.6315900363767053E+00    1.8503061204330349E+00    1.3138877796000443E+01
N    9.6373554170473827E+00    3.6860998964830471E-03    1.3525008637959562E+01
Ga    8.0281107604056050E+00    2.7935153878015662E+00   -1.6550408688362950E-01
N    8.0223037360353402E+00    4.6526755080625497E+00    6.1959798499775554E-01
Ga    8.0249381899960390E+00    4.6538437440693183E+00    2.5530859972745081E+00
N    8.0297299850232164E+00    2.7945523963295842E+00    3.2376623666900040E+00
Ga    8.0293653819734345E+00    2.7937191860775514E+00    5.1983710668581375E+00
N    8.0256461949593216E+00    4.6526850846293515E+00    5.8583483172557704E+00
Ga    8.0284478342518977E+00    4.6516168996311507E+00    7.8277997403309030E+00
N    8.0347567148669210E+00    2.7940417499737813E+00    8.4780309545903219E+00
Ga    8.0318179056177872E+00    2.7976424187099931E+00    1.0465044468645816E+01
N    8.0136068252029276E+00    4.6592728903186353E+00    1.1044928933261099E+01
Ga    7.9994050287528644E+00    4.6517149138924969E+00    1.3104458324226979E+01
N    8.0242931846294869E+00    2.7984974384478516E+00    1.3463209401714167E+01
Ga    6.4156177564803922E+00    5.5859784739070051E+00   -1.6529895293123748E-01
N    6.4095339443116082E+00    7.4458165954971172E+00    6.1825364533256888E-01
Ga    6.4127836563741969E+00    7.4471265465603445E+00    2.5516634168939611E+00
N    6.4180414933814287E+00    5.5879604303009645E+00    3.2378279137667327E+00
Ga    6.4193602925346847E+00    5.5867065506747240E+00    5.1982664648793930E+00
N    6.4128508049685777E+00    7.4464683463588530E+00    5.8549101827667771E+00
Ga    6.4151021323204258E+00    7.4486828909880662E+00    7.8230982917169003E+00
N    6.4200326575467646E+00    5.5885161993420924E+00    8.4682936727445846E+00
Ga    6.4105950953990458E+00    5.5980982364384504E+00    1.0451438849321359E+01
N    6.4151961213367557E+00    7.4479110816018190E+00    1.1057705696534127E+01
Ga    6.4110676658989263E+00    7.4238697584934350E+00    1.3138571240917592E+01
N    6.4128603581708417E+00    5.5849799651271068E+00    1.3558224048047306E+01
Ga    4.8028187937336604E+00    8.3790998447612495E+00   -1.6711080321821931E-01
N    4.7969786804694285E+00    1.0238811353250535E+01    6.1698610800574194E-01
Ga    4.7998361781963395E+00    1.0240401621362890E+01    2.5503799999938406E+00
N    4.8054337349981466E+00    8.3809839795840677E+00    3.2361798616952782E+00
Ga    4.8056708325125870E+00    8.3802146820538574E+00    5.1968340540395159E+00
N    4.8007759362793303E+00    1.0238506687965549E+01    5.8584495825152905E+00
Ga    4.8038875057244308E+00    1.0239588836571142E+01    7.8288804634122391E+00
N    4.8101012039085589E+00    8.3793102237645165E+00    8.4736484832571310E+00
Ga    4.8085399847643240E+00    8.3839057611161234E+00    1.0461685755200190E+01
N    4.7918223176700590E+00    1.0246554381727774E+01    1.1041951019220928E+01
Ga    4.7767080249524998E+00    1.0236628111917391E+01    1.3102322694770422E+01
N    4.7971267360002727E+00    8.3780931452835841E+00    1.3423887155850460E+01
H    4.8013347505653350E+00    8.3790384585533157E+00   -1.7178800526114135E+00
H    1.5890136795919079E+00    8.3794844325207052E+00   -1.7164744917456931E+00
H   -1.6244464462515054E+00    8.3800986822585681E+00   -1.7167846341213571E+00
H   -4.8384580478049770E+00    8.3804568034193458E+00   -1.7167293504810635E+00
H    6.4139528510646127E+00    5.5859885548039205E+00   -1.7158641957766816E+00
H    3.2013910669675472E+00    5.5867210993310801E+00   -1.7167616407952364E+00
H   -1.1559450092895702E-02    5.5868918095824709E+00   -1.7177583045993969E+00
H   -3.2261589419392722E+00    5.5864223963544957E+00   -1.7170658532984282E+00
H    8.0273261692606166E+00    2.7939850763070972E+00   -1.7161945843470492E+00
H    4.8130014904630603E+00    2.7940776450031048E+00   -1.7171457023789323E+00
H    1.5998495036221658E+00    2.7931736198911148E+00   -1.7170185291455400E+00
H   -1.6124906280192064E+00    2.7922003571199334E+00   -1.7163606876699966E+00
H    6.6953124059135024E-04    9.6183102168619430E-04   -1.7171972763392362E+00
H    3.2127558030755923E+00    1.2134995515830537E-04   -1.7160154018238016E+00
H    6.4258118991760291E+00   -1.6706796682132904E-04   -1.7169632077477388E+00
H    9.6387383387498158E+00    9.9648883805358011E-04   -1.7170746683657470E+00
     &END COORD
     &KIND H
       BASIS_SET DZVP-MOLOPT-SR-GTH-q1
       POTENTIAL GTH-PBE-q1
       &POTENTIAL
1
0.2000000000000000E+00 2 -0.4178900440000000E+01  0.7244633100000000E+00
0
       &END POTENTIAL
     &END KIND
     &KIND N
       BASIS_SET DZVP-MOLOPT-SR-GTH
       POTENTIAL GTH-PBE-q5
       &POTENTIAL
2 3
0.2837905100000000E+00 2 -0.1241522559000000E+02  0.1868095920000000E+01
2
0.2554050000000000E+00 1  0.1363026257000000E+02
0.2454945300000000E+00 0
       &END POTENTIAL
     &END KIND
     &KIND Ga
       BASIS_SET DZVP-MOLOPT-SR-GTH
       POTENTIAL GTH-PBE-q13
       &POTENTIAL
2 1 10
0.4900000000000000E+00 0
3
0.4167772300000000E+00 3  0.1047568975000000E+02 -0.4921768140000000E+01  0.8707055900000000E+00
0.7770178090000000E+01 -0.2248152160000000E+01
0.1784415450000000E+01
0.5696265200000000E+00 2  0.1777985340000000E+01  0.1958597600000000E+00
-0.2317443900000000E+00
0.2381265000000000E+00 1 -0.1624868022000000E+02
       &END POTENTIAL
     &END KIND
     &TOPOLOGY
       NUMBER_OF_ATOMS  208
       MULTIPLE_UNIT_CELL  1 1 1
     &END TOPOLOGY
   &END SUBSYS
 &END FORCE_EVAL
