 # Version information for this restart file 
 # current date 2019-05-26 00:31:58.211
 # current working dir /lustre03/project/6004141/rzk/GaN-carbene/00-Surface/00-Preoptimization/443-capped/CELL_OPT
 # Program compiled at                              Sun Apr  7 00:48:11 EDT 2019
 # Program compiled on                          beluga2.int.ets1.calculquebec.ca
 # Program compiled for                        Beluga-Linux-x86-64-intel-openmpi
 # Source code revision number                                         svn:18619
 &GLOBAL
   PRINT_LEVEL  MEDIUM
   PROJECT_NAME TEST
   RUN_TYPE  CELL_OPT
 &END GLOBAL
 &MOTION
   &CELL_OPT
     MAX_ITER  300
     STEP_START_VAL  39
     EXTERNAL_PRESSURE     1.0000000000000000E+00
     KEEP_ANGLES  T
     KEEP_SYMMETRY  T
     CONSTRAINT  Z
     PRESSURE_TOLERANCE     5.0000000000000000E+02
   &END CELL_OPT
 &END MOTION
 &FORCE_EVAL
   METHOD  QS
   STRESS_TENSOR  ANALYTICAL
   &DFT
     BASIS_SET_FILE_NAME BASIS_MOLOPT
     POTENTIAL_FILE_NAME GTH_POTENTIALS
     SURFACE_DIPOLE_CORRECTION  T
     SURF_DIP_DIR  Z
     &SCF
       MAX_SCF  100
       EPS_SCF     5.0000000000000004E-06
       &OT  T
         PRECONDITIONER  FULL_ALL
       &END OT
       &OUTER_SCF  T
         OPTIMIZER  NONE
         EPS_SCF     5.0000000000000004E-06
         MAX_SCF  4
       &END OUTER_SCF
       &PRINT
         &RESTART  OFF
           BACKUP_COPIES  1
           &EACH
             JUST_ENERGY  0
             QS_SCF  0
             MD  20
           &END EACH
         &END RESTART
       &END PRINT
     &END SCF
     &QS
       EPS_DEFAULT     1.0000000000000000E-14
       METHOD  GPW
     &END QS
     &MGRID
       NGRIDS  5
       CUTOFF     1.2000000000000000E+03
     &END MGRID
     &XC
       DENSITY_CUTOFF     1.0000000000000000E-10
       GRADIENT_CUTOFF     1.0000000000000000E-10
       TAU_CUTOFF     1.0000000000000000E-10
       &XC_FUNCTIONAL  NO_SHORTCUT
         &PBE  T
         &END PBE
       &END XC_FUNCTIONAL
       &VDW_POTENTIAL
         POTENTIAL_TYPE  PAIR_POTENTIAL
         &PAIR_POTENTIAL
           R_CUTOFF     1.0000000000000004E+01
           TYPE  DFTD3
           PARAMETER_FILE_NAME dftd3.dat
           REFERENCE_FUNCTIONAL PBE
           EPS_CN     9.9999999999999995E-07
           CALCULATE_C9_TERM  T
           REFERENCE_C9_TERM  T
           LONG_RANGE_CORRECTION  F
           VERBOSE_OUTPUT  F
         &END PAIR_POTENTIAL
       &END VDW_POTENTIAL
     &END XC
   &END DFT
   &SUBSYS
     &CELL
       A     1.2848696833997682E+01    0.0000000000000000E+00    0.0000000000000000E+00
       B    -6.4489001278935509E+00    1.1169822674449071E+01    0.0000000000000000E+00
       C     0.0000000000000000E+00    0.0000000000000000E+00    2.9000000000000000E+01
       MULTIPLE_UNIT_CELL  1 1 1
       &CELL_REF
         A     1.2982353780853531E+01    0.0000000000000000E+00    0.0000000000000000E+00
         B    -6.4911768904267628E+00    1.1243048175136114E+01    0.0000000000000000E+00
         C     0.0000000000000000E+00    0.0000000000000000E+00    2.9000000000000000E+01
         MULTIPLE_UNIT_CELL  1 1 1
       &END CELL_REF
     &END CELL
     &COORD
Ga    1.4409056898238644E-03   -1.2282757470851141E-03   -1.7382653374496607E-01
N   -4.9072131438655572E-03    1.8584108800362273E+00    6.1202790289151277E-01
Ga    4.6170956542590790E-04    1.8613045900662746E+00    2.5465317363601154E+00
N    5.4562550798488638E-03    2.0050720372765773E-03    3.2349502682711631E+00
Ga    6.4845058186475671E-03    8.6194436450376204E-04    5.1955175839548460E+00
N    1.2679550531040659E-03    1.8592530320348011E+00    5.8574985992191735E+00
Ga    4.4561734431340736E-03    1.8607343750358636E+00    7.8261605313890428E+00
N    1.3431046612436137E-02    2.5465406202939689E-03    8.4794844471272093E+00
Ga    1.0784708192650431E-02    6.0155586776076053E-03    1.0468886676484345E+01
N   -7.1054860431845135E-03    1.8669158362169751E+00    1.1061617929408087E+01
Ga   -3.2404984586619265E-02    1.8530301252593488E+00    1.3130013783119164E+01
N   -1.2602251761054943E-02   -1.4324704223453663E-03    1.3470846783973670E+01
Ga   -1.6110809000644231E+00    2.7913670600355460E+00   -1.7394472008716175E-01
N   -1.6172992145501310E+00    4.6508369158759262E+00    6.1215873034335810E-01
Ga   -1.6124394945174201E+00    4.6537902720391164E+00    2.5469094918587420E+00
N   -1.6064570630065691E+00    2.7944276524390212E+00    3.2347974398443520E+00
Ga   -1.6053243973510969E+00    2.7922708455605787E+00    5.1953286337152988E+00
N   -1.6116139354726318E+00    4.6519857554509043E+00    5.8548817715247115E+00
Ga   -1.6092690347853225E+00    4.6526019763770687E+00    7.8234812186933276E+00
N   -1.6020489985637849E+00    2.7947786739975564E+00    8.4748219309412178E+00
Ga   -1.6095137380015836E+00    2.8021179889581722E+00    1.0460183853996995E+01
N   -1.6138825068969851E+00    4.6562851228359481E+00    1.1059617035758379E+01
Ga   -1.6265214870656892E+00    4.6366423475271095E+00    1.3134043301174279E+01
N   -1.6235216929198477E+00    2.7938122611310949E+00    1.3544348236598744E+01
Ga   -3.2231099785505894E+00    5.5838479994825150E+00   -1.7424725558547616E-01
N   -3.2293281189722989E+00    7.4431222696049657E+00    6.1222067794735402E-01
Ga   -3.2241869177927023E+00    7.4461677532551658E+00    2.5467038509173947E+00
N   -3.2191371240914641E+00    5.5873177858026679E+00    3.2353898856754211E+00
Ga   -3.2185293753778308E+00    5.5856764241493959E+00    5.1960823061849339E+00
N   -3.2233372128079529E+00    7.4449795958370055E+00    5.8585592314411077E+00
Ga   -3.2201461861845351E+00    7.4465914405273956E+00    7.8277169562115221E+00
N   -3.2133577578889363E+00    5.5871506791614056E+00    8.4751380643348622E+00
Ga   -3.2175466521485125E+00    5.5913490444007534E+00    1.0462889012449702E+01
N   -3.2331184486134190E+00    7.4510079348059461E+00    1.1055375719613902E+01
Ga   -3.2574553912178117E+00    7.4409616078680960E+00    1.3116052399285161E+01
N   -3.2360881247096356E+00    5.5855888924270731E+00    1.3463391831696899E+01
Ga   -4.8352643729309710E+00    8.3763793794331995E+00   -1.7370335423531263E-01
N   -4.8414770230538178E+00    1.0235703851181075E+01    6.1285094552404062E-01
Ga   -4.8361884673849014E+00    1.0238598558520321E+01    2.5474237324694227E+00
N   -4.8309649759501827E+00    8.3792518576682387E+00    3.2352127281146954E+00
Ga   -4.8295441616863792E+00    8.3778261742368425E+00    5.1955580238382995E+00
N   -4.8361392389414819E+00    1.0236789485799592E+01    5.8562335639362546E+00
Ga   -4.8323385537906045E+00    1.0239328721127086E+01    7.8242777168199265E+00
N   -4.8281278278963686E+00    8.3811642740406143E+00    8.4754024139925210E+00
Ga   -4.8342918354177042E+00    8.3882462697750899E+00    1.0460577385567918E+01
N   -4.8344741570369072E+00    1.0240386448443200E+01    1.1071056453016777E+01
Ga   -4.8535066908942284E+00    1.0217263657267655E+01    1.3155426262168927E+01
N   -4.8458868074204116E+00    8.3742562938944936E+00    1.3559029012264212E+01
Ga    3.2135652930112188E+00   -1.0316166613748489E-03   -1.7335966345506368E-01
N    3.2072361668650173E+00    1.8582159384941872E+00    6.1319538386830830E-01
Ga    3.2122487842969925E+00    1.8608236175351487E+00    2.5481331590904648E+00
N    3.2179448085293663E+00    1.6120807269633490E-03    3.2363316128536397E+00
Ga    3.2191760851289661E+00   -2.7214944926745073E-04    5.1970857222062659E+00
N    3.2127643084294215E+00    1.8592626686003186E+00    5.8558682624110237E+00
Ga    3.2159265354944333E+00    1.8605139045682733E+00    7.8239666955388039E+00
N    3.2235425138027849E+00    1.8010067923802391E-03    8.4757076718041269E+00
Ga    3.2141262390147478E+00    6.9427952657770131E-03    1.0460387224149704E+01
N    3.2140034762812415E+00    1.8632142635807998E+00    1.1056371936677253E+01
Ga    3.1959762171759465E+00    1.8442801081614610E+00    1.3128316143860300E+01
N    3.2009400728318496E+00    1.6178341988362895E-03    1.3538810669884644E+01
Ga    1.6015448693534655E+00    2.7911887793675114E+00   -1.7376380411904987E-01
N    1.5950925689463442E+00    4.6506821863679031E+00    6.1180439192669778E-01
Ga    1.6002702476825295E+00    4.6532569185295589E+00    2.5462109563324087E+00
N    1.6053816147273106E+00    2.7946423950195030E+00    3.2351430331665556E+00
Ga    1.6059921259973955E+00    2.7926264456055936E+00    5.1957403945705689E+00
N    1.6012501087428925E+00    4.6517101250412356E+00    5.8570164536876224E+00
Ga    1.6028194110237737E+00    4.6525341290101574E+00    7.8253372286116791E+00
N    1.6118316302282771E+00    2.7942047984995648E+00    8.4776402539095415E+00
Ga    1.6060434222044409E+00    2.7982549177487703E+00    1.0464806941205584E+01
N    1.5942615573118366E+00    4.6587998058789442E+00    1.1055086579709478E+01
Ga    1.5691448257648029E+00    4.6442060320798326E+00    1.3117841544910288E+01
N    1.5893649165258079E+00    2.7897013598099449E+00    1.3467301308920323E+01
Ga   -1.0983338114083065E-02    5.5838094655093782E+00   -1.7399644353912647E-01
N   -1.7234848289953079E-02    7.4432393839879332E+00    6.1232467563319970E-01
Ga   -1.2259407516804911E-02    7.4462548383759541E+00    2.5468147904271849E+00
N   -6.5054557720647813E-03    5.5867971766428344E+00    3.2344463995717052E+00
Ga   -5.5892055370537815E-03    5.5845794677509053E+00    5.1949885155998734E+00
N   -1.1337950178312437E-02    7.4444470907300824E+00    5.8557836880585912E+00
Ga   -8.7308093376392282E-03    7.4465735251847036E+00    7.8240545029081376E+00
N   -2.1253722706443328E-03    5.5879635477779717E+00    8.4736735976862718E+00
Ga   -1.1178894094174250E-02    5.5957942857547049E+00    1.0458670003358922E+01
N   -1.1389028845847287E-02    7.4450142204059899E+00    1.1071146770931289E+01
Ga   -2.8515290870684253E-02    7.4243964842525259E+00    1.3154830238974924E+01
N   -2.0736452428069842E-02    5.5783815019348095E+00    1.3544887191643110E+01
Ga   -1.6231560739225170E+00    8.3763045483331009E+00   -1.7388923840381720E-01
N   -1.6294722160219135E+00    1.0235614454365058E+01    6.1289702974473181E-01
Ga   -1.6243579448509098E+00    1.0238523494645237E+01    2.5474851114454902E+00
N   -1.6190252479154374E+00    8.3792000219828093E+00    3.2354447309902610E+00
Ga   -1.6183859754588772E+00    8.3777206512207147E+00    5.1958619630111320E+00
N   -1.6228259501142039E+00    1.0236097266126135E+01    5.8592136202389264E+00
Ga   -1.6192800845905033E+00    1.0237728702078181E+01    7.8283662410637715E+00
N   -1.6118964124413013E+00    8.3783572041833292E+00    8.4805573211371446E+00
Ga   -1.6166454364286968E+00    8.3805546192592502E+00    1.0469183340794688E+01
N   -1.6290281954710291E+00    1.0243180667152568E+01    1.1060593669346408E+01
Ga   -1.6547162705366949E+00    1.0231524553751468E+01    1.3124475620125283E+01
N   -1.6356798496685916E+00    8.3774448427818218E+00    1.3467439326119147E+01
Ga    6.4257989758279210E+00   -1.1256441957060682E-03   -1.7312939556918167E-01
N    6.4193916624477803E+00    1.8582786872031418E+00    6.1277698846780737E-01
Ga    6.4244626593538294E+00    1.8609962543279532E+00    2.5473925874414860E+00
N    6.4297697818238770E+00    1.9564318025139860E-03    3.2358439864368549E+00
Ga    6.4304256463066727E+00   -1.0465730295604205E-05    5.1963787610540111E+00
N    6.4261756340333740E+00    1.8591429192815332E+00    5.8584113277800727E+00
Ga    6.4301542440245729E+00    1.8597910577486463E+00    7.8280514658465146E+00
N    6.4372239917823109E+00    1.8923621381351119E-03    8.4803101713434774E+00
Ga    6.4341555664736472E+00    5.9773406314526925E-03    1.0468973308791504E+01
N    6.4183497810900114E+00    1.8659286560608033E+00    1.1054917672019778E+01
Ga    6.3953686318744349E+00    1.8512429288717969E+00    1.3118326996981022E+01
N    6.4142196800012190E+00   -1.3354188265388481E-03    1.3473745198266419E+01
Ga    4.8134573256406927E+00    2.7912364511124075E+00   -1.7332622265125580E-01
N    4.8070877421172300E+00    4.6506840818962401E+00    6.1241239022481864E-01
Ga    4.8120296787263674E+00    4.6535123666236684E+00    2.5468539292048780E+00
N    4.8178750915235593E+00    2.7944712234369549E+00    3.2353504253423164E+00
Ga    4.8190438144286967E+00    2.7919808842728693E+00    5.1960810191202453E+00
N    4.8127557566195858E+00    4.6526603635845465E+00    5.8544271913068728E+00
Ga    4.8165585965261037E+00    4.6537158459868291E+00    7.8222654283735764E+00
N    4.8222133547292589E+00    2.7960542469521776E+00    8.4726329514942833E+00
Ga    4.8157445043543134E+00    2.8023669804050355E+00    1.0457247504244631E+01
N    4.8126779901987504E+00    4.6574929666757194E+00    1.1060698048077587E+01
Ga    4.7970031702977742E+00    4.6378494940947892E+00    1.3140122260740130E+01
N    4.8022266688986122E+00    2.7901290548731974E+00    1.3529698172856111E+01
Ga    3.2013302173658853E+00    5.5837511062593395E+00   -1.7423491582916456E-01
N    3.1950468371828498E+00    7.4432797426540898E+00    6.1188542420358671E-01
Ga    3.2000333581024072E+00    7.4461280477064511E+00    2.5461518945439479E+00
N    3.2051999047756130E+00    5.5871487127003485E+00    3.2345553337901221E+00
Ga    3.2054203123346876E+00    5.5852186452512429E+00    5.1947798587990794E+00
N    3.2012436906183437E+00    7.4443691860863019E+00    5.8582207875002155E+00
Ga    3.2036284067594467E+00    7.4460658103334900E+00    7.8267403336838539E+00
N    3.2114763974864906E+00    5.5865335440165937E+00    8.4751000389294013E+00
Ga    3.2074883458114827E+00    5.5887866553920862E+00    1.0462194363849106E+01
N    3.1933627607247814E+00    7.4510614117491789E+00    1.1051396951475690E+01
Ga    3.1688357719883244E+00    7.4387444795817252E+00    1.3113465060579777E+01
N    3.1886221001741446E+00    5.5844145676869115E+00    1.3467280132083367E+01
Ga    1.5889550156696473E+00    8.3764815030867990E+00   -1.7379037920379417E-01
N    1.5827270325312881E+00    1.0235702744824778E+01    6.1332961570075639E-01
Ga    1.5877391221448012E+00    1.0238567615497184E+01    2.5480108743416707E+00
N    1.5933932322490574E+00    8.3790403085705307E+00    3.2352203027235502E+00
Ga    1.5941509593358247E+00    8.3774173602193009E+00    5.1954420154857566E+00
N    1.5885853867801389E+00    1.0236400440229053E+01    5.8561101788603773E+00
Ga    1.5911054693770306E+00    1.0238704051340951E+01    7.8242326431589664E+00
N    1.5984926372410757E+00    8.3800783836935135E+00    8.4761051965555048E+00
Ga    1.5892309736377985E+00    8.3869207886724837E+00    1.0461591607164248E+01
N    1.5915747124785073E+00    1.0238728022695348E+01    1.1068809636854159E+01
Ga    1.5731297105002426E+00    1.0218198622869394E+01    1.3151164662597397E+01
N    1.5768849721458233E+00    8.3743652714311470E+00    1.3547755689645811E+01
Ga    9.6376808077562224E+00   -1.0305269447490660E-03   -1.7328516367761559E-01
N    9.6315809655852220E+00    1.8583609335363018E+00    6.1290571228599378E-01
Ga    9.6365847119606851E+00    1.8610919738904839E+00    2.5476249195032938E+00
N    9.6423683416192283E+00    1.7375451567774216E-03    3.2357744719222064E+00
Ga    9.6434641845387556E+00    1.0708003135651244E-04    5.1965609578701413E+00
N    9.6372362384641654E+00    1.8597688725285069E+00    5.8552157685036494E+00
Ga    9.6406788601531836E+00    1.8616089718084461E+00    7.8232511503988329E+00
N    9.6468262031749141E+00    2.6171236474958662E-03    8.4736786450760686E+00
Ga    9.6382610441391989E+00    7.2401004828713950E-03    1.0458826030539480E+01
N    9.6384762232798913E+00    1.8605996487253598E+00    1.1064989354241936E+01
Ga    9.6211139500965182E+00    1.8435332276877998E+00    1.3143115615688194E+01
N    9.6273348745937462E+00   -6.7453763693277406E-05    1.3546416100214410E+01
Ga    8.0256031101549379E+00    2.7912602584681814E+00   -1.7346702253507523E-01
N    8.0194618867240077E+00    4.6508880217677415E+00    6.1221838865793354E-01
Ga    8.0246528196947775E+00    4.6536403858968507E+00    2.5466058381397447E+00
N    8.0296890549521969E+00    2.7946394334251412E+00    3.2348399914648631E+00
Ga    8.0306022851092251E+00    2.7928795227900234E+00    5.1950531905876201E+00
N    8.0247914415471904E+00    4.6518508135003636E+00    5.8565655289943805E+00
Ga    8.0276975835253310E+00    4.6523591464207463E+00    7.8250604324860653E+00
N    8.0375429178535462E+00    2.7950306295712064E+00    8.4788154612829416E+00
Ga    8.0324993506035867E+00    2.7982814880437097E+00    1.0466858497367680E+01
N    8.0179112676038784E+00    4.6583700160233708E+00    1.1057807414523346E+01
Ga    7.9911493771564928E+00    4.6465380629868083E+00    1.3123003342772670E+01
N    8.0125913957388928E+00    2.7926997324088516E+00    1.3466499525181904E+01
Ga    6.4133945124235421E+00    5.5838951917737685E+00   -1.7407815448304059E-01
N    6.4071023592212564E+00    7.4433197438076073E+00    6.1230036323458770E-01
Ga    6.4123290258002470E+00    7.4464533742470413E+00    2.5466613655232506E+00
N    6.4176274101952782E+00    5.5870579916396830E+00    3.2341142307964095E+00
Ga    6.4186732709061918E+00    5.5849267125819422E+00    5.1940892088506434E+00
N    6.4127648015726511E+00    7.4443783558890697E+00    5.8554161255906836E+00
Ga    6.4164407793547928E+00    7.4459403923175813E+00    7.8231062283779762E+00
N    6.4222453323884787E+00    5.5880157161268462E+00    8.4743030706145834E+00
Ga    6.4142952104309048E+00    5.5953881428636878E+00    1.0459179137795111E+01
N    6.4151463320351931E+00    7.4471633190606017E+00    1.1069332916315220E+01
Ga    6.3990187796154325E+00    7.4256166013619334E+00    1.3152591724507449E+01
N    6.4006106383036236E+00    5.5818099002164345E+00    1.3556837336806510E+01
Ga    4.8012526323964808E+00    8.3762948174909386E+00   -1.7438511123306288E-01
N    4.7949324916968052E+00    1.0235667888406919E+01    6.1187653761758198E-01
Ga    4.8000044045077805E+00    1.0238762742508797E+01    2.5462680952567349E+00
N    4.8052391482771686E+00    8.3795696481414303E+00    3.2352124466920218E+00
Ga    4.8061041606519206E+00    8.3781570031750991E+00    5.1956480564706702E+00
N    4.8017893257355420E+00    1.0236428623208502E+01    5.8595367771501126E+00
Ga    4.8050829077478436E+00    1.0239059562081797E+01    7.8291574506620503E+00
N    4.8122184128839534E+00    8.3779580143654293E+00    8.4782550932674638E+00
Ga    4.8097111874696656E+00    8.3809873895641704E+00    1.0467163460773914E+01
N    4.7953459106073204E+00    1.0243154683381359E+01    1.1050845133570540E+01
Ga    4.7673049912193468E+00    1.0233618847226932E+01    1.3111477150762173E+01
N    4.7883255366706292E+00    8.3772143462485413E+00    1.3458761012157519E+01
H    4.8013886982949181E+00    8.3793890791681438E+00   -1.7268457701348146E+00
H    1.5889251826928199E+00    8.3805441183639680E+00   -1.7263238470960749E+00
H   -1.6233899506605791E+00    8.3803804615713258E+00   -1.7264696163178757E+00
H   -4.8358598956983005E+00    8.3807617796351028E+00   -1.7262049918509332E+00
H    6.4133190543524092E+00    5.5870047805673115E+00   -1.7266369007884350E+00
H    3.2017329429598629E+00    5.5872409291757981E+00   -1.7267705310533668E+00
H   -1.1056981038291681E-02    5.5877842879049711E+00   -1.7265271548873096E+00
H   -3.2240951382542060E+00    5.5873984149996732E+00   -1.7268124779705847E+00
H    8.0261199036213267E+00    2.7955404268678006E+00   -1.7260698882926504E+00
H    4.8128252459373586E+00    2.7954713679389234E+00   -1.7259552472853850E+00
H    1.6011900893010220E+00    2.7944597257382529E+00   -1.7263610228315278E+00
H   -1.6113301197673695E+00    2.7941964140849511E+00   -1.7265764517468782E+00
H    2.4589047576829177E-03    2.7312666331668028E-03   -1.7263255705179732E+00
H    3.2132254332381880E+00    2.4895358721045329E-03   -1.7260138462740022E+00
H    6.4254423240186114E+00    2.0334932151175049E-03   -1.7257457025695624E+00
H    9.6367351711464497E+00    3.5506630167559464E-03   -1.7258357130812216E+00
     &END COORD
     &KIND H
       BASIS_SET DZVP-MOLOPT-SR-GTH-q1
       POTENTIAL GTH-PBE-q1
       &POTENTIAL
1
0.2000000000000000E+00 2 -0.4178900440000000E+01  0.7244633100000000E+00
0
       &END POTENTIAL
     &END KIND
     &KIND N
       BASIS_SET DZVP-MOLOPT-SR-GTH
       POTENTIAL GTH-PBE-q5
       &POTENTIAL
2 3
0.2837905100000000E+00 2 -0.1241522559000000E+02  0.1868095920000000E+01
2
0.2554050000000000E+00 1  0.1363026257000000E+02
0.2454945300000000E+00 0
       &END POTENTIAL
     &END KIND
     &KIND Ga
       BASIS_SET DZVP-MOLOPT-SR-GTH
       POTENTIAL GTH-PBE-q13
       &POTENTIAL
2 1 10
0.4900000000000000E+00 0
3
0.4167772300000000E+00 3  0.1047568975000000E+02 -0.4921768140000000E+01  0.8707055900000000E+00
0.7770178090000000E+01 -0.2248152160000000E+01
0.1784415450000000E+01
0.5696265200000000E+00 2  0.1777985340000000E+01  0.1958597600000000E+00
-0.2317443900000000E+00
0.2381265000000000E+00 1 -0.1624868022000000E+02
       &END POTENTIAL
     &END KIND
     &TOPOLOGY
       NUMBER_OF_ATOMS  208
       MULTIPLE_UNIT_CELL  1 1 1
     &END TOPOLOGY
   &END SUBSYS
 &END FORCE_EVAL
