 # Version information for this restart file 
 # current date 2019-05-26 00:39:01.776
 # current working dir /lustre03/project/6004141/rzk/GaN-carbene/00-Surface/00-Preoptimization/443-capped/CELL_OPT
 # Program compiled at                              Sun Apr  7 00:48:11 EDT 2019
 # Program compiled on                          beluga2.int.ets1.calculquebec.ca
 # Program compiled for                        Beluga-Linux-x86-64-intel-openmpi
 # Source code revision number                                         svn:18619
 &GLOBAL
   PRINT_LEVEL  MEDIUM
   PROJECT_NAME TEST
   RUN_TYPE  CELL_OPT
 &END GLOBAL
 &MOTION
   &CELL_OPT
     MAX_ITER  300
     STEP_START_VAL  42
     EXTERNAL_PRESSURE     1.0000000000000000E+00
     KEEP_ANGLES  T
     KEEP_SYMMETRY  T
     CONSTRAINT  Z
     PRESSURE_TOLERANCE     5.0000000000000000E+02
   &END CELL_OPT
 &END MOTION
 &FORCE_EVAL
   METHOD  QS
   STRESS_TENSOR  ANALYTICAL
   &DFT
     BASIS_SET_FILE_NAME BASIS_MOLOPT
     POTENTIAL_FILE_NAME GTH_POTENTIALS
     SURFACE_DIPOLE_CORRECTION  T
     SURF_DIP_DIR  Z
     &SCF
       MAX_SCF  100
       EPS_SCF     5.0000000000000004E-06
       &OT  T
         PRECONDITIONER  FULL_ALL
       &END OT
       &OUTER_SCF  T
         OPTIMIZER  NONE
         EPS_SCF     5.0000000000000004E-06
         MAX_SCF  4
       &END OUTER_SCF
       &PRINT
         &RESTART  OFF
           BACKUP_COPIES  1
           &EACH
             JUST_ENERGY  0
             QS_SCF  0
             MD  20
           &END EACH
         &END RESTART
       &END PRINT
     &END SCF
     &QS
       EPS_DEFAULT     1.0000000000000000E-14
       METHOD  GPW
     &END QS
     &MGRID
       NGRIDS  5
       CUTOFF     1.2000000000000000E+03
     &END MGRID
     &XC
       DENSITY_CUTOFF     1.0000000000000000E-10
       GRADIENT_CUTOFF     1.0000000000000000E-10
       TAU_CUTOFF     1.0000000000000000E-10
       &XC_FUNCTIONAL  NO_SHORTCUT
         &PBE  T
         &END PBE
       &END XC_FUNCTIONAL
       &VDW_POTENTIAL
         POTENTIAL_TYPE  PAIR_POTENTIAL
         &PAIR_POTENTIAL
           R_CUTOFF     1.0000000000000004E+01
           TYPE  DFTD3
           PARAMETER_FILE_NAME dftd3.dat
           REFERENCE_FUNCTIONAL PBE
           EPS_CN     9.9999999999999995E-07
           CALCULATE_C9_TERM  T
           REFERENCE_C9_TERM  T
           LONG_RANGE_CORRECTION  F
           VERBOSE_OUTPUT  F
         &END PAIR_POTENTIAL
       &END VDW_POTENTIAL
     &END XC
   &END DFT
   &SUBSYS
     &CELL
       A     1.2841455193727180E+01    0.0000000000000000E+00    0.0000000000000000E+00
       B    -6.4466608228757725E+00    1.1165944084384639E+01    0.0000000000000000E+00
       C     0.0000000000000000E+00    0.0000000000000000E+00    2.9000000000000000E+01
       MULTIPLE_UNIT_CELL  1 1 1
       &CELL_REF
         A     1.2982353780853531E+01    0.0000000000000000E+00    0.0000000000000000E+00
         B    -6.4911768904267628E+00    1.1243048175136114E+01    0.0000000000000000E+00
         C     0.0000000000000000E+00    0.0000000000000000E+00    2.9000000000000000E+01
         MULTIPLE_UNIT_CELL  1 1 1
       &END CELL_REF
     &END CELL
     &COORD
Ga    1.4065847784454132E-03   -1.2607515592041351E-03   -1.7440270599417654E-01
N   -4.8836052489959793E-03    1.8576600300100339E+00    6.1128441378476672E-01
Ga    1.0047267457514032E-04    1.8606045386608290E+00    2.5463956448755884E+00
N    5.9044404187828447E-03    2.1865250109890655E-03    3.2344824304463340E+00
Ga    6.6728545319514809E-03    9.4109091674195113E-04    5.1959883993267857E+00
N    1.3280921159615688E-03    1.8583266589016698E+00    5.8573573843576154E+00
Ga    4.4416635088517413E-03    1.8605692269254601E+00    7.8276905145865356E+00
N    1.3356230399757972E-02    2.3038370346421507E-03    8.4805857037125794E+00
Ga    1.1526825792058441E-02    5.7944884955839380E-03    1.0470123585553191E+01
N   -6.3657707819782727E-03    1.8665239904575823E+00    1.1063163528398253E+01
Ga   -3.4942166217708626E-02    1.8516138675157772E+00    1.3131937498689380E+01
N   -1.3482827511575155E-02   -1.1040508365995115E-03    1.3471252311082333E+01
Ga   -1.6106822725266119E+00    2.7902666418687057E+00   -1.7454439621250084E-01
N   -1.6166814729538390E+00    4.6491179112543382E+00    6.1157960092432584E-01
Ga   -1.6119720468431491E+00    4.6519041871948135E+00    2.5469069322755122E+00
N   -1.6055139445735411E+00    2.7935379828413560E+00    3.2344357747576695E+00
Ga   -1.6044120522734757E+00    2.7912310050472522E+00    5.1958238738704443E+00
N   -1.6109881154120682E+00    4.6505163311775828E+00    5.8544964393102994E+00
Ga   -1.6089746654611532E+00    4.6509922127228913E+00    7.8233097984784230E+00
N   -1.6008634907190313E+00    2.7951342024834931E+00    8.4752619693038351E+00
Ga   -1.6092023035382987E+00    2.8004956780252246E+00    1.0460722000248490E+01
N   -1.6130412555286162E+00    4.6533889143741334E+00    1.1059113397721056E+01
Ga   -1.6287770046010817E+00    4.6353887706279320E+00    1.3134686278405940E+01
N   -1.6242035890860658E+00    2.7935525972227326E+00    1.3540837088936707E+01
Ga   -3.2221946896722926E+00    5.5818634835500642E+00   -1.7481714307540419E-01
N   -3.2281159358465583E+00    7.4405566707607971E+00    6.1161475122766440E-01
Ga   -3.2232742236421705E+00    7.4433358176423656E+00    2.5463630681124472E+00
N   -3.2177198986192623E+00    5.5854996631230440E+00    3.2348706838556698E+00
Ga   -3.2173057592861656E+00    5.5837652088938192E+00    5.1964172010995391E+00
N   -3.2217524625890257E+00    7.4424607510376619E+00    5.8579786350490402E+00
Ga   -3.2195245085196462E+00    7.4438311807582362E+00    7.8281153333286886E+00
N   -3.2114782933594186E+00    5.5859793251212135E+00    8.4752025029086706E+00
Ga   -3.2158689045007103E+00    5.5904179520114976E+00    1.0462683430903921E+01
N   -3.2313514316070067E+00    7.4476554845794798E+00    1.1053979590089126E+01
Ga   -3.2568876086565703E+00    7.4380221858458082E+00    1.3117392807408150E+01
N   -3.2349945167967569E+00    5.5839303385642980E+00    1.3465893835958614E+01
Ga   -4.8336967132869368E+00    8.3734136405213846E+00   -1.7427460071938816E-01
N   -4.8396725222124317E+00    1.0232074647844129E+01    6.1217386370370130E-01
Ga   -4.8347409622952533E+00    1.0235108029392363E+01    2.5472070319201334E+00
N   -4.8288887834373799E+00    8.3765292520414150E+00    3.2347641162046066E+00
Ga   -4.8277855290923837E+00    8.3749705209887129E+00    5.1962222741121034E+00
N   -4.8345219483432729E+00    1.0233246126796429E+01    5.8558948961580022E+00
Ga   -4.8315697225370835E+00    1.0236033747846925E+01    7.8251325765112911E+00
N   -4.8255982919873892E+00    8.3780691365365438E+00    8.4752272880423085E+00
Ga   -4.8332033672668642E+00    8.3858256813566996E+00    1.0461026456647234E+01
N   -4.8324212682739081E+00    1.0235157060484379E+01    1.1071120936949571E+01
Ga   -4.8538856153782666E+00    1.0212644222162544E+01    1.3155206768505190E+01
N   -4.8448259463459378E+00    8.3705151900361088E+00    1.3558313704198403E+01
Ga    3.2116519790280260E+00   -1.2108589285053431E-03   -1.7398988507729332E-01
N    3.2055330479589310E+00    1.8574296503732319E+00    6.1255994457490293E-01
Ga    3.2103861830346379E+00    1.8602074847914087E+00    2.5480017858505222E+00
N    3.2166541545512555E+00    1.5475939518221201E-03    3.2359713204547544E+00
Ga    3.2175780281728161E+00    2.8840822699288128E-05    5.1976384116046495E+00
N    3.2111454406357844E+00    1.8583024055036979E+00    5.8552534392431488E+00
Ga    3.2135482911972129E+00    1.8604150399467629E+00    7.8246176804087373E+00
N    3.2218129472244672E+00    1.8317446492207249E-03    8.4760683378274280E+00
Ga    3.2134428588635013E+00    7.3077476284176711E-03    1.0461729158660573E+01
N    3.2130612660249391E+00    1.8632447690649130E+00    1.1056978564534793E+01
Ga    3.1926015360618814E+00    1.8422194330891157E+00    1.3129027807057559E+01
N    3.1980848269525488E+00    1.5662296279510162E-03    1.3536289120468107E+01
Ga    1.6001149912162596E+00    2.7900425069785322E+00   -1.7431458721053855E-01
N    1.5939479166751569E+00    4.6490657534156288E+00    6.1114313466914538E-01
Ga    1.5988161079645618E+00    4.6516829462156313E+00    2.5461907654899858E+00
N    1.6044262575875807E+00    2.7936659998952509E+00    3.2345842171038366E+00
Ga    1.6051411975107692E+00    2.7917425618024176E+00    5.1961477075346503E+00
N    1.5996931314248177E+00    4.6501420796910038E+00    5.8562616582541587E+00
Ga    1.6032510654689884E+00    4.6505807635279011E+00    7.8261400961593699E+00
N    1.6111590303505834E+00    2.7940712190521113E+00    8.4778536397667477E+00
Ga    1.6060918294235849E+00    2.7973895820933588E+00    1.0465750247404978E+01
N    1.5908188696865397E+00    4.6589639617956040E+00    1.1054811547600119E+01
Ga    1.5668328829427298E+00    4.6416967120733332E+00    1.3119065129090677E+01
N    1.5879633576416770E+00    2.7895015387002693E+00    1.3466543815521554E+01
Ga   -1.1850957638087261E-02    5.5818792901296224E+00   -1.7444163609089927E-01
N   -1.7783420635911519E-02    7.4406788247692059E+00    6.1174757357673670E-01
Ga   -1.2941152078489712E-02    7.4434016385154465E+00    2.5464529498721724E+00
N   -6.9480645733886511E-03    5.5851909746121970E+00    3.2341963934142006E+00
Ga   -5.7427950736522251E-03    5.5825534734894795E+00    5.1955020374571967E+00
N   -1.2262047409018467E-02    7.4419408790621873E+00    5.8555819733929031E+00
Ga   -9.1538920726736139E-03    7.4436918007108188E+00    7.8245700279664394E+00
N   -3.9069230891279937E-03    5.5868104368615370E+00    8.4733095056669665E+00
Ga   -1.1116536835911055E-02    5.5926382989635375E+00    1.0458455819578303E+01
N   -1.2252504357470856E-02    7.4419416126409956E+00    1.1070353830330282E+01
Ga   -3.0753204719139240E-02    7.4200395365089591E+00    1.3153991916952531E+01
N   -2.3464597099820232E-02    5.5772867460588760E+00    1.3546205525928787E+01
Ga   -1.6234533886708327E+00    8.3734040236409069E+00   -1.7459331289207181E-01
N   -1.6295272315713469E+00    1.0231976520800227E+01    6.1224024526497289E-01
Ga   -1.6246683543415097E+00    1.0234914857263375E+01    2.5469000986789356E+00
N   -1.6187211872004252E+00    8.3765714220159548E+00    3.2350333403925511E+00
Ga   -1.6181547168777530E+00    8.3749280777956141E+00    5.1963426990340178E+00
N   -1.6225207566055946E+00    1.0232393438809392E+01    5.8592198679509835E+00
Ga   -1.6197875755165683E+00    1.0234480759205621E+01    7.8295598994418008E+00
N   -1.6113233446621456E+00    8.3760658587174621E+00    8.4810430557419956E+00
Ga   -1.6156266347458317E+00    8.3785173187947137E+00    1.0471335371242240E+01
N   -1.6297595350631546E+00    1.0240329611496726E+01    1.1059850441217792E+01
Ga   -1.6562529986930548E+00    1.0228113864647009E+01    1.3125973160801978E+01
N   -1.6368461644361467E+00    8.3747257285232859E+00    1.3468115684492171E+01
Ga    6.4219237380534011E+00   -1.3361130278256583E-03   -1.7372671495811687E-01
N    6.4159419370262540E+00    1.8575656734654074E+00    6.1213633385162813E-01
Ga    6.4208040566067091E+00    1.8605093096486254E+00    2.5472239050444121E+00
N    6.4264050004774855E+00    1.8694162833166386E-03    3.2354757371115754E+00
Ga    6.4273424254884155E+00    4.4582650122277913E-04    5.1967633488936817E+00
N    6.4228763301028842E+00    1.8579260627818555E+00    5.8576395410027668E+00
Ga    6.4259712796987323E+00    1.8604602958456384E+00    7.8273397515034082E+00
N    6.4341704189023456E+00    2.4051591968566382E-03    8.4806146467979620E+00
Ga    6.4319133700083286E+00    5.5626897144454056E-03    1.0469648234560852E+01
N    6.4150853013218390E+00    1.8648754593814629E+00    1.1054774735192222E+01
Ga    6.3895181980531532E+00    1.8501414129870761E+00    1.3118865561943919E+01
N    6.4101171230401928E+00   -5.9446546744115064E-04    1.3475460589948137E+01
Ga    4.8102034786604246E+00    2.7901235158973043E+00   -1.7375358378621464E-01
N    4.8042283710025906E+00    4.6491425988139667E+00    6.1161294747732520E-01
Ga    4.8089834261559137E+00    4.6518558886461046E+00    2.5467039300153598E+00
N    4.8151574043788683E+00    2.7935912494391077E+00    3.2351400184002719E+00
Ga    4.8161929012269127E+00    2.7913676900727702E+00    5.1968978821443113E+00
N    4.8097879136055255E+00    4.6508277774867119E+00    5.8539533425171957E+00
Ga    4.8125342776847226E+00    4.6524968954964727E+00    7.8230057177545342E+00
N    4.8207847034806788E+00    2.7946216988053902E+00    8.4711803930605623E+00
Ga    4.8115755308764410E+00    2.8021309784719310E+00    1.0455063960085115E+01
N    4.8119874398241418E+00    4.6530178895361258E+00    1.1061466049375655E+01
Ga    4.7923483486258363E+00    4.6335865922677062E+00    1.3139781117457055E+01
N    4.7978548400482612E+00    2.7890451714550828E+00    1.3532082793326012E+01
Ga    3.1986573240639498E+00    5.5817605908526096E+00   -1.7483466158570737E-01
N    3.1925690440423242E+00    7.4406540479180769E+00    6.1119386879515480E-01
Ga    3.1975956171262463E+00    7.4434836805134141E+00    2.5459802361664137E+00
N    3.2030908162816605E+00    5.5854350866694489E+00    3.2338965128634762E+00
Ga    3.2035503752289864E+00    5.5836538748805209E+00    5.1955321670921535E+00
N    3.1986923090942527E+00    7.4420317680631323E+00    5.8575842040734969E+00
Ga    3.2017320235727946E+00    7.4428551204886881E+00    7.8279776026039078E+00
N    3.2090608069200299E+00    5.5846709244569395E+00    8.4761557630305671E+00
Ga    3.2047817560886558E+00    5.5880840065213180E+00    1.0464616630361254E+01
N    3.1916588264537959E+00    7.4477737798838524E+00    1.1052689836405291E+01
Ga    3.1640328857394397E+00    7.4356831588071142E+00    1.3116110726370541E+01
N    3.1861180709381332E+00    5.5820770934356583E+00    1.3465341061823489E+01
Ga    1.5867678417954898E+00    8.3735477975747177E+00   -1.7448076664150183E-01
N    1.5809249993888117E+00    1.0232018125209565E+01    6.1272572609490072E-01
Ga    1.5858545337764467E+00    1.0235007965856569E+01    2.5476356379850924E+00
N    1.5917335196466771E+00    8.3762827255172301E+00    3.2348672878068210E+00
Ga    1.5931650951315204E+00    8.3742479864706922E+00    5.1962896552275817E+00
N    1.5863720418020979E+00    1.0232866048627598E+01    5.8559030103726011E+00
Ga    1.5897064599998032E+00    1.0234713057284603E+01    7.8249596404154751E+00
N    1.5952176672981193E+00    8.3776266097020677E+00    8.4768512417602260E+00
Ga    1.5876060424550442E+00    8.3845718738909198E+00    1.0463746523082104E+01
N    1.5877717771915938E+00    1.0234043023390278E+01    1.1068902761528509E+01
Ga    1.5697224721965548E+00    1.0215181972710814E+01    1.3152373972365808E+01
N    1.5755524603171476E+00    8.3710626109363595E+00    1.3544393081900363E+01
Ga    9.6319866700836574E+00   -1.1005750160788010E-03   -1.7382220302487580E-01
N    9.6262887221914433E+00    1.8576586112648059E+00    6.1215149761650189E-01
Ga    9.6311920741686681E+00    1.8604887820218281E+00    2.5474223124295454E+00
N    9.6371708478706832E+00    1.8303109129178821E-03    3.2354679438351885E+00
Ga    9.6388354442415007E+00    1.9954494078267175E-04    5.1971371679076004E+00
N    9.6318175174132961E+00    1.8589040590185701E+00    5.8552769815213832E+00
Ga    9.6350661445341874E+00    1.8606817230569548E+00    7.8244552143770925E+00
N    9.6409793074504737E+00    2.8312182140456223E-03    8.4738956179828069E+00
Ga    9.6342417549877286E+00    8.5691056335224190E-03    1.0459366622692448E+01
N    9.6329707728324401E+00    1.8573936520610506E+00    1.1064666109481948E+01
Ga    9.6143365868824784E+00    1.8416471069361688E+00    1.3143873639253206E+01
N    9.6208874127357387E+00   -4.0155121445823474E-04    1.3546253477331650E+01
Ga    8.0205790886671160E+00    2.7902352555628021E+00   -1.7411375952693159E-01
N    8.0146231410195181E+00    4.6492254309622778E+00    6.1136072498711780E-01
Ga    8.0196246761632715E+00    4.6519991841134667E+00    2.5462566005528213E+00
N    8.0252464276279003E+00    2.7938332022460339E+00    3.2342362225259507E+00
Ga    8.0260799471417350E+00    2.7919387322981839E+00    5.1954525578887978E+00
N    8.0202003371569166E+00    4.6501303470379565E+00    5.8565627937952192E+00
Ga    8.0230619114822463E+00    4.6511200375171518E+00    7.8262491599282251E+00
N    8.0327435618861855E+00    2.7943127974819193E+00    8.4790608454127963E+00
Ga    8.0304825891557332E+00    2.7983131062589277E+00    1.0468151354101936E+01
N    8.0131768887495110E+00    4.6574261955813894E+00    1.1058184919541384E+01
Ga    7.9853418703315935E+00    4.6446140561274296E+00    1.3124989726587952E+01
N    8.0075473438337781E+00    2.7920412083140533E+00    1.3465981365018870E+01
Ga    6.4089179234091649E+00    5.5818563786676085E+00   -1.7471820620105716E-01
N    6.4029251544764723E+00    7.4406428685398911E+00    6.1158694000412461E-01
Ga    6.4077099083158915E+00    7.4436804047732972E+00    2.5465316191535954E+00
N    6.4137613838300123E+00    5.5852615616123265E+00    3.2336049638723492E+00
Ga    6.4145809768730357E+00    5.5829868534059575E+00    5.1947438584756274E+00
N    6.4085414943823658E+00    7.4418287094514914E+00    5.8545805402210558E+00
Ga    6.4115058543965668E+00    7.4433774961505597E+00    7.8233864630615981E+00
N    6.4179473814277062E+00    5.5865146773522429E+00    8.4751365616897658E+00
Ga    6.4105455404193483E+00    5.5922630381260410E+00    1.0461264125746997E+01
N    6.4110576788602893E+00    7.4459512760530480E+00    1.1069445059599563E+01
Ga    6.3928400769419715E+00    7.4228131679248888E+00    1.3153012190812797E+01
N    6.3952749342256343E+00    5.5810299289899756E+00    1.3552009629483898E+01
Ga    4.7973465144718812E+00    8.3732678583628548E+00   -1.7483235453484533E-01
N    4.7912736606374784E+00    1.0232068643902071E+01    6.1143776158517438E-01
Ga    4.7961808611540393E+00    1.0235106452357087E+01    2.5465258767107715E+00
N    4.8018018470351356E+00    8.3767453007194490E+00    3.2346754387895742E+00
Ga    4.8024837149345263E+00    8.3752746511082723E+00    5.1963063178732671E+00
N    4.7979247755359244E+00    1.0232966902175541E+01    5.8584685184718328E+00
Ga    4.8019826988173531E+00    1.0235060766879199E+01    7.8289641017892810E+00
N    4.8095335856745116E+00    8.3757799282209664E+00    8.4776796138488741E+00
Ga    4.8074092396832837E+00    8.3788151003426012E+00    1.0466536361582056E+01
N    4.7916149997366055E+00    1.0239615092821969E+01    1.1050738079740773E+01
Ga    4.7623919996724435E+00    1.0229331073247431E+01    1.3113443628161681E+01
N    4.7832978508625912E+00    8.3751243445414687E+00    1.3461540819325515E+01
H    4.7977781166926237E+00    8.3766564615617760E+00   -1.7271838803764039E+00
H    1.5870391742728236E+00    8.3778731264020347E+00   -1.7268015131544721E+00
H   -1.6234445707112666E+00    8.3776355329500234E+00   -1.7269070816945062E+00
H   -4.8340256951271030E+00    8.3779892336944179E+00   -1.7266255820050107E+00
H    6.4091334795248773E+00    5.5852429244681785E+00   -1.7271727201919094E+00
H    3.1993528992633036E+00    5.5854650974961162E+00   -1.7272574939406433E+00
H   -1.1688737497020011E-02    5.5860177019255222E+00   -1.7268592281974744E+00
H   -3.2228483747990766E+00    5.5856450793413170E+00   -1.7272303163536544E+00
H    8.0213253699911409E+00    2.7947021331367559E+00   -1.7265885426268306E+00
H    4.8099026161322032E+00    2.7946143700277073E+00   -1.7262057865525560E+00
H    1.6001284639815490E+00    2.7936458693430630E+00   -1.7267708080089552E+00
H   -1.6107308374915528E+00    2.7934539192866783E+00   -1.7270664999969045E+00
H    2.5796901612262536E-03    2.8546217281668804E-03   -1.7268041007171635E+00
H    3.2115492587224206E+00    2.6661259070609737E-03   -1.7264289772342789E+00
H    6.4219498730483329E+00    2.2031597304181679E-03   -1.7260739820864028E+00
H    9.6313575902605635E+00    3.7263229650889248E-03   -1.7261968673018127E+00
     &END COORD
     &KIND H
       BASIS_SET DZVP-MOLOPT-SR-GTH-q1
       POTENTIAL GTH-PBE-q1
       &POTENTIAL
1
0.2000000000000000E+00 2 -0.4178900440000000E+01  0.7244633100000000E+00
0
       &END POTENTIAL
     &END KIND
     &KIND N
       BASIS_SET DZVP-MOLOPT-SR-GTH
       POTENTIAL GTH-PBE-q5
       &POTENTIAL
2 3
0.2837905100000000E+00 2 -0.1241522559000000E+02  0.1868095920000000E+01
2
0.2554050000000000E+00 1  0.1363026257000000E+02
0.2454945300000000E+00 0
       &END POTENTIAL
     &END KIND
     &KIND Ga
       BASIS_SET DZVP-MOLOPT-SR-GTH
       POTENTIAL GTH-PBE-q13
       &POTENTIAL
2 1 10
0.4900000000000000E+00 0
3
0.4167772300000000E+00 3  0.1047568975000000E+02 -0.4921768140000000E+01  0.8707055900000000E+00
0.7770178090000000E+01 -0.2248152160000000E+01
0.1784415450000000E+01
0.5696265200000000E+00 2  0.1777985340000000E+01  0.1958597600000000E+00
-0.2317443900000000E+00
0.2381265000000000E+00 1 -0.1624868022000000E+02
       &END POTENTIAL
     &END KIND
     &TOPOLOGY
       NUMBER_OF_ATOMS  208
       MULTIPLE_UNIT_CELL  1 1 1
     &END TOPOLOGY
   &END SUBSYS
 &END FORCE_EVAL
