 # Version information for this restart file 
 # current date 2019-05-25 22:36:40.607
 # current working dir /lustre03/project/6004141/rzk/GaN-carbene/00-Surface/00-Preoptimization/443-capped/CELL_OPT
 # Program compiled at                              Sun Apr  7 00:48:11 EDT 2019
 # Program compiled on                          beluga2.int.ets1.calculquebec.ca
 # Program compiled for                        Beluga-Linux-x86-64-intel-openmpi
 # Source code revision number                                         svn:18619
 &GLOBAL
   PRINT_LEVEL  MEDIUM
   PROJECT_NAME TEST
   RUN_TYPE  CELL_OPT
 &END GLOBAL
 &MOTION
   &CELL_OPT
     MAX_ITER  300
     STEP_START_VAL  18
     EXTERNAL_PRESSURE     1.0000000000000000E+00
     KEEP_ANGLES  T
     KEEP_SYMMETRY  T
     CONSTRAINT  Z
     PRESSURE_TOLERANCE     5.0000000000000000E+02
   &END CELL_OPT
 &END MOTION
 &FORCE_EVAL
   METHOD  QS
   STRESS_TENSOR  ANALYTICAL
   &DFT
     BASIS_SET_FILE_NAME BASIS_MOLOPT
     POTENTIAL_FILE_NAME GTH_POTENTIALS
     SURFACE_DIPOLE_CORRECTION  T
     SURF_DIP_DIR  Z
     &SCF
       MAX_SCF  100
       EPS_SCF     5.0000000000000004E-06
       &OT  T
         PRECONDITIONER  FULL_ALL
       &END OT
       &OUTER_SCF  T
         OPTIMIZER  NONE
         EPS_SCF     5.0000000000000004E-06
         MAX_SCF  4
       &END OUTER_SCF
       &PRINT
         &RESTART  OFF
           BACKUP_COPIES  1
           &EACH
             JUST_ENERGY  0
             QS_SCF  0
             MD  20
           &END EACH
         &END RESTART
       &END PRINT
     &END SCF
     &QS
       EPS_DEFAULT     1.0000000000000000E-14
       METHOD  GPW
     &END QS
     &MGRID
       NGRIDS  5
       CUTOFF     1.2000000000000000E+03
     &END MGRID
     &XC
       DENSITY_CUTOFF     1.0000000000000000E-10
       GRADIENT_CUTOFF     1.0000000000000000E-10
       TAU_CUTOFF     1.0000000000000000E-10
       &XC_FUNCTIONAL  NO_SHORTCUT
         &PBE  T
         &END PBE
       &END XC_FUNCTIONAL
       &VDW_POTENTIAL
         POTENTIAL_TYPE  PAIR_POTENTIAL
         &PAIR_POTENTIAL
           R_CUTOFF     1.0000000000000004E+01
           TYPE  DFTD3
           PARAMETER_FILE_NAME dftd3.dat
           REFERENCE_FUNCTIONAL PBE
           EPS_CN     9.9999999999999995E-07
           CALCULATE_C9_TERM  T
           REFERENCE_C9_TERM  T
           LONG_RANGE_CORRECTION  F
           VERBOSE_OUTPUT  F
         &END PAIR_POTENTIAL
       &END VDW_POTENTIAL
     &END XC
   &END DFT
   &SUBSYS
     &CELL
       A     1.2863103379132323E+01    0.0000000000000000E+00    0.0000000000000000E+00
       B    -6.4463369449498940E+00    1.1165383111361580E+01    0.0000000000000000E+00
       C     0.0000000000000000E+00    0.0000000000000000E+00    2.9000000000000000E+01
       MULTIPLE_UNIT_CELL  1 1 1
       &CELL_REF
         A     1.2982353780853531E+01    0.0000000000000000E+00    0.0000000000000000E+00
         B    -6.4911768904267628E+00    1.1243048175136114E+01    0.0000000000000000E+00
         C     0.0000000000000000E+00    0.0000000000000000E+00    2.9000000000000000E+01
         MULTIPLE_UNIT_CELL  1 1 1
       &END CELL_REF
     &END CELL
     &COORD
Ga    1.7338115368794051E-03    4.0122160870247823E-04   -1.6266989637178317E-01
N   -2.8082478387295583E-03    1.8593923009381437E+00    6.2121981108809965E-01
Ga   -4.2069488587661403E-04    1.8600398656873682E+00    2.5554429187984367E+00
N    1.0987225687424493E-03   -1.2852410533576003E-05    3.2399387981198449E+00
Ga    2.1988340925287305E-03   -7.7507510063671095E-04    5.1989301091472822E+00
N   -5.9212428881612821E-04    1.8586511923712175E+00    5.8545773560584511E+00
Ga    1.1074554280117602E-03    1.8573602034999097E+00    7.8217857783901756E+00
N    1.0418088200335742E-02   -1.3482493823040020E-03    8.4710753656448823E+00
Ga    3.6568619416337180E-03    2.2512207315719449E-03    1.0458942398691773E+01
N   -1.0190898824578774E-02    1.8647080944907017E+00    1.1044146285695231E+01
Ga   -1.7152124217934640E-02    1.8569527656299065E+00    1.3112779710875145E+01
N   -3.7875823097806888E-03   -2.9519166946263553E-03    1.3450305560892135E+01
Ga   -1.6098735648606626E+00    2.7914906187925146E+00   -1.6183484880409998E-01
N   -1.6144861920328386E+00    4.6512258559310986E+00    6.1956092856175848E-01
Ga   -1.6124329676211913E+00    4.6520189269469903E+00    2.5533725903553810E+00
N   -1.6092616350362492E+00    2.7929007899662990E+00    3.2390331966471928E+00
Ga   -1.6085906684784299E+00    2.7923285888694656E+00    5.1978906957245599E+00
N   -1.6114463975639020E+00    4.6513196972069775E+00    5.8572898504034816E+00
Ga   -1.6090852756855454E+00    4.6513010792852549E+00    7.8264671655389453E+00
N   -1.6054408641586060E+00    2.7890050673252174E+00    8.4676029442417065E+00
Ga   -1.6175055303177497E+00    2.7996388472797169E+00    1.0451417154865341E+01
N   -1.6139710498038085E+00    4.6544114985564757E+00    1.1049612733776447E+01
Ga   -1.6070503440241251E+00    4.6322945359130117E+00    1.3128715937180855E+01
N   -1.6076431572085697E+00    2.7892330365585467E+00    1.3543566050749819E+01
Ga   -3.2217263188571756E+00    5.5829707048721646E+00   -1.6286476962044985E-01
N   -3.2264439154976521E+00    7.4422217695229005E+00    6.2021581833618999E-01
Ga   -3.2239691007948066E+00    7.4426546201595700E+00    2.5542929202588511E+00
N   -3.2201726023770827E+00    5.5833383910261576E+00    3.2400183162785745E+00
Ga   -3.2197830703082406E+00    5.5828581701234414E+00    5.1995220768742412E+00
N   -3.2237919460009894E+00    7.4417323197315079E+00    5.8589025562393138E+00
Ga   -3.2233977124854265E+00    7.4404708889706956E+00    7.8283244273456516E+00
N   -3.2165034496727438E+00    5.5799835944687812E+00    8.4739887643215113E+00
Ga   -3.2256452318283237E+00    5.5859650995494379E+00    1.0463679605035432E+01
N   -3.2331836399275078E+00    7.4479638581358145E+00    1.1046087898384537E+01
Ga   -3.2383481065665491E+00    7.4400820592367918E+00    1.3115863890313316E+01
N   -3.2216496574025455E+00    5.5783875870714859E+00    1.3432302154308326E+01
Ga   -4.8333713790371986E+00    8.3746232794264479E+00   -1.6270287505684597E-01
N   -4.8381068357533294E+00    1.0233562926258228E+01    6.2128499375999324E-01
Ga   -4.8357491508871915E+00    1.0234039258856795E+01    2.5556496824373425E+00
N   -4.8322016148065758E+00    8.3739651231273093E+00    3.2399289252328778E+00
Ga   -4.8312039154934228E+00    8.3737709851895197E+00    5.1989811641977859E+00
N   -4.8351719184961031E+00    1.0233864650749004E+01    5.8537578925057598E+00
Ga   -4.8312552694119022E+00    1.0231640895347979E+01    7.8203131402116552E+00
N   -4.8286635939317994E+00    8.3769200344181893E+00    8.4724684740345548E+00
Ga   -4.8368897863521365E+00    8.3840992684299334E+00    1.0458604856324056E+01
N   -4.8357319757682227E+00    1.0240265170529936E+01    1.1059653306899811E+01
Ga   -4.8312661004771726E+00    1.0225730924258347E+01    1.3150444546820623E+01
N   -4.8351394324497603E+00    8.3737269114630308E+00    1.3517964006027125E+01
Ga    3.2174093852669077E+00    3.3294503592612857E-04   -1.6141375211867706E-01
N    3.2127109643808547E+00    1.8599273452242095E+00    6.2041601789006939E-01
Ga    3.2150754614588322E+00    1.8604910151339620E+00    2.5544984584695212E+00
N    3.2179098763819471E+00    1.1123643000710884E-03    3.2396493946997627E+00
Ga    3.2189889299426442E+00    7.0878138168181291E-04    5.1989725194518641E+00
N    3.2157806383848082E+00    1.8604664503314248E+00    5.8566002460683206E+00
Ga    3.2191299673590565E+00    1.8598059367037922E+00    7.8254272601665216E+00
N    3.2230690796200205E+00   -8.4853454816968701E-04    8.4678679399767880E+00
Ga    3.2126404869303933E+00    6.7272297240905813E-03    1.0450436309977160E+01
N    3.2081819041124198E+00    1.8597935974088375E+00    1.1045047881424237E+01
Ga    3.2163719364435401E+00    1.8464358092146971E+00    1.3120005019163909E+01
N    3.2209445065547322E+00    2.8713925796031181E-03    1.3540703689534570E+01
Ga    1.6057306687547033E+00    2.7916117314681421E+00   -1.6276917705406663E-01
N    1.6009063238704004E+00    4.6509161925805396E+00    6.1998020348778560E-01
Ga    1.6034451067045798E+00    4.6512509633466124E+00    2.5539456793818189E+00
N    1.6068262560411057E+00    2.7920222950490059E+00    3.2401351948839165E+00
Ga    1.6072786718477208E+00    2.7911447147950628E+00    5.1992854218130153E+00
N    1.6025835610245853E+00    4.6505877854287592E+00    5.8563136115094450E+00
Ga    1.6022912468736574E+00    4.6484682702036642E+00    7.8246820574618763E+00
N    1.6094304149133734E+00    2.7889527152166544E+00    8.4682795458281657E+00
Ga    1.6053357989069799E+00    2.7940834588038390E+00    1.0455156975376761E+01
N    1.6026105638245558E+00    4.6522166316413962E+00    1.1042635412605829E+01
Ga    1.5966925591432213E+00    4.6428640861090766E+00    1.3115308163541918E+01
N    1.6040983843023988E+00    2.7870465566807532E+00    1.3453118840032934E+01
Ga   -5.8230085107706994E-03    5.5831151110937434E+00   -1.6394553508598955E-01
N   -1.0578644893916156E-02    7.4419244235837816E+00    6.2027516727318055E-01
Ga   -8.5821237112771436E-03    7.4427539330382864E+00    2.5543356374034754E+00
N   -5.2004442951409111E-03    5.5828728863791941E+00    3.2388178207434177E+00
Ga   -4.7043258816820647E-03    5.5823642040044774E+00    5.1976573761718639E+00
N   -7.9503731041802497E-03    7.4419964786756188E+00    5.8534264755339711E+00
Ga   -6.1420570918781390E-03    7.4398214054383587E+00    7.8209066995300187E+00
N   -8.7567350142018303E-04    5.5843086815195564E+00    8.4749354287446561E+00
Ga   -5.0457337923193648E-03    5.5924908712552037E+00    1.0464779364873010E+01
N   -7.2287803007805044E-03    7.4511811814474429E+00    1.1057654104169352E+01
Ga   -4.8088585678596673E-03    7.4375485796594738E+00    1.3151998579862735E+01
N   -3.4345704462190102E-03    5.5813146598297934E+00    1.3490292278274858E+01
Ga   -1.6172769204769115E+00    8.3744700779501571E+00   -1.6224011330018648E-01
N   -1.6218340973429708E+00    1.0233604371793428E+01    6.2127231742602884E-01
Ga   -1.6194965789777358E+00    1.0234423392447084E+01    2.5557053825222171E+00
N   -1.6171661156735191E+00    8.3743031714510607E+00    3.2396759935166006E+00
Ga   -1.6170691737184499E+00    8.3735309124915975E+00    5.1989143703244824E+00
N   -1.6190698872280302E+00    1.0232711394969861E+01    5.8559753434594386E+00
Ga   -1.6164849582582477E+00    1.0230556668958600E+01    7.8241109220647926E+00
N   -1.6110380890045510E+00    8.3703971512742221E+00    8.4726943647379098E+00
Ga   -1.6170829843191434E+00    8.3720771879120122E+00    1.0461281858264465E+01
N   -1.6291333380190318E+00    1.0235374322376487E+01    1.1045198581866869E+01
Ga   -1.6364011098694695E+00    1.0235147596061431E+01    1.3111370789199475E+01
N   -1.6211962923037380E+00    8.3755567729153402E+00    1.3449348771891367E+01
Ga    6.4330317355586955E+00    1.7416193226967345E-04   -1.6285795814540513E-01
N    6.4281032622237513E+00    1.8595044035287589E+00    6.1986742604530887E-01
Ga    6.4304728640953179E+00    1.8600558084074499E+00    2.5537634337817350E+00
N    6.4339368065856970E+00    1.4099484376758318E-03    3.2403491306081942E+00
Ga    6.4339326011716294E+00    8.9388414616196551E-04    5.1997536436725467E+00
N    6.4307149819691842E+00    1.8594340898172703E+00    5.8614928146636478E+00
Ga    6.4309155334690704E+00    1.8581228620031793E+00    7.8321735739512413E+00
N    6.4383301749079411E+00   -3.9765002206119740E-03    8.4743980390346252E+00
Ga    6.4340714432486177E+00   -2.0497728493809584E-04    1.0463444153081957E+01
N    6.4254533705698016E+00    1.8590957668285477E+00    1.1050294092298444E+01
Ga    6.4231071026147681E+00    1.8537879986949479E+00    1.3124615163286292E+01
N    6.4354393632256208E+00   -4.5861539902259697E-03    1.3440776102745817E+01
Ga    4.8212965518663342E+00    2.7918902440682154E+00   -1.6344862417397954E-01
N    4.8165978752000225E+00    4.6505501091049570E+00    6.2115770626452371E-01
Ga    4.8189501740578615E+00    4.6512856810336833E+00    2.5555462887896296E+00
N    4.8226234737942004E+00    2.7912963500438015E+00    3.2396987220903899E+00
Ga    4.8233793517043440E+00    2.7905085529335238E+00    5.1988304845775879E+00
N    4.8195509789959887E+00    4.6503289439216244E+00    5.8530311673043336E+00
Ga    4.8234557968925582E+00    4.6473938116263884E+00    7.8203447756895352E+00
N    4.8253839136536687E+00    2.7933035744441237E+00    8.4789380848226301E+00
Ga    4.8180891508179746E+00    2.8016837286142611E+00    1.0470510636068658E+01
N    4.8182153292623839E+00    4.6655674524575756E+00    1.1050477410551634E+01
Ga    4.8159713929616235E+00    4.6573188977941129E+00    1.3138778466134397E+01
N    4.8217996289314122E+00    2.7981381240837577E+00    1.3472090934570017E+01
Ga    3.2102161495850292E+00    5.5831551805018389E+00   -1.6240993854868813E-01
N    3.2057795588256983E+00    7.4422583843498780E+00    6.2060444816149696E-01
Ga    3.2078592241921062E+00    7.4426463501955338E+00    2.5547068281637118E+00
N    3.2100547170287417E+00    5.5830120144510156E+00    3.2397238900889342E+00
Ga    3.2105095437641968E+00    5.5820490743825362E+00    5.1989059362192860E+00
N    3.2084442765203711E+00    7.4424497543414629E+00    5.8532021267593182E+00
Ga    3.2096345613401809E+00    7.4407883649683155E+00    7.8208168038552826E+00
N    3.2153950636103330E+00    5.5793841054749214E+00    8.4620677814431673E+00
Ga    3.2106566190046890E+00    5.5816094247798658E+00    1.0446189133052753E+01
N    3.1945395193458186E+00    7.4405219281762509E+00    1.1030092398936043E+01
Ga    3.1839297256766872E+00    7.4416197319315041E+00    1.3093614859563282E+01
N    3.2032477458181923E+00    5.5889500820878366E+00    1.3472717190002532E+01
Ga    1.5986476793863742E+00    8.3742670936934989E+00   -1.6202577058204126E-01
N    1.5936818738722889E+00    1.0233810277470285E+01    6.2057265729901356E-01
Ga    1.5959025627132388E+00    1.0234727529195052E+01    2.5548324951003787E+00
N    1.5988033084417379E+00    8.3745943574500750E+00    3.2385628120683396E+00
Ga    1.5992548082474318E+00    8.3744101299404985E+00    5.1973495797740261E+00
N    1.5964064734485952E+00    1.0234387517823334E+01    5.8536810362746294E+00
Ga    1.5981627107614800E+00    1.0234645555266747E+01    7.8208432547090272E+00
N    1.6034089945028300E+00    8.3743746129472569E+00    8.4624648639962494E+00
Ga    1.5912570583309349E+00    8.3806024025400490E+00    1.0444248489264503E+01
N    1.5986551973940297E+00    1.0231995125596805E+01    1.1046652050420150E+01
Ga    1.6029398973456683E+00    1.0216564698830995E+01    1.3128157493490136E+01
N    1.6005058434492641E+00    8.3747761766741213E+00    1.3554596424509299E+01
Ga    9.6487906051367993E+00    5.1031671588354572E-04   -1.6328133187755126E-01
N    9.6441220281399733E+00    1.8592777525298432E+00    6.2142259150097878E-01
Ga    9.6462037860551106E+00    1.8601199457307336E+00    2.5558387566151439E+00
N    9.6505550033845608E+00   -9.7999360634409496E-05    3.2397718037949641E+00
Ga    9.6508215707445189E+00   -6.7033166561576838E-06    5.1987985857332992E+00
N    9.6466564138850757E+00    1.8601845452014154E+00    5.8530111509664202E+00
Ga    9.6479362353511107E+00    1.8599357570775170E+00    7.8193523303946284E+00
N    9.6510498916802021E+00    3.9685321741154255E-03    8.4674498180501647E+00
Ga    9.6447173479693316E+00    8.7391465414962538E-03    1.0452869058820532E+01
N    9.6439865345836662E+00    1.8673431683094817E+00    1.1054101389808665E+01
Ga    9.6491581313030199E+00    1.8538584094859107E+00    1.3140437591145425E+01
N    9.6482968444581765E+00    2.9474478846703771E-03    1.3515861170940283E+01
Ga    8.0375061727491026E+00    2.7917873099478911E+00   -1.6178207898784749E-01
N    8.0329466047970950E+00    4.6509548334315722E+00    6.2175915824410688E-01
Ga    8.0351726707171416E+00    4.6515191094414181E+00    2.5562916709648489E+00
N    8.0368562577258142E+00    2.7913918930993407E+00    3.2405878877272345E+00
Ga    8.0369718275614375E+00    2.7912806572611073E+00    5.1998132903172554E+00
N    8.0359553282253167E+00    4.6509650229208601E+00    5.8553170084240218E+00
Ga    8.0382712096930238E+00    4.6492557692871479E+00    7.8232197334706557E+00
N    8.0441952584311647E+00    2.7909060989662953E+00    8.4727764047224632E+00
Ga    8.0348012476862181E+00    2.7943391005902329E+00    1.0460293745935070E+01
N    8.0201575005301358E+00    4.6548173630879663E+00    1.1039886730367439E+01
Ga    8.0151920935211010E+00    4.6521234049085400E+00    1.3106571158364876E+01
N    8.0359207980811593E+00    2.7939138223077111E+00    1.3458971645063745E+01
Ga    6.4257922193544088E+00    5.5829189033521613E+00   -1.6133435431704551E-01
N    6.4207833185174987E+00    7.4425647888841100E+00    6.2032479453437817E-01
Ga    6.4233484933874374E+00    7.4431480962221981E+00    2.5543961782857876E+00
N    6.4262122541659492E+00    5.5838403302822748E+00    3.2396855200771291E+00
Ga    6.4273622811963955E+00    5.5834362166701812E+00    5.1989690267938196E+00
N    6.4234482432937741E+00    7.4438478227214402E+00    5.8551322446889840E+00
Ga    6.4270686579470420E+00    7.4441270559751658E+00    7.8233503384731105E+00
N    6.4303096905852950E+00    5.5835150212182985E+00    8.4637159736334411E+00
Ga    6.4191767073921060E+00    5.5950923818743865E+00    1.0445915270028474E+01
N    6.4247169484687410E+00    7.4449077372549795E+00    1.1050891975694530E+01
Ga    6.4280995487538668E+00    7.4227044817562673E+00    1.3136943707602693E+01
N    6.4265086978739419E+00    5.5813706785623820E+00    1.3557216878707720E+01
Ga    4.8140715658754880E+00    8.3741657559057732E+00   -1.6395461477374879E-01
N    4.8093804626104584E+00    1.0233433665151582E+01    6.1903273086923505E-01
Ga    4.8117316245019275E+00    1.0234064588353830E+01    2.5525360830092656E+00
N    4.8149533270924874E+00    8.3754122520566394E+00    3.2388482833500656E+00
Ga    4.8156255864979371E+00    8.3747550503615749E+00    5.1978782888341009E+00
N    4.8121780303572574E+00    1.0233214826235878E+01    5.8600867136534012E+00
Ga    4.8126455948404665E+00    1.0232694481157210E+01    7.8303081204927487E+00
N    4.8185888406875375E+00    8.3709809480494908E+00    8.4731137787484254E+00
Ga    4.8115567153842003E+00    8.3754678680492880E+00    1.0464799666902959E+01
N    4.8020218517125768E+00    1.0241340829846054E+01    1.1038087007902330E+01
Ga    4.7957905971364871E+00    1.0232996418346636E+01    1.3105346934160210E+01
N    4.8102651867381780E+00    8.3710354180348610E+00    1.3418151251122483E+01
H    4.8122658657598878E+00    8.3737888862798240E+00   -1.7150996428275935E+00
H    1.5973786063633157E+00    8.3739546452784683E+00   -1.7131786589282811E+00
H   -1.6186353683076080E+00    8.3745297510176844E+00   -1.7133260643176973E+00
H   -4.8353828653111810E+00    8.3748753090396342E+00   -1.7138686198178605E+00
H    6.4238748882499790E+00    5.5824580196657054E+00   -1.7125148071081528E+00
H    3.2086224664510312E+00    5.5830135099388558E+00   -1.7135473736070077E+00
H   -6.8205925091440788E-03    5.5830591882330056E+00   -1.7151136749153464E+00
H   -3.2237642599520440E+00    5.5827269247283295E+00   -1.7139871363816341E+00
H    8.0362290303976476E+00    2.7915992059320716E+00   -1.7128892236808382E+00
H    4.8194181892488706E+00    2.7917494349281085E+00   -1.7146600893097079E+00
H    1.6037255603839866E+00    2.7911060114316313E+00   -1.7138840210983695E+00
H   -1.6112330157307542E+00    2.7902285187130147E+00   -1.7129549695752708E+00
H    5.2206830378448042E-04    3.1295400305049047E-04   -1.7137191627973218E+00
H    3.2155665606278383E+00   -2.4396033810835996E-04   -1.7125454769396804E+00
H    6.4313591325961639E+00   -5.0992503937278644E-04   -1.7139967896689168E+00
H    9.6470905513515799E+00    1.6929581167388923E-04   -1.7144533806305240E+00
     &END COORD
     &KIND H
       BASIS_SET DZVP-MOLOPT-SR-GTH-q1
       POTENTIAL GTH-PBE-q1
       &POTENTIAL
1
0.2000000000000000E+00 2 -0.4178900440000000E+01  0.7244633100000000E+00
0
       &END POTENTIAL
     &END KIND
     &KIND N
       BASIS_SET DZVP-MOLOPT-SR-GTH
       POTENTIAL GTH-PBE-q5
       &POTENTIAL
2 3
0.2837905100000000E+00 2 -0.1241522559000000E+02  0.1868095920000000E+01
2
0.2554050000000000E+00 1  0.1363026257000000E+02
0.2454945300000000E+00 0
       &END POTENTIAL
     &END KIND
     &KIND Ga
       BASIS_SET DZVP-MOLOPT-SR-GTH
       POTENTIAL GTH-PBE-q13
       &POTENTIAL
2 1 10
0.4900000000000000E+00 0
3
0.4167772300000000E+00 3  0.1047568975000000E+02 -0.4921768140000000E+01  0.8707055900000000E+00
0.7770178090000000E+01 -0.2248152160000000E+01
0.1784415450000000E+01
0.5696265200000000E+00 2  0.1777985340000000E+01  0.1958597600000000E+00
-0.2317443900000000E+00
0.2381265000000000E+00 1 -0.1624868022000000E+02
       &END POTENTIAL
     &END KIND
     &TOPOLOGY
       NUMBER_OF_ATOMS  208
       MULTIPLE_UNIT_CELL  1 1 1
     &END TOPOLOGY
   &END SUBSYS
 &END FORCE_EVAL
