 # Version information for this restart file 
 # current date 2019-05-25 21:28:40.608
 # current working dir /lustre03/project/6004141/rzk/GaN-carbene/00-Surface/00-Preoptimization/443-capped/CELL_OPT
 # Program compiled at                              Sun Apr  7 00:48:11 EDT 2019
 # Program compiled on                          beluga2.int.ets1.calculquebec.ca
 # Program compiled for                        Beluga-Linux-x86-64-intel-openmpi
 # Source code revision number                                         svn:18619
 &GLOBAL
   PRINT_LEVEL  MEDIUM
   PROJECT_NAME TEST
   RUN_TYPE  CELL_OPT
 &END GLOBAL
 &MOTION
   &CELL_OPT
     MAX_ITER  300
     STEP_START_VAL  4
     EXTERNAL_PRESSURE     1.0000000000000000E+00
     KEEP_ANGLES  T
     KEEP_SYMMETRY  T
     CONSTRAINT  Z
     PRESSURE_TOLERANCE     5.0000000000000000E+02
   &END CELL_OPT
 &END MOTION
 &FORCE_EVAL
   METHOD  QS
   STRESS_TENSOR  ANALYTICAL
   &DFT
     BASIS_SET_FILE_NAME BASIS_MOLOPT
     POTENTIAL_FILE_NAME GTH_POTENTIALS
     SURFACE_DIPOLE_CORRECTION  T
     SURF_DIP_DIR  Z
     &SCF
       MAX_SCF  100
       EPS_SCF     5.0000000000000004E-06
       &OT  T
         PRECONDITIONER  FULL_ALL
       &END OT
       &OUTER_SCF  T
         OPTIMIZER  NONE
         EPS_SCF     5.0000000000000004E-06
         MAX_SCF  4
       &END OUTER_SCF
       &PRINT
         &RESTART  OFF
           BACKUP_COPIES  1
           &EACH
             JUST_ENERGY  0
             QS_SCF  0
             MD  20
           &END EACH
         &END RESTART
       &END PRINT
     &END SCF
     &QS
       EPS_DEFAULT     1.0000000000000000E-14
       METHOD  GPW
     &END QS
     &MGRID
       NGRIDS  5
       CUTOFF     1.2000000000000000E+03
     &END MGRID
     &XC
       DENSITY_CUTOFF     1.0000000000000000E-10
       GRADIENT_CUTOFF     1.0000000000000000E-10
       TAU_CUTOFF     1.0000000000000000E-10
       &XC_FUNCTIONAL  NO_SHORTCUT
         &PBE  T
         &END PBE
       &END XC_FUNCTIONAL
       &VDW_POTENTIAL
         POTENTIAL_TYPE  PAIR_POTENTIAL
         &PAIR_POTENTIAL
           R_CUTOFF     1.0000000000000004E+01
           TYPE  DFTD3
           PARAMETER_FILE_NAME dftd3.dat
           REFERENCE_FUNCTIONAL PBE
           EPS_CN     9.9999999999999995E-07
           CALCULATE_C9_TERM  T
           REFERENCE_C9_TERM  T
           LONG_RANGE_CORRECTION  F
           VERBOSE_OUTPUT  F
         &END PAIR_POTENTIAL
       &END VDW_POTENTIAL
     &END XC
   &END DFT
   &SUBSYS
     &CELL
       A     1.2889545386679272E+01    0.0000000000000000E+00    0.0000000000000000E+00
       B    -6.4446621880042976E+00    1.1162482347241458E+01    0.0000000000000000E+00
       C     0.0000000000000000E+00    0.0000000000000000E+00    2.9000000000000000E+01
       MULTIPLE_UNIT_CELL  1 1 1
       &CELL_REF
         A     1.2982353780853531E+01    0.0000000000000000E+00    0.0000000000000000E+00
         B    -6.4911768904267628E+00    1.1243048175136114E+01    0.0000000000000000E+00
         C     0.0000000000000000E+00    0.0000000000000000E+00    2.9000000000000000E+01
         MULTIPLE_UNIT_CELL  1 1 1
       &END CELL_REF
     &END CELL
     &COORD
Ga    4.9534748382241034E-04   -2.3160039026129080E-04   -1.4993420971871138E-01
N    5.5674418267342735E-04    1.8602670177345166E+00    6.3329737281495502E-01
Ga    9.5312139690404904E-04    1.8601443249511116E+00    2.5641562755664546E+00
N    3.8228593840263685E-04   -5.3355277507963629E-04    3.2477810970201793E+00
Ga    2.1822799362371916E-03    7.3811343946577029E-04    5.2047035146206495E+00
N    9.8832108492321095E-04    1.8601457044490144E+00    5.8585665790098007E+00
Ga    3.6582388424525610E-04    1.8609447958883401E+00    7.8243609528784122E+00
N    4.8420140956237680E-03    2.8966169379705304E-04    8.4654294647578645E+00
Ga    2.1585222241155924E-03   -1.2052639697334110E-03    1.0452600821840523E+01
N   -2.1596752114781820E-03    1.8611516532125827E+00    1.1030709863707477E+01
Ga   -1.3140395016368607E-03    1.8612432077951724E+00    1.3102586110041644E+01
N   -5.4520022313518863E-04   -1.2292123777830960E-03    1.3449421035763859E+01
Ga   -1.6104037886279499E+00    2.7907023237423201E+00   -1.5073629166703850E-01
N   -1.6105219284550818E+00    4.6509332495576734E+00    6.3223330419114743E-01
Ga   -1.6103038832661067E+00    4.6505746846814002E+00    2.5623145878634674E+00
N   -1.6104755694721167E+00    2.7908707787801461E+00    3.2472084574309257E+00
Ga   -1.6097892044547399E+00    2.7892506120620548E+00    5.2042406541418584E+00
N   -1.6102939917751646E+00    4.6513681601462338E+00    5.8577843524782223E+00
Ga   -1.6103169395588361E+00    4.6499090696562568E+00    7.8261301626761153E+00
N   -1.6098635006368087E+00    2.7881162556110928E+00    8.4646685671582986E+00
Ga   -1.6125971840561681E+00    2.7918389422312884E+00    1.0450487059240260E+01
N   -1.6147186971350953E+00    4.6523015860046808E+00    1.1030067960973541E+01
Ga   -1.6088099637388458E+00    4.6509750528034166E+00    1.3107190693511695E+01
N   -1.6084198230638274E+00    2.7891583891601233E+00    1.3463148480903966E+01
Ga   -3.2213996084453198E+00    5.5814249670732208E+00   -1.5153303640291715E-01
N   -3.2217026687176573E+00    7.4415259459760845E+00    6.3256240087696802E-01
Ga   -3.2212347646828086E+00    7.4413990905627356E+00    2.5627571397448472E+00
N   -3.2209071478618032E+00    5.5809650124385621E+00    3.2465938189303216E+00
Ga   -3.2221895538749177E+00    5.5811146883271538E+00    5.2032949980575820E+00
N   -3.2211494084744792E+00    7.4414600133681201E+00    5.8582698026224600E+00
Ga   -3.2225091383061852E+00    7.4428251593874695E+00    7.8257210739178564E+00
N   -3.2211821950661266E+00    5.5797339086228073E+00    8.4634351666062386E+00
Ga   -3.2206492278484724E+00    5.5820724930631833E+00    1.0451994765506830E+01
N   -3.2221368105443342E+00    7.4442505764032161E+00    1.1031078554626683E+01
Ga   -3.2246422570656690E+00    7.4420170353796751E+00    1.3102330069291888E+01
N   -3.2229123408230240E+00    5.5815790834317003E+00    1.3442975644575407E+01
Ga   -4.8328754325964542E+00    8.3718376817306428E+00   -1.5070964606657156E-01
N   -4.8329133603320793E+00    1.0232059351624716E+01    6.3346667274520108E-01
Ga   -4.8326671369893255E+00    1.0231968876448276E+01    2.5641274711027293E+00
N   -4.8324835813451683E+00    8.3710241538717778E+00    3.2474534621279187E+00
Ga   -4.8329073606062520E+00    8.3722280045462121E+00    5.2045887896412939E+00
N   -4.8332550597173496E+00    1.0231995697125411E+01    5.8576676785327431E+00
Ga   -4.8323061527060469E+00    1.0231499945746625E+01    7.8243299810661178E+00
N   -4.8322040212413802E+00    8.3716439581999040E+00    8.4651532863528303E+00
Ga   -4.8333697887386808E+00    8.3706345594771143E+00    1.0453205981284563E+01
N   -4.8343037755410307E+00    1.0233802631611521E+01    1.1029887253323855E+01
Ga   -4.8319195981451157E+00    1.0229434468411895E+01    1.3108708284503324E+01
N   -4.8321934933612907E+00    8.3703349352270617E+00    1.3459299835493235E+01
Ga    3.2230877552472061E+00    8.5244852911479398E-05   -1.4983561632289449E-01
N    3.2230125509898024E+00    1.8602536499746258E+00    6.3334953652950643E-01
Ga    3.2232153941311186E+00    1.8599559021867660E+00    2.5635811011520890E+00
N    3.2234029825483828E+00   -1.0730131988073432E-04    3.2476294721389150E+00
Ga    3.2233079839970404E+00   -9.6279726969561918E-04    5.2049033412265286E+00
N    3.2229135023693805E+00    1.8605040871266163E+00    5.8585884575333926E+00
Ga    3.2220627552144223E+00    1.8579430999570563E+00    7.8267843777664883E+00
N    3.2240941805175130E+00   -2.2093655152049447E-03    8.4658669653580798E+00
Ga    3.2217980504378425E+00   -3.6287673367272450E-04    1.0452269396204915E+01
N    3.2166874581956537E+00    1.8570690202650109E+00    1.1030491155940640E+01
Ga    3.2244869922644859E+00    1.8598638671531837E+00    1.3108502829059978E+01
N    3.2262347091456203E+00   -1.8664722377680198E-03    1.3460091818662343E+01
Ga    1.6120951587862149E+00    2.7906652525653328E+00   -1.5014469288060475E-01
N    1.6117039945795115E+00    4.6509422594687129E+00    6.3308201835726585E-01
Ga    1.6124481212906496E+00    4.6505617051451908E+00    2.5631125506009145E+00
N    1.6126108112538426E+00    2.7906309796812545E+00    3.2476696639997584E+00
Ga    1.6115876472286856E+00    2.7900958459732843E+00    5.2046809514533141E+00
N    1.6121753506520609E+00    4.6511957306363412E+00    5.8592974023778019E+00
Ga    1.6123637025005342E+00    4.6501533953157841E+00    7.8272527506463812E+00
N    1.6126803825935683E+00    2.7887537082221594E+00    8.4645079917060571E+00
Ga    1.6142130793889728E+00    2.7918746004854191E+00    1.0452043096649779E+01
N    1.6142018118849280E+00    4.6510140757405756E+00    1.1029537587646393E+01
Ga    1.6094649513436132E+00    4.6519208699020300E+00    1.3103113546721010E+01
N    1.6105223688572921E+00    2.7922394753106148E+00    1.3445336447536695E+01
Ga    8.2061772924376796E-04    5.5812326740087768E+00   -1.5153287812862024E-01
N    6.9227348905141447E-04    7.4415076761674275E+00    6.3274236679113238E-01
Ga    1.0174799021156111E-03    7.4415256319205731E+00    2.5629796629848456E+00
N    9.6357894903662867E-04    5.5806913806217482E+00    3.2470080104754118E+00
Ga    1.3810464114707216E-03    5.5811708533026509E+00    5.2037174803171862E+00
N    1.0516184331539253E-03    7.4415172839397208E+00    5.8571857647881194E+00
Ga    9.9396579778960399E-04    7.4413299324327014E+00    7.8239144837044430E+00
N    2.1478779731349262E-03    5.5819170872009671E+00    8.4657147827489911E+00
Ga    2.9153396030403367E-03    5.5806922458929327E+00    1.0457820161204033E+01
N   -6.2619155738737303E-04    7.4471272842631535E+00    1.1026328499691664E+01
Ga    1.7806605645493156E-03    7.4396125505118276E+00    1.3108340479672837E+01
N    1.8031004978906612E-03    5.5797877033314878E+00    1.3453469939215013E+01
Ga   -1.6103686954880769E+00    8.3719217344526129E+00   -1.5087327650132182E-01
N   -1.6103484568471695E+00    1.0232150197247398E+01    6.3303613193589459E-01
Ga   -1.6101538505233244E+00    1.0232027459137926E+01    2.5636623073483573E+00
N   -1.6101203500462273E+00    8.3713777328455770E+00    3.2469758230274457E+00
Ga   -1.6099284325735557E+00    8.3720981565584953E+00    5.2036598990736920E+00
N   -1.6096570033619182E+00    1.0232005142333325E+01    5.8581443345496069E+00
Ga   -1.6113117361283162E+00    1.0232776678053186E+01    7.8242778708629181E+00
N   -1.6073526375076908E+00    8.3714461600288850E+00    8.4624716645445304E+00
Ga   -1.6088192622376769E+00    8.3715387061355493E+00    1.0448904407314407E+01
N   -1.6106916335584551E+00    1.0231959608177485E+01    1.1030450873890615E+01
Ga   -1.6115100421754689E+00    1.0230967250548895E+01    1.3104180317994656E+01
N   -1.6120568174869929E+00    8.3695358212245399E+00    1.3449916488614427E+01
Ga    6.4456123790190647E+00    9.7146211859400596E-05   -1.5091949967896345E-01
N    6.4453593906025564E+00    1.8602119554211214E+00    6.3280083603911153E-01
Ga    6.4459241028759111E+00    1.8600254427728573E+00    2.5627111210801794E+00
N    6.4462088262943942E+00    3.9916852946694193E-05    3.2471999508954847E+00
Ga    6.4453532503846196E+00   -7.4132418476072876E-04    5.2038393046181426E+00
N    6.4456269792258087E+00    1.8601933251940272E+00    5.8594860869507723E+00
Ga    6.4458348169318214E+00    1.8604037430803166E+00    7.8280775044238089E+00
N    6.4476024348694025E+00   -3.0517747414181887E-03    8.4641582570367682E+00
Ga    6.4477653573066265E+00    8.2233889959445008E-04    1.0452763002463742E+01
N    6.4452748358204337E+00    1.8600663393125716E+00    1.1031943660288929E+01
Ga    6.4445233119533123E+00    1.8598618291198039E+00    1.3103789658992705E+01
N    6.4451189956782855E+00    5.2267080821029624E-05    1.3443164970032367E+01
Ga    4.8342863169437384E+00    2.7904657153716079E+00   -1.5083321940060615E-01
N    4.8341420016421619E+00    4.6507784719228873E+00    6.3309779614436612E-01
Ga    4.8345475485562766E+00    4.6508404049182372E+00    2.5634664804136427E+00
N    4.8349069238463933E+00    2.7900214462298831E+00    3.2474800075797847E+00
Ga    4.8338752848783253E+00    2.7903165683251823E+00    5.2044776767452019E+00
N    4.8336583130491508E+00    4.6505658455996226E+00    5.8579605952531635E+00
Ga    4.8349555118240364E+00    4.6503534533041337E+00    7.8250102307746010E+00
N    4.8343763976819245E+00    2.7910201118939000E+00    8.4673269075104542E+00
Ga    4.8329799947215344E+00    2.7903236808166945E+00    1.0459807235603620E+01
N    4.8336364013630533E+00    4.6576977363578935E+00    1.1026556796013040E+01
Ga    4.8341081085734938E+00    4.6490533781699304E+00    1.3108156960665491E+01
N    4.8352160109554303E+00    2.7893468458699737E+00    1.3449535654756337E+01
Ga    3.2230588493810282E+00    5.5813306936941665E+00   -1.5032170233841521E-01
N    3.2230471903484714E+00    7.4416380774962265E+00    6.3325472917011150E-01
Ga    3.2233932860520578E+00    7.4413776281397235E+00    2.5634990121679357E+00
N    3.2233112103408756E+00    5.5810088313024249E+00    3.2474651956752245E+00
Ga    3.2238118663179085E+00    5.5811936435581693E+00    5.2041492290819429E+00
N    3.2236072440677446E+00    7.4415710368430688E+00    5.8590414224123544E+00
Ga    3.2224572541197505E+00    7.4412341107549898E+00    7.8252329744244120E+00
N    3.2261084634218751E+00    5.5809383032898214E+00    8.4627518645272986E+00
Ga    3.2238804318424150E+00    5.5799380356704891E+00    1.0449785818322813E+01
N    3.2182918973973997E+00    7.4382381735123104E+00    1.1026590426465802E+01
Ga    3.2221539304163014E+00    7.4425975284867931E+00    1.3103540919413113E+01
N    3.2217707089930081E+00    5.5803495782012682E+00    1.3452600872379215E+01
Ga    1.6120752939377709E+00    8.3719887838982423E+00   -1.5062584174270796E-01
N    1.6119020745534649E+00    1.0232188217460552E+01    6.3299889569077195E-01
Ga    1.6123095095483535E+00    1.0231867052184500E+01    2.5630954388891709E+00
N    1.6122517699122652E+00    8.3716349378674924E+00    3.2474483952732291E+00
Ga    1.6127196663619738E+00    8.3714627519448968E+00    5.2040286528534327E+00
N    1.6120371086354797E+00    1.0232134339158371E+01    5.8577342753025343E+00
Ga    1.6127228488989953E+00    1.0231686231391832E+01    7.8246826404530969E+00
N    1.6132613186127478E+00    8.3710536661237551E+00    8.4635769611849252E+00
Ga    1.6101622788209937E+00    8.3715755650936927E+00    1.0450273999978526E+01
N    1.6108201629029393E+00    1.0230064749667957E+01    1.1026389671797137E+01
Ga    1.6143520718077227E+00    1.0232999392960378E+01    1.3106919642386867E+01
N    1.6149165958485368E+00    8.3713235761352021E+00    1.3469658372905368E+01
Ga    9.6680596430098120E+00   -2.5067204694961836E-04   -1.5098510312058919E-01
N    9.6677737750242727E+00    1.8601710321741829E+00    6.3275919407656267E-01
Ga    9.6681180599401948E+00    1.8602094276357695E+00    2.5633127396756157E+00
N    9.6684872281187424E+00   -6.7129911241221895E-04    3.2474857252493186E+00
Ga    9.6676662220081138E+00    3.3405978910817805E-04    5.2041435171379780E+00
N    9.6676366937658500E+00    1.8598808897964170E+00    5.8568748270956554E+00
Ga    9.6686442587536785E+00    1.8602475458621970E+00    7.8229054305413488E+00
N    9.6673282658494006E+00    5.8056507166769696E-04    8.4654574143290020E+00
Ga    9.6689470749032722E+00   -2.4159652592850361E-03    1.0454613775536926E+01
N    9.6664862863166956E+00    1.8640009057120126E+00    1.1027429971186759E+01
Ga    9.6680431194026060E+00    1.8583339831897179E+00    1.3105909757039685E+01
N    9.6680880280884622E+00   -1.4397017230945215E-04    1.3458834285108052E+01
Ga    8.0565371035082975E+00    2.7903881151987440E+00   -1.5090979558394968E-01
N    8.0566622375200811E+00    4.6508728748926975E+00    6.3247890296383669E-01
Ga    8.0568605032427651E+00    4.6506620497676225E+00    2.5632652167025745E+00
N    8.0566040854687202E+00    2.7899744315956139E+00    3.2470820993901133E+00
Ga    8.0577876570739893E+00    2.7908991446632161E+00    5.2037655122301718E+00
N    8.0570721371043650E+00    4.6509109333954743E+00    5.8577266723455752E+00
Ga    8.0563471990130680E+00    4.6508374296448798E+00    7.8232792919134351E+00
N    8.0607416177835098E+00    2.7906726713061185E+00    8.4626802849812357E+00
Ga    8.0559243571795101E+00    2.7895498206164238E+00    1.0448575567408341E+01
N    8.0535111997230988E+00    4.6496323141663769E+00    1.1028322610981499E+01
Ga    8.0556891093777470E+00    4.6512019255146084E+00    1.3101794050052620E+01
N    8.0562229116001980E+00    2.7896638131937852E+00    1.3454101585855714E+01
Ga    6.4453266742049786E+00    5.5814579891473457E+00   -1.5049300958144635E-01
N    6.4453576772955046E+00    7.4415630275186926E+00    6.3307268474272549E-01
Ga    6.4458212044300822E+00    7.4411906914578312E+00    2.5632240098826706E+00
N    6.4456355444692788E+00    5.5810776480766089E+00    3.2473277732429717E+00
Ga    6.4459680429787323E+00    5.5802207511812378E+00    5.2042681323034747E+00
N    6.4446630842195773E+00    7.4414694738904723E+00    5.8583324335044944E+00
Ga    6.4474302974932529E+00    7.4395244120628927E+00    7.8259774431114959E+00
N    6.4467796993151545E+00    5.5791043696152594E+00    8.4643475762674019E+00
Ga    6.4435307629150360E+00    5.5797738705160462E+00    1.0450542728315082E+01
N    6.4456673874320449E+00    7.4404891000705726E+00    1.1028207829040324E+01
Ga    6.4469336074640786E+00    7.4414105517400326E+00    1.3107079206343677E+01
N    6.4471904746617632E+00    5.5793994965392182E+00    1.3465482624527734E+01
Ga    4.8343607681926439E+00    8.3721052732766044E+00   -1.5075953616295046E-01
N    4.8341661556903599E+00    1.0232120842243550E+01    6.3335694742242499E-01
Ga    4.8348582858606184E+00    1.0232028527082337E+01    2.5630050528951407E+00
N    4.8348164261153395E+00    8.3719712062164895E+00    3.2475136680225654E+00
Ga    4.8345856543195538E+00    8.3710464301754577E+00    5.2040859806615893E+00
N    4.8344511752273860E+00    1.0231604870553005E+01    5.8604436041908521E+00
Ga    4.8354634134080587E+00    1.0233914995538237E+01    7.8293146222925714E+00
N    4.8355984917042871E+00    8.3687645338428425E+00    8.4659177274743236E+00
Ga    4.8353083817913811E+00    8.3699718832855226E+00    1.0457565299694952E+01
N    4.8319390294607869E+00    1.0233965838699968E+01    1.1032505779047733E+01
Ga    4.8315110473845140E+00    1.0232411756343058E+01    1.3104056035914832E+01
N    4.8339483295489076E+00    8.3720829265567449E+00    1.3440924261343396E+01
H    4.8339409143949768E+00    8.3718771529612059E+00   -1.6987427459908253E+00
H    1.6116586631043057E+00    8.3720081859796220E+00   -1.6989483344632490E+00
H   -1.6105343469372708E+00    8.3720540008589577E+00   -1.6991623757537757E+00
H   -4.8331382797896172E+00    8.3719284680898891E+00   -1.6988220924333306E+00
H    6.4452810479339000E+00    5.5814164876558401E+00   -1.6988213517013615E+00
H    3.2229580209850717E+00    5.5815917194830069E+00   -1.6985574453224459E+00
H    5.9248824289091068E-04    5.5817069976326907E+00   -1.6995199998251802E+00
H   -3.2219330916441211E+00    5.5815596551187783E+00   -1.6997217097920638E+00
H    8.0563780817681909E+00    2.7902324595069836E+00   -1.6992199977327680E+00
H    4.8340524967549587E+00    2.7902845081179586E+00   -1.6988149041150260E+00
H    1.6116237771103850E+00    2.7903996936382884E+00   -1.6983626658514577E+00
H   -1.6109016765537898E+00    2.7901734363375166E+00   -1.6991013397686987E+00
H    2.9910941034453113E-04   -4.9378261322764424E-04   -1.6981608902847738E+00
H    3.2228761239762194E+00   -4.6756173713637073E-04   -1.6981779220270452E+00
H    6.4452022812516168E+00   -4.8150873014104383E-04   -1.6991094295897569E+00
H    9.6673061571975971E+00   -5.2239774531060801E-04   -1.6990200964070219E+00
     &END COORD
     &KIND H
       BASIS_SET DZVP-MOLOPT-SR-GTH-q1
       POTENTIAL GTH-PBE-q1
       &POTENTIAL
1
0.2000000000000000E+00 2 -0.4178900440000000E+01  0.7244633100000000E+00
0
       &END POTENTIAL
     &END KIND
     &KIND N
       BASIS_SET DZVP-MOLOPT-SR-GTH
       POTENTIAL GTH-PBE-q5
       &POTENTIAL
2 3
0.2837905100000000E+00 2 -0.1241522559000000E+02  0.1868095920000000E+01
2
0.2554050000000000E+00 1  0.1363026257000000E+02
0.2454945300000000E+00 0
       &END POTENTIAL
     &END KIND
     &KIND Ga
       BASIS_SET DZVP-MOLOPT-SR-GTH
       POTENTIAL GTH-PBE-q13
       &POTENTIAL
2 1 10
0.4900000000000000E+00 0
3
0.4167772300000000E+00 3  0.1047568975000000E+02 -0.4921768140000000E+01  0.8707055900000000E+00
0.7770178090000000E+01 -0.2248152160000000E+01
0.1784415450000000E+01
0.5696265200000000E+00 2  0.1777985340000000E+01  0.1958597600000000E+00
-0.2317443900000000E+00
0.2381265000000000E+00 1 -0.1624868022000000E+02
       &END POTENTIAL
     &END KIND
     &TOPOLOGY
       NUMBER_OF_ATOMS  208
       MULTIPLE_UNIT_CELL  1 1 1
     &END TOPOLOGY
   &END SUBSYS
 &END FORCE_EVAL
