 # Version information for this restart file 
 # current date 2019-05-25 22:09:37.705
 # current working dir /lustre03/project/6004141/rzk/GaN-carbene/00-Surface/00-Preoptimization/443-capped/CELL_OPT
 # Program compiled at                              Sun Apr  7 00:48:11 EDT 2019
 # Program compiled on                          beluga2.int.ets1.calculquebec.ca
 # Program compiled for                        Beluga-Linux-x86-64-intel-openmpi
 # Source code revision number                                         svn:18619
 &GLOBAL
   PRINT_LEVEL  MEDIUM
   PROJECT_NAME TEST
   RUN_TYPE  CELL_OPT
 &END GLOBAL
 &MOTION
   &CELL_OPT
     MAX_ITER  300
     STEP_START_VAL  13
     EXTERNAL_PRESSURE     1.0000000000000000E+00
     KEEP_ANGLES  T
     KEEP_SYMMETRY  T
     CONSTRAINT  Z
     PRESSURE_TOLERANCE     5.0000000000000000E+02
   &END CELL_OPT
 &END MOTION
 &FORCE_EVAL
   METHOD  QS
   STRESS_TENSOR  ANALYTICAL
   &DFT
     BASIS_SET_FILE_NAME BASIS_MOLOPT
     POTENTIAL_FILE_NAME GTH_POTENTIALS
     SURFACE_DIPOLE_CORRECTION  T
     SURF_DIP_DIR  Z
     &SCF
       MAX_SCF  100
       EPS_SCF     5.0000000000000004E-06
       &OT  T
         PRECONDITIONER  FULL_ALL
       &END OT
       &OUTER_SCF  T
         OPTIMIZER  NONE
         EPS_SCF     5.0000000000000004E-06
         MAX_SCF  4
       &END OUTER_SCF
       &PRINT
         &RESTART  OFF
           BACKUP_COPIES  1
           &EACH
             JUST_ENERGY  0
             QS_SCF  0
             MD  20
           &END EACH
         &END RESTART
       &END PRINT
     &END SCF
     &QS
       EPS_DEFAULT     1.0000000000000000E-14
       METHOD  GPW
     &END QS
     &MGRID
       NGRIDS  5
       CUTOFF     1.2000000000000000E+03
     &END MGRID
     &XC
       DENSITY_CUTOFF     1.0000000000000000E-10
       GRADIENT_CUTOFF     1.0000000000000000E-10
       TAU_CUTOFF     1.0000000000000000E-10
       &XC_FUNCTIONAL  NO_SHORTCUT
         &PBE  T
         &END PBE
       &END XC_FUNCTIONAL
       &VDW_POTENTIAL
         POTENTIAL_TYPE  PAIR_POTENTIAL
         &PAIR_POTENTIAL
           R_CUTOFF     1.0000000000000004E+01
           TYPE  DFTD3
           PARAMETER_FILE_NAME dftd3.dat
           REFERENCE_FUNCTIONAL PBE
           EPS_CN     9.9999999999999995E-07
           CALCULATE_C9_TERM  T
           REFERENCE_C9_TERM  T
           LONG_RANGE_CORRECTION  F
           VERBOSE_OUTPUT  F
         &END PAIR_POTENTIAL
       &END VDW_POTENTIAL
     &END XC
   &END DFT
   &SUBSYS
     &CELL
       A     1.2884535316295429E+01    0.0000000000000000E+00    0.0000000000000000E+00
       B    -6.4455323377351732E+00    1.1163989490785546E+01    0.0000000000000000E+00
       C     0.0000000000000000E+00    0.0000000000000000E+00    2.9000000000000000E+01
       MULTIPLE_UNIT_CELL  1 1 1
       &CELL_REF
         A     1.2982353780853531E+01    0.0000000000000000E+00    0.0000000000000000E+00
         B    -6.4911768904267628E+00    1.1243048175136114E+01    0.0000000000000000E+00
         C     0.0000000000000000E+00    0.0000000000000000E+00    2.9000000000000000E+01
         MULTIPLE_UNIT_CELL  1 1 1
       &END CELL_REF
     &END CELL
     &COORD
Ga    1.2431457534349199E-03   -6.8781440464874946E-05   -1.5854091620208649E-01
N   -2.6041778002452645E-04    1.8604612458673619E+00    6.2490074633276638E-01
Ga    9.0745398843517183E-04    1.8604497362790824E+00    2.5609922433293906E+00
N    1.5330988750659539E-04   -6.4952664145883027E-04    3.2429194803390371E+00
Ga    7.5269936119196318E-04   -1.0932353104322339E-03    5.2038776190254801E+00
N    7.2710891020937615E-04    1.8596914812543388E+00    5.8526514904925975E+00
Ga    1.9321624166550924E-03    1.8573482455636885E+00    7.8209083541784601E+00
N    6.7691108077149835E-03   -2.2802325675233361E-03    8.4616222804396237E+00
Ga   -9.1821007425239718E-05   -8.6914214100259929E-04    1.0453257972306471E+01
N   -8.9497481666346562E-03    1.8637071143986803E+00    1.1033393870937596E+01
Ga   -7.8162116100672190E-03    1.8587054567040264E+00    1.3110087908242070E+01
N   -7.1272005172356924E-04   -3.5669507476280816E-03    1.3454275895193064E+01
Ga   -1.6100572366686063E+00    2.7905828866805926E+00   -1.5822831121098854E-01
N   -1.6114893767273828E+00    4.6517796608518172E+00    6.2363443512261141E-01
Ga   -1.6103253226208787E+00    4.6516944732515588E+00    2.5591801428290522E+00
N   -1.6101241353538029E+00    2.7917795424971694E+00    3.2420137758157956E+00
Ga   -1.6090932114566405E+00    2.7911801640549538E+00    5.2021784418017667E+00
N   -1.6091491028282106E+00    4.6514947982700781E+00    5.8569379792208256E+00
Ga   -1.6081449014056619E+00    4.6515989165689184E+00    7.8273586576757692E+00
N   -1.6076529356818960E+00    2.7894492841973935E+00    8.4620735781151417E+00
Ga   -1.6160383627885553E+00    2.7975958221735171E+00    1.0452117483779141E+01
N   -1.6141436797339492E+00    4.6535109403476085E+00    1.1040758979928958E+01
Ga   -1.6029718192485978E+00    4.6392408114074533E+00    1.3127778842058353E+01
N   -1.6060787905807306E+00    2.7878186261179256E+00    1.3521462246894664E+01
Ga   -3.2216607343410901E+00    5.5818520637602251E+00   -1.5932947203421738E-01
N   -3.2233593367491657E+00    7.4424268216076701E+00    6.2376314617889994E-01
Ga   -3.2218176653421677E+00    7.4420830038092634E+00    2.5596528313608982E+00
N   -3.2205244550212497E+00    5.5819025183638713E+00    3.2430250890194801E+00
Ga   -3.2209080663042648E+00    5.5823696132196892E+00    5.2041012351387224E+00
N   -3.2221105673143979E+00    7.4418708111669210E+00    5.8572626611402780E+00
Ga   -3.2204677582243475E+00    7.4386597207309100E+00    7.8279682726362685E+00
N   -3.2171352387382370E+00    5.5778532855538758E+00    8.4650152565478685E+00
Ga   -3.2261409313035019E+00    5.5814506825552463E+00    1.0459287518398865E+01
N   -3.2289099696682797E+00    7.4460963505439954E+00    1.1038933093132211E+01
Ga   -3.2298603879082135E+00    7.4424021667907612E+00    1.3116275028810852E+01
N   -3.2229183848930822E+00    5.5776318188414926E+00    1.3431697013840804E+01
Ga   -4.8330902125486439E+00    8.3730528346613013E+00   -1.5909041966611451E-01
N   -4.8348167058184517E+00    1.0233225701780553E+01    6.2500571559390661E-01
Ga   -4.8335606995742326E+00    1.0233031515101384E+01    2.5612192601572206E+00
N   -4.8327034793385240E+00    8.3721773306515779E+00    3.2427441604405511E+00
Ga   -4.8321632956605534E+00    8.3724109682207022E+00    5.2036602651444728E+00
N   -4.8330933329584607E+00    1.0233256360461995E+01    5.8530026083067446E+00
Ga   -4.8300216755278766E+00    1.0230944155751315E+01    7.8214827418480235E+00
N   -4.8309570094687713E+00    8.3731647522990684E+00    8.4674362343156044E+00
Ga   -4.8376967687439469E+00    8.3796281838142797E+00    1.0459971112585169E+01
N   -4.8328884031132358E+00    1.0241901077314587E+01    1.1046942058000775E+01
Ga   -4.8270438484682785E+00    1.0228908143399162E+01    1.3134887414993651E+01
N   -4.8330562118448475E+00    8.3727639781163141E+00    1.3496381803700174E+01
Ga    3.2221678018417883E+00   -2.2034279096851418E-04   -1.5763854707851757E-01
N    3.2208461428542217E+00    1.8607968960208858E+00    6.2444311369297945E-01
Ga    3.2220190066847216E+00    1.8604949532265813E+00    2.5602442295933385E+00
N    3.2222674423802511E+00    2.6737608500856789E-04    3.2424948279782342E+00
Ga    3.2227910234619963E+00    8.7332360180112491E-06    5.2030161494718454E+00
N    3.2228160030269821E+00    1.8607004055131535E+00    5.8568841960028202E+00
Ga    3.2263044476084701E+00    1.8599332092043321E+00    7.8263720581789942E+00
N    3.2265181911635796E+00   -9.9547402829129605E-04    8.4629937292264117E+00
Ga    3.2172901148820250E+00    4.6758717345491427E-03    1.0451481046201529E+01
N    3.2148210080456043E+00    1.8585345461484755E+00    1.1042181722779537E+01
Ga    3.2260273509528612E+00    1.8509416931287077E+00    1.3123936318298579E+01
N    3.2262087305300646E+00   -1.4265091088230669E-03    1.3519785174170153E+01
Ga    1.6107956562940013E+00    2.7907790811714963E+00   -1.5883670518111367E-01
N    1.6091981736376899E+00    4.6515859389897116E+00    6.2379903348990795E-01
Ga    1.6105415567865695E+00    4.6512568196455693E+00    2.5594197962790339E+00
N    1.6113500832898136E+00    2.7912588338684237E+00    3.2429836126748302E+00
Ga    1.6113388568125997E+00    2.7908279271433534E+00    5.2041021410628856E+00
N    1.6094076741710770E+00    4.6514384257040673E+00    5.8566439736568148E+00
Ga    1.6083432649202307E+00    4.6493357113655867E+00    7.8261344867133360E+00
N    1.6137260286481581E+00    2.7872198100351944E+00    8.4605332627377869E+00
Ga    1.6082330261005291E+00    2.7902667918213950E+00    1.0451636778621468E+01
N    1.6093748011678457E+00    4.6521427366455192E+00    1.1033762205361873E+01
Ga    1.6081924605698277E+00    4.6469659386702409E+00    1.3112375637542618E+01
N    1.6088713629250535E+00    2.7887689538940377E+00    1.3451867765404625E+01
Ga   -2.7505438974704735E-04    5.5819431556867860E+00   -1.6031688839329958E-01
N   -1.9495723409018041E-03    7.4420908304743119E+00    6.2425552996589562E-01
Ga   -9.6696171529190797E-04    7.4420265277018016E+00    2.5600343154635992E+00
N   -2.6234164871344155E-04    5.5814833696830393E+00    3.2427454660070225E+00
Ga   -3.2481742401829143E-05    5.5811756285950542E+00    5.2026710759393016E+00
N   -2.9486069199159202E-05    7.4413519181385412E+00    5.8533150803206686E+00
Ga    5.4518756782841813E-05    7.4389623815571699E+00    7.8215997405921796E+00
N    2.3710459558299859E-03    5.5832887700678002E+00    8.4714015334650945E+00
Ga   -3.1102835499474549E-03    5.5888327651419525E+00    1.0466451686580816E+01
N   -1.0532014844888268E-03    7.4505451611965521E+00    1.1045858885464783E+01
Ga    6.7561636364829314E-03    7.4429885342215814E+00    1.3136752793603362E+01
N    3.5049885764553666E-03    5.5816432550960595E+00    1.3478030865768517E+01
Ga   -1.6116883161476605E+00    8.3729032398765533E+00   -1.5850774110093740E-01
N   -1.6132752644854973E+00    1.0233449608584545E+01    6.2485618707183832E-01
Ga   -1.6120221009805253E+00    1.0233429864676967E+01    2.5609266678993787E+00
N   -1.6118008200309859E+00    8.3724064140549679E+00    3.2423479465429841E+00
Ga   -1.6126279960362553E+00    8.3723291920432725E+00    5.2033194842796284E+00
N   -1.6120485274393297E+00    1.0233031846763559E+01    5.8534918707039365E+00
Ga   -1.6093422679004543E+00    1.0230251417556149E+01    7.8222105779331415E+00
N   -1.6059010300293852E+00    8.3698277642627499E+00    8.4610976328029626E+00
Ga   -1.6154345228761298E+00    8.3720492266525053E+00    1.0452492731892328E+01
N   -1.6195158494326962E+00    1.0233426984363163E+01    1.1035963209756401E+01
Ga   -1.6222031420733678E+00    1.0233829057086375E+01    1.3112162852252302E+01
N   -1.6125692762933799E+00    8.3712734787008287E+00    1.3450137088083650E+01
Ga    6.4435206923338750E+00   -3.5019926427744231E-04   -1.5919102248227815E-01
N    6.4414825938815810E+00    1.8603419513827608E+00    6.2364352497744058E-01
Ga    6.4430621485640307E+00    1.8601853024754862E+00    2.5591936591228133E+00
N    6.4439817356315343E+00    4.1346024344514950E-04    3.2431816437092560E+00
Ga    6.4432764475961104E+00    6.5714934246174613E-04    5.2043302975822039E+00
N    6.4416869076790659E+00    1.8603312078080549E+00    5.8608331873805239E+00
Ga    6.4436544251083605E+00    1.8584351173871092E+00    7.8320740481532010E+00
N    6.4474597860746465E+00   -4.7376359530029184E-03    8.4642446893016672E+00
Ga    6.4395820983624672E+00   -1.9599844538304694E-03    1.0457344423023985E+01
N    6.4373349812833602E+00    1.8586120836084641E+00    1.1042205188930215E+01
Ga    6.4403447015129203E+00    1.8582252456883008E+00    1.3120308933801160E+01
N    6.4457047301454216E+00   -3.3660050195105391E-03    1.3438963752410617E+01
Ga    4.8318530903444366E+00    2.7909227985748770E+00   -1.5984354699853742E-01
N    4.8302473432362980E+00    4.6510804693314505E+00    6.2477180237288477E-01
Ga    4.8314541664915538E+00    4.6510701152516702E+00    2.5608677723875592E+00
N    4.8325248109560679E+00    2.7902260629166138E+00    3.2436820090916982E+00
Ga    4.8326190443435282E+00    2.7897596288046493E+00    5.2039905242620632E+00
N    4.8319041815135542E+00    4.6503679149309578E+00    5.8532957012165232E+00
Ga    4.8356837273823379E+00    4.6472636305023363E+00    7.8209692547647398E+00
N    4.8335705021893620E+00    2.7920163500232893E+00    8.4762010560655643E+00
Ga    4.8278777470874168E+00    2.7983414491266969E+00    1.0471326943931571E+01
N    4.8326628525515645E+00    4.6639021792658619E+00    1.1043684704560484E+01
Ga    4.8347978428675082E+00    4.6578101050531249E+00    1.3128283322845064E+01
N    4.8327629984744434E+00    2.7955575626524793E+00    1.3464003694714471E+01
Ga    3.2206497264479399E+00    5.5819714619222358E+00   -1.5862264110633981E-01
N    3.2194383922685983E+00    7.4425485669006850E+00    6.2455170523767056E-01
Ga    3.2203833071980306E+00    7.4423694909118021E+00    2.5602671239196537E+00
N    3.2201430653516177E+00    5.5817582334834466E+00    3.2429958916009816E+00
Ga    3.2200668040247624E+00    5.5810030511686444E+00    5.2036670428355078E+00
N    3.2211141701759018E+00    7.4428346488405230E+00    5.8524945080296868E+00
Ga    3.2242546378736132E+00    7.4412622493341818E+00    7.8203120434409801E+00
N    3.2256680171486756E+00    5.5792530753981051E+00    8.4528321957946382E+00
Ga    3.2192954535570806E+00    5.5800313507105122E+00    1.0441193159185774E+01
N    3.2071823084103785E+00    7.4395473487502315E+00    1.1027351820394250E+01
Ga    3.2047907970946627E+00    7.4417718707456357E+00    1.3101830494184398E+01
N    3.2182681497866170E+00    5.5827303008125551E+00    1.3471001191557919E+01
Ga    1.6093248131383560E+00    8.3727265711885508E+00   -1.5835964819772003E-01
N    1.6078535392176847E+00    1.0233563821806069E+01    6.2425918789554968E-01
Ga    1.6091095656985108E+00    1.0233498372866759E+01    2.5601352166404334E+00
N    1.6091656199512685E+00    8.3728522218998371E+00    3.2418798858138671E+00
Ga    1.6096962894315652E+00    8.3727349822428874E+00    5.2015871570412511E+00
N    1.6096903377784368E+00    1.0233017139250533E+01    5.8535030034865052E+00
Ga    1.6117266823851755E+00    1.0234345597907554E+01    7.8217391405015659E+00
N    1.6123520286784720E+00    8.3719516071480182E+00    8.4577485740156586E+00
Ga    1.6041560517142710E+00    8.3769505830310464E+00    1.0446202421903012E+01
N    1.6116250433893287E+00    1.0231282731963592E+01    1.1039170848941691E+01
Ga    1.6171364936141568E+00    1.0222253556871197E+01    1.3123292113886388E+01
N    1.6121924116953543E+00    8.3739486117073927E+00    1.3535045048535824E+01
Ga    9.6645193359772907E+00   -2.3788785497967646E-04   -1.5969341836120038E-01
N    9.6629277758124399E+00    1.8600597606938729E+00    6.2476272677299793E-01
Ga    9.6641385398501942E+00    1.8600602898521275E+00    2.5610950043055656E+00
N    9.6654992202774554E+00   -1.0634091143235617E-03    3.2429332871540559E+00
Ga    9.6659623404732802E+00   -8.4024649191087695E-04    5.2033608027232328E+00
N    9.6650812567355224E+00    1.8600845942359214E+00    5.8515882946761835E+00
Ga    9.6667770195110752E+00    1.8603306007825420E+00    7.8195436801940197E+00
N    9.6655744550029361E+00    1.7641295318545484E-03    8.4646682401291464E+00
Ga    9.6603862864225789E+00    6.3534617359615828E-03    1.0456917834991218E+01
N    9.6614223853278993E+00    1.8677234869399668E+00    1.1044758289431266E+01
Ga    9.6691433002517044E+00    1.8579878677635688E+00    1.3131694722549817E+01
N    9.6645661165803833E+00    1.8205875769856435E-03    1.3498442504521147E+01
Ga    8.0533596349497198E+00    2.7908428656484023E+00   -1.5825567792300774E-01
N    8.0517612808968977E+00    4.6515322631852429E+00    6.2485988793947911E-01
Ga    8.0529952659438599E+00    4.6514345023459089E+00    2.5612879365467354E+00
N    8.0524806720639877E+00    2.7902825955267612E+00    3.2429947773333025E+00
Ga    8.0520872423957481E+00    2.7904643608889423E+00    5.2042494827443351E+00
N    8.0532946985371598E+00    4.6516285484123303E+00    5.8532441455317761E+00
Ga    8.0572718553011313E+00    4.6498690078137344E+00    7.8214590825404748E+00
N    8.0579683623126162E+00    2.7894831189192955E+00    8.4614883499877216E+00
Ga    8.0476816348072653E+00    2.7933563133104307E+00    1.0452119787450130E+01
N    8.0404271983436484E+00    4.6530161318994141E+00    1.1035232996126574E+01
Ga    8.0401451973292897E+00    4.6520431169203116E+00    1.3108929636350849E+01
N    8.0541841196906425E+00    2.7912330191644914E+00    1.3457085411347792E+01
Ga    6.4417357515383280E+00    5.5818900402093625E+00   -1.5781965617621785E-01
N    6.4400613551421166E+00    7.4427327235107414E+00    6.2421780959174977E-01
Ga    6.4414402677378719E+00    7.4425419839399618E+00    2.5600426625462984E+00
N    6.4414775186604292E+00    5.5823549526304088E+00    3.2427006407439758E+00
Ga    6.4425604776574570E+00    5.5821299394563590E+00    5.2030901577166420E+00
N    6.4405033710309239E+00    7.4432180437327906E+00    5.8552299090643389E+00
Ga    6.4443987560134710E+00    7.4441336589043523E+00    7.8243355263743624E+00
N    6.4446101716505080E+00    5.5812562412680951E+00    8.4584112809472511E+00
Ga    6.4368208411372532E+00    5.5893488925063659E+00    1.0445731371897125E+01
N    6.4416016612471036E+00    7.4442863361197960E+00    1.1043580315305070E+01
Ga    6.4491060163776694E+00    7.4291085616539467E+00    1.3127673320671713E+01
N    6.4447944847170433E+00    5.5802445399468947E+00    1.3533031028607260E+01
Ga    4.8303021729703701E+00    8.3727471839929830E+00   -1.6007082383041021E-01
N    4.8286675716281486E+00    1.0233228434424186E+01    6.2339339470481780E-01
Ga    4.8300602339578038E+00    1.0233079090438963E+01    2.5585331457142160E+00
N    4.8305444386073848E+00    8.3734970209474842E+00    3.2432481783226539E+00
Ga    4.8311545894813648E+00    8.3738280216709171E+00    5.2033643328290458E+00
N    4.8299316939580352E+00    1.0232258377878816E+01    5.8603304971603603E+00
Ga    4.8312442298762521E+00    1.0231208399167405E+01    7.8315612963120209E+00
N    4.8320866689823925E+00    8.3686560389356224E+00    8.4662427336023818E+00
Ga    4.8234610401556459E+00    8.3717532544199909E+00    1.0462333700912273E+01
N    4.8229148016504926E+00    1.0240189188408046E+01    1.1030524695492778E+01
Ga    4.8224213102916096E+00    1.0234477766160202E+01    1.3107620394014287E+01
N    4.8281019705182677E+00    8.3691567729573233E+00    1.3426879235642939E+01
H    4.8292708939885927E+00    8.3728611300974638E+00   -1.7107164565585018E+00
H    1.6088422908289506E+00    8.3729097522213216E+00   -1.7090899900396612E+00
H   -1.6124325836044939E+00    8.3733073701867600E+00   -1.7092171410910515E+00
H   -4.8343096776996282E+00    8.3734988595411828E+00   -1.7099078115934823E+00
H    6.4407201058830355E+00    5.5819179108814438E+00   -1.7086121407850345E+00
H    3.2199320581798649E+00    5.5822753881681582E+00   -1.7093430867673454E+00
H   -8.9921420400538741E-04    5.5822861467918310E+00   -1.7109875071495020E+00
H   -3.2228030620937997E+00    5.5821071807769815E+00   -1.7100429868571538E+00
H    8.0525749539215408E+00    2.7908879557179880E+00   -1.7090249733169327E+00
H    4.8308038836338563E+00    2.7910248498567150E+00   -1.7105618398663283E+00
H    1.6097616107390851E+00    2.7907100819386610E+00   -1.7095848351778482E+00
H   -1.6108115464238868E+00    2.7900509049718045E+00   -1.7089462623796763E+00
H    5.0932558105397515E-04   -9.2315977911878793E-05   -1.7092630061556191E+00
H    3.2213316085079660E+00   -3.4349792240111128E-04   -1.7083972777028043E+00
H    6.4424593135368067E+00   -4.9842728262550391E-04   -1.7098937375167522E+00
H    9.6635655389773660E+00   -2.4853689113858506E-04   -1.7104692667182986E+00
     &END COORD
     &KIND H
       BASIS_SET DZVP-MOLOPT-SR-GTH-q1
       POTENTIAL GTH-PBE-q1
       &POTENTIAL
1
0.2000000000000000E+00 2 -0.4178900440000000E+01  0.7244633100000000E+00
0
       &END POTENTIAL
     &END KIND
     &KIND N
       BASIS_SET DZVP-MOLOPT-SR-GTH
       POTENTIAL GTH-PBE-q5
       &POTENTIAL
2 3
0.2837905100000000E+00 2 -0.1241522559000000E+02  0.1868095920000000E+01
2
0.2554050000000000E+00 1  0.1363026257000000E+02
0.2454945300000000E+00 0
       &END POTENTIAL
     &END KIND
     &KIND Ga
       BASIS_SET DZVP-MOLOPT-SR-GTH
       POTENTIAL GTH-PBE-q13
       &POTENTIAL
2 1 10
0.4900000000000000E+00 0
3
0.4167772300000000E+00 3  0.1047568975000000E+02 -0.4921768140000000E+01  0.8707055900000000E+00
0.7770178090000000E+01 -0.2248152160000000E+01
0.1784415450000000E+01
0.5696265200000000E+00 2  0.1777985340000000E+01  0.1958597600000000E+00
-0.2317443900000000E+00
0.2381265000000000E+00 1 -0.1624868022000000E+02
       &END POTENTIAL
     &END KIND
     &TOPOLOGY
       NUMBER_OF_ATOMS  208
       MULTIPLE_UNIT_CELL  1 1 1
     &END TOPOLOGY
   &END SUBSYS
 &END FORCE_EVAL
