 # Version information for this restart file 
 # current date 2019-05-25 22:51:38.477
 # current working dir /lustre03/project/6004141/rzk/GaN-carbene/00-Surface/00-Preoptimization/443-capped/CELL_OPT
 # Program compiled at                              Sun Apr  7 00:48:11 EDT 2019
 # Program compiled on                          beluga2.int.ets1.calculquebec.ca
 # Program compiled for                        Beluga-Linux-x86-64-intel-openmpi
 # Source code revision number                                         svn:18619
 &GLOBAL
   PRINT_LEVEL  MEDIUM
   PROJECT_NAME TEST
   RUN_TYPE  CELL_OPT
 &END GLOBAL
 &MOTION
   &CELL_OPT
     MAX_ITER  300
     STEP_START_VAL  20
     EXTERNAL_PRESSURE     1.0000000000000000E+00
     KEEP_ANGLES  T
     KEEP_SYMMETRY  T
     CONSTRAINT  Z
     PRESSURE_TOLERANCE     5.0000000000000000E+02
   &END CELL_OPT
 &END MOTION
 &FORCE_EVAL
   METHOD  QS
   STRESS_TENSOR  ANALYTICAL
   &DFT
     BASIS_SET_FILE_NAME BASIS_MOLOPT
     POTENTIAL_FILE_NAME GTH_POTENTIALS
     SURFACE_DIPOLE_CORRECTION  T
     SURF_DIP_DIR  Z
     &SCF
       MAX_SCF  100
       EPS_SCF     5.0000000000000004E-06
       &OT  T
         PRECONDITIONER  FULL_ALL
       &END OT
       &OUTER_SCF  T
         OPTIMIZER  NONE
         EPS_SCF     5.0000000000000004E-06
         MAX_SCF  4
       &END OUTER_SCF
       &PRINT
         &RESTART  OFF
           BACKUP_COPIES  1
           &EACH
             JUST_ENERGY  0
             QS_SCF  0
             MD  20
           &END EACH
         &END RESTART
       &END PRINT
     &END SCF
     &QS
       EPS_DEFAULT     1.0000000000000000E-14
       METHOD  GPW
     &END QS
     &MGRID
       NGRIDS  5
       CUTOFF     1.2000000000000000E+03
     &END MGRID
     &XC
       DENSITY_CUTOFF     1.0000000000000000E-10
       GRADIENT_CUTOFF     1.0000000000000000E-10
       TAU_CUTOFF     1.0000000000000000E-10
       &XC_FUNCTIONAL  NO_SHORTCUT
         &PBE  T
         &END PBE
       &END XC_FUNCTIONAL
       &VDW_POTENTIAL
         POTENTIAL_TYPE  PAIR_POTENTIAL
         &PAIR_POTENTIAL
           R_CUTOFF     1.0000000000000004E+01
           TYPE  DFTD3
           PARAMETER_FILE_NAME dftd3.dat
           REFERENCE_FUNCTIONAL PBE
           EPS_CN     9.9999999999999995E-07
           CALCULATE_C9_TERM  T
           REFERENCE_C9_TERM  T
           LONG_RANGE_CORRECTION  F
           VERBOSE_OUTPUT  F
         &END PAIR_POTENTIAL
       &END VDW_POTENTIAL
     &END XC
   &END DFT
   &SUBSYS
     &CELL
       A     1.2854820709705731E+01    0.0000000000000000E+00    0.0000000000000000E+00
       B    -6.4477945128167198E+00    1.1167907692962403E+01    0.0000000000000000E+00
       C     0.0000000000000000E+00    0.0000000000000000E+00    2.9000000000000000E+01
       MULTIPLE_UNIT_CELL  1 1 1
       &CELL_REF
         A     1.2982353780853531E+01    0.0000000000000000E+00    0.0000000000000000E+00
         B    -6.4911768904267628E+00    1.1243048175136114E+01    0.0000000000000000E+00
         C     0.0000000000000000E+00    0.0000000000000000E+00    2.9000000000000000E+01
         MULTIPLE_UNIT_CELL  1 1 1
       &END CELL_REF
     &END CELL
     &COORD
Ga    1.8014877618455982E-03    5.5339577289532807E-04   -1.6459212544124141E-01
N   -4.0283572246781812E-03    1.8591125359541152E+00    6.1959436032448734E-01
Ga   -1.1716612235119197E-03    1.8601141369169631E+00    2.5535382605115142E+00
N    2.0297323124191958E-03    5.7818496356931085E-04    3.2378303218344722E+00
Ga    2.9950013150987472E-03   -2.4909434257366399E-04    5.1973613044350628E+00
N   -1.2732069567214736E-03    1.8584765598509376E+00    5.8557455343653970E+00
Ga    1.0060262427924295E-03    1.8576087672136135E+00    7.8237343374226684E+00
N    1.1481454056696243E-02   -7.0303533708628691E-05    8.4760248799744016E+00
Ga    6.0339150709409293E-03    3.8349519987474208E-03    1.0463428414118304E+01
N   -1.0084302931028986E-02    1.8658990090562004E+00    1.1049699311684316E+01
Ga   -2.1528128897406421E-02    1.8566432563536728E+00    1.3114004632288827E+01
N   -5.4473035980445910E-03   -2.1173428698759789E-03    1.3448618138698036E+01
Ga   -1.6102640709121412E+00    2.7922319808397886E+00   -1.6363914618174871E-01
N   -1.6162187266192913E+00    4.6515759137026809E+00    6.1780946349253341E-01
Ga   -1.6137140168235768E+00    4.6527133481332248E+00    2.5515192419196868E+00
N   -1.6089406753868880E+00    2.7938262814479553E+00    3.2372950833484619E+00
Ga   -1.6083637125073300E+00    2.7933849265261421E+00    5.1970212111379608E+00
N   -1.6127381717789662E+00    4.6515289228386978E+00    5.8568325970381414E+00
Ga   -1.6109424697058057E+00    4.6522626915757526E+00    7.8265602538772328E+00
N   -1.6049578945954019E+00    2.7900882044811728E+00    8.4700267126239268E+00
Ga   -1.6171796603635769E+00    2.8016395028485266E+00    1.0452473447944545E+01
N   -1.6131736860143644E+00    4.6547790910253823E+00    1.1052204253513377E+01
Ga   -1.6117295202117696E+00    4.6307954893724625E+00    1.3125916982486103E+01
N   -1.6098549820206629E+00    2.7905493358509768E+00    1.3548586496945118E+01
Ga   -3.2225442256385044E+00    5.5844435119626858E+00   -1.6453028084399779E-01
N   -3.2283883376153715E+00    7.4432613006978814E+00    6.1869645215456126E-01
Ga   -3.2255479886653227E+00    7.4441298914108716E+00    2.5525873089158440E+00
N   -3.2205242679614159E+00    5.5852108166530181E+00    3.2378080829557176E+00
Ga   -3.2199421342451675E+00    5.5841578444772040E+00    5.1983449297888189E+00
N   -3.2251962700645938E+00    7.4430008364024092E+00    5.8589809465420837E+00
Ga   -3.2240700436921625E+00    7.4420411375817039E+00    7.8292387339649148E+00
N   -3.2167385004236753E+00    5.5826893381803711E+00    8.4771219892859637E+00
Ga   -3.2244976152181426E+00    5.5888071413170763E+00    1.0464338238731825E+01
N   -3.2348574084276729E+00    7.4502762366171398E+00    1.1049485704129410E+01
Ga   -3.2437813672536837E+00    7.4403132215596468E+00    1.3112869187008483E+01
N   -3.2226840154107510E+00    5.5804866801727790E+00    1.3436003988038820E+01
Ga   -4.8344558073879282E+00    8.3767100949225668E+00   -1.6433852888131656E-01
N   -4.8403715788529764E+00    1.0235318279100875E+01    6.1968260516252671E-01
Ga   -4.8374511713148474E+00    1.0236133166455714E+01    2.5537395323859080E+00
N   -4.8326325568743442E+00    8.3766165612522236E+00    3.2379235972635838E+00
Ga   -4.8312363764631687E+00    8.3758535160504817E+00    5.1974749147554462E+00
N   -4.8369627465614125E+00    1.0235660929232425E+01    5.8540627425270886E+00
Ga   -4.8332266721718167E+00    1.0234594326941959E+01    7.8209978644209039E+00
N   -4.8294351095838968E+00    8.3799812555203808E+00    8.4737514952892692E+00
Ga   -4.8362454498363396E+00    8.3872827858242829E+00    1.0458080652365993E+01
N   -4.8369683924543088E+00    1.0240261863704244E+01    1.1065350010954393E+01
Ga   -4.8356513321213788E+00    1.0224913504746498E+01    1.3155141145385947E+01
N   -4.8372429250273177E+00    8.3752841565080232E+00    1.3526518819537408E+01
Ga    3.2154415309851871E+00    4.9792338634148392E-04   -1.6327094572266590E-01
N    3.2093772085130494E+00    1.8596473249686747E+00    6.1872974651369428E-01
Ga    3.2122566785025910E+00    1.8605421375475204E+00    2.5526159046797692E+00
N    3.2165292036993534E+00    1.5627423042458815E-03    3.2380500468129472E+00
Ga    3.2181888847033706E+00    9.0385374018918277E-04    5.1980467923225078E+00
N    3.2128249505358957E+00    1.8601380132649588E+00    5.8562849081894495E+00
Ga    3.2158281949626875E+00    1.8600516569525654E+00    7.8256369272333153E+00
N    3.2212272239575435E+00   -5.7527631165013560E-04    8.4699869279213225E+00
Ga    3.2107759886128266E+00    6.5358123041320123E-03    1.0451512532481180E+01
N    3.2069474598084295E+00    1.8603973471209858E+00    1.1045138978861946E+01
Ga    3.2111857868022904E+00    1.8453768424463262E+00    1.3114337692969340E+01
N    3.2179941049026168E+00    4.9965222390516610E-03    1.3544823275732400E+01
Ga    1.6033146059268286E+00    2.7924397141938035E+00   -1.6455053638471517E-01
N    1.5972700946503653E+00    4.6512444641526924E+00    6.1842143550624895E-01
Ga    1.6002475448298814E+00    4.6519007148398650E+00    2.5521716458464798E+00
N    1.6049520209409252E+00    2.7930072987592482E+00    3.2380143854941252E+00
Ga    1.6054183949905918E+00    2.7918025941317350E+00    5.1976931485220108E+00
N    1.6000177178088570E+00    4.6508689659921787E+00    5.8558120400320730E+00
Ga    1.6000731680792228E+00    4.6490829264325928E+00    7.8247363453464818E+00
N    1.6076987407861896E+00    2.7908517842942699E+00    8.4722206177312884E+00
Ga    1.6047779811871590E+00    2.7965334935395991E+00    1.0457367514782668E+01
N    1.5987415728821299E+00    4.6537401970086076E+00    1.1048234621936782E+01
Ga    1.5903520631341945E+00    4.6417634475887546E+00    1.3115100053000907E+01
N    1.6015935754497632E+00    2.7874574607086218E+00    1.3454193055290936E+01
Ga   -8.6314154498198115E-03    5.5845456365263573E+00   -1.6551864562568985E-01
N   -1.4702541116397018E-02    7.4430713442521554E+00    6.1851979176264427E-01
Ga   -1.2206652556639273E-02    7.4443145459000322E+00    2.5523834577260622E+00
N   -7.3644195769183860E-03    5.5847637347319870E+00    3.2364270167835345E+00
Ga   -7.0782470662212656E-03    5.5839607836753444E+00    5.1962184855186342E+00
N   -1.1465075499136007E-02    7.4434522989264673E+00    5.8535864984303254E+00
Ga   -1.0451624207279190E-02    7.4418292325559205E+00    7.8217255828128165E+00
N   -2.3300175735380358E-03    5.5857110844112281E+00    8.4754199267693267E+00
Ga   -5.7437136716050260E-03    5.5947390267860282E+00    1.0462958149457064E+01
N   -9.5826093961247499E-03    7.4505781031236396E+00    1.1063816627951045E+01
Ga   -1.2040376251084693E-02    7.4354681572306989E+00    1.3156211330872374E+01
N   -7.6650566119972575E-03    5.5811711276195641E+00    1.3495837426069578E+01
Ga   -1.6204918566309945E+00    8.3765791322308161E+00   -1.6409830552598606E-01
N   -1.6262472476858105E+00    1.0235280636704385E+01    6.1973942097832102E-01
Ga   -1.6235307933067828E+00    1.0236500402361717E+01    2.5539151888863936E+00
N   -1.6198104089040348E+00    8.3768907704577451E+00    3.2377336562553030E+00
Ga   -1.6195498842442104E+00    8.3757611160115530E+00    5.1977448289163135E+00
N   -1.6227012257042772E+00    1.0234383193302012E+01    5.8574328042107977E+00
Ga   -1.6201634029610359E+00    1.0231894849092830E+01    7.8268872722541376E+00
N   -1.6135808361382655E+00    8.3731185194076332E+00    8.4781706782400086E+00
Ga   -1.6175683690618952E+00    8.3749172680041131E+00    1.0465579599603485E+01
N   -1.6321393160932827E+00    1.0238609050820385E+01    1.1049086676880105E+01
Ga   -1.6438048531189906E+00    1.0236902043239246E+01    1.3110123689645480E+01
N   -1.6258748645524717E+00    8.3786951865805595E+00    1.3450238088117192E+01
Ga    6.4288852615272569E+00    3.8673235834409049E-04   -1.6456193898660457E-01
N    6.4227990615761668E+00    1.8593180354070089E+00    6.1831854065147207E-01
Ga    6.4255608064926513E+00    1.8602718926111839E+00    2.5520398645962974E+00
N    6.4302535902994604E+00    1.8957046759500624E-03    3.2382745868115372E+00
Ga    6.4301877651001691E+00    1.1633318964374294E-03    5.1983145081764004E+00
N    6.4265117378766812E+00    1.8590282785481034E+00    5.8609595716082126E+00
Ga    6.4268198648663386E+00    1.8584941634309853E+00    7.8322671577430398E+00
N    6.4351059855437738E+00   -2.7344702240772586E-03    8.4788130461164908E+00
Ga    6.4318665732070972E+00    9.4273099355567536E-04    1.0465999116435606E+01
N    6.4207249088424074E+00    1.8607497622359930E+00    1.1053975469115144E+01
Ga    6.4155899114505344E+00    1.8518335423860832E+00    1.3124150972357098E+01
N    6.4309280216661957E+00   -4.6599870417274253E-03    1.3444396146460599E+01
Ga    4.8168376806936974E+00    2.7927620390950283E+00   -1.6496212751545239E-01
N    4.8109124303892532E+00    4.6510263046057467E+00    6.1956460353961673E-01
Ga    4.8139025904487980E+00    4.6521664770814564E+00    2.5536603203149992E+00
N    4.8187127065126933E+00    2.7925986881515779E+00    3.2372802801376879E+00
Ga    4.8200035115228665E+00    2.7914438612846739E+00    5.1973152653169503E+00
N    4.8143906533019978E+00    4.6511561723335886E+00    5.8531644527960935E+00
Ga    4.8175218802257955E+00    4.6489053355904408E+00    7.8212060245660142E+00
N    4.8216316658193819E+00    2.7941633120203151E+00    8.4785498942930211E+00
Ga    4.8150053049241048E+00    2.8029550964687631E+00    1.0467458872945848E+01
N    4.8124204744718444E+00    4.6637707969301534E+00    1.1054768649875729E+01
Ga    4.8066565092665652E+00    4.6561559380838089E+00    1.3141574837745070E+01
N    4.8161750735246507E+00    2.7986996532718966E+00    1.3476860427370564E+01
Ga    3.2054293334315700E+00    5.5845398987589538E+00   -1.6421964018868834E-01
N    3.1996543313531882E+00    7.4432480311342477E+00    6.1892295272016440E-01
Ga    3.2021701899076036E+00    7.4439808563956431E+00    2.5527128618952029E+00
N    3.2059750222114984E+00    5.5847843987247572E+00    3.2375264477447998E+00
Ga    3.2065897796834619E+00    5.5836479169790234E+00    5.1972315160864690E+00
N    3.2026558170811148E+00    7.4433363702898045E+00    5.8541495056214075E+00
Ga    3.2043879655380545E+00    7.4415598165673327E+00    7.8229355158332226E+00
N    3.2110225504641199E+00    5.5814498464489617E+00    8.4675028549267797E+00
Ga    3.2071331496111979E+00    5.5837177336057513E+00    1.0450454142280035E+01
N    3.1906694826408257E+00    7.4442277347298615E+00    1.1032049050837276E+01
Ga    3.1745872274071485E+00    7.4428680373598874E+00    1.3088768695486975E+01
N    3.1964534241943263E+00    5.5926915158187018E+00    1.3470949840185430E+01
Ga    1.5935240333199578E+00    8.3764084988929994E+00   -1.6383132364730618E-01
N    1.5871271954422506E+00    1.0235554619804741E+01    6.1905638301922927E-01
Ga    1.5898573985855211E+00    1.0236831421663272E+01    2.5530399177275505E+00
N    1.5942899393509005E+00    8.3770906471117392E+00    3.2367858413447550E+00
Ga    1.5947259683532649E+00    8.3766166322854030E+00    5.1961887225799197E+00
N    1.5902932819493307E+00    1.0236240187925272E+01    5.8539629509950526E+00
Ga    1.5911211416614222E+00    1.0236769916094957E+01    7.8213985130736825E+00
N    1.5986767816225973E+00    8.3771528193192051E+00    8.4651956628247884E+00
Ga    1.5865314542325371E+00    8.3834622334976583E+00    1.0445348997133189E+01
N    1.5935412674089198E+00    1.0233777676304959E+01    1.1050768100880536E+01
Ga    1.5947428523376033E+00    1.0215982372010634E+01    1.3128754193399987E+01
N    1.5937332951742942E+00    8.3760944888058972E+00    1.3555740415012368E+01
Ga    9.6425108259009242E+00    8.4174989321447117E-04   -1.6485488659557837E-01
N    9.6366593832056537E+00    1.8592290294497180E+00    6.1990504068733621E-01
Ga    9.6391843643351525E+00    1.8604809448400057E+00    2.5539711422285767E+00
N    9.6448352902921375E+00    7.4407763965935857E-04    3.2377364345752704E+00
Ga    9.6452656792778022E+00    6.4936054564455295E-04    5.1974035148394746E+00
N    9.6393939344526789E+00    1.8602135849668986E+00    5.8537629531331463E+00
Ga    9.6400123979483414E+00    1.8609555342715176E+00    7.8208316658670780E+00
N    9.6456087325359157E+00    4.1433783794862693E-03    8.4681195125265205E+00
Ga    9.6389136671563040E+00    1.0370517274216453E-02    1.0451801061593699E+01
N    9.6376717998606019E+00    1.8649803480395482E+00    1.1057746450628560E+01
Ga    9.6387147681038456E+00    1.8521792567764588E+00    1.3141587345470374E+01
N    9.6412416698916061E+00    3.2246105643672458E-03    1.3521457624950090E+01
Ga    8.0309498366347647E+00    2.7926341635201721E+00   -1.6353540774406808E-01
N    8.0251526743022019E+00    4.6513200903701710E+00    6.2025352675060408E-01
Ga    8.0277717361348788E+00    4.6522287113624632E+00    2.5545442873965922E+00
N    8.0309997774123776E+00    2.7926700888313332E+00    3.2385516035701833E+00
Ga    8.0310959962394346E+00    2.7926052477813501E+00    5.1984518529711954E+00
N    8.0284676998297364E+00    4.6512069179792244E+00    5.8564409664700605E+00
Ga    8.0309272840202972E+00    4.6496898388605370E+00    7.8256885619245766E+00
N    8.0379220490660526E+00    2.7921149427202336E+00    8.4777958929467232E+00
Ga    8.0315450022200814E+00    2.7955420516828999E+00    1.0463962504788210E+01
N    8.0137213057052996E+00    4.6565842044245089E+00    1.1042749615081558E+01
Ga    8.0042931897446241E+00    4.6522767594059742E+00    1.3104400984509590E+01
N    8.0281051988791905E+00    2.7959482482696978E+00    1.3460199582827313E+01
Ga    6.4189542810286628E+00    5.5842535047430530E+00   -1.6310082670949547E-01
N    6.4126381635562630E+00    7.4435350894325349E+00    6.1867672915519656E-01
Ga    6.4158592836173884E+00    7.4444590342841002E+00    2.5525004938564204E+00
N    6.4200573547430269E+00    5.5856126922474827E+00    3.2378658992590261E+00
Ga    6.4214626196925009E+00    5.5847789749804635E+00    5.1978479076242845E+00
N    6.4162043466301579E+00    7.4448756985264914E+00    5.8549100187594787E+00
Ga    6.4191261687701369E+00    7.4453458862196689E+00    7.8233996822816332E+00
N    6.4236463824880898E+00    5.5859558867306491E+00    8.4669249355571861E+00
Ga    6.4123756241006991E+00    5.5978314924921557E+00    1.0447641661749177E+01
N    6.4174534175997682E+00    7.4456002934075425E+00    1.1054548523196416E+01
Ga    6.4181965584420686E+00    7.4219743602906396E+00    1.3139189327130468E+01
N    6.4180201445496223E+00    5.5824662169624375E+00    1.3561316445291531E+01
Ga    4.8068116090779309E+00    8.3762246181733282E+00   -1.6563513751431591E-01
N    4.8008999414853220E+00    1.0235188630705098E+01    6.1733871408782581E-01
Ga    4.8036588793812074E+00    1.0236328056514839E+01    2.5506737495167537E+00
N    4.8083219248675872E+00    8.3777555834425641E+00    3.2363437358287048E+00
Ga    4.8089629786191628E+00    8.3766889779991160E+00    5.1962837886898159E+00
N    4.8043374927086759E+00    1.0235379045227672E+01    5.8591919049766901E+00
Ga    4.8055968612086213E+00    1.0234670543213415E+01    7.8297649550402255E+00
N    4.8126078896103088E+00    8.3746974348503684E+00    8.4752742512717187E+00
Ga    4.8079428299104645E+00    8.3791049392246517E+00    1.0464156949287322E+01
N    4.7940717491312483E+00    1.0242768325955746E+01    1.1041673110407322E+01
Ga    4.7835108995108833E+00    1.0234079520248903E+01    1.3103454368186451E+01
N    4.8021525523137027E+00    8.3738683980922044E+00    1.3417461792513812E+01
H    4.8048196876798954E+00    8.3756924727865751E+00   -1.7163213340317984E+00
H    1.5920087432799144E+00    8.3759659581909247E+00   -1.7145422192688715E+00
H   -1.6219661755842110E+00    8.3765961667676745E+00   -1.7147597594779596E+00
H   -4.8366673151464470E+00    8.3769762214367880E+00   -1.7150425056319174E+00
H    6.4167937635223113E+00    5.5837126307653993E+00   -1.7138616176798172E+00
H    3.2036693131762730E+00    5.5843702154126387E+00   -1.7148820911372042E+00
H   -9.7465359201576712E-03    5.5844643362573025E+00   -1.7162492624950714E+00
H   -3.2247894259478205E+00    5.5840456748681619E+00   -1.7152540340547002E+00
H    8.0295918422594390E+00    2.7925051547742656E+00   -1.7142116932189697E+00
H    4.8147238825199654E+00    2.7926377063681165E+00   -1.7157343688728468E+00
H    1.6010630440737645E+00    2.7918424695362201E+00   -1.7152291116388070E+00
H   -1.6117799507427326E+00    2.7908961106698666E+00   -1.7143360493672641E+00
H    5.2761874243601912E-04    5.8155063440396481E-04   -1.7152286534818026E+00
H    3.2133100666831091E+00   -1.3713661361005155E-04   -1.7139853803305918E+00
H    6.4270101626092249E+00   -4.3490724313865624E-04   -1.7152464921783206E+00
H    9.6406180632738483E+00    4.8914770577074664E-04   -1.7155324539911239E+00
     &END COORD
     &KIND H
       BASIS_SET DZVP-MOLOPT-SR-GTH-q1
       POTENTIAL GTH-PBE-q1
       &POTENTIAL
1
0.2000000000000000E+00 2 -0.4178900440000000E+01  0.7244633100000000E+00
0
       &END POTENTIAL
     &END KIND
     &KIND N
       BASIS_SET DZVP-MOLOPT-SR-GTH
       POTENTIAL GTH-PBE-q5
       &POTENTIAL
2 3
0.2837905100000000E+00 2 -0.1241522559000000E+02  0.1868095920000000E+01
2
0.2554050000000000E+00 1  0.1363026257000000E+02
0.2454945300000000E+00 0
       &END POTENTIAL
     &END KIND
     &KIND Ga
       BASIS_SET DZVP-MOLOPT-SR-GTH
       POTENTIAL GTH-PBE-q13
       &POTENTIAL
2 1 10
0.4900000000000000E+00 0
3
0.4167772300000000E+00 3  0.1047568975000000E+02 -0.4921768140000000E+01  0.8707055900000000E+00
0.7770178090000000E+01 -0.2248152160000000E+01
0.1784415450000000E+01
0.5696265200000000E+00 2  0.1777985340000000E+01  0.1958597600000000E+00
-0.2317443900000000E+00
0.2381265000000000E+00 1 -0.1624868022000000E+02
       &END POTENTIAL
     &END KIND
     &TOPOLOGY
       NUMBER_OF_ATOMS  208
       MULTIPLE_UNIT_CELL  1 1 1
     &END TOPOLOGY
   &END SUBSYS
 &END FORCE_EVAL
