 # Version information for this restart file 
 # current date 2019-05-26 00:36:55.877
 # current working dir /lustre03/project/6004141/rzk/GaN-carbene/00-Surface/00-Preoptimization/443-capped/CELL_OPT
 # Program compiled at                              Sun Apr  7 00:48:11 EDT 2019
 # Program compiled on                          beluga2.int.ets1.calculquebec.ca
 # Program compiled for                        Beluga-Linux-x86-64-intel-openmpi
 # Source code revision number                                         svn:18619
 &GLOBAL
   PRINT_LEVEL  MEDIUM
   PROJECT_NAME TEST
   RUN_TYPE  CELL_OPT
 &END GLOBAL
 &MOTION
   &CELL_OPT
     MAX_ITER  300
     STEP_START_VAL  41
     EXTERNAL_PRESSURE     1.0000000000000000E+00
     KEEP_ANGLES  T
     KEEP_SYMMETRY  T
     CONSTRAINT  Z
     PRESSURE_TOLERANCE     5.0000000000000000E+02
   &END CELL_OPT
 &END MOTION
 &FORCE_EVAL
   METHOD  QS
   STRESS_TENSOR  ANALYTICAL
   &DFT
     BASIS_SET_FILE_NAME BASIS_MOLOPT
     POTENTIAL_FILE_NAME GTH_POTENTIALS
     SURFACE_DIPOLE_CORRECTION  T
     SURF_DIP_DIR  Z
     &SCF
       MAX_SCF  100
       EPS_SCF     5.0000000000000004E-06
       &OT  T
         PRECONDITIONER  FULL_ALL
       &END OT
       &OUTER_SCF  T
         OPTIMIZER  NONE
         EPS_SCF     5.0000000000000004E-06
         MAX_SCF  4
       &END OUTER_SCF
       &PRINT
         &RESTART  OFF
           BACKUP_COPIES  1
           &EACH
             JUST_ENERGY  0
             QS_SCF  0
             MD  20
           &END EACH
         &END RESTART
       &END PRINT
     &END SCF
     &QS
       EPS_DEFAULT     1.0000000000000000E-14
       METHOD  GPW
     &END QS
     &MGRID
       NGRIDS  5
       CUTOFF     1.2000000000000000E+03
     &END MGRID
     &XC
       DENSITY_CUTOFF     1.0000000000000000E-10
       GRADIENT_CUTOFF     1.0000000000000000E-10
       TAU_CUTOFF     1.0000000000000000E-10
       &XC_FUNCTIONAL  NO_SHORTCUT
         &PBE  T
         &END PBE
       &END XC_FUNCTIONAL
       &VDW_POTENTIAL
         POTENTIAL_TYPE  PAIR_POTENTIAL
         &PAIR_POTENTIAL
           R_CUTOFF     1.0000000000000004E+01
           TYPE  DFTD3
           PARAMETER_FILE_NAME dftd3.dat
           REFERENCE_FUNCTIONAL PBE
           EPS_CN     9.9999999999999995E-07
           CALCULATE_C9_TERM  T
           REFERENCE_C9_TERM  T
           LONG_RANGE_CORRECTION  F
           VERBOSE_OUTPUT  F
         &END PAIR_POTENTIAL
       &END VDW_POTENTIAL
     &END XC
   &END DFT
   &SUBSYS
     &CELL
       A     1.2845834739786373E+01    0.0000000000000000E+00    0.0000000000000000E+00
       B    -6.4477056605197447E+00    1.1167753796269658E+01    0.0000000000000000E+00
       C     0.0000000000000000E+00    0.0000000000000000E+00    2.9000000000000000E+01
       MULTIPLE_UNIT_CELL  1 1 1
       &CELL_REF
         A     1.2982353780853531E+01    0.0000000000000000E+00    0.0000000000000000E+00
         B    -6.4911768904267628E+00    1.1243048175136114E+01    0.0000000000000000E+00
         C     0.0000000000000000E+00    0.0000000000000000E+00    2.9000000000000000E+01
         MULTIPLE_UNIT_CELL  1 1 1
       &END CELL_REF
     &END CELL
     &COORD
Ga    1.3724219949980019E-03   -1.1461323885461883E-03   -1.7327152296992857E-01
N   -4.9381099930768139E-03    1.8580599037248766E+00    6.1245873151578456E-01
Ga    1.7622251113310822E-04    1.8609417026149317E+00    2.5471296176118794E+00
N    5.4296148472822332E-03    2.1180595022240365E-03    3.2352830959046224E+00
Ga    6.3102050454732954E-03    6.8360342095898346E-04    5.1959628623602283E+00
N    1.0371498629758295E-03    1.8588405516042033E+00    5.8576816620277965E+00
Ga    4.0937202086364565E-03    1.8603360850914501E+00    7.8265883910099472E+00
N    1.3164057150469958E-02    2.8946642909352276E-03    8.4797537911763001E+00
Ga    1.1228566139237945E-02    6.3490281233638040E-03    1.0468852103468063E+01
N   -6.7056749516049511E-03    1.8662500700742886E+00    1.1061071120193983E+01
Ga   -3.2343316996241114E-02    1.8528891425039091E+00    1.3130332747182983E+01
N   -1.2302040745067008E-02   -1.2585358037280334E-03    1.3469737806817134E+01
Ga   -1.6108898544790773E+00    2.7909011244966226E+00   -1.7347458592941969E-01
N   -1.6169875864296486E+00    4.6499589778882564E+00    6.1266047170879712E-01
Ga   -1.6122909629813760E+00    4.6528614462711824E+00    2.5476141077129979E+00
N   -1.6061879034950555E+00    2.7939458103328190E+00    3.2353809956682036E+00
Ga   -1.6051578824803188E+00    2.7916975153210690E+00    5.1959642434871531E+00
N   -1.6115764298601865E+00    4.6510978676782626E+00    5.8548555363272934E+00
Ga   -1.6090221212740672E+00    4.6518734384311351E+00    7.8231819136220420E+00
N   -1.6020137109583370E+00    2.7945697539279140E+00    8.4745179323607402E+00
Ga   -1.6093910126140825E+00    2.8007537742168149E+00    1.0459875219152455E+01
N   -1.6135745743224057E+00    4.6551968933527679E+00    1.1058020684575284E+01
Ga   -1.6273056362779283E+00    4.6362761100374437E+00    1.3132941518428657E+01
N   -1.6230174883251121E+00    2.7936105897719949E+00    1.3541002666492238E+01
Ga   -3.2226393752179128E+00    5.5828427803644685E+00   -1.7372242369776827E-01
N   -3.2286899797327879E+00    7.4417673882453936E+00    6.1263258952811128E-01
Ga   -3.2237584977064113E+00    7.4447094686543736E+00    2.5473631840391482E+00
N   -3.2186080653369586E+00    5.5862149760200221E+00    3.2358327349191645E+00
Ga   -3.2181439347802550E+00    5.5847427619910484E+00    5.1966311375655936E+00
N   -3.2228251769655865E+00    7.4434286905743603E+00    5.8584549784437083E+00
Ga   -3.2201328603304260E+00    7.4455975579557014E+00    7.8275514005643343E+00
N   -3.2130084605107245E+00    5.5860014149746471E+00    8.4744994423818749E+00
Ga   -3.2171944460644837E+00    5.5901900634590618E+00    1.0461902068094020E+01
N   -3.2318869835143000E+00    7.4492857625535569E+00    1.1053586531923635E+01
Ga   -3.2560171348127289E+00    7.4395732116450128E+00    1.3115944764608429E+01
N   -3.2348995716525617E+00    5.5847995589399124E+00    1.3463980017584825E+01
Ga   -4.8344907775004629E+00    8.3748753874302135E+00   -1.7313881331728578E-01
N   -4.8405256924341460E+00    1.0233810317597461E+01    6.1328517539963789E-01
Ga   -4.8354367254388562E+00    1.0236713821672657E+01    2.5481320682019688E+00
N   -4.8300529242032741E+00    8.3777160041761629E+00    3.2356029134243509E+00
Ga   -4.8289185547201727E+00    8.3762472900262370E+00    5.1962418618096065E+00
N   -4.8355508931552116E+00    1.0234955372831919E+01    5.8562193485582981E+00
Ga   -4.8322225953181324E+00    1.0237240700686060E+01    7.8243320590897003E+00
N   -4.8270252333060109E+00    8.3795407523446244E+00    8.4750867215738310E+00
Ga   -4.8337474700911880E+00    8.3863593508323735E+00    1.0460022389212218E+01
N   -4.8336440842259583E+00    1.0237440918843241E+01    1.1070186596821678E+01
Ga   -4.8524647956784346E+00    1.0215150504012300E+01    1.3154366020738264E+01
N   -4.8446758531433272E+00    8.3728777730520090E+00    1.3556847534692322E+01
Ga    3.2127267418047758E+00   -9.9284842944690095E-04   -1.7287006887278022E-01
N    3.2065638830573708E+00    1.8578500356861463E+00    6.1367527807305033E-01
Ga    3.2114294975034179E+00    1.8604722898011177E+00    2.5488007017149252E+00
N    3.2172596126671396E+00    1.6151894878784522E-03    3.2368479944354642E+00
Ga    3.2183391331390339E+00   -4.0434560483836528E-04    5.1978261913464774E+00
N    3.2118691079719501E+00    1.8589042232781130E+00    5.8558438532351920E+00
Ga    3.2148020503176626E+00    1.8600498396215013E+00    7.8240696809564483E+00
N    3.2222553718723241E+00    2.0454525157733885E-03    8.4754158194631763E+00
Ga    3.2142802869311193E+00    6.6535713938972920E-03    1.0460135792662047E+01
N    3.2130392826492900E+00    1.8626964687189760E+00    1.1055014548574327E+01
Ga    3.1952475085631753E+00    1.8438110683948521E+00    1.3126984289635116E+01
N    3.2007385807534168E+00    1.4737901861828933E-03    1.3535657657921442E+01
Ga    1.6009859497386447E+00    2.7906882164826929E+00   -1.7322218362543773E-01
N    1.5946842741978018E+00    4.6498507382791230E+00    6.1227532746753199E-01
Ga    1.5996373960080632E+00    4.6524680646508170E+00    2.5469301643825264E+00
N    1.6048663236343232E+00    2.7940594762255193E+00    3.2355881484952884E+00
Ga    1.6055237224652616E+00    2.7920974421880760E+00    5.1962579567341667E+00
N    1.6005256891212247E+00    4.6507770534094721E+00    5.8567659424269243E+00
Ga    1.6025631687123214E+00    4.6518591830561240E+00    7.8254253391948936E+00
N    1.6112368332841616E+00    2.7938855607372743E+00    8.4770669882738137E+00
Ga    1.6060732804398408E+00    2.7980376255568067E+00    1.0464483061364932E+01
N    1.5933591866900494E+00    4.6580191044328600E+00    1.1053832700160896E+01
Ga    1.5695114009804125E+00    4.6432202830621909E+00    1.3117970874059399E+01
N    1.5894358566988191E+00    2.7897693083266408E+00    1.3466571564343786E+01
Ga   -1.1239156060248109E-02    5.5828386239498453E+00   -1.7342788764718425E-01
N   -1.7316330077347085E-02    7.4419009177615774E+00    6.1274677533467492E-01
Ga   -1.2476160747923494E-02    7.4448268850551269E+00    2.5475325086329423E+00
N   -6.7518145164031000E-03    5.5857736796953121E+00    3.2348986753270301E+00
Ga   -5.7319121629862092E-03    5.5836921398513013E+00    5.1955516275039333E+00
N   -1.1854568253533636E-02    7.4429011530227527E+00    5.8556405686750592E+00
Ga   -9.0556467381864778E-03    7.4449433636181865E+00    7.8238745918123049E+00
N   -2.9011207811332528E-03    5.5869017826873142E+00    8.4732368584936228E+00
Ga   -1.1097660775318196E-02    5.5940086787649523E+00    1.0458077273017091E+01
N   -1.1544821220649544E-02    7.4438062361740416E+00    1.1069712824982105E+01
Ga   -2.8768749189613318E-02    7.4231358928284585E+00    1.3153612983308633E+01
N   -2.1217925041442539E-02    5.5775956061723315E+00    1.3543282445722065E+01
Ga   -1.6231041776218933E+00    8.3748086148924870E+00   -1.7339696905730162E-01
N   -1.6292803462455545E+00    1.0233714228931531E+01    6.1324758850992112E-01
Ga   -1.6243502441272355E+00    1.0236573796895510E+01    2.5480382282876057E+00
N   -1.6189177590870032E+00    8.3777210581772774E+00    3.2357808593297288E+00
Ga   -1.6182048397268400E+00    8.3762259921547084E+00    5.1964503217107936E+00
N   -1.6228126164805476E+00    1.0234078446226148E+01    5.8593766283431297E+00
Ga   -1.6194825274775713E+00    1.0235952166126651E+01    7.8287057266251390E+00
N   -1.6119479936184697E+00    8.3768163007104999E+00    8.4803894949086587E+00
Ga   -1.6157439036758605E+00    8.3795458576857982E+00    1.0469215677712144E+01
N   -1.6289774768887029E+00    1.0241277709566114E+01    1.1059418179545638E+01
Ga   -1.6546975089024936E+00    1.0229992135758160E+01    1.3124686990912565E+01
N   -1.6353035446696358E+00    8.3759395876072560E+00    1.3467249722769985E+01
Ga    6.4242153080098152E+00   -1.1062479723108407E-03   -1.7261505504665231E-01
N    6.4180394521450941E+00    1.8579559651085735E+00    6.1321349129898473E-01
Ga    6.4228677279068060E+00    1.8606574669958604E+00    2.5480554176510344E+00
N    6.4281828753532206E+00    1.9625510951011109E-03    3.2362540364157608E+00
Ga    6.4289788330515316E+00   -8.5152886835018480E-05    5.1970050188925008E+00
N    6.4246210278050544E+00    1.8587214003157058E+00    5.8581038372654168E+00
Ga    6.4280936799938155E+00    1.8596365313985752E+00    7.8273988765069564E+00
N    6.4354974687005928E+00    2.1441178124359511E-03    8.4799021129304641E+00
Ga    6.4329778320132771E+00    5.5889386910102029E-03    1.0468190723197116E+01
N    6.4173217879092341E+00    1.8655229105948505E+00    1.1054444555625389E+01
Ga    6.3940553281623265E+00    1.8508712374661669E+00    1.3118506320086706E+01
N    6.4132130384797019E+00   -1.0159165602104663E-03    1.3473262156069975E+01
Ga    4.8121822276955140E+00    2.7907768186329474E+00   -1.7276609566441131E-01
N    4.8060678940464436E+00    4.6498944917836385E+00    6.1283949700607621E-01
Ga    4.8108206673073477E+00    4.6526556384261939E+00    2.5475549604352432E+00
N    4.8166724023935918E+00    2.7939510243131878E+00    3.2359383105763762E+00
Ga    4.8177175896706022E+00    2.7915696388873159E+00    5.1968045430317824E+00
N    4.8114196705305421E+00    4.6516567852070576E+00    5.8543221488252426E+00
Ga    4.8146525707914014E+00    4.6529747261028671E+00    7.8223132252976741E+00
N    4.8212658877022276E+00    2.7953041633417217E+00    8.4717454976649300E+00
Ga    4.8146544140743321E+00    2.8018443134544593E+00    1.0456005855076041E+01
N    4.8116556650554658E+00    4.6553771415652223E+00    1.1060165964821929E+01
Ga    4.7960141577279929E+00    4.6364597338690476E+00    1.3139357214325370E+01
N    4.8013473653964525E+00    2.7898964623540214E+00    1.3527592539924942E+01
Ga    3.2003904394741718E+00    5.5827617853453342E+00   -1.7367336300746092E-01
N    3.1942081523418606E+00    7.4419247741907890E+00    6.1225763318960180E-01
Ga    3.1990581375955358E+00    7.4447821872976947E+00    2.5468675897157063E+00
N    3.2043216313716898E+00    5.5861190579602455E+00    3.2348332221458742E+00
Ga    3.2046129816668025E+00    5.5844440801139825E+00    5.1953599234670191E+00
N    3.2002354399527162E+00    7.4429266311018489E+00    5.8580092932164307E+00
Ga    3.2024967133065316E+00    7.4445797572720265E+00    7.8269890055192404E+00
N    3.2103286904561652E+00    5.5852147153540441E+00    8.4751029697120739E+00
Ga    3.2065406065448703E+00    5.5881747309029235E+00    1.0462411087379028E+01
N    3.1930250228311694E+00    7.4494517892911265E+00    1.1050627556594682E+01
Ga    3.1677727549410668E+00    7.4372985328371293E+00    1.3113533696611968E+01
N    3.1883395746638703E+00    5.5839004031955124E+00    1.3465985134413993E+01
Ga    1.5882822971660753E+00    8.3749966200742971E+00   -1.7326297443743580E-01
N    1.5822363582109720E+00    1.0233788109767584E+01    6.1372443564887935E-01
Ga    1.5870548215997220E+00    1.0236635874259226E+01    2.5487124699230796E+00
N    1.5927854242843007E+00    8.3774722889653184E+00    3.2356397727815205E+00
Ga    1.5936857339941144E+00    8.3757549801237836E+00    5.1962721568207133E+00
N    1.5878170669684057E+00    1.0234562047533467E+01    5.8560080053789649E+00
Ga    1.5902823890650999E+00    1.0236474673595739E+01    7.8241493403874145E+00
N    1.5970398649252642E+00    8.3786988092007366E+00    8.4759544422962829E+00
Ga    1.5889132877823418E+00    8.3852902417228261E+00    1.0461328179016702E+01
N    1.5903098227650025E+00    1.0237035921998606E+01    1.1067635168626609E+01
Ga    1.5721615132968221E+00    1.0216816610908976E+01    1.3149994029764322E+01
N    1.5770790130097738E+00    8.3725755807053659E+00    1.3543702644102778E+01
Ga    9.6354077755041452E+00   -9.4239261267603275E-04   -1.7273781689079493E-01
N    9.6294917771634054E+00    1.8580538271251401E+00    6.1334341049688079E-01
Ga    9.6343155224999197E+00    1.8607525758487924E+00    2.5482341532751440E+00
N    9.6401616396261289E+00    1.8466676689593521E-03    3.2362374190981287E+00
Ga    9.6411936216116043E+00   -4.3121159665588567E-05    5.1972129074347988E+00
N    9.6349027606555531E+00    1.8594805884851453E+00    5.8553859994920030E+00
Ga    9.6380733959880089E+00    1.8609228000687446E+00    7.8234550370521525E+00
N    9.6443634907099582E+00    2.8686213490715191E-03    8.4733537726841615E+00
Ga    9.6366599720832831E+00    7.3719392759049995E-03    1.0458080882387502E+01
N    9.6362791123228089E+00    1.8599833307144540E+00    1.1063644246429641E+01
Ga    9.6188658619802965E+00    1.8431155399327763E+00    1.3142270644098632E+01
N    9.6253171362099383E+00    6.0104075067174568E-07    1.3543651082434826E+01
Ga    8.0236683172346268E+00    2.7908377243705296E+00   -1.7299837244884594E-01
N    8.0176321294879074E+00    4.6500598171297014E+00    6.1259337568087990E-01
Ga    8.0226087419885239E+00    4.6528248503774998E+00    2.5471804396692028E+00
N    8.0278139447023626E+00    2.7942015582341120E+00    3.2352798320974614E+00
Ga    8.0285548851103137E+00    2.7923137536556779E+00    5.1956171678301333E+00
N    8.0229100776419333E+00    4.6508879504809970E+00    5.8568216392000227E+00
Ga    8.0252183116516118E+00    4.6517137607211456E+00    7.8254340932777131E+00
N    8.0353423144542191E+00    2.7944552458602687E+00    8.4784361158161143E+00
Ga    8.0317098886929870E+00    2.7979672294238163E+00    1.0466627917164493E+01
N    8.0162432446045635E+00    4.6574935835870912E+00    1.1056441403155016E+01
Ga    7.9896991979578846E+00    4.6461940473207219E+00    1.3122835465134060E+01
N    8.0111671827790261E+00    2.7922065950267929E+00    1.3466326887877782E+01
Ga    6.4117238140348833E+00    5.5828959681987369E+00   -1.7355295411530161E-01
N    6.4056147795507830E+00    7.4419201502205139E+00    6.1272010134258947E-01
Ga    6.4105304982563833E+00    7.4449979431362063E+00    2.5474548494200353E+00
N    6.4161147590017578E+00    5.5859680223544084E+00    3.2346083750765451E+00
Ga    6.4169322008119760E+00    5.5839693538177961E+00    5.1948298800805803E+00
N    6.4111296588397382E+00    7.4429559967247165E+00    5.8550468380609022E+00
Ga    6.4143490088995030E+00    7.4444469175682029E+00    7.8229178606019030E+00
N    6.4202838758240031E+00    5.5868909420111779E+00    8.4742699721720349E+00
Ga    6.4131271115055100E+00    5.5942341097393502E+00    1.0459376209757963E+01
N    6.4136423329268908E+00    7.4453737124330335E+00    1.1068014598624005E+01
Ga    6.3971816861327673E+00    7.4246653913792056E+00    1.3151433803234601E+01
N    6.3996120582313836E+00    5.5811281469892098E+00    1.3552891930801856E+01
Ga    4.7999032017490793E+00    8.3747657245709011E+00   -1.7373714916174690E-01
N    4.7937164929127851E+00    1.0233786847905327E+01    6.1238914918411347E-01
Ga    4.7985528612793900E+00    1.0236780301299580E+01    2.5471349814970781E+00
N    4.8039119569191895E+00    8.3780268936357647E+00    3.2355168842517408E+00
Ga    4.8046467359267560E+00    8.3765355662109400E+00    5.1962897743345016E+00
N    4.8004001575496629E+00    1.0234712698157383E+01    5.8590729374044468E+00
Ga    4.8035732415391417E+00    1.0237082652800003E+01    7.8286691547055138E+00
N    4.8110180858484144E+00    8.3768228808800167E+00    8.4773533761963247E+00
Ga    4.8088780958334914E+00    8.3798113262569416E+00    1.0465805030344111E+01
N    4.7940702455983315E+00    1.0241080142238490E+01    1.1050190119859684E+01
Ga    4.7665897572962050E+00    1.0231638181996964E+01    1.3111752246433795E+01
N    4.7876354894422848E+00    8.3762797026739051E+00    1.3458155212794264E+01
H    4.8000666469083662E+00    8.3777723277282341E+00   -1.7261303682247269E+00
H    1.5883642473459363E+00    8.3789155931399044E+00   -1.7257338475340083E+00
H   -1.6232606603189443E+00    8.3787846530492853E+00   -1.7258662545661085E+00
H   -4.8349986728787906E+00    8.3791462528772822E+00   -1.7255746487652370E+00
H    6.4117468208667310E+00    5.5858989643933405E+00   -1.7260390627429278E+00
H    3.2008509512364194E+00    5.5861759628954584E+00   -1.7261027556755717E+00
H   -1.1193998793383945E-02    5.5867126284760875E+00   -1.7258643624655929E+00
H   -3.2235740599257952E+00    5.5863219357906129E+00   -1.7261669798783348E+00
H    8.0242254533439823E+00    2.7949804242990459E+00   -1.7254703611796978E+00
H    4.8116735541055808E+00    2.7949127029324097E+00   -1.7252438161752979E+00
H    1.6006872447353229E+00    2.7939102726566456E+00   -1.7256701589793617E+00
H   -1.6110662470866903E+00    2.7935952236760619E+00   -1.7259702574597628E+00
H    2.4036595557247265E-03    2.6907674411685849E-03   -1.7256846678389370E+00
H    3.2124788693991286E+00    2.3884139129462744E-03   -1.7253830856604375E+00
H    6.4239446160341735E+00    1.9647164561935855E-03   -1.7250962020283116E+00
H    9.6345444633024631E+00    3.4904038179244309E-03   -1.7251819899525045E+00
     &END COORD
     &KIND H
       BASIS_SET DZVP-MOLOPT-SR-GTH-q1
       POTENTIAL GTH-PBE-q1
       &POTENTIAL
1
0.2000000000000000E+00 2 -0.4178900440000000E+01  0.7244633100000000E+00
0
       &END POTENTIAL
     &END KIND
     &KIND N
       BASIS_SET DZVP-MOLOPT-SR-GTH
       POTENTIAL GTH-PBE-q5
       &POTENTIAL
2 3
0.2837905100000000E+00 2 -0.1241522559000000E+02  0.1868095920000000E+01
2
0.2554050000000000E+00 1  0.1363026257000000E+02
0.2454945300000000E+00 0
       &END POTENTIAL
     &END KIND
     &KIND Ga
       BASIS_SET DZVP-MOLOPT-SR-GTH
       POTENTIAL GTH-PBE-q13
       &POTENTIAL
2 1 10
0.4900000000000000E+00 0
3
0.4167772300000000E+00 3  0.1047568975000000E+02 -0.4921768140000000E+01  0.8707055900000000E+00
0.7770178090000000E+01 -0.2248152160000000E+01
0.1784415450000000E+01
0.5696265200000000E+00 2  0.1777985340000000E+01  0.1958597600000000E+00
-0.2317443900000000E+00
0.2381265000000000E+00 1 -0.1624868022000000E+02
       &END POTENTIAL
     &END KIND
     &TOPOLOGY
       NUMBER_OF_ATOMS  208
       MULTIPLE_UNIT_CELL  1 1 1
     &END TOPOLOGY
   &END SUBSYS
 &END FORCE_EVAL
