 # Version information for this restart file 
 # current date 2019-05-25 23:30:50.840
 # current working dir /lustre03/project/6004141/rzk/GaN-carbene/00-Surface/00-Preoptimization/443-capped/CELL_OPT
 # Program compiled at                              Sun Apr  7 00:48:11 EDT 2019
 # Program compiled on                          beluga2.int.ets1.calculquebec.ca
 # Program compiled for                        Beluga-Linux-x86-64-intel-openmpi
 # Source code revision number                                         svn:18619
 &GLOBAL
   PRINT_LEVEL  MEDIUM
   PROJECT_NAME TEST
   RUN_TYPE  CELL_OPT
 &END GLOBAL
 &MOTION
   &CELL_OPT
     MAX_ITER  300
     STEP_START_VAL  24
     EXTERNAL_PRESSURE     1.0000000000000000E+00
     KEEP_ANGLES  T
     KEEP_SYMMETRY  T
     CONSTRAINT  Z
     PRESSURE_TOLERANCE     5.0000000000000000E+02
   &END CELL_OPT
 &END MOTION
 &FORCE_EVAL
   METHOD  QS
   STRESS_TENSOR  ANALYTICAL
   &DFT
     BASIS_SET_FILE_NAME BASIS_MOLOPT
     POTENTIAL_FILE_NAME GTH_POTENTIALS
     SURFACE_DIPOLE_CORRECTION  T
     SURF_DIP_DIR  Z
     &SCF
       MAX_SCF  100
       EPS_SCF     5.0000000000000004E-06
       &OT  T
         PRECONDITIONER  FULL_ALL
       &END OT
       &OUTER_SCF  T
         OPTIMIZER  NONE
         EPS_SCF     5.0000000000000004E-06
         MAX_SCF  4
       &END OUTER_SCF
       &PRINT
         &RESTART  OFF
           BACKUP_COPIES  1
           &EACH
             JUST_ENERGY  0
             QS_SCF  0
             MD  20
           &END EACH
         &END RESTART
       &END PRINT
     &END SCF
     &QS
       EPS_DEFAULT     1.0000000000000000E-14
       METHOD  GPW
     &END QS
     &MGRID
       NGRIDS  5
       CUTOFF     1.2000000000000000E+03
     &END MGRID
     &XC
       DENSITY_CUTOFF     1.0000000000000000E-10
       GRADIENT_CUTOFF     1.0000000000000000E-10
       TAU_CUTOFF     1.0000000000000000E-10
       &XC_FUNCTIONAL  NO_SHORTCUT
         &PBE  T
         &END PBE
       &END XC_FUNCTIONAL
       &VDW_POTENTIAL
         POTENTIAL_TYPE  PAIR_POTENTIAL
         &PAIR_POTENTIAL
           R_CUTOFF     1.0000000000000004E+01
           TYPE  DFTD3
           PARAMETER_FILE_NAME dftd3.dat
           REFERENCE_FUNCTIONAL PBE
           EPS_CN     9.9999999999999995E-07
           CALCULATE_C9_TERM  T
           REFERENCE_C9_TERM  T
           LONG_RANGE_CORRECTION  F
           VERBOSE_OUTPUT  F
         &END PAIR_POTENTIAL
       &END VDW_POTENTIAL
     &END XC
   &END DFT
   &SUBSYS
     &CELL
       A     1.2851285158467670E+01    0.0000000000000000E+00    0.0000000000000000E+00
       B    -6.4502709923023316E+00    1.1172197081255385E+01    0.0000000000000000E+00
       C     0.0000000000000000E+00    0.0000000000000000E+00    2.9000000000000000E+01
       MULTIPLE_UNIT_CELL  1 1 1
       &CELL_REF
         A     1.2982353780853531E+01    0.0000000000000000E+00    0.0000000000000000E+00
         B    -6.4911768904267628E+00    1.1243048175136114E+01    0.0000000000000000E+00
         C     0.0000000000000000E+00    0.0000000000000000E+00    2.9000000000000000E+01
         MULTIPLE_UNIT_CELL  1 1 1
       &END CELL_REF
     &END CELL
     &COORD
Ga    1.2849126311282983E-03    2.5621729405652115E-04   -1.6673023700294007E-01
N   -4.6326750404055411E-03    1.8595274902278061E+00    6.1875148147950698E-01
Ga   -1.9475686520413179E-03    1.8608012135837759E+00    2.5523158518985927E+00
N    3.3973528744202326E-03    1.4179724674739263E-03    3.2369266133065007E+00
Ga    3.6722815812967251E-03    3.3626270798337319E-04    5.1975269181533514E+00
N   -1.7823268714945502E-03    1.8592474721910219E+00    5.8572851574368769E+00
Ga    1.3668985401622290E-03    1.8578599215663982E+00    7.8260864947659385E+00
N    1.0836108844848287E-02    1.2613917672961838E-03    8.4788916600847877E+00
Ga    8.2827218480935969E-03    5.1579533059683070E-03    1.0468113874811648E+01
N   -9.8932637011989698E-03    1.8680316564995423E+00    1.1052990899366673E+01
Ga   -2.5155118480885755E-02    1.8560744472935526E+00    1.3116823187421158E+01
N   -5.6642974912633412E-03   -4.3754126095333449E-05    1.3451597157362530E+01
Ga   -1.6115743161416456E+00    2.7927201076224031E+00   -1.6616058364911698E-01
N   -1.6174390255763507E+00    4.6528231643830571E+00    6.1751008032527099E-01
Ga   -1.6147379584658232E+00    4.6539801637124327E+00    2.5507643439979937E+00
N   -1.6087469373135561E+00    2.7951070901960477E+00    3.2376838402648334E+00
Ga   -1.6079394296316836E+00    2.7933089596509588E+00    5.1982567568399949E+00
N   -1.6142070274251059E+00    4.6531781274340931E+00    5.8570825929679105E+00
Ga   -1.6123782240325515E+00    4.6536466164035764E+00    7.8261243813287171E+00
N   -1.6063347403496766E+00    2.7947060146407554E+00    8.4708739492493770E+00
Ga   -1.6139988124879761E+00    2.8024042768831046E+00    1.0455003399245024E+01
N   -1.6144569674656164E+00    4.6560683452647940E+00    1.1049910010689720E+01
Ga   -1.6198526350537146E+00    4.6323033444821515E+00    1.3121443968869816E+01
N   -1.6135201094300722E+00    2.7933335276340641E+00    1.3546236255512264E+01
Ga   -3.2246823751558553E+00    5.5863465557806693E+00   -1.6679732276862930E-01
N   -3.2300479081352877E+00    7.4457664096803136E+00    6.1819138896808845E-01
Ga   -3.2271826380345168E+00    7.4470796720050609E+00    2.5514956918385541E+00
N   -3.2213238869731522E+00    5.5878564080401052E+00    3.2379625138332067E+00
Ga   -3.2213519044906640E+00    5.5865961253403773E+00    5.1986090108109915E+00
N   -3.2263816776570495E+00    7.4451412335833016E+00    5.8596037558529801E+00
Ga   -3.2239347678461048E+00    7.4456570331814413E+00    7.8295369162467257E+00
N   -3.2171215313857981E+00    5.5861073479488912E+00    8.4753402853076505E+00
Ga   -3.2208655179124666E+00    5.5915446452302673E+00    1.0462552201875129E+01
N   -3.2346215422505473E+00    7.4522338418621432E+00    1.1049299889185223E+01
Ga   -3.2496870448536397E+00    7.4416871506665618E+00    1.3108085764791035E+01
N   -3.2283662021164679E+00    5.5858203638427435E+00    1.3446181343527325E+01
Ga   -4.8368291524515277E+00    8.3795210417012829E+00   -1.6637316936861210E-01
N   -4.8424525569442753E+00    1.0238831830502409E+01    6.1898359941243364E-01
Ga   -4.8394932400216817E+00    1.0240217293965882E+01    2.5527847690036660E+00
N   -4.8336745433775166E+00    8.3805486729160616E+00    3.2373976138116229E+00
Ga   -4.8323956463816549E+00    8.3796460832155102E+00    5.1978820390256040E+00
N   -4.8392252309997899E+00    1.0238892052853195E+01    5.8544486635373216E+00
Ga   -4.8373646213779962E+00    1.0240753944888528E+01    7.8221475736804837E+00
N   -4.8315592639091127E+00    8.3824724926846716E+00    8.4724835058883627E+00
Ga   -4.8367936650845840E+00    8.3906873178407455E+00    1.0458073600988122E+01
N   -4.8365672551852894E+00    1.0241360763245794E+01    1.1068994944145636E+01
Ga   -4.8423797801927018E+00    1.0224838110606234E+01    1.3152804138038359E+01
N   -4.8399548453420458E+00    8.3783035042555394E+00    1.3536154450039559E+01
Ga    3.2138864599159671E+00    1.1654499799469669E-05   -1.6568427812368872E-01
N    3.2081135046557305E+00    1.8597986677839982E+00    6.1824552749167272E-01
Ga    3.2108154608664186E+00    1.8607837504874283E+00    2.5519628642745515E+00
N    3.2167357765070754E+00    1.7622527745530889E-03    3.2384124416291491E+00
Ga    3.2186138616759292E+00    3.2805613061265309E-04    5.1994643069883208E+00
N    3.2118205101902233E+00    1.8601201038542583E+00    5.8567005352198667E+00
Ga    3.2137785082137711E+00    1.8601930410384699E+00    7.8253909380908109E+00
N    3.2200585540069420E+00    5.2672736636498875E-04    8.4713381822467859E+00
Ga    3.2110136525442718E+00    4.6377564683191784E-03    1.0453888132929123E+01
N    3.2107992559178680E+00    1.8601505669172171E+00    1.1044324414707281E+01
Ga    3.2045856553119085E+00    1.8439098781543950E+00    1.3107035642653116E+01
N    3.2126613969627140E+00    7.0908064353903105E-03    1.3540488874639788E+01
Ga    1.6010259509730762E+00    2.7931407736167833E+00   -1.6655912915226453E-01
N    1.5954569973480193E+00    4.6526748155101298E+00    6.1788531982990491E-01
Ga    1.5982564630653540E+00    4.6535105702472848E+00    2.5513163441959454E+00
N    1.6039235413835837E+00    2.7945296070385335E+00    3.2370932128877841E+00
Ga    1.6041183291782921E+00    2.7926377935649453E+00    5.1978089603467286E+00
N    1.5987639247655878E+00    4.6526747893138305E+00    5.8561021760744065E+00
Ga    1.5996754505023789E+00    4.6510858237338129E+00    7.8243475444471393E+00
N    1.6077413592974694E+00    2.7936680097089051E+00    8.4735735879907104E+00
Ga    1.6038140696341980E+00    2.7988479770838035E+00    1.0458571235457589E+01
N    1.5946070921564830E+00    4.6572915249514439E+00    1.1051342569457969E+01
Ga    1.5840456541424590E+00    4.6424184930522152E+00    1.3112689521412660E+01
N    1.5987499730242594E+00    2.7902950222546163E+00    1.3458866374299280E+01
Ga   -1.1215400827870764E-02    5.5862822800676470E+00   -1.6732941440984955E-01
N   -1.7150663338366397E-02    7.4457964965668406E+00    6.1792916261263620E-01
Ga   -1.4583331480340606E-02    7.4473311706963194E+00    2.5514520364553275E+00
N   -8.7976482244249560E-03    5.5875668091900268E+00    3.2365093996136411E+00
Ga   -8.0767416256010451E-03    5.5862587635539596E+00    5.1967379178279067E+00
N   -1.4329344282612188E-02    7.4456014271537434E+00    5.8549049422782016E+00
Ga   -1.3845059916980873E-02    7.4454952396468350E+00    7.8226378068904863E+00
N   -5.0618899072768387E-03    5.5879074806006352E+00    8.4741374990374574E+00
Ga   -7.5287004967533851E-03    5.5980180483833726E+00    1.0460687369189699E+01
N   -1.0928994324038838E-02    7.4475117855296169E+00    1.1068137486319037E+01
Ga   -1.9932331715629453E-02    7.4344047436612550E+00    1.3152429268988850E+01
N   -1.2902274828028908E-02    5.5810559055617439E+00    1.3506782967217871E+01
Ga   -1.6240815253287011E+00    8.3795303996450787E+00   -1.6644449032961994E-01
N   -1.6295329861632710E+00    1.0238806689149298E+01    6.1900639263158119E-01
Ga   -1.6270530037938224E+00    1.0240339254658839E+01    2.5526140995480660E+00
N   -1.6216704307063008E+00    8.3807112017859620E+00    3.2374741717931936E+00
Ga   -1.6215768711138001E+00    8.3798593465180176E+00    5.1980395472109731E+00
N   -1.6255660907057654E+00    1.0237582683269823E+01    5.8599884198142647E+00
Ga   -1.6227129773821425E+00    1.0236648778285678E+01    7.8298707928885820E+00
N   -1.6156389828877835E+00    8.3769597579822470E+00    8.4800260615838354E+00
Ga   -1.6168347270891144E+00    8.3815000973239755E+00    1.0468062799421547E+01
N   -1.6333529653939787E+00    1.0244187513754486E+01    1.1051274622951381E+01
Ga   -1.6500517264342165E+00    1.0237844554158800E+01    1.3110799174064214E+01
N   -1.6298864000291760E+00    8.3829037447365220E+00    1.3455765158467408E+01
Ga    6.4264549351489713E+00    9.3410746231203717E-05   -1.6644150429806942E-01
N    6.4207715152976066E+00    1.8596671177309805E+00    6.1781579237283246E-01
Ga    6.4236660951821811E+00    1.8609323744542741E+00    2.5512308601996678E+00
N    6.4290259384686408E+00    2.0886294145542844E-03    3.2376765695825873E+00
Ga    6.4289097401013100E+00    8.3398017515284287E-04    5.1988103096717353E+00
N    6.4247326610242217E+00    1.8596210556560617E+00    5.8606649671637872E+00
Ga    6.4261681542011546E+00    1.8583401895745340E+00    7.8307729602877183E+00
N    6.4337749218492348E+00    2.8650272572431734E-04    8.4789308016670279E+00
Ga    6.4318650290670227E+00    3.2278959495900027E-03    1.0465864282922725E+01
N    6.4185334461388628E+00    1.8630972770604644E+00    1.1054876764280865E+01
Ga    6.4101002165119558E+00    1.8512082013360254E+00    1.3119069329456103E+01
N    6.4267159179063702E+00   -3.0053452332078220E-03    1.3454135620029907E+01
Ga    4.8139749998271792E+00    2.7935090338067918E+00   -1.6668115811971423E-01
N    4.8083360737187446E+00    4.6526355253033573E+00    6.1889729988015563E-01
Ga    4.8113941280683017E+00    4.6541153274680331E+00    2.5522940953185049E+00
N    4.8170909708669756E+00    2.7945904267786701E+00    3.2374443597870326E+00
Ga    4.8183295237515296E+00    2.7923379407884887E+00    5.1982991254578987E+00
N    4.8119120030380698E+00    4.6532014241659034E+00    5.8545000328159125E+00
Ga    4.8136433367507516E+00    4.6515701738934681E+00    7.8220008399824490E+00
N    4.8196890719277290E+00    2.7958128164728722E+00    8.4751580950646197E+00
Ga    4.8153600059583850E+00    2.8034481887357154E+00    1.0460442510482796E+01
N    4.8109733972690973E+00    4.6596686793179725E+00    1.1058975686030516E+01
Ga    4.8015605411131146E+00    4.6524251013235558E+00    1.3138307655825296E+01
N    4.8113761694779846E+00    2.7975442961642458E+00    1.3488356618294777E+01
Ga    3.2016756875063379E+00    5.5861175105937759E+00   -1.6644524901370961E-01
N    3.1959768296863627E+00    7.4457358767083939E+00    6.1814792797730234E-01
Ga    3.1984225603983480E+00    7.4469710763806551E+00    2.5514806110828809E+00
N    3.2040452923851355E+00    5.5875471025915555E+00    3.2366910384122778E+00
Ga    3.2041886805159798E+00    5.5863825909744538E+00    5.1967663811777030E+00
N    3.1996667027427610E+00    7.4454338539781793E+00    5.8566917603681219E+00
Ga    3.2025451973032748E+00    7.4453580904257928E+00    7.8253082337171920E+00
N    3.2084879542741391E+00    5.5847961293426636E+00    8.4705608129587233E+00
Ga    3.2057385333336073E+00    5.5872434854156978E+00    1.0455981502718723E+01
N    3.1896935809569182E+00    7.4511032414944269E+00    1.1034051592023912E+01
Ga    3.1697178828741657E+00    7.4446015121077593E+00    1.3087445143182340E+01
N    3.1930994613336270E+00    5.5950294786091073E+00    1.3469010421786288E+01
Ga    1.5891414284669945E+00    8.3793797790634805E+00   -1.6612709238444739E-01
N    1.5831517683535392E+00    1.0239107777058734E+01    6.1848380098266897E-01
Ga    1.5859372752103253E+00    1.0240526616765928E+01    2.5523677612644993E+00
N    1.5916063053256246E+00    8.3807668556433264E+00    3.2368791453216024E+00
Ga    1.5924477411096269E+00    8.3800520044123648E+00    5.1973652740369713E+00
N    1.5861522757850259E+00    1.0239146588633133E+01    5.8545100744094745E+00
Ga    1.5864302469901950E+00    1.0241196304293805E+01    7.8222962899816375E+00
N    1.5938842379216609E+00    8.3800215463528485E+00    8.4672739987998593E+00
Ga    1.5860078256029471E+00    8.3883547268857708E+00    1.0449230153098995E+01
N    1.5917628408750082E+00    1.0237634603924375E+01    1.1055265903794739E+01
Ga    1.5846847945999396E+00    1.0218234589016364E+01    1.3128038870711206E+01
N    1.5862355369468968E+00    8.3800681910860959E+00    1.3548640289213211E+01
Ga    9.6390762760581286E+00    6.1336045355362973E-04   -1.6658169028172742E-01
N    9.6336123825830882E+00    1.8597844959779564E+00    6.1910274837075141E-01
Ga    9.6363523880132202E+00    1.8613183709143954E+00    2.5528017051069480E+00
N    9.6425873128024655E+00    1.8103154656586146E-03    3.2373354301547241E+00
Ga    9.6430125076078692E+00    6.4671582953180356E-04    5.1984100587745186E+00
N    9.6363038380637143E+00    1.8612211066188300E+00    5.8546924942357936E+00
Ga    9.6374710759254913E+00    1.8616903928754782E+00    7.8224825651698282E+00
N    9.6446425721161066E+00    3.3259894729661069E-03    8.4677209160057085E+00
Ga    9.6371607900033851E+00    9.3894984589249428E-03    1.0451748991310605E+01
N    9.6379151894525243E+00    1.8624740267633622E+00    1.1059869961664420E+01
Ga    9.6296087553276646E+00    1.8497991764997819E+00    1.3138069131639899E+01
N    9.6359070738519605E+00    3.5360230678232025E-03    1.3525978370760873E+01
Ga    8.0270131889127825E+00    2.7934642352413221E+00   -1.6591311611473031E-01
N    8.0212668150551281E+00    4.6526757493070994E+00    6.1946421798162643E-01
Ga    8.0238752430517533E+00    4.6538895234340387E+00    2.5527829464013330E+00
N    8.0289889561487886E+00    2.7947413442764071E+00    3.2377425556963728E+00
Ga    8.0285253751425234E+00    2.7936789703055540E+00    5.1982834383390024E+00
N    8.0246778396132310E+00    4.6527489928490704E+00    5.8589018510549407E+00
Ga    8.0272185668218565E+00    4.6517558718948138E+00    7.8279070913516309E+00
N    8.0338957175657768E+00    2.7942929162044194E+00    8.4780319298355380E+00
Ga    8.0312239237342844E+00    2.7979427507438639E+00    1.0464705899779277E+01
N    8.0131540034971334E+00    4.6594108633621723E+00    1.1045110803889662E+01
Ga    7.9980807870269839E+00    4.6513673319347175E+00    1.3104567580599248E+01
N    8.0229373231963539E+00    2.7986823675265526E+00    1.3464164104237119E+01
Ga    6.4145242341195754E+00    5.5859231197231498E+00   -1.6576790284752829E-01
N    6.4085552154976266E+00    7.4458061454189348E+00    6.1820463001888515E-01
Ga    6.4117496470588247E+00    7.4471780472667861E+00    2.5515348461149423E+00
N    6.4172658949193870E+00    5.5880399839904609E+00    3.2380619923060947E+00
Ga    6.4184511214317519E+00    5.5866624889906911E+00    5.1983216671415313E+00
N    6.4118023770950412E+00    7.4463694751446416E+00    5.8550636814857633E+00
Ga    6.4139538036875035E+00    7.4486789608830737E+00    7.8227751682133100E+00
N    6.4189882310513617E+00    5.5886144903731889E+00    8.4687247380137531E+00
Ga    6.4100252364489574E+00    5.5975974450296455E+00    1.0451904171775810E+01
N    6.4142782925193602E+00    7.4478876749101737E+00    1.1058143316588540E+01
Ga    6.4092468375443925E+00    7.4239902328581993E+00    1.3138314321852372E+01
N    6.4115094140813671E+00    5.5850556798603028E+00    1.3557768057460382E+01
Ga    4.8017217220538964E+00    8.3790647657113180E+00   -1.6740935950848271E-01
N    4.7959503308323574E+00    1.0238884212985740E+01    6.1697623198721629E-01
Ga    4.7987847654957703E+00    1.0240534666022896E+01    2.5503824132841917E+00
N    4.8045704890613621E+00    8.3810659370179650E+00    3.2364235438613833E+00
Ga    4.8047075486419430E+00    8.3802734650155273E+00    5.1968929284901559E+00
N    4.7998570644892107E+00    1.0238449974204052E+01    5.8585526421781999E+00
Ga    4.8031296684322005E+00    1.0240085115717296E+01    7.8285537514376093E+00
N    4.8094113814746233E+00    8.3795287581502222E+00    8.4734267504734042E+00
Ga    4.8084615044325485E+00    8.3842557154697648E+00    1.0461002251823926E+01
N    4.7911548634502461E+00    1.0246717849195495E+01    1.1042088320881696E+01
Ga    4.7750753705848048E+00    1.0236513304181049E+01    1.3102175924621175E+01
N    4.7957859386906110E+00    8.3784661900645627E+00    1.3425753977466613E+01
H    4.8003844728840503E+00    8.3791707676902139E+00   -1.7182565831968699E+00
H    1.5883559288231519E+00    8.3796571357619349E+00   -1.7169331897531892E+00
H   -1.6248035121894637E+00    8.3802607554065585E+00   -1.7172587984842005E+00
H   -4.8384641175479128E+00    8.3806117905018560E+00   -1.7171398683059758E+00
H    6.4130259342404674E+00    5.5860931243433001E+00   -1.7163690026871554E+00
H    3.2007736367151240E+00    5.5868357191378308E+00   -1.7172158234282595E+00
H   -1.1888113547486907E-02    5.5870252049088727E+00   -1.7181286737576869E+00
H   -3.2261961681509459E+00    5.5865507646109371E+00   -1.7175123025104237E+00
H    8.0263975637969764E+00    2.7941156730226586E+00   -1.7166755248675933E+00
H    4.8123909539231322E+00    2.7941976373659361E+00   -1.7175026784341618E+00
H    1.5995408086199230E+00    2.7932746030281179E+00   -1.7174384528207081E+00
H   -1.6125044926920395E+00    2.7922973674929632E+00   -1.7168589059680535E+00
H    7.2369713697376103E-04    1.0523796464106670E-03   -1.7176435641476555E+00
H    3.2124721770414557E+00    1.9234407398060547E-04   -1.7165017960760849E+00
H    6.4251935482798155E+00   -8.9244667668914705E-05   -1.7173671484621869E+00
H    9.6377788564432425E+00    1.1208492082611058E-03   -1.7174477961576919E+00
     &END COORD
     &KIND H
       BASIS_SET DZVP-MOLOPT-SR-GTH-q1
       POTENTIAL GTH-PBE-q1
       &POTENTIAL
1
0.2000000000000000E+00 2 -0.4178900440000000E+01  0.7244633100000000E+00
0
       &END POTENTIAL
     &END KIND
     &KIND N
       BASIS_SET DZVP-MOLOPT-SR-GTH
       POTENTIAL GTH-PBE-q5
       &POTENTIAL
2 3
0.2837905100000000E+00 2 -0.1241522559000000E+02  0.1868095920000000E+01
2
0.2554050000000000E+00 1  0.1363026257000000E+02
0.2454945300000000E+00 0
       &END POTENTIAL
     &END KIND
     &KIND Ga
       BASIS_SET DZVP-MOLOPT-SR-GTH
       POTENTIAL GTH-PBE-q13
       &POTENTIAL
2 1 10
0.4900000000000000E+00 0
3
0.4167772300000000E+00 3  0.1047568975000000E+02 -0.4921768140000000E+01  0.8707055900000000E+00
0.7770178090000000E+01 -0.2248152160000000E+01
0.1784415450000000E+01
0.5696265200000000E+00 2  0.1777985340000000E+01  0.1958597600000000E+00
-0.2317443900000000E+00
0.2381265000000000E+00 1 -0.1624868022000000E+02
       &END POTENTIAL
     &END KIND
     &TOPOLOGY
       NUMBER_OF_ATOMS  208
       MULTIPLE_UNIT_CELL  1 1 1
     &END TOPOLOGY
   &END SUBSYS
 &END FORCE_EVAL
