 # Version information for this restart file 
 # current date 2019-05-26 00:34:31.225
 # current working dir /lustre03/project/6004141/rzk/GaN-carbene/00-Surface/00-Preoptimization/443-capped/CELL_OPT
 # Program compiled at                              Sun Apr  7 00:48:11 EDT 2019
 # Program compiled on                          beluga2.int.ets1.calculquebec.ca
 # Program compiled for                        Beluga-Linux-x86-64-intel-openmpi
 # Source code revision number                                         svn:18619
 &GLOBAL
   PRINT_LEVEL  MEDIUM
   PROJECT_NAME TEST
   RUN_TYPE  CELL_OPT
 &END GLOBAL
 &MOTION
   &CELL_OPT
     MAX_ITER  300
     STEP_START_VAL  40
     EXTERNAL_PRESSURE     1.0000000000000000E+00
     KEEP_ANGLES  T
     KEEP_SYMMETRY  T
     CONSTRAINT  Z
     PRESSURE_TOLERANCE     5.0000000000000000E+02
   &END CELL_OPT
 &END MOTION
 &FORCE_EVAL
   METHOD  QS
   STRESS_TENSOR  ANALYTICAL
   &DFT
     BASIS_SET_FILE_NAME BASIS_MOLOPT
     POTENTIAL_FILE_NAME GTH_POTENTIALS
     SURFACE_DIPOLE_CORRECTION  T
     SURF_DIP_DIR  Z
     &SCF
       MAX_SCF  100
       EPS_SCF     5.0000000000000004E-06
       &OT  T
         PRECONDITIONER  FULL_ALL
       &END OT
       &OUTER_SCF  T
         OPTIMIZER  NONE
         EPS_SCF     5.0000000000000004E-06
         MAX_SCF  4
       &END OUTER_SCF
       &PRINT
         &RESTART  OFF
           BACKUP_COPIES  1
           &EACH
             JUST_ENERGY  0
             QS_SCF  0
             MD  20
           &END EACH
         &END RESTART
       &END PRINT
     &END SCF
     &QS
       EPS_DEFAULT     1.0000000000000000E-14
       METHOD  GPW
     &END QS
     &MGRID
       NGRIDS  5
       CUTOFF     1.2000000000000000E+03
     &END MGRID
     &XC
       DENSITY_CUTOFF     1.0000000000000000E-10
       GRADIENT_CUTOFF     1.0000000000000000E-10
       TAU_CUTOFF     1.0000000000000000E-10
       &XC_FUNCTIONAL  NO_SHORTCUT
         &PBE  T
         &END PBE
       &END XC_FUNCTIONAL
       &VDW_POTENTIAL
         POTENTIAL_TYPE  PAIR_POTENTIAL
         &PAIR_POTENTIAL
           R_CUTOFF     1.0000000000000004E+01
           TYPE  DFTD3
           PARAMETER_FILE_NAME dftd3.dat
           REFERENCE_FUNCTIONAL PBE
           EPS_CN     9.9999999999999995E-07
           CALCULATE_C9_TERM  T
           REFERENCE_C9_TERM  T
           LONG_RANGE_CORRECTION  F
           VERBOSE_OUTPUT  F
         &END PAIR_POTENTIAL
       &END VDW_POTENTIAL
     &END XC
   &END DFT
   &SUBSYS
     &CELL
       A     1.2846610337384559E+01    0.0000000000000000E+00    0.0000000000000000E+00
       B    -6.4479235967733297E+00    1.1168131272933678E+01    0.0000000000000000E+00
       C     0.0000000000000000E+00    0.0000000000000000E+00    2.9000000000000000E+01
       MULTIPLE_UNIT_CELL  1 1 1
       &CELL_REF
         A     1.2982353780853531E+01    0.0000000000000000E+00    0.0000000000000000E+00
         B    -6.4911768904267628E+00    1.1243048175136114E+01    0.0000000000000000E+00
         C     0.0000000000000000E+00    0.0000000000000000E+00    2.9000000000000000E+01
         MULTIPLE_UNIT_CELL  1 1 1
       &END CELL_REF
     &END CELL
     &COORD
Ga    1.3646515723247602E-03   -1.1073089708629256E-03   -1.7298290197197366E-01
N   -4.9556492355413906E-03    1.8581483088334037E+00    6.1279002031431440E-01
Ga    1.3624890513658060E-04    1.8610046626452921E+00    2.5473538338636486E+00
N    5.3167515016030462E-03    2.1004797829185214E-03    3.2354934720467381E+00
Ga    6.1987766753992240E-03    6.3416109611932957E-04    5.1959753222467855E+00
N    9.4162834174608859E-04    1.8589145842224717E+00    5.8577841725111206E+00
Ga    3.9569651232707736E-03    1.8602811008802218E+00    7.8264004289331490E+00
N    1.3103598929246283E-02    2.9808745122687341E-03    8.4796385155600085E+00
Ga    1.1234855409469707E-02    6.4378551706271289E-03    1.0468573630667954E+01
N   -6.7090337809046583E-03    1.8662279399695847E+00    1.1060672209496293E+01
Ga   -3.1844888182945424E-02    1.8531564748815486E+00    1.3129939160950025E+01
N   -1.2022608723107934E-02   -1.2747398182869933E-03    1.3469193966392590E+01
Ga   -1.6109382467768354E+00    2.7910395463374229E+00   -1.7319102671843326E-01
N   -1.6170533836088594E+00    4.6501454213250719E+00    6.1296504528112383E-01
Ga   -1.6123980091373946E+00    4.6530378175970064E+00    2.5478245847288887E+00
N   -1.6063395245689531E+00    2.7940393962734680E+00    3.2356504129712285E+00
Ga   -1.6053273519125402E+00    2.7918001474031309E+00    5.1960381915718488E+00
N   -1.6117208503641178E+00    4.6512244625319932E+00    5.8549666458430698E+00
Ga   -1.6091128455755732E+00    4.6520489696576313E+00    7.8231502783188009E+00
N   -1.6022556545424886E+00    2.7944688051057840E+00    8.4743397310423170E+00
Ga   -1.6095041761724918E+00    2.8007777225370640E+00    1.0459589768590389E+01
N   -1.6136983629125197E+00    4.6554649197438653E+00    1.1057660457401669E+01
Ga   -1.6270030818478343E+00    4.6364389376827022E+00    1.3132387439740999E+01
N   -1.6226995465495404E+00    2.7936503779571087E+00    1.3540945569256520E+01
Ga   -3.2227436816434953E+00    5.5830603472033458E+00   -1.7343644586748203E-01
N   -3.2288133277351130E+00    7.4420331513556599E+00    6.1293328113535384E-01
Ga   -3.2239021701506267E+00    7.4449606839359737E+00    2.5476229100292000E+00
N   -3.2188005318549231E+00    5.5863679480764930E+00    3.2360882331960661E+00
Ga   -3.2183505645964026E+00    5.5849464160359554E+00    5.1967103964952095E+00
N   -3.2230558866363026E+00    7.4436266980003056E+00    5.8585769371424909E+00
Ga   -3.2203529186206268E+00    7.4459289941925224E+00    7.8274505815954267E+00
N   -3.2133428323816897E+00    5.5860194671496428E+00    8.4743361529562993E+00
Ga   -3.2175003307488512E+00    5.5901373099303076E+00    1.0461604195615440E+01
N   -3.2319583437198043E+00    7.4496045383463940E+00    1.1053425061589589E+01
Ga   -3.2557325948630065E+00    7.4398786743963825E+00    1.3115603909840466E+01
N   -3.2347189734657573E+00    5.5849986617360887E+00    1.3463507127252473E+01
Ga   -4.8346647083245511E+00    8.3751966338813855E+00   -1.7284884096527164E-01
N   -4.8407060739243537E+00    1.0234180992662308E+01    6.1360561744754449E-01
Ga   -4.8356262262664442E+00    1.0237043009608570E+01    2.5483868857364902E+00
N   -4.8303016020696097E+00    8.3779672991018312E+00    3.2358337955169154E+00
Ga   -4.8291702643526495E+00    8.3765135416027956E+00    5.1962858760566970E+00
N   -4.8358038904956535E+00    1.0235311026318424E+01    5.8562893041495618E+00
Ga   -4.8324806882635354E+00    1.0237476326508050E+01    7.8241551016877464E+00
N   -4.8273036184106592E+00    8.3798364125808700E+00    8.4750243348027343E+00
Ga   -4.8339198076662564E+00    8.3865188948151630E+00    1.0459728297615310E+01
N   -4.8338491525503358E+00    1.0237798703574720E+01    1.1069919392275912E+01
Ga   -4.8520995032234451E+00    1.0215655409482752E+01    1.3154134313324239E+01
N   -4.8445848684329489E+00    8.3733161977668651E+00    1.3556268664411387E+01
Ga    3.2129092341743148E+00   -9.4004315260453968E-04   -1.7258215766741289E-01
N    3.2067461139536952E+00    1.8579472303258642E+00    6.1398547919083601E-01
Ga    3.2115795049342810E+00    1.8605299172198784E+00    2.5490171706302589E+00
N    3.2173526560775598E+00    1.6310376582832234E-03    3.2370978884626780E+00
Ga    3.2184559201261478E+00   -4.8195418910712659E-04    5.1979068249081957E+00
N    3.2119606594993160E+00    1.8590116590765309E+00    5.8559872937122481E+00
Ga    3.2149511229224652E+00    1.8599934069023312E+00    7.8239936337672820E+00
N    3.2222549919657868E+00    2.0608757274696589E-03    8.4752284787838690E+00
Ga    3.2144249178936617E+00    6.5463866301361988E-03    1.0459731373992824E+01
N    3.2129660573175909E+00    1.8625662092944253E+00    1.1054432031395567E+01
Ga    3.1958376781449953E+00    1.8440707939956329E+00    1.3126291739821710E+01
N    3.2013494726686096E+00    1.5219869605036609E-03    1.3535500492806957E+01
Ga    1.6011192873665858E+00    2.7908287080888061E+00   -1.7293838632644040E-01
N    1.5947990754994064E+00    4.6500304210431498E+00    6.1260019866164650E-01
Ga    1.5997246965193979E+00    4.6526199765475207E+00    2.5471540457951058E+00
N    1.6049178474584387E+00    2.7941351446607277E+00    3.2358503630715312E+00
Ga    1.6055446046268826E+00    2.7921647061813890E+00    5.1963106409656206E+00
N    1.6006029854822599E+00    4.6509080578635444E+00    5.8568678496835531E+00
Ga    1.6024291123324985E+00    4.6520576471162043E+00    7.8252770713048569E+00
N    1.6111800738459732E+00    2.7938910185542092E+00    8.4768502569107227E+00
Ga    1.6061067660541928E+00    2.7981608955869746E+00    1.0464088531418135E+01
N    1.5937223630927240E+00    4.6578769459472840E+00    1.1053585523582752E+01
Ga    1.5702031254918472E+00    4.6434813881044086E+00    1.3117718180544422E+01
N    1.5898508005728189E+00    2.7898779649944112E+00    1.3466413851945962E+01
Ga   -1.1156546642644850E-02    5.5830542637844225E+00   -1.7316459626030159E-01
N   -1.7255266439394772E-02    7.4421700645039346E+00    6.1304551872967838E-01
Ga   -1.2455537236675833E-02    7.4450933628595788E+00    2.5478014087341356E+00
N   -6.7638384161224693E-03    5.5859146407493947E+00    3.2350998406516203E+00
Ga   -5.7791747708514111E-03    5.5839185653553178E+00    5.1955718198749032E+00
N   -1.1858253968871975E-02    7.4431029791460164E+00    5.8556610177984538E+00
Ga   -9.1215079317375838E-03    7.4451561009209630E+00    7.8237051786726344E+00
N   -2.8200378616524127E-03    5.5869606450405618E+00    8.4732131832865729E+00
Ga   -1.1089546449491445E-02    5.5942317781186004E+00    1.0457993932279367E+01
N   -1.1407206596982564E-02    7.4442620025928496E+00    1.1069407492981160E+01
Ga   -2.8319904074000292E-02    7.4237805758318123E+00    1.3153445858515894E+01
N   -2.0808538746665314E-02    5.5777318688540882E+00    1.3542281019310972E+01
Ga   -1.6230752878580024E+00    8.3751179497223518E+00   -1.7309959327050942E-01
N   -1.6292639292354913E+00    1.0234085344870754E+01    6.1354180661824109E-01
Ga   -1.6243601925801869E+00    1.0236909335545523E+01    2.5483117537028521E+00
N   -1.6190021428725592E+00    8.3779739220203364E+00    3.2359926395889591E+00
Ga   -1.6182885316466988E+00    8.3765071439283183E+00    5.1964996081784873E+00
N   -1.6229215684855158E+00    1.0234409796180929E+01    5.8594653154497429E+00
Ga   -1.6195314890735886E+00    1.0236213366431825E+01    7.8285644522760629E+00
N   -1.6121136432818730E+00    8.3769795604543127E+00    8.4802690473856543E+00
Ga   -1.6157137130271007E+00    8.3797852598008955E+00    1.0468800913351103E+01
N   -1.6289436976688021E+00    1.0241515438799636E+01    1.1059165862713531E+01
Ga   -1.6543907372063078E+00    1.0230464388575019E+01    1.3124286358631938E+01
N   -1.6349970356918124E+00    8.3762283607009955E+00    1.3466982655927774E+01
Ga    6.4246074679268164E+00   -1.0528751914325439E-03   -1.7234087936034692E-01
N    6.4184092490365012E+00    1.8580474936097733E+00    6.1351489767884404E-01
Ga    6.4231986411911279E+00    1.8606976914359907E+00    2.5482786315465238E+00
N    6.4284701258766583E+00    1.9786017440438816E-03    3.2364748428210284E+00
Ga    6.4292229066082820E+00   -1.5675602841539013E-04    5.1970828537156102E+00
N    6.4248873146617091E+00    1.8588382850351881E+00    5.8582114251915094E+00
Ga    6.4283734882018511E+00    1.8595425727713906E+00    7.8273628668986843E+00
N    6.4356644764037521E+00    2.0678216409394101E-03    8.4797553291088956E+00
Ga    6.4331651761310944E+00    5.4865468373395242E-03    1.0467807132657400E+01
N    6.4177527789775874E+00    1.8655917189896318E+00    1.1054423234601026E+01
Ga    6.3949957838646512E+00    1.8510298457119814E+00    1.3118511141492133E+01
N    6.4139198170684182E+00   -1.0729663628044302E-03    1.3472645624535250E+01
Ga    4.8125124381566282E+00    2.7909235809119077E+00   -1.7250952298158595E-01
N    4.8063879362578579E+00    4.6500688300934430E+00    6.1318723077240644E-01
Ga    4.8111158014811597E+00    4.6528098728271958E+00    2.5478027264943064E+00
N    4.8169100298594278E+00    2.7940241788042428E+00    3.2361689453538975E+00
Ga    4.8179534846191165E+00    2.7916204845774590E+00    5.1968292935108904E+00
N    4.8116537093920329E+00    4.6518083930201213E+00    5.8544045601465102E+00
Ga    4.8149094095825449E+00    4.6530625226613527E+00    7.8221763451186099E+00
N    4.8213560380765710E+00    2.7954098023407874E+00    8.4718344924007365E+00
Ga    4.8151148617183059E+00    2.8018437238600922E+00    1.0456124908947871E+01
N    4.8116125865718882E+00    4.6557502228916929E+00    1.1059845399095007E+01
Ga    4.7967201139856055E+00    4.6370806263978830E+00    1.3139258881433065E+01
N    4.8020220765064474E+00    2.7901622111133366E+00    1.3526238078918206E+01
Ga    3.2006751801327269E+00    5.5829805871339371E+00   -1.7337124597228459E-01
N    3.1944776068872511E+00    7.4422029530425151E+00    6.1257135451907341E-01
Ga    3.1992687537097946E+00    7.4450325629661700E+00    2.5471072725259956E+00
N    3.2045026820771509E+00    5.5862688970742909E+00    3.2350689813516613E+00
Ga    3.2047605770157719E+00    5.5846336753492789E+00    5.1953608202748995E+00
N    3.2004349184105005E+00    7.4431111287021512E+00    5.8580820692206439E+00
Ga    3.2025702898837962E+00    7.4448670527501504E+00    7.8267974872090811E+00
N    3.2104752086404607E+00    5.5852949726421004E+00    8.4748804312707833E+00
Ga    3.2068292881233837E+00    5.5882181388453960E+00    1.0461895742555811E+01
N    3.1932651879590597E+00    7.4496776822631485E+00    1.1050021496231343E+01
Ga    3.1683306857706168E+00    7.4376558157676165E+00    1.3112811621341679E+01
N    3.1887733608481104E+00    5.5843593960791873E+00    1.3466106617728929E+01
Ga    1.5885194447987845E+00    8.3753130574783370E+00   -1.7296092001121441E-01
N    1.5824399356262737E+00    1.0234165378647218E+01    6.1401901586544416E-01
Ga    1.5872045506046610E+00    1.0236979943363187E+01    2.5489726539626330E+00
N    1.5929181508429071E+00    8.3777328594182769E+00    3.2358633693675172E+00
Ga    1.5937438662393011E+00    8.3760562212905487E+00    5.1963172766356465E+00
N    1.5879860923843381E+00    1.0234913809358533E+01    5.8560386652320409E+00
Ga    1.5903011641493461E+00    1.0236800628904568E+01    7.8239610335167109E+00
N    1.5972255080237847E+00    8.3789209429592191E+00    8.4756720686126545E+00
Ga    1.5890434813181251E+00    8.3854794256744789E+00    1.0460706821377274E+01
N    1.5906408755942387E+00    1.0237524667972602E+01    1.1067097492637071E+01
Ga    1.5727107718874431E+00    1.0217178564659100E+01    1.3149211885826562E+01
N    1.5775149614203769E+00    8.3729200014018730E+00    1.3543502000914925E+01
Ga    9.6360064731659243E+00   -8.9381603585029210E-04   -1.7246574745462759E-01
N    9.6300565464095218E+00    1.8581466026926343E+00    6.1367731688067539E-01
Ga    9.6348316332719754E+00    1.8608188998694806E+00    2.5484706595437716E+00
N    9.6406645255815455E+00    1.8472041012384550E-03    3.2364533095234878E+00
Ga    9.6416004026114539E+00   -7.1121331569463331E-05    5.1972576431420308E+00
N    9.6353951351071920E+00    1.8595883729772924E+00    5.8554379911225691E+00
Ga    9.6385077529936733E+00    1.8609802877269033E+00    7.8232485877976314E+00
N    9.6448405902862255E+00    2.9076072689223267E-03    8.4731849986885575E+00
Ga    9.6370784176330488E+00    7.2342906994127473E-03    1.0457679928835852E+01
N    9.6368030846382169E+00    1.8604216590256426E+00    1.1063347626874227E+01
Ga    9.6197634162020904E+00    1.8434404212891611E+00    1.3141934267965013E+01
N    9.6261532361770303E+00    1.0254980508089900E-04    1.3542895326041910E+01
Ga    8.0242026161393003E+00    2.7909772277044906E+00   -1.7271134086316073E-01
N    8.0181530237850396E+00    4.6502475317252969E+00    6.1294203224138422E-01
Ga    8.0230933670097340E+00    4.6529856772851126E+00    2.5474465097834305E+00
N    8.0282263637663949E+00    2.7942774338319913E+00    3.2355575931841547E+00
Ga    8.0289356734951873E+00    2.7924064243437305E+00    5.1956962923577690E+00
N    8.0233463472754405E+00    4.6510341764288023E+00    5.8569404042290216E+00
Ga    8.0255438505396057E+00    4.6518259595968985E+00    7.8253275994098104E+00
N    8.0357232723825582E+00    2.7944741638515564E+00    8.4783291761058219E+00
Ga    8.0320157877421696E+00    2.7979467081223017E+00    1.0466265544230025E+01
N    8.0166515259649014E+00    4.6575469098676487E+00    1.1055971572915043E+01
Ga    7.9905324023546429E+00    4.6465925838924207E+00    1.3122227915339698E+01
N    8.0119289105027036E+00    2.7923228527564814E+00    1.3466369751360912E+01
Ga    6.4121983150305075E+00    5.5831203978015109E+00   -1.7324855367963174E-01
N    6.4060698900880109E+00    7.4421957066017264E+00    6.1304465277632447E-01
Ga    6.4109766068331719E+00    7.4452457292978655E+00    2.5477094107115867E+00
N    6.4164942261447058E+00    5.5861261144106775E+00    3.2348934925063779E+00
Ga    6.4173242599470193E+00    5.5841740247028380E+00    5.1949111765838332E+00
N    6.4115405964903633E+00    7.4431947904995557E+00    5.8551256424341522E+00
Ga    6.4147560951993015E+00    7.4446704409221054E+00    7.8228042585713915E+00
N    6.4205920023378216E+00    5.5869979416154649E+00    8.4740706866035342E+00
Ga    6.4135112640499665E+00    5.5946142458727373E+00    1.0458929602742996E+01
N    6.4140225148734160E+00    7.4453442732990336E+00    1.1067510531186612E+01
Ga    6.3980953005009038E+00    7.4250069963467258E+00    1.3150895539573224E+01
N    6.4004902712519671E+00    5.5812401163695906E+00    1.3552922166594652E+01
Ga    4.8003263310379953E+00    8.3750891965367078E+00   -1.7345286281774455E-01
N    4.7941194405203955E+00    1.0234152875714781E+01    6.1267633942262700E-01
Ga    4.7989112927617370E+00    1.0237120360216355E+01    2.5473246879397959E+00
N    4.8042373538237504E+00    8.3783006972681129E+00    3.2357173061979356E+00
Ga    4.8049655825749182E+00    8.3768090095153003E+00    5.1963188897763741E+00
N    4.8007545656339659E+00    1.0235090141641331E+01    5.8591636318812030E+00
Ga    4.8037921001449639E+00    1.0237455226612795E+01    7.8285634418585817E+00
N    4.8112196471896391E+00    8.3770757738581363E+00    8.4771871544716841E+00
Ga    4.8091414383327473E+00    8.3800672709224404E+00    1.0465433256796340E+01
N    4.7943756884116162E+00    1.0241417498879819E+01    1.1050034022428610E+01
Ga    4.7674158170100780E+00    1.0232115723129088E+01    1.3111337920384136E+01
N    4.7884522701523595E+00    8.3765762550366265E+00    1.3457117409456057E+01
H    4.8004209039064918E+00    8.3779852856146864E+00   -1.7258393124934501E+00
H    1.5885656175984728E+00    8.3791073189914460E+00   -1.7254378183513248E+00
H   -1.6232665170240592E+00    8.3790077974242507E+00   -1.7255750229566760E+00
H   -4.8352153692498394E+00    8.3793693997483931E+00   -1.7252830422515539E+00
H    6.4121753427297987E+00    5.5860151499497954E+00   -1.7257228484017773E+00
H    3.2010803084006834E+00    5.5863115963022958E+00   -1.7257845561579399E+00
H   -1.1130759008008745E-02    5.5868405676142618E+00   -1.7255881281977821E+00
H   -3.2237405762867080E+00    5.5864450885615771E+00   -1.7258685685927422E+00
H    8.0247149106607871E+00    2.7950199742604225E+00   -1.7251652998040756E+00
H    4.8119627765766175E+00    2.7949579811344347E+00   -1.7249717917583682E+00
H    1.6007500292603172E+00    2.7939497521532859E+00   -1.7253659626882645E+00
H   -1.6111433929809056E+00    2.7935994179974539E+00   -1.7256658339785733E+00
H    2.3511139906304290E-03    2.6412657313134706E-03   -1.7253831558193469E+00
H    3.2126268781654614E+00    2.3060680036024548E-03   -1.7250873418799688E+00
H    6.4242764471383618E+00    1.8934678029503948E-03   -1.7248247799993357E+00
H    9.6350969999612417E+00    3.4180806422513372E-03   -1.7249042397168921E+00
     &END COORD
     &KIND H
       BASIS_SET DZVP-MOLOPT-SR-GTH-q1
       POTENTIAL GTH-PBE-q1
       &POTENTIAL
1
0.2000000000000000E+00 2 -0.4178900440000000E+01  0.7244633100000000E+00
0
       &END POTENTIAL
     &END KIND
     &KIND N
       BASIS_SET DZVP-MOLOPT-SR-GTH
       POTENTIAL GTH-PBE-q5
       &POTENTIAL
2 3
0.2837905100000000E+00 2 -0.1241522559000000E+02  0.1868095920000000E+01
2
0.2554050000000000E+00 1  0.1363026257000000E+02
0.2454945300000000E+00 0
       &END POTENTIAL
     &END KIND
     &KIND Ga
       BASIS_SET DZVP-MOLOPT-SR-GTH
       POTENTIAL GTH-PBE-q13
       &POTENTIAL
2 1 10
0.4900000000000000E+00 0
3
0.4167772300000000E+00 3  0.1047568975000000E+02 -0.4921768140000000E+01  0.8707055900000000E+00
0.7770178090000000E+01 -0.2248152160000000E+01
0.1784415450000000E+01
0.5696265200000000E+00 2  0.1777985340000000E+01  0.1958597600000000E+00
-0.2317443900000000E+00
0.2381265000000000E+00 1 -0.1624868022000000E+02
       &END POTENTIAL
     &END KIND
     &TOPOLOGY
       NUMBER_OF_ATOMS  208
       MULTIPLE_UNIT_CELL  1 1 1
     &END TOPOLOGY
   &END SUBSYS
 &END FORCE_EVAL
