 # Version information for this restart file 
 # current date 2019-05-26 00:29:33.144
 # current working dir /lustre03/project/6004141/rzk/GaN-carbene/00-Surface/00-Preoptimization/443-capped/CELL_OPT
 # Program compiled at                              Sun Apr  7 00:48:11 EDT 2019
 # Program compiled on                          beluga2.int.ets1.calculquebec.ca
 # Program compiled for                        Beluga-Linux-x86-64-intel-openmpi
 # Source code revision number                                         svn:18619
 &GLOBAL
   PRINT_LEVEL  MEDIUM
   PROJECT_NAME TEST
   RUN_TYPE  CELL_OPT
 &END GLOBAL
 &MOTION
   &CELL_OPT
     MAX_ITER  300
     STEP_START_VAL  38
     EXTERNAL_PRESSURE     1.0000000000000000E+00
     KEEP_ANGLES  T
     KEEP_SYMMETRY  T
     CONSTRAINT  Z
     PRESSURE_TOLERANCE     5.0000000000000000E+02
   &END CELL_OPT
 &END MOTION
 &FORCE_EVAL
   METHOD  QS
   STRESS_TENSOR  ANALYTICAL
   &DFT
     BASIS_SET_FILE_NAME BASIS_MOLOPT
     POTENTIAL_FILE_NAME GTH_POTENTIALS
     SURFACE_DIPOLE_CORRECTION  T
     SURF_DIP_DIR  Z
     &SCF
       MAX_SCF  100
       EPS_SCF     5.0000000000000004E-06
       &OT  T
         PRECONDITIONER  FULL_ALL
       &END OT
       &OUTER_SCF  T
         OPTIMIZER  NONE
         EPS_SCF     5.0000000000000004E-06
         MAX_SCF  4
       &END OUTER_SCF
       &PRINT
         &RESTART  OFF
           BACKUP_COPIES  1
           &EACH
             JUST_ENERGY  0
             QS_SCF  0
             MD  20
           &END EACH
         &END RESTART
       &END PRINT
     &END SCF
     &QS
       EPS_DEFAULT     1.0000000000000000E-14
       METHOD  GPW
     &END QS
     &MGRID
       NGRIDS  5
       CUTOFF     1.2000000000000000E+03
     &END MGRID
     &XC
       DENSITY_CUTOFF     1.0000000000000000E-10
       GRADIENT_CUTOFF     1.0000000000000000E-10
       TAU_CUTOFF     1.0000000000000000E-10
       &XC_FUNCTIONAL  NO_SHORTCUT
         &PBE  T
         &END PBE
       &END XC_FUNCTIONAL
       &VDW_POTENTIAL
         POTENTIAL_TYPE  PAIR_POTENTIAL
         &PAIR_POTENTIAL
           R_CUTOFF     1.0000000000000004E+01
           TYPE  DFTD3
           PARAMETER_FILE_NAME dftd3.dat
           REFERENCE_FUNCTIONAL PBE
           EPS_CN     9.9999999999999995E-07
           CALCULATE_C9_TERM  T
           REFERENCE_C9_TERM  T
           LONG_RANGE_CORRECTION  F
           VERBOSE_OUTPUT  F
         &END PAIR_POTENTIAL
       &END VDW_POTENTIAL
     &END XC
   &END DFT
   &SUBSYS
     &CELL
       A     1.2845931356992974E+01    0.0000000000000000E+00    0.0000000000000000E+00
       B    -6.4478861311646352E+00    1.1168066380595889E+01    0.0000000000000000E+00
       C     0.0000000000000000E+00    0.0000000000000000E+00    2.9000000000000000E+01
       MULTIPLE_UNIT_CELL  1 1 1
       &CELL_REF
         A     1.2982353780853531E+01    0.0000000000000000E+00    0.0000000000000000E+00
         B    -6.4911768904267628E+00    1.1243048175136114E+01    0.0000000000000000E+00
         C     0.0000000000000000E+00    0.0000000000000000E+00    2.9000000000000000E+01
         MULTIPLE_UNIT_CELL  1 1 1
       &END CELL_REF
     &END CELL
     &COORD
Ga    1.2759746050397083E-03   -9.8782350804004762E-04   -1.7202493299748969E-01
N   -5.1542349874591515E-03    1.8581530218625393E+00    6.1380949616533487E-01
Ga   -2.9740891272842245E-04    1.8609614650845900E+00    2.5482839179001493E+00
N    5.1031887628922466E-03    2.1827528332703273E-03    3.2360547110451328E+00
Ga    5.8055825978826862E-03    5.0147563578564086E-04    5.1962594344050244E+00
N    4.8223134513241642E-04    1.8587460602010599E+00    5.8582465147734677E+00
Ga    3.2393429486717727E-03    1.8600087984498637E+00    7.8264558527131829E+00
N    1.2745967228406185E-02    3.3134777328710208E-03    8.4799152870590930E+00
Ga    1.1951276793184149E-02    6.7704810223525366E-03    1.0468381216340697E+01
N   -6.2976458311293825E-03    1.8661233632386414E+00    1.1060218368600960E+01
Ga   -3.1084745812538051E-02    1.8536449838268947E+00    1.3129536909676727E+01
N   -1.1178550300632639E-02   -1.0418634591028519E-03    1.3466732184012066E+01
Ga   -1.6110258128589161E+00    2.7911638262364682E+00   -1.7229694436844253E-01
N   -1.6171875544661596E+00    4.6501305369087937E+00    6.1401202756412754E-01
Ga   -1.6127653175619650E+00    4.6529371572927172E+00    2.5488053662129442E+00
N   -1.6065343929114486E+00    2.7941149957098372E+00    3.2366490445743938E+00
Ga   -1.6056535862933115E+00    2.7916688468917057E+00    5.1967605062330335E+00
N   -1.6121890000915458E+00    4.6511232635566797E+00    5.8551857429711029E+00
Ga   -1.6095052565442118E+00    4.6519344466395074E+00    7.8227856494953869E+00
N   -1.6027785970965025E+00    2.7943937331822801E+00    8.4738166534344028E+00
Ga   -1.6098536050386010E+00    2.7998373622197898E+00    1.0458680683829504E+01
N   -1.6139402285714572E+00    4.6552590170612751E+00    1.1055894970680519E+01
Ga   -1.6272667217710259E+00    4.6365902250657856E+00    1.3129833528685252E+01
N   -1.6218823646195937E+00    2.7939288673311071E+00    1.3538681778775995E+01
Ga   -3.2228356936434945E+00    5.5831245670179594E+00   -1.7248826394356798E-01
N   -3.2289212183774758E+00    7.4420032889692065E+00    6.1395323239626720E-01
Ga   -3.2242258060283144E+00    7.4447901706848416E+00    2.5486143209257501E+00
N   -3.2190038871431255E+00    5.5863053912841414E+00    3.2369900396330880E+00
Ga   -3.2187675897675976E+00    5.5849625149247437E+00    5.1973168872163109E+00
N   -3.2233690946754550E+00    7.4433642231987465E+00    5.8588925800195666E+00
Ga   -3.2212257788730470E+00    7.4462568098401789E+00    7.8271801044676783E+00
N   -3.2140108431707408E+00    5.5857825470718270E+00    8.4734365810772250E+00
Ga   -3.2178026700424516E+00    5.5897274514198871E+00    1.0459936799105158E+01
N   -3.2314137491328609E+00    7.4493767886744875E+00    1.1052044832575746E+01
Ga   -3.2542929245423551E+00    7.4398489286796714E+00    1.3114448127084231E+01
N   -3.2334711839570618E+00    5.5853575768836734E+00    1.3463166265107869E+01
Ga   -4.8347738606165107E+00    8.3752593604308707E+00   -1.7187169957929549E-01
N   -4.8407838333187234E+00    1.0234154816897288E+01    6.1465590824503269E-01
Ga   -4.8358819135476638E+00    1.0236938875907940E+01    2.5494503608447610E+00
N   -4.8303910395436391E+00    8.3779200477058620E+00    3.2365558991342502E+00
Ga   -4.8295391144946525E+00    8.3764717209499207E+00    5.1968231458699456E+00
N   -4.8363048228445571E+00    1.0235215649325390E+01    5.8564684874754249E+00
Ga   -4.8336176611222594E+00    1.0237156803105531E+01    7.8238560383522842E+00
N   -4.8274049942402284E+00    8.3796770680913610E+00    8.4745564108514948E+00
Ga   -4.8341172905227872E+00    8.3862017573949998E+00    1.0458570591806614E+01
N   -4.8336429661512073E+00    1.0236555242247022E+01    1.1068942404283970E+01
Ga   -4.8509901508915547E+00    1.0215502223670702E+01    1.3153229141080550E+01
N   -4.8436769029676263E+00    8.3734155586657462E+00    1.3554183346581629E+01
Ga    3.2126025006406373E+00   -8.1558349649412418E-04   -1.7168942308217477E-01
N    3.2064677816843168E+00    1.8579583012573468E+00    6.1504398378479030E-01
Ga    3.2111035447142946E+00    1.8604929990364631E+00    2.5499975871197567E+00
N    3.2170641223936274E+00    1.6967822986540054E-03    3.2380496550752080E+00
Ga    3.2179974984201305E+00   -6.9797840654487982E-04    5.1986974874757399E+00
N    3.2113420182033181E+00    1.8589107139695720E+00    5.8562922013258385E+00
Ga    3.2141093388625439E+00    1.8597429112904198E+00    7.8239219342178066E+00
N    3.2212695426404196E+00    2.0852605103084893E-03    8.4745728669006262E+00
Ga    3.2147120903188653E+00    6.3014824510149933E-03    1.0458799951393106E+01
N    3.2124420260207609E+00    1.8619014676380141E+00    1.1051830228464080E+01
Ga    3.1962361104231358E+00    1.8440303106664848E+00    1.3122966134765173E+01
N    3.2022137756066695E+00    1.9440834115384820E-03    1.3533487369938360E+01
Ga    1.6008105371243539E+00    2.7909231744109979E+00   -1.7197629279387885E-01
N    1.5944542400751935E+00    4.6500435530293336E+00    6.1366726631786961E-01
Ga    1.5991929629943953E+00    4.6525814146078082E+00    2.5481862102407176E+00
N    1.6045309020447769E+00    2.7940782002441567E+00    3.2366946085739254E+00
Ga    1.6049959982478739E+00    2.7920457225519590E+00    5.1968590214227621E+00
N    1.5999268467280494E+00    4.6507169769097265E+00    5.8568944432007424E+00
Ga    1.6019656584434669E+00    4.6520189111224974E+00    7.8248921409589389E+00
N    1.6104841682136792E+00    2.7941024448109140E+00    8.4760799654335930E+00
Ga    1.6062548638977487E+00    2.7984995383718858E+00    1.0462921745200967E+01
N    1.5932563895032670E+00    4.6576246734485043E+00    1.1052646098031593E+01
Ga    1.5718617822084802E+00    4.6432390852700065E+00    1.3117188225486231E+01
N    1.5909564067402329E+00    2.7904364981771126E+00    1.3465320854779591E+01
Ga   -1.1455512821447814E-02    5.5831458388197124E+00   -1.7222268904056140E-01
N   -1.7558228272338536E-02    7.4421716863677441E+00    6.1406025011312426E-01
Ga   -1.2927308872311026E-02    7.4450228960848399E+00    2.5488407954788839E+00
N   -7.2121472483142619E-03    5.5859024503156993E+00    3.2357681204678954E+00
Ga   -6.1796471892046814E-03    5.5839324513398809E+00    5.1959182346056014E+00
N   -1.2718468138977949E-02    7.4428161155911079E+00    5.8556815177748538E+00
Ga   -9.8211398131722635E-03    7.4447974186856891E+00    7.8232062396383304E+00
N   -3.6458324226452473E-03    5.5868123667701832E+00    8.4726902541354523E+00
Ga   -1.1126469597861502E-02    5.5937046185702926E+00    1.0457257351560338E+01
N   -1.1315435095733024E-02    7.4446365743567533E+00    1.1067799103938629E+01
Ga   -2.8050416195261114E-02    7.4242836717796523E+00    1.3152414966590090E+01
N   -2.0744960127220050E-02    5.5777254548666964E+00    1.3539059583351648E+01
Ga   -1.6233454354957528E+00    8.3751541207126348E+00   -1.7219658814713745E-01
N   -1.6295562844608322E+00    1.0234047951666559E+01    6.1448695251731467E-01
Ga   -1.6248444598373417E+00    1.0236765079410857E+01    2.5492243586947594E+00
N   -1.6194221894304515E+00    8.3779846875667356E+00    3.2367180479254101E+00
Ga   -1.6187376151113504E+00    8.3765079009996963E+00    5.1969739990618091E+00
N   -1.6235406440239968E+00    1.0234101959763381E+01    5.8600394314738207E+00
Ga   -1.6203441737734179E+00    1.0235954128822044E+01    7.8286994110149744E+00
N   -1.6127718059673051E+00    8.3767893611925466E+00    8.4801643401437818E+00
Ga   -1.6150413812104036E+00    8.3800043853650497E+00    1.0468436432851691E+01
N   -1.6293292024483619E+00    1.0241516024810174E+01    1.1057835723069584E+01
Ga   -1.6542294984607104E+00    1.0230890743232584E+01    1.3123451086647995E+01
N   -1.6345208809031213E+00    8.3763807836011459E+00    1.3466317021256014E+01
Ga    6.4241277496435583E+00   -9.3873020967411328E-04   -1.7144595104776456E-01
N    6.4179662997074685E+00    1.8580867583086955E+00    6.1452718247635374E-01
Ga    6.4225409059386571E+00    1.8606656992360608E+00    2.5492667620740721E+00
N    6.4277959217743854E+00    2.0371549990175959E-03    3.2372321400054305E+00
Ga    6.4285572078344222E+00   -3.2173008624903618E-04    5.1976585744618626E+00
N    6.4240924325518005E+00    1.8586529861512278E+00    5.8581762139987932E+00
Ga    6.4272955197127013E+00    1.8596205011164515E+00    7.8266330325016380E+00
N    6.4345414022098346E+00    2.0750579604695515E-03    8.4793245822457255E+00
Ga    6.4328330753977720E+00    5.1161817982433144E-03    1.0466604442164607E+01
N    6.4178220360070064E+00    1.8655363696966172E+00    1.1054344591526165E+01
Ga    6.3959100775949942E+00    1.8511259034540326E+00    1.3118770937359196E+01
N    6.4146767477610798E+00   -8.5439449990299592E-04    1.3471161191521690E+01
Ga    4.8120450639253036E+00    2.7910664877329476E+00   -1.7158410966972401E-01
N    4.8060046164967831E+00    4.6500983018538111E+00    6.1430507568666215E-01
Ga    4.8105598864643007E+00    4.6527847847868866E+00    2.5488842746147338E+00
N    4.8163513376386993E+00    2.7940247399694935E+00    3.2370252833214526E+00
Ga    4.8172418919688011E+00    2.7916055415649699E+00    5.1974096838048922E+00
N    4.8108452523641407E+00    4.6515953682892501E+00    5.8545239283079082E+00
Ga    4.8135140420060383E+00    4.6530422558692051E+00    7.8219353736437114E+00
N    4.8208559290573723E+00    2.7951947626868083E+00    8.4711601731467496E+00
Ga    4.8149671593860592E+00    2.8018919860618139E+00    1.0455105287156389E+01
N    4.8109561161282484E+00    4.6546548077600569E+00    1.1058869533698724E+01
Ga    4.7970295775477263E+00    4.6376674905925830E+00    1.3138664317114138E+01
N    4.8024719931338353E+00    2.7907369955548367E+00    1.3521816949088775E+01
Ga    3.2002660005859989E+00    5.5830408513368726E+00   -1.7235040844028648E-01
N    3.1940006150795397E+00    7.4422154024697766E+00    6.1353880095161961E-01
Ga    3.1985963783551798E+00    7.4449580727350284E+00    2.5481179394999365E+00
N    3.2039805482949317E+00    5.5862225724269701E+00    3.2356515010177236E+00
Ga    3.2041340875752269E+00    5.5848294577870927E+00    5.1957265510147392E+00
N    3.1996009749648340E+00    7.4428207018938073E+00    5.8581871686056610E+00
Ga    3.2016275508978937E+00    7.4445930644462042E+00    7.8266725958925862E+00
N    3.2095593582687072E+00    5.5849280381049313E+00    8.4745913090237739E+00
Ga    3.2065222261095836E+00    5.5883668021400306E+00    1.0461238188106455E+01
N    3.1932673775896245E+00    7.4494250857549096E+00    1.1047901745644072E+01
Ga    3.1680940664310064E+00    7.4378072976989813E+00    1.3110675498699019E+01
N    3.1892015626195382E+00    5.5853382400208051E+00    1.3465380816774770E+01
Ga    1.5880974154288936E+00    8.3753854917420725E+00   -1.7202008801102506E-01
N    1.5819870528118263E+00    1.0234137014621643E+01    6.1502148477059160E-01
Ga    1.5865232109024439E+00    1.0236886869597686E+01    2.5500463628884851E+00
N    1.5923494607466182E+00    8.3777060566436958E+00    3.2366165632630057E+00
Ga    1.5932546470617652E+00    8.3759479854644958E+00    5.1970030662437816E+00
N    1.5871152817359269E+00    1.0234805769693466E+01    5.8560582794279910E+00
Ga    1.5893196703299708E+00    1.0236397561241105E+01    7.8234566114928894E+00
N    1.5958687447852977E+00    8.3788736336099561E+00    8.4748234930292394E+00
Ga    1.5887795018936119E+00    8.3852587714637643E+00    1.0459256871615180E+01
N    1.5900000468871440E+00    1.0237611922926483E+01    1.1064787338086401E+01
Ga    1.5729205208315737E+00    1.0217384494620125E+01    1.3146416726758348E+01
N    1.5782748779581102E+00    8.3729157739061897E+00    1.3540416265567249E+01
Ga    9.6354084353746554E+00   -7.3154097695542653E-04   -1.7152051113261979E-01
N    9.6294416376396530E+00    1.8582096480596328E+00    6.1474531457968784E-01
Ga    9.6339526599103298E+00    1.8608409069620890E+00    2.5495068837718216E+00
N    9.6399120547905355E+00    1.9766038277668056E-03    3.2371617234958059E+00
Ga    9.6407052751717064E+00   -1.0319894367472587E-04    5.1978040244402663E+00
N    9.6343591178812922E+00    1.8596540513140016E+00    5.8557426478852683E+00
Ga    9.6371254593132161E+00    1.8608305220943697E+00    7.8230126690361423E+00
N    9.6436122915175346E+00    3.1349153309787182E-03    8.4723996295849666E+00
Ga    9.6367941935957475E+00    7.4359161858656387E-03    1.0456054687330456E+01
N    9.6361723291020933E+00    1.8605389502376695E+00    1.1062008803881305E+01
Ga    9.6196160023450492E+00    1.8438021843233576E+00    1.3140902104514144E+01
N    9.6260813009088881E+00    3.8673602055348593E-04    1.3539683336758642E+01
Ga    8.0236211358226672E+00    2.7911357754973705E+00   -1.7179859866569924E-01
N    8.0175381378824468E+00    4.6502900240397045E+00    6.1402184788319480E-01
Ga    8.0222330770359083E+00    4.6529426748843683E+00    2.5484591290103862E+00
N    8.0274559525741509E+00    2.7943618718726646E+00    3.2364462764335906E+00
Ga    8.0280446878492437E+00    2.7923895937476315E+00    5.1962845266374211E+00
N    8.0224750772390330E+00    4.6508408244381503E+00    5.8576181961539771E+00
Ga    8.0239932064625794E+00    4.6516746287485278E+00    7.8255374149639820E+00
N    8.0345002758116220E+00    2.7943889511456184E+00    8.4781447282124773E+00
Ga    8.0324345662388570E+00    2.7978422935309593E+00    1.0465517918260728E+01
N    8.0157562344275526E+00    4.6575149056600962E+00    1.1054396546149610E+01
Ga    7.9909103493519149E+00    4.6473808435798896E+00    1.3120568118705227E+01
N    8.0123642277080869E+00    2.7927399933566655E+00    1.3466331798002409E+01
Ga    6.4116011684314147E+00    5.5831945109081591E+00   -1.7228544576807020E-01
N    6.4054666757660765E+00    7.4421561898159396E+00    6.1410887497352318E-01
Ga    6.4101282379618674E+00    7.4450877946408802E+00    2.5488493063250335E+00
N    6.4158773649063789E+00    5.5860589562457568E+00    3.2358436609853816E+00
Ga    6.4165641845868979E+00    5.5841927017735067E+00    5.1956306120712750E+00
N    6.4108166150670023E+00    7.4430139501296040E+00    5.8550074353291315E+00
Ga    6.4134760667449777E+00    7.4444582634060836E+00    7.8223222532944199E+00
N    6.4193237706145734E+00    5.5869185987374035E+00    8.4737390355542423E+00
Ga    6.4128370404947361E+00    5.5947283300714803E+00    1.0458188760228071E+01
N    6.4134012852844888E+00    7.4448643568487238E+00    1.1065430632146381E+01
Ga    6.3983213565610271E+00    7.4252480183111844E+00    1.3148819937532661E+01
N    6.4010989650039729E+00    5.5815611352773420E+00    1.3550508931726840E+01
Ga    4.7997653864155945E+00    8.3751405882442622E+00   -1.7240756387179823E-01
N    4.7935036272623321E+00    1.0234121159196224E+01    6.1368012651915926E-01
Ga    4.7980253162028736E+00    1.0236976341562480E+01    2.5483676026188000E+00
N    4.8035292417878805E+00    8.3782836590935812E+00    3.2362322501488157E+00
Ga    4.8040585930477508E+00    8.3767233800956653E+00    5.1968011320883400E+00
N    4.7998918137683404E+00    1.0235222634132748E+01    5.8588841510661682E+00
Ga    4.8027232499119323E+00    1.0237414442889690E+01    7.8278368762317418E+00
N    4.8103700847463315E+00    8.3773644744843541E+00    8.4759508302519784E+00
Ga    4.8089532631128247E+00    8.3804090208137971E+00    1.0463221356088233E+01
N    4.7935081623048363E+00    1.0241433685247124E+01    1.1049384965689859E+01
Ga    4.7679322770898995E+00    1.0232120823765110E+01    1.3110228927095108E+01
N    4.7891493561236045E+00    8.3771029039152580E+00    1.3453888033883660E+01
H    4.7997016597687443E+00    8.3777080841026947E+00   -1.7248522593003188E+00
H    1.5881748425038189E+00    8.3787774201932486E+00   -1.7245523742266304E+00
H   -1.6235586584812491E+00    8.3788006807943649E+00   -1.7246880639413071E+00
H   -4.8353738909205273E+00    8.3791539521515421E+00   -1.7243561373878096E+00
H    6.4115448211013204E+00    5.5857374052163129E+00   -1.7247886248543431E+00
H    3.2005908572969028E+00    5.5861367109175708E+00   -1.7247814098005043E+00
H   -1.1354912997449821E-02    5.5866443509214037E+00   -1.7246685408136746E+00
H   -3.2239726643231181E+00    5.5862211834310553E+00   -1.7249114640473782E+00
H    8.0240869197143834E+00    2.7948742022638817E+00   -1.7242586639334574E+00
H    4.8114845251116183E+00    2.7948302446589723E+00   -1.7240274013072399E+00
H    1.6002898670252081E+00    2.7937870673635876E+00   -1.7243692432036895E+00
H   -1.6112284485446511E+00    2.7932807022203616E+00   -1.7247594758831593E+00
H    2.1829199394109125E-03    2.5275807853505261E-03   -1.7244523193839179E+00
H    3.2122963948099694E+00    2.0254143598755531E-03   -1.7241761548584345E+00
H    6.4237152005136853E+00    1.6676348115418340E-03   -1.7239488317017557E+00
H    9.6344544588755632E+00    3.2367546902239927E-03   -1.7239998080635748E+00
     &END COORD
     &KIND H
       BASIS_SET DZVP-MOLOPT-SR-GTH-q1
       POTENTIAL GTH-PBE-q1
       &POTENTIAL
1
0.2000000000000000E+00 2 -0.4178900440000000E+01  0.7244633100000000E+00
0
       &END POTENTIAL
     &END KIND
     &KIND N
       BASIS_SET DZVP-MOLOPT-SR-GTH
       POTENTIAL GTH-PBE-q5
       &POTENTIAL
2 3
0.2837905100000000E+00 2 -0.1241522559000000E+02  0.1868095920000000E+01
2
0.2554050000000000E+00 1  0.1363026257000000E+02
0.2454945300000000E+00 0
       &END POTENTIAL
     &END KIND
     &KIND Ga
       BASIS_SET DZVP-MOLOPT-SR-GTH
       POTENTIAL GTH-PBE-q13
       &POTENTIAL
2 1 10
0.4900000000000000E+00 0
3
0.4167772300000000E+00 3  0.1047568975000000E+02 -0.4921768140000000E+01  0.8707055900000000E+00
0.7770178090000000E+01 -0.2248152160000000E+01
0.1784415450000000E+01
0.5696265200000000E+00 2  0.1777985340000000E+01  0.1958597600000000E+00
-0.2317443900000000E+00
0.2381265000000000E+00 1 -0.1624868022000000E+02
       &END POTENTIAL
     &END KIND
     &TOPOLOGY
       NUMBER_OF_ATOMS  208
       MULTIPLE_UNIT_CELL  1 1 1
     &END TOPOLOGY
   &END SUBSYS
 &END FORCE_EVAL
