 # Version information for this restart file 
 # current date 2019-05-25 22:15:37.763
 # current working dir /lustre03/project/6004141/rzk/GaN-carbene/00-Surface/00-Preoptimization/443-capped/CELL_OPT
 # Program compiled at                              Sun Apr  7 00:48:11 EDT 2019
 # Program compiled on                          beluga2.int.ets1.calculquebec.ca
 # Program compiled for                        Beluga-Linux-x86-64-intel-openmpi
 # Source code revision number                                         svn:18619
 &GLOBAL
   PRINT_LEVEL  MEDIUM
   PROJECT_NAME TEST
   RUN_TYPE  CELL_OPT
 &END GLOBAL
 &MOTION
   &CELL_OPT
     MAX_ITER  300
     STEP_START_VAL  14
     EXTERNAL_PRESSURE     1.0000000000000000E+00
     KEEP_ANGLES  T
     KEEP_SYMMETRY  T
     CONSTRAINT  Z
     PRESSURE_TOLERANCE     5.0000000000000000E+02
   &END CELL_OPT
 &END MOTION
 &FORCE_EVAL
   METHOD  QS
   STRESS_TENSOR  ANALYTICAL
   &DFT
     BASIS_SET_FILE_NAME BASIS_MOLOPT
     POTENTIAL_FILE_NAME GTH_POTENTIALS
     SURFACE_DIPOLE_CORRECTION  T
     SURF_DIP_DIR  Z
     &SCF
       MAX_SCF  100
       EPS_SCF     5.0000000000000004E-06
       &OT  T
         PRECONDITIONER  FULL_ALL
       &END OT
       &OUTER_SCF  T
         OPTIMIZER  NONE
         EPS_SCF     5.0000000000000004E-06
         MAX_SCF  4
       &END OUTER_SCF
       &PRINT
         &RESTART  OFF
           BACKUP_COPIES  1
           &EACH
             JUST_ENERGY  0
             QS_SCF  0
             MD  20
           &END EACH
         &END RESTART
       &END PRINT
     &END SCF
     &QS
       EPS_DEFAULT     1.0000000000000000E-14
       METHOD  GPW
     &END QS
     &MGRID
       NGRIDS  5
       CUTOFF     1.2000000000000000E+03
     &END MGRID
     &XC
       DENSITY_CUTOFF     1.0000000000000000E-10
       GRADIENT_CUTOFF     1.0000000000000000E-10
       TAU_CUTOFF     1.0000000000000000E-10
       &XC_FUNCTIONAL  NO_SHORTCUT
         &PBE  T
         &END PBE
       &END XC_FUNCTIONAL
       &VDW_POTENTIAL
         POTENTIAL_TYPE  PAIR_POTENTIAL
         &PAIR_POTENTIAL
           R_CUTOFF     1.0000000000000004E+01
           TYPE  DFTD3
           PARAMETER_FILE_NAME dftd3.dat
           REFERENCE_FUNCTIONAL PBE
           EPS_CN     9.9999999999999995E-07
           CALCULATE_C9_TERM  T
           REFERENCE_C9_TERM  T
           LONG_RANGE_CORRECTION  F
           VERBOSE_OUTPUT  F
         &END PAIR_POTENTIAL
       &END VDW_POTENTIAL
     &END XC
   &END DFT
   &SUBSYS
     &CELL
       A     1.2875488501607631E+01    0.0000000000000000E+00    0.0000000000000000E+00
       B    -6.4513928099885351E+00    1.1174140126484719E+01    0.0000000000000000E+00
       C     0.0000000000000000E+00    0.0000000000000000E+00    2.9000000000000000E+01
       MULTIPLE_UNIT_CELL  1 1 1
       &CELL_REF
         A     1.2982353780853531E+01    0.0000000000000000E+00    0.0000000000000000E+00
         B    -6.4911768904267628E+00    1.1243048175136114E+01    0.0000000000000000E+00
         C     0.0000000000000000E+00    0.0000000000000000E+00    2.9000000000000000E+01
         MULTIPLE_UNIT_CELL  1 1 1
       &END CELL_REF
     &END CELL
     &COORD
Ga    2.0876990575934653E-03    6.6911607636750226E-04   -1.5956338434824341E-01
N   -2.6673623590967995E-03    1.8609688615731195E+00    6.1992833943651571E-01
Ga    3.8717853623186882E-05    1.8618849950161271E+00    2.5553757463572357E+00
N    5.1167701263520526E-04   -6.3493348755759018E-04    3.2405917253059209E+00
Ga    1.2068145568522727E-03   -1.4180699370789183E-03    5.1994987032394224E+00
N   -1.1934130088050125E-04    1.8603524392955986E+00    5.8524438106336545E+00
Ga    3.0587945646164041E-04    1.8592553136005989E+00    7.8201525124813447E+00
N    1.0036167828058936E-02   -3.8220383595242444E-03    8.4687193834784757E+00
Ga    8.5177606775387873E-04    1.2011438808405652E-03    1.0459965957684497E+01
N   -1.1292312103700929E-02    1.8668902233282023E+00    1.1041114210926409E+01
Ga   -1.8848944082725243E-02    1.8570449565358917E+00    1.3117132278669196E+01
N   -9.6535795580808840E-04   -1.6324927701691330E-03    1.3446947551334656E+01
Ga   -1.6108005323427270E+00    2.7937356485941831E+00   -1.5862615777093275E-01
N   -1.6154011301934537E+00    4.6550869966301454E+00    6.1858765124870929E-01
Ga   -1.6132480109956600E+00    4.6561534389624191E+00    2.5532663684385817E+00
N   -1.6107961762640151E+00    2.7949812141043902E+00    3.2386633473160145E+00
Ga   -1.6104447077463362E+00    2.7936035597105167E+00    5.1978301547961232E+00
N   -1.6129183494597592E+00    4.6565002996521878E+00    5.8569222801191430E+00
Ga   -1.6078460800868719E+00    4.6540694097651567E+00    7.8264639713736512E+00
N   -1.6071303349532489E+00    2.7922333746722283E+00    8.4659794928612762E+00
Ga   -1.6207561195249351E+00    2.7988595841548203E+00    1.0453005649505764E+01
N   -1.6171255882433344E+00    4.6603559731181958E+00    1.1049286910385613E+01
Ga   -1.6063115720594097E+00    4.6327850592695912E+00    1.3134529653844201E+01
N   -1.6060803163508039E+00    2.7918914873525980E+00    1.3541148916490021E+01
Ga   -3.2240918036843436E+00    5.5871482144295870E+00   -1.5976785609668870E-01
N   -3.2288223141402130E+00    7.4483758566204541E+00    6.1919405108660086E-01
Ga   -3.2261642900343568E+00    7.4486659218085842E+00    2.5539431069669849E+00
N   -3.2229061499721392E+00    5.5872215971848558E+00    3.2412920456689562E+00
Ga   -3.2221076651343239E+00    5.5868394640412893E+00    5.1994082439262836E+00
N   -3.2258074060428985E+00    7.4473986306738968E+00    5.8588710045323067E+00
Ga   -3.2272963062682871E+00    7.4466259060129776E+00    7.8273787924384477E+00
N   -3.2192828783013496E+00    5.5843552737642126E+00    8.4729282052014891E+00
Ga   -3.2276330748910191E+00    5.5901478627159795E+00    1.0468976744471675E+01
N   -3.2374903096853505E+00    7.4537390370821690E+00    1.1042700150148084E+01
Ga   -3.2386003897815376E+00    7.4438151889077293E+00    1.3124735791260177E+01
N   -3.2227774310480415E+00    5.5825033651877218E+00    1.3425988172546228E+01
Ga   -4.8370153938127078E+00    8.3812374796846267E+00   -1.5972447145163768E-01
N   -4.8417939624628366E+00    1.0241764791932054E+01    6.2023811938099471E-01
Ga   -4.8395509154465621E+00    1.0242489193857008E+01    2.5555123242923128E+00
N   -4.8364025165093096E+00    8.3799159292601466E+00    3.2404036102940257E+00
Ga   -4.8358944062565623E+00    8.3801586867733011E+00    5.1994251576612767E+00
N   -4.8383745868886869E+00    1.0242205229872011E+01    5.8529772795042545E+00
Ga   -4.8351351525277932E+00    1.0238609147447459E+01    7.8195579706966392E+00
N   -4.8313771078185797E+00    8.3825496695948782E+00    8.4727174126594313E+00
Ga   -4.8438431385400254E+00    8.3891929550132733E+00    1.0462591699073183E+01
N   -4.8405583784214334E+00    1.0250055801977252E+01    1.1059723150281700E+01
Ga   -4.8340087950813295E+00    1.0236345502079532E+01    1.3155772875533248E+01
N   -4.8374327336813074E+00    8.3816078071957278E+00    1.3511240455666210E+01
Ga    3.2206481644219296E+00    2.2854738964553530E-04   -1.5835981368178517E-01
N    3.2160513025554516E+00    1.8617492617473470E+00    6.1946393048430215E-01
Ga    3.2182562017685972E+00    1.8626653586613857E+00    2.5543832515298068E+00
N    3.2207234586583295E+00    7.3355159130960223E-04    3.2396061541988761E+00
Ga    3.2203014714161480E+00    1.0242342050580740E-03    5.1987824637228011E+00
N    3.2203740348052246E+00    1.8624243164245615E+00    5.8562652206175185E+00
Ga    3.2227061833221988E+00    1.8629417530216572E+00    7.8247673346780626E+00
N    3.2267213407676327E+00   -8.8758353706662593E-04    8.4664656718532996E+00
Ga    3.2187117667702432E+00    7.8919667661793286E-03    1.0453154750350604E+01
N    3.2120882511938431E+00    1.8600485520619137E+00    1.1046054640796847E+01
Ga    3.2202685787863863E+00    1.8434243728092872E+00    1.3127500096710360E+01
N    3.2237655464803128E+00    3.8102115473369618E-03    1.3540322256223369E+01
Ga    1.6076473579310540E+00    2.7936811026558273E+00   -1.5964850727167729E-01
N    1.6028619781949098E+00    4.6547883764564784E+00    6.1840794374971431E-01
Ga    1.6055835677027515E+00    4.6553873633457501E+00    2.5542226087061604E+00
N    1.6084394399897326E+00    2.7935932933140077E+00    3.2407045254161324E+00
Ga    1.6086741582673487E+00    2.7936754481329333E+00    5.2000792025177818E+00
N    1.6038819952134336E+00    4.6544776603615317E+00    5.8551912804154185E+00
Ga    1.6032528239989470E+00    4.6532765430626277E+00    7.8231648950465784E+00
N    1.6127616113244148E+00    2.7898958370388502E+00    8.4663298869649513E+00
Ga    1.6037489807799907E+00    2.7954384808578099E+00    1.0458346263614358E+01
N    1.6053508791193674E+00    4.6565199154846395E+00    1.1038426436761799E+01
Ga    1.6004363649039151E+00    4.6445523560609701E+00    1.3121613419272311E+01
N    1.6070418329543845E+00    2.7890087450219903E+00    1.3448893765032389E+01
Ga   -5.1844688859009856E-03    5.5875606822052131E+00   -1.6081587546794610E-01
N   -9.6928168038187840E-03    7.4477813241972735E+00    6.1914683029971207E-01
Ga   -7.6363121266689654E-03    7.4487682433903428E+00    2.5545542453519339E+00
N   -5.2982125400425802E-03    5.5867794097479058E+00    3.2392885234987463E+00
Ga   -3.2644758761192320E-03    5.5861994844156877E+00    5.1979583214222043E+00
N   -8.3931417126199767E-03    7.4478545262187641E+00    5.8523340305247995E+00
Ga   -3.0003465454159065E-03    7.4442931518489166E+00    7.8201460909532425E+00
N   -1.3600313120383577E-03    5.5886841890143568E+00    8.4747397102514093E+00
Ga   -6.3630948143812184E-03    5.5971604475554093E+00    1.0466894781892581E+01
N   -7.8831655570615576E-03    7.4567111571021538E+00    1.1056737253087595E+01
Ga   -4.1090932193983427E-03    7.4473742389435733E+00    1.3156580180187193E+01
N   -1.5956655095206431E-03    5.5872150387412054E+00    1.3485369035281661E+01
Ga   -1.6177816259669040E+00    8.3810882446312451E+00   -1.5908282634612980E-01
N   -1.6222985163692016E+00    1.0241873156097002E+01    6.2032303960485879E-01
Ga   -1.6195938916134938E+00    1.0242641632658975E+01    2.5553746470178473E+00
N   -1.6182725960015918E+00    8.3804712251430598E+00    3.2404183012898571E+00
Ga   -1.6173612143111324E+00    8.3790970037848496E+00    5.1989413476867083E+00
N   -1.6198895623758196E+00    1.0241133086621383E+01    5.8543306499957115E+00
Ga   -1.6159365815916595E+00    1.0239648268929779E+01    7.8221858825633701E+00
N   -1.6132321046219984E+00    8.3752329720492700E+00    8.4700926798883263E+00
Ga   -1.6194619549490996E+00    8.3779898056774478E+00    1.0465344815721593E+01
N   -1.6334639097106605E+00    1.0243232508182407E+01    1.1042039417542783E+01
Ga   -1.6361787311197094E+00    1.0243299757782866E+01    1.3116652275381419E+01
N   -1.6179061218997846E+00    8.3834945786706179E+00    1.3444700683066024E+01
Ga    6.4392219525219199E+00    1.1378649411362454E-06   -1.5970929269645806E-01
N    6.4344312106893993E+00    1.8611971946311530E+00    6.1878731533764686E-01
Ga    6.4369552710864353E+00    1.8617167475199827E+00    2.5536584253770602E+00
N    6.4394793877510823E+00    1.1158670841365445E-03    3.2412058336018612E+00
Ga    6.4417893938234538E+00    3.2489462048297056E-04    5.2003968857841851E+00
N    6.4362164262558137E+00    1.8618494308045133E+00    5.8616200998649122E+00
Ga    6.4359273556728809E+00    1.8584617405378794E+00    7.8314964014959410E+00
N    6.4431515035055842E+00   -3.0800969284627069E-03    8.4720319675573581E+00
Ga    6.4385704387701779E+00    1.1862194280452347E-03    1.0467704195114358E+01
N    6.4313195215119254E+00    1.8582528726317127E+00    1.1047241858426359E+01
Ga    6.4290266155365501E+00    1.8536518920748013E+00    1.3131974607477531E+01
N    6.4421241517642258E+00   -4.5234923522145072E-03    1.3435079849117239E+01
Ga    4.8262029511659028E+00    2.7940218588080623E+00   -1.6048545880460879E-01
N    4.8217062658277916E+00    4.6544232352702473E+00    6.2013415761409374E-01
Ga    4.8236205495828068E+00    4.6552052193955253E+00    2.5555782337568185E+00
N    4.8271354484138023E+00    2.7928233428777278E+00    3.2407275437318450E+00
Ga    4.8275496522780523E+00    2.7923654351096965E+00    5.1990943456180112E+00
N    4.8255360610850753E+00    4.6534083340446939E+00    5.8517784910169830E+00
Ga    4.8290811940303398E+00    4.6502382231594579E+00    7.8194092321123643E+00
N    4.8307716507810747E+00    2.7946171069195622E+00    8.4791807922249465E+00
Ga    4.8217055071357775E+00    2.8046942969143775E+00    1.0475020310181133E+01
N    4.8251764825470795E+00    4.6694801981760374E+00    1.1050235923202434E+01
Ga    4.8222867947281802E+00    4.6650158408095050E+00    1.3142598958888687E+01
N    4.8297532570393580E+00    2.8025298341244333E+00    1.3466713733429827E+01
Ga    3.2141067107968855E+00    5.5876922168106109E+00   -1.5913547699041644E-01
N    3.2096158594478861E+00    7.4482226165510799E+00    6.1919833515174538E-01
Ga    3.2120399038732765E+00    7.4488359136700062E+00    2.5551408608509396E+00
N    3.2133833654142987E+00    5.5868207799501350E+00    3.2400762663124900E+00
Ga    3.2127026087375783E+00    5.5859273910768410E+00    5.1998709087439892E+00
N    3.2134158272673421E+00    7.4492815758516224E+00    5.8508258091818011E+00
Ga    3.2128189512787113E+00    7.4470832870841024E+00    7.8182866593673257E+00
N    3.2187339596335969E+00    5.5820123638255446E+00    8.4585908298285979E+00
Ga    3.2124916465099016E+00    5.5868667501898699E+00    1.0448675247000397E+01
N    3.1976172963447587E+00    7.4473150331420923E+00    1.1028009379567495E+01
Ga    3.1878582314633404E+00    7.4486828148958617E+00    1.3098626060354462E+01
N    3.2094543024575901E+00    5.5925031694972995E+00    1.3471535179390369E+01
Ga    1.6011806278903682E+00    8.3807903381473103E+00   -1.5880329764556864E-01
N    1.5963762367611689E+00    1.0241877356590763E+01    6.1919435547286195E-01
Ga    1.5985368408713079E+00    1.0243158338939848E+01    2.5552275295570759E+00
N    1.6006674219501220E+00    8.3805750472552667E+00    3.2377232428096003E+00
Ga    1.6012714157288330E+00    8.3810203449326508E+00    5.1978613715441941E+00
N    1.5986531656139535E+00    1.0243548372927227E+01    5.8518240452576027E+00
Ga    1.6027468218438883E+00    1.0242903524621145E+01    7.8202501557042128E+00
N    1.6049742305927297E+00    8.3806030577304895E+00    8.4605366870060976E+00
Ga    1.5948713328524051E+00    8.3858755054698122E+00    1.0446563231982392E+01
N    1.6022180335328284E+00    1.0241813584952467E+01    1.1045844028410800E+01
Ga    1.6071423227096713E+00    1.0220215107721021E+01    1.3132789441073202E+01
N    1.6042622556691917E+00    8.3842127823387251E+00    1.3554863312855502E+01
Ga    9.6582966516140374E+00    6.0366614869214745E-04   -1.6011637936363157E-01
N    9.6535737272692437E+00    1.8606759017084804E+00    6.2019531021884711E-01
Ga    9.6556545062770507E+00    1.8616286238722410E+00    2.5561736646317916E+00
N    9.6596970477883755E+00   -8.5114293440470491E-04    3.2397689478640213E+00
Ga    9.6595576809382013E+00   -6.6983099215896908E-04    5.1996583635313058E+00
N    9.6560214341968891E+00    1.8627363841952482E+00    5.8516505783704353E+00
Ga    9.6586810715124294E+00    1.8590958741750052E+00    7.8187389286733424E+00
N    9.6607511963782642E+00    3.7475303637559266E-03    8.4673667446110983E+00
Ga    9.6547271730569797E+00    7.0546090270279319E-03    1.0454796330720990E+01
N    9.6544929347962540E+00    1.8714660901343829E+00    1.1054442877138666E+01
Ga    9.6608647389145013E+00    1.8558556905646635E+00    1.3146907961724116E+01
N    9.6590787612873772E+00    4.4274939414364698E-03    1.3511817106945990E+01
Ga    8.0458321982945691E+00    2.7940740548524481E+00   -1.5854553221647991E-01
N    8.0411856304093590E+00    4.6549100312481810E+00    6.2085064775281618E-01
Ga    8.0436886285805294E+00    4.6553846537461725E+00    2.5559841791588038E+00
N    8.0441329139957229E+00    2.7931563821198213E+00    3.2413908979133028E+00
Ga    8.0450661830234740E+00    2.7918201245075265E+00    5.2001927928748524E+00
N    8.0450234970227612E+00    4.6552948545878330E+00    5.8543143891183353E+00
Ga    8.0460372950095369E+00    4.6533206379805625E+00    7.8211211473210582E+00
N    8.0511420673030472E+00    2.7932652499648296E+00    8.4711077838259641E+00
Ga    8.0408259159567397E+00    2.7964640270893502E+00    1.0464274931749808E+01
N    8.0280016277403909E+00    4.6586990532960559E+00    1.1038287281428000E+01
Ga    8.0230026313319573E+00    4.6565182625780306E+00    1.3113405462802120E+01
N    8.0455708713115666E+00    2.7961899204408254E+00    1.3453446589781713E+01
Ga    6.4326958943552093E+00    5.5872445765987928E+00   -1.5831048991804078E-01
N    6.4277376998748110E+00    7.4487289975280611E+00    6.1930632355649928E-01
Ga    6.4298050911929021E+00    7.4496470388613840E+00    2.5543249715758933E+00
N    6.4325244419969625E+00    5.5877833542965103E+00    3.2397394572792320E+00
Ga    6.4328803699365533E+00    5.5881212394998698E+00    5.1991526947546518E+00
N    6.4306686138777076E+00    7.4505346562788670E+00    5.8543008173576432E+00
Ga    6.4339034268785911E+00    7.4513814076125069E+00    7.8229935690377355E+00
N    6.4378602896215229E+00    5.5868223467929390E+00    8.4611563439261186E+00
Ga    6.4244865837313148E+00    5.5995122882877908E+00    1.0448659105100297E+01
N    6.4331768060699321E+00    7.4527601771087228E+00    1.1050088993906757E+01
Ga    6.4346471514596066E+00    7.4255338114540832E+00    1.3141182731395402E+01
N    6.4344257672843428E+00    5.5876909289136787E+00    1.3555304925270359E+01
Ga    4.8197302265384323E+00    8.3806910101432344E+00   -1.6078389123923204E-01
N    4.8149157821065698E+00    1.0241510945869313E+01    6.1763751311746917E-01
Ga    4.8173677891913629E+00    1.0242106358205531E+01    2.5526646474483714E+00
N    4.8201651133156975E+00    8.3816098885687857E+00    3.2396246891761491E+00
Ga    4.8202674150748104E+00    8.3813631979120213E+00    5.1981638618411798E+00
N    4.8184497077276873E+00    1.0241078056710833E+01    5.8594953673006485E+00
Ga    4.8157944440899598E+00    1.0241996317179764E+01    7.8295977478915173E+00
N    4.8247022080345543E+00    8.3763937292814550E+00    8.4716802511646563E+00
Ga    4.8122373326073493E+00    8.3806373581564966E+00    1.0469271126559439E+01
N    4.8074221764778553E+00    1.0252025019952230E+01    1.1033790070876083E+01
Ga    4.8017908167370482E+00    1.0239096753067457E+01    1.3110867681621110E+01
N    4.8161354031340187E+00    8.3769675545612561E+00    1.3413785417587473E+01
H    4.8177644769073646E+00    8.3803198086462629E+00   -1.7178043278450303E+00
H    1.5998602154536581E+00    8.3804217013488831E+00   -1.7157332502367806E+00
H   -1.6192474725366954E+00    8.3809980992870088E+00   -1.7157181392037846E+00
H   -4.8391690872985427E+00    8.3813844425869970E+00   -1.7165027549407192E+00
H    6.4306279658925112E+00    5.5868076480786515E+00   -1.7147550162799141E+00
H    3.2122846756607455E+00    5.5873437217304991E+00   -1.7161405704604527E+00
H   -6.1765612401921775E-03    5.5873490462099360E+00   -1.7178787870001579E+00
H   -3.2262131146508706E+00    5.5870314605837317E+00   -1.7163804531597948E+00
H    8.0442928731612273E+00    2.7936536111502890E+00   -1.7153206807929218E+00
H    4.8243562871208674E+00    2.7938583960184467E+00   -1.7173724404360498E+00
H    1.6055987902705440E+00    2.7932438485417146E+00   -1.7165105702463601E+00
H   -1.6124087835056475E+00    2.7923326586724082E+00   -1.7153092500648266E+00
H    5.0987101015964793E-04    2.1884136484079253E-04   -1.7161850108510484E+00
H    3.2186777712473167E+00   -2.9625882932469798E-04   -1.7148449495680358E+00
H    6.4376282489475223E+00   -5.7921425706456255E-04   -1.7166172477844519E+00
H    9.6564836505853631E+00    3.2834477883060724E-05   -1.7173154033705631E+00
     &END COORD
     &KIND H
       BASIS_SET DZVP-MOLOPT-SR-GTH-q1
       POTENTIAL GTH-PBE-q1
       &POTENTIAL
1
0.2000000000000000E+00 2 -0.4178900440000000E+01  0.7244633100000000E+00
0
       &END POTENTIAL
     &END KIND
     &KIND N
       BASIS_SET DZVP-MOLOPT-SR-GTH
       POTENTIAL GTH-PBE-q5
       &POTENTIAL
2 3
0.2837905100000000E+00 2 -0.1241522559000000E+02  0.1868095920000000E+01
2
0.2554050000000000E+00 1  0.1363026257000000E+02
0.2454945300000000E+00 0
       &END POTENTIAL
     &END KIND
     &KIND Ga
       BASIS_SET DZVP-MOLOPT-SR-GTH
       POTENTIAL GTH-PBE-q13
       &POTENTIAL
2 1 10
0.4900000000000000E+00 0
3
0.4167772300000000E+00 3  0.1047568975000000E+02 -0.4921768140000000E+01  0.8707055900000000E+00
0.7770178090000000E+01 -0.2248152160000000E+01
0.1784415450000000E+01
0.5696265200000000E+00 2  0.1777985340000000E+01  0.1958597600000000E+00
-0.2317443900000000E+00
0.2381265000000000E+00 1 -0.1624868022000000E+02
       &END POTENTIAL
     &END KIND
     &TOPOLOGY
       NUMBER_OF_ATOMS  208
       MULTIPLE_UNIT_CELL  1 1 1
     &END TOPOLOGY
   &END SUBSYS
 &END FORCE_EVAL
