 # Version information for this restart file 
 # current date 2019-05-26 00:23:31.662
 # current working dir /lustre03/project/6004141/rzk/GaN-carbene/00-Surface/00-Preoptimization/443-capped/CELL_OPT
 # Program compiled at                              Sun Apr  7 00:48:11 EDT 2019
 # Program compiled on                          beluga2.int.ets1.calculquebec.ca
 # Program compiled for                        Beluga-Linux-x86-64-intel-openmpi
 # Source code revision number                                         svn:18619
 &GLOBAL
   PRINT_LEVEL  MEDIUM
   PROJECT_NAME TEST
   RUN_TYPE  CELL_OPT
 &END GLOBAL
 &MOTION
   &CELL_OPT
     MAX_ITER  300
     STEP_START_VAL  36
     EXTERNAL_PRESSURE     1.0000000000000000E+00
     KEEP_ANGLES  T
     KEEP_SYMMETRY  T
     CONSTRAINT  Z
     PRESSURE_TOLERANCE     5.0000000000000000E+02
   &END CELL_OPT
 &END MOTION
 &FORCE_EVAL
   METHOD  QS
   STRESS_TENSOR  ANALYTICAL
   &DFT
     BASIS_SET_FILE_NAME BASIS_MOLOPT
     POTENTIAL_FILE_NAME GTH_POTENTIALS
     SURFACE_DIPOLE_CORRECTION  T
     SURF_DIP_DIR  Z
     &SCF
       MAX_SCF  100
       EPS_SCF     5.0000000000000004E-06
       &OT  T
         PRECONDITIONER  FULL_ALL
       &END OT
       &OUTER_SCF  T
         OPTIMIZER  NONE
         EPS_SCF     5.0000000000000004E-06
         MAX_SCF  4
       &END OUTER_SCF
       &PRINT
         &RESTART  OFF
           BACKUP_COPIES  1
           &EACH
             JUST_ENERGY  0
             QS_SCF  0
             MD  20
           &END EACH
         &END RESTART
       &END PRINT
     &END SCF
     &QS
       EPS_DEFAULT     1.0000000000000000E-14
       METHOD  GPW
     &END QS
     &MGRID
       NGRIDS  5
       CUTOFF     1.2000000000000000E+03
     &END MGRID
     &XC
       DENSITY_CUTOFF     1.0000000000000000E-10
       GRADIENT_CUTOFF     1.0000000000000000E-10
       TAU_CUTOFF     1.0000000000000000E-10
       &XC_FUNCTIONAL  NO_SHORTCUT
         &PBE  T
         &END PBE
       &END XC_FUNCTIONAL
       &VDW_POTENTIAL
         POTENTIAL_TYPE  PAIR_POTENTIAL
         &PAIR_POTENTIAL
           R_CUTOFF     1.0000000000000004E+01
           TYPE  DFTD3
           PARAMETER_FILE_NAME dftd3.dat
           REFERENCE_FUNCTIONAL PBE
           EPS_CN     9.9999999999999995E-07
           CALCULATE_C9_TERM  T
           REFERENCE_C9_TERM  T
           LONG_RANGE_CORRECTION  F
           VERBOSE_OUTPUT  F
         &END PAIR_POTENTIAL
       &END VDW_POTENTIAL
     &END XC
   &END DFT
   &SUBSYS
     &CELL
       A     1.2847935625498998E+01    0.0000000000000000E+00    0.0000000000000000E+00
       B    -6.4463086893103458E+00    1.1165334171158271E+01    0.0000000000000000E+00
       C     0.0000000000000000E+00    0.0000000000000000E+00    2.9000000000000000E+01
       MULTIPLE_UNIT_CELL  1 1 1
       &CELL_REF
         A     1.2982353780853531E+01    0.0000000000000000E+00    0.0000000000000000E+00
         B    -6.4911768904267628E+00    1.1243048175136114E+01    0.0000000000000000E+00
         C     0.0000000000000000E+00    0.0000000000000000E+00    2.9000000000000000E+01
         MULTIPLE_UNIT_CELL  1 1 1
       &END CELL_REF
     &END CELL
     &COORD
Ga    1.1637117925849141E-03   -7.9790821258253258E-04   -1.6915003629597192E-01
N   -4.3928463515381343E-03    1.8581036359057266E+00    6.1578169582249564E-01
Ga   -2.5096075297102011E-04    1.8603997587424543E+00    2.5499938183340016E+00
N    4.5948949115192364E-03    2.0868219653764849E-03    3.2373841847565115E+00
Ga    5.3192388870190342E-03   -3.5402587980386957E-04    5.1973715961526397E+00
N    2.8561753070529232E-04    1.8589588197357063E+00    5.8585599478912354E+00
Ga    3.0996284305647554E-03    1.8587886475722242E+00    7.8262058253422300E+00
N    1.1964888144660998E-02    4.2032983371556925E-03    8.4792128012486199E+00
Ga    1.1053586148972892E-02    7.8561770062242735E-03    1.0466123257976593E+01
N   -6.2580057640350432E-03    1.8642242894438721E+00    1.1055406671377819E+01
Ga   -2.7367035282312605E-02    1.8541476602342335E+00    1.3125978860669601E+01
N   -1.0017710277387798E-02   -1.0914696741362508E-03    1.3464554076019901E+01
Ga   -1.6107050313919238E+00    2.7905117851565677E+00   -1.6953512325908890E-01
N   -1.6160566390983528E+00    4.6494440408086009E+00    6.1568774190940767E-01
Ga   -1.6121390996360276E+00    4.6518425580408458E+00    2.5502506924034813E+00
N   -1.6066468625183346E+00    2.7931267047481962E+00    3.2380525147932384E+00
Ga   -1.6058665616242711E+00    2.7911150125586701E+00    5.1973986452822629E+00
N   -1.6121142549929970E+00    4.6497736746388538E+00    5.8558967971700753E+00
Ga   -1.6083732914318254E+00    4.6516969871671972E+00    7.8228067787115050E+00
N   -1.6037697810102234E+00    2.7931959751498980E+00    8.4731629124155852E+00
Ga   -1.6094993424981261E+00    2.7978355929201872E+00    1.0457643474362085E+01
N   -1.6133372742937311E+00    4.6545095516877053E+00    1.1052200726226200E+01
Ga   -1.6257479899705611E+00    4.6369796948113926E+00    1.3127171239473395E+01
N   -1.6193578719403203E+00    2.7928734690368917E+00    1.3531414032568348E+01
Ga   -3.2222016480252820E+00    5.5818726839480979E+00   -1.6974730318312825E-01
N   -3.2273917255032010E+00    7.4406454597506899E+00    6.1548744945685530E-01
Ga   -3.2232882193528467E+00    7.4431725206356552E+00    2.5503903483794628E+00
N   -3.2186843974224524E+00    5.5843951844602273E+00    3.2379451642124981E+00
Ga   -3.2183209866933562E+00    5.5840307143326422E+00    5.1979532701927598E+00
N   -3.2227016621765547E+00    7.4410111778093260E+00    5.8587919143840290E+00
Ga   -3.2209023776242773E+00    7.4455556871298540E+00    7.8264408563482615E+00
N   -3.2143933368261695E+00    5.5826520535138462E+00    8.4736298846687621E+00
Ga   -3.2186684203341049E+00    5.5867405813398472E+00    1.0459549266399728E+01
N   -3.2295035643422811E+00    7.4473534938008044E+00    1.1049592165291022E+01
Ga   -3.2500058464889707E+00    7.4377172897725350E+00    1.3113019079241433E+01
N   -3.2311461156263737E+00    5.5840199164289617E+00    1.3460417822297167E+01
Ga   -4.8337109972635259E+00    8.3733220179001009E+00   -1.6899277442535696E-01
N   -4.8388844446540862E+00    1.0232032047994879E+01    6.1628818397527685E-01
Ga   -4.8346308865616603E+00    1.0234432532739142E+01    2.5512284632800073E+00
N   -4.8296375507737963E+00    8.3755333184119234E+00    3.2375612999881880E+00
Ga   -4.8292617478489674E+00    8.3742859118300821E+00    5.1981817067132479E+00
N   -4.8350954997407314E+00    1.0233432702007333E+01    5.8564724455122148E+00
Ga   -4.8323908950096577E+00    1.0233726200634797E+01    7.8231955442655376E+00
N   -4.8260049747935376E+00    8.3775001971953866E+00    8.4743486009044151E+00
Ga   -4.8336036122058337E+00    8.3827177031557092E+00    1.0456833797019881E+01
N   -4.8336856890106965E+00    1.0234065128008456E+01    1.1065906120353485E+01
Ga   -4.8473599687782567E+00    1.0214888982002751E+01    1.3148223883907255E+01
N   -4.8416479533417105E+00    8.3731434345525901E+00    1.3543736865818211E+01
Ga    3.2130033106611147E+00   -6.7207866978552793E-04   -1.6880142461029510E-01
N    3.2076903062355657E+00    1.8579474414721091E+00    6.1665683034893115E-01
Ga    3.2117483709172543E+00    1.8599588495974475E+00    2.5513798419378766E+00
N    3.2169876580671684E+00    1.5721678488529178E-03    3.2389895825348405E+00
Ga    3.2180878268164896E+00   -1.2114639578217430E-03    5.1994877949085057E+00
N    3.2117149484640635E+00    1.8592471693957975E+00    5.8567496159954597E+00
Ga    3.2148484890176738E+00    1.8582740404127303E+00    7.8239396569039146E+00
N    3.2203894107819435E+00    2.8812468191999250E-03    8.4742489651408306E+00
Ga    3.2158424619401660E+00    4.9116695316516884E-03    1.0456933699423271E+01
N    3.2107613794004100E+00    1.8607685899224091E+00    1.1049402304126723E+01
Ga    3.1986120617710196E+00    1.8454364622862893E+00    1.3120825233786931E+01
N    3.2056514741948909E+00    9.1647327498441209E-04    1.3525650433854921E+01
Ga    1.6015784905904555E+00    2.7903487741305888E+00   -1.6923835728543637E-01
N    1.5960908907463536E+00    4.6493674034308201E+00    6.1547062580290168E-01
Ga    1.6001657250486749E+00    4.6516267697872626E+00    2.5498742332797901E+00
N    1.6049122262772226E+00    2.7930235763887805E+00    3.2379710837108822E+00
Ga    1.6056779267228043E+00    2.7914699831664307E+00    5.1974099255260535E+00
N    1.6008613582446707E+00    4.6495257378946810E+00    5.8571073674148364E+00
Ga    1.6024688434077485E+00    4.6518554953985038E+00    7.8250848073287349E+00
N    1.6102033976267944E+00    2.7925278672827276E+00    8.4751321807099007E+00
Ga    1.6061949436384670E+00    2.7978843902341937E+00    1.0462019391368115E+01
N    1.5955237412215151E+00    4.6549138482019519E+00    1.1049608001340632E+01
Ga    1.5763214478689451E+00    4.6426127058839732E+00    1.3115380349459016E+01
N    1.5923682222147735E+00    2.7905933372380969E+00    1.3463522340362614E+01
Ga   -1.0203439457552579E-02    5.5818373278985716E+00   -1.6950170149623761E-01
N   -1.5515414573589693E-02    7.4407906596527607E+00    6.1550111782241923E-01
Ga   -1.1486533626918162E-02    7.4433129985615514E+00    2.5507185809087263E+00
N   -6.4187000420311436E-03    5.5839813651681300E+00    3.2369216265072653E+00
Ga   -5.4405328682828645E-03    5.5834751495239905E+00    5.1971910351440700E+00
N   -1.1479027251888589E-02    7.4408939298460668E+00    5.8554669268604735E+00
Ga   -8.5546188479081933E-03    7.4431660612885517E+00    7.8226694173674893E+00
N   -3.3534461073885238E-03    5.5842450771845709E+00    8.4729859449784932E+00
Ga   -9.3760719414842358E-03    5.5913861612978790E+00    1.0456804525391799E+01
N   -1.0560057717255980E-02    7.4437143278704125E+00    1.1063970813433535E+01
Ga   -2.4340779659640308E-02    7.4256584620088439E+00    1.3147972608383741E+01
N   -1.8529497807294931E-02    5.5769685131609146E+00    1.3530225978295745E+01
Ga   -1.6218046403195583E+00    8.3732861934188243E+00   -1.6928837889393247E-01
N   -1.6270915950031883E+00    1.0231952673093261E+01    6.1602749397251932E-01
Ga   -1.6230650397365802E+00    1.0234248746825870E+01    2.5510925336009049E+00
N   -1.6183347788170837E+00    8.3756626904787446E+00    3.2374274594091168E+00
Ga   -1.6171389900828630E+00    8.3745010165320100E+00    5.1980766830880976E+00
N   -1.6221207899584376E+00    1.0232055044073222E+01    5.8596605291887904E+00
Ga   -1.6185667534960384E+00    1.0233651788927547E+01    7.8280905749379137E+00
N   -1.6126893439101182E+00    8.3742521382298367E+00    8.4791358519128739E+00
Ga   -1.6135107810513576E+00    8.3787438638266352E+00    1.0465610525515940E+01
N   -1.6281663714329879E+00    1.0238096101335532E+01    1.1054282920081141E+01
Ga   -1.6504460771886802E+00    1.0229179802836759E+01    1.3120839654800745E+01
N   -1.6315603649116917E+00    8.3738514491379821E+00    1.3464336670162236E+01
Ga    6.4250074384552471E+00   -7.9420233964104352E-04   -1.6870474488362053E-01
N    6.4197447704672150E+00    1.8580622181490285E+00    6.1611016646447936E-01
Ga    6.4235840678757938E+00    1.8600487332030762E+00    2.5506954602290812E+00
N    6.4283197593557500E+00    1.9497554294797331E-03    3.2380492622855903E+00
Ga    6.4291465493813922E+00   -7.1509229627793693E-04    5.1986577720133758E+00
N    6.4253001492440358E+00    1.8590992396630688E+00    5.8586689659474480E+00
Ga    6.4272797685704974E+00    1.8581143402083278E+00    7.8264762917340649E+00
N    6.4342209498262495E+00    2.2749902875884953E-03    8.4783705307312012E+00
Ga    6.4328358210288483E+00    2.9028514782620377E-03    1.0463779945713158E+01
N    6.4193364440140028E+00    1.8647753711051422E+00    1.1052762234498783E+01
Ga    6.4000789050733999E+00    1.8513964572836326E+00    1.3117210599517676E+01
N    6.4175578237687390E+00   -8.6026235278916820E-04    1.3467554278237287E+01
Ga    4.8133183991577146E+00    2.7904819414947273E+00   -1.6891594164240811E-01
N    4.8081658358936634E+00    4.6494391945769458E+00    6.1596572564963392E-01
Ga    4.8120597604077151E+00    4.6517449101971451E+00    2.5504975673011194E+00
N    4.8172482022874208E+00    2.7929702912856902E+00    3.2382660824182716E+00
Ga    4.8181105230994508E+00    2.7909663985774791E+00    5.1983217132985544E+00
N    4.8123015338677133E+00    4.6504371013712582E+00    5.8549725408151394E+00
Ga    4.8149621884751248E+00    4.6521271481872404E+00    7.8220270121622493E+00
N    4.8211119826024103E+00    2.7939348557928358E+00    8.4716583405355177E+00
Ga    4.8159259000818073E+00    2.8007672275967614E+00    1.0454958531787680E+01
N    4.8109536581248982E+00    4.6537847222547120E+00    1.1056532993999179E+01
Ga    4.8002089281760068E+00    4.6372557229446771E+00    1.3135585778165275E+01
N    4.8055768409236324E+00    2.7913427152263091E+00    1.3513320170435364E+01
Ga    3.2019231518542219E+00    5.5817699496635873E+00   -1.6949012404566952E-01
N    3.1965363098686170E+00    7.4408013103182258E+00    6.1519302619877736E-01
Ga    3.2004110841669200E+00    7.4432864906929508E+00    2.5501186592306384E+00
N    3.2052510024441196E+00    5.5843764903695439E+00    3.2368921948462255E+00
Ga    3.2057133732527365E+00    5.5838110470026914E+00    5.1968612920564734E+00
N    3.2016583497982047E+00    7.4409351381728595E+00    5.8579287959851527E+00
Ga    3.2028717018435566E+00    7.4435273873084720E+00    7.8262747064408442E+00
N    3.2105729795068125E+00    5.5823652392831393E+00    8.4738531008219375E+00
Ga    3.2077464688050825E+00    5.5866739318397514E+00    1.0459180905497691E+01
N    3.1951917696203673E+00    7.4464758830103568E+00    1.1046025365975527E+01
Ga    3.1719314642841372E+00    7.4363454081349545E+00    1.3109365422048441E+01
N    3.1914826228375803E+00    5.5852825072372836E+00    1.3463640179578130E+01
Ga    1.5902082539862079E+00    8.3734635890108819E+00   -1.6903015572480820E-01
N    1.5849357660180194E+00    1.0232060399481878E+01    6.1634957316032735E-01
Ga    1.5887842461776280E+00    1.0234266431753150E+01    2.5516578745091909E+00
N    1.5940860373965242E+00    8.3753285614941699E+00    3.2374574148444051E+00
Ga    1.5947735840067669E+00    8.3739958225354290E+00    5.1982988151519569E+00
N    1.5896398218117689E+00    1.0233080703670758E+01    5.8558887653630070E+00
Ga    1.5908330246182585E+00    1.0233220043054001E+01    7.8230768928923080E+00
N    1.5972915706724609E+00    8.3765580978349323E+00    8.4742361968781363E+00
Ga    1.5906108920107487E+00    8.3819975831879656E+00    1.0456463296610867E+01
N    1.5916150387124477E+00    1.0235785840574186E+01    1.1061464624396718E+01
Ga    1.5762251696548653E+00    1.0216422905067649E+01    1.3141498696075413E+01
N    1.5819942804685527E+00    8.3708928475952327E+00    1.3532632130896967E+01
Ga    9.6367778140026825E+00   -5.9369762462387489E-04   -1.6881497262254755E-01
N    9.6316643201186682E+00    1.8581784139268480E+00    6.1649937580746628E-01
Ga    9.6355824309333897E+00    1.8602516753783815E+00    2.5508244239405600E+00
N    9.6410642585267929E+00    1.9349965425622692E-03    3.2382425787822089E+00
Ga    9.6411904177581960E+00   -9.0976823235475526E-04    5.1988029813404140E+00
N    9.6360791545915880E+00    1.8599523356698560E+00    5.8562098272357055E+00
Ga    9.6385245990176429E+00    1.8593861471769104E+00    7.8226731004288919E+00
N    9.6449183884841663E+00    3.9668561306386973E-03    8.4724249747098117E+00
Ga    9.6376348594648054E+00    5.8727176915232011E-03    1.0454775125961262E+01
N    9.6377341102878447E+00    1.8624194054364624E+00    1.1057794900258898E+01
Ga    9.6227980363058538E+00    1.8443072224376251E+00    1.3136268869337872E+01
N    9.6290226162027803E+00    1.3017410407582019E-03    1.3530819131311322E+01
Ga    8.0253960030563931E+00    2.7905503183758076E+00   -1.6911581195568098E-01
N    8.0201666922435191E+00    4.6495352186355552E+00    6.1578807777302480E-01
Ga    8.0241006546304856E+00    4.6518985463509521E+00    2.5500795897290525E+00
N    8.0289595373031020E+00    2.7933604681967559E+00    3.2377037632810444E+00
Ga    8.0290342644708552E+00    2.7914214334174599E+00    5.1969914198541263E+00
N    8.0248461894225347E+00    4.6496882967002975E+00    5.8579154417211088E+00
Ga    8.0250940974020146E+00    4.6517131425778526E+00    7.8254021506137201E+00
N    8.0356515858544526E+00    2.7931622389934927E+00    8.4770468754126025E+00
Ga    8.0337534597807938E+00    2.7974536488072310E+00    1.0463667579458805E+01
N    8.0180333483342316E+00    4.6553433227785606E+00    1.1050192859720687E+01
Ga    7.9953511579684857E+00    4.6478653360556672E+00    1.3117664511155517E+01
N    8.0152181936315596E+00    2.7911693130932766E+00    1.3465998408659939E+01
Ga    6.4137595300377441E+00    5.5818717829492233E+00   -1.6932007078627709E-01
N    6.4085247925388265E+00    7.4407504260914203E+00    6.1562079086481525E-01
Ga    6.4124457340419720E+00    7.4432950398094624E+00    2.5506299533661796E+00
N    6.4177686925921549E+00    5.5842040113764035E+00    3.2371387062344339E+00
Ga    6.4179634655775457E+00    5.5833086952594684E+00    5.1969094974452696E+00
N    6.4131344849095564E+00    7.4413365087868195E+00    5.8550636178354685E+00
Ga    6.4154954191513456E+00    7.4427144327858574E+00    7.8224093161709343E+00
N    6.4211791044329543E+00    5.5842443143884681E+00    8.4728817573910185E+00
Ga    6.4155447035848763E+00    5.5940517263164198E+00    1.0456360445200065E+01
N    6.4153527684108091E+00    7.4408882281247646E+00    1.1061796751491796E+01
Ga    6.4014770438244044E+00    7.4255917118356498E+00    1.3143623175570568E+01
N    6.4060543922279507E+00    5.5797583831315576E+00    1.3541169819404827E+01
Ga    4.8023066103408700E+00    8.3731951581372819E+00   -1.6950570966740455E-01
N    4.7969344685931334E+00    1.0232055184333518E+01    6.1534115011982360E-01
Ga    4.8008035932952904E+00    1.0234382396770974E+01    2.5501981465734795E+00
N    4.8057738396655978E+00    8.3759628045116283E+00    3.2372580027521520E+00
Ga    4.8062332367244069E+00    8.3743519875992405E+00    5.1980089715523423E+00
N    4.8027120747967000E+00    1.0233330387156167E+01    5.8591158903556586E+00
Ga    4.8047707994884972E+00    1.0234244441023694E+01    7.8274875383858662E+00
N    4.8120290066109277E+00    8.3752590891995293E+00    8.4757586751066114E+00
Ga    4.8105269187800639E+00    8.3774007081121695E+00    1.0461638379955048E+01
N    4.7960406788586152E+00    1.0238274872574546E+01    1.1048124703352682E+01
Ga    4.7741969870631307E+00    1.0229801625575876E+01    1.3109609114075340E+01
N    4.7941752175271573E+00    8.3757788741180583E+00    1.3451600665564026E+01
H    4.8022567310649409E+00    8.3754387116160416E+00   -1.7219506114946810E+00
H    1.5902477775251727E+00    8.3763911986195811E+00   -1.7216569842799259E+00
H   -1.6219173158668085E+00    8.3764170046338720E+00   -1.7218155419434371E+00
H   -4.8342358801171148E+00    8.3767133081527163E+00   -1.7214882714180324E+00
H    6.4137300613661585E+00    5.5841716226592863E+00   -1.7217720333454043E+00
H    3.2022311733308815E+00    5.5845422731917864E+00   -1.7217738544489427E+00
H   -1.0150137084533084E-02    5.5850012471062014E+00   -1.7218523367926057E+00
H   -3.2231388239644465E+00    5.5846123295565633E+00   -1.7220519114756188E+00
H    8.0258054209611025E+00    2.7937656367337147E+00   -1.7213227105316091E+00
H    4.8128528345067778E+00    2.7937294454229273E+00   -1.7211552307336508E+00
H    1.6011337634637235E+00    2.7928397911715876E+00   -1.7214096139185879E+00
H   -1.6109121649857709E+00    2.7923731741273587E+00   -1.7217484069563931E+00
H    1.9320071570896105E-03    2.1279139704761039E-03   -1.7215034289976501E+00
H    3.2127408072431192E+00    1.7065392563771872E-03   -1.7211918083022038E+00
H    6.4246630843020069E+00    1.3825017598820715E-03   -1.7211285588769503E+00
H    9.6359528155141216E+00    2.7344553772695335E-03   -1.7211567429286707E+00
     &END COORD
     &KIND H
       BASIS_SET DZVP-MOLOPT-SR-GTH-q1
       POTENTIAL GTH-PBE-q1
       &POTENTIAL
1
0.2000000000000000E+00 2 -0.4178900440000000E+01  0.7244633100000000E+00
0
       &END POTENTIAL
     &END KIND
     &KIND N
       BASIS_SET DZVP-MOLOPT-SR-GTH
       POTENTIAL GTH-PBE-q5
       &POTENTIAL
2 3
0.2837905100000000E+00 2 -0.1241522559000000E+02  0.1868095920000000E+01
2
0.2554050000000000E+00 1  0.1363026257000000E+02
0.2454945300000000E+00 0
       &END POTENTIAL
     &END KIND
     &KIND Ga
       BASIS_SET DZVP-MOLOPT-SR-GTH
       POTENTIAL GTH-PBE-q13
       &POTENTIAL
2 1 10
0.4900000000000000E+00 0
3
0.4167772300000000E+00 3  0.1047568975000000E+02 -0.4921768140000000E+01  0.8707055900000000E+00
0.7770178090000000E+01 -0.2248152160000000E+01
0.1784415450000000E+01
0.5696265200000000E+00 2  0.1777985340000000E+01  0.1958597600000000E+00
-0.2317443900000000E+00
0.2381265000000000E+00 1 -0.1624868022000000E+02
       &END POTENTIAL
     &END KIND
     &TOPOLOGY
       NUMBER_OF_ATOMS  208
       MULTIPLE_UNIT_CELL  1 1 1
     &END TOPOLOGY
   &END SUBSYS
 &END FORCE_EVAL
