 # Version information for this restart file 
 # current date 2019-05-25 21:51:39.124
 # current working dir /lustre03/project/6004141/rzk/GaN-carbene/00-Surface/00-Preoptimization/443-capped/CELL_OPT
 # Program compiled at                              Sun Apr  7 00:48:11 EDT 2019
 # Program compiled on                          beluga2.int.ets1.calculquebec.ca
 # Program compiled for                        Beluga-Linux-x86-64-intel-openmpi
 # Source code revision number                                         svn:18619
 &GLOBAL
   PRINT_LEVEL  MEDIUM
   PROJECT_NAME TEST
   RUN_TYPE  CELL_OPT
 &END GLOBAL
 &MOTION
   &CELL_OPT
     MAX_ITER  300
     STEP_START_VAL  9
     EXTERNAL_PRESSURE     1.0000000000000000E+00
     KEEP_ANGLES  T
     KEEP_SYMMETRY  T
     CONSTRAINT  Z
     PRESSURE_TOLERANCE     5.0000000000000000E+02
   &END CELL_OPT
 &END MOTION
 &FORCE_EVAL
   METHOD  QS
   STRESS_TENSOR  ANALYTICAL
   &DFT
     BASIS_SET_FILE_NAME BASIS_MOLOPT
     POTENTIAL_FILE_NAME GTH_POTENTIALS
     SURFACE_DIPOLE_CORRECTION  T
     SURF_DIP_DIR  Z
     &SCF
       MAX_SCF  100
       EPS_SCF     5.0000000000000004E-06
       &OT  T
         PRECONDITIONER  FULL_ALL
       &END OT
       &OUTER_SCF  T
         OPTIMIZER  NONE
         EPS_SCF     5.0000000000000004E-06
         MAX_SCF  4
       &END OUTER_SCF
       &PRINT
         &RESTART  OFF
           BACKUP_COPIES  1
           &EACH
             JUST_ENERGY  0
             QS_SCF  0
             MD  20
           &END EACH
         &END RESTART
       &END PRINT
     &END SCF
     &QS
       EPS_DEFAULT     1.0000000000000000E-14
       METHOD  GPW
     &END QS
     &MGRID
       NGRIDS  5
       CUTOFF     1.2000000000000000E+03
     &END MGRID
     &XC
       DENSITY_CUTOFF     1.0000000000000000E-10
       GRADIENT_CUTOFF     1.0000000000000000E-10
       TAU_CUTOFF     1.0000000000000000E-10
       &XC_FUNCTIONAL  NO_SHORTCUT
         &PBE  T
         &END PBE
       &END XC_FUNCTIONAL
       &VDW_POTENTIAL
         POTENTIAL_TYPE  PAIR_POTENTIAL
         &PAIR_POTENTIAL
           R_CUTOFF     1.0000000000000004E+01
           TYPE  DFTD3
           PARAMETER_FILE_NAME dftd3.dat
           REFERENCE_FUNCTIONAL PBE
           EPS_CN     9.9999999999999995E-07
           CALCULATE_C9_TERM  T
           REFERENCE_C9_TERM  T
           LONG_RANGE_CORRECTION  F
           VERBOSE_OUTPUT  F
         &END PAIR_POTENTIAL
       &END VDW_POTENTIAL
     &END XC
   &END DFT
   &SUBSYS
     &CELL
       A     1.2889654355575857E+01    0.0000000000000000E+00    0.0000000000000000E+00
       B    -6.4453901423288666E+00    1.1163743201117216E+01    0.0000000000000000E+00
       C     0.0000000000000000E+00    0.0000000000000000E+00    2.9000000000000000E+01
       MULTIPLE_UNIT_CELL  1 1 1
       &CELL_REF
         A     1.2982353780853531E+01    0.0000000000000000E+00    0.0000000000000000E+00
         B    -6.4911768904267628E+00    1.1243048175136114E+01    0.0000000000000000E+00
         C     0.0000000000000000E+00    0.0000000000000000E+00    2.9000000000000000E+01
         MULTIPLE_UNIT_CELL  1 1 1
       &END CELL_REF
     &END CELL
     &COORD
Ga    6.7464432084692820E-04   -4.5878304439609101E-04   -1.5106848291877209E-01
N    4.5701637915734027E-04    1.8608077267211636E+00    6.2854564984787153E-01
Ga    7.9816701048277385E-04    1.8605122813061172E+00    2.5649243147039251E+00
N    2.7112429057825550E-04   -4.9890481063105186E-04    3.2459882153299420E+00
Ga    1.1366190252212523E-03   -5.1707480327750871E-04    5.2049067048478292E+00
N    9.7944934044826709E-04    1.8600873233054280E+00    5.8570847940261670E+00
Ga    7.9205875878853710E-04    1.8598535353468628E+00    7.8218963914657555E+00
N    5.7680317676258759E-03   -1.3081422737631481E-04    8.4640529313177542E+00
Ga    1.4079796876950593E-03   -1.1240199285161721E-03    1.0448592995025805E+01
N   -2.9349644424071261E-03    1.8619811111345022E+00    1.1031512984754768E+01
Ga   -1.4917602766124592E-03    1.8595973211293104E+00    1.3101908553114530E+01
N   -4.1018645886419007E-04   -2.6394437717474372E-03    1.3455324733466615E+01
Ga   -1.6104713131988635E+00    2.7906104000849590E+00   -1.5140580211326782E-01
N   -1.6107835030556137E+00    4.6519132587580749E+00    6.2713098744747886E-01
Ga   -1.6102373290896108E+00    4.6512389333667858E+00    2.5632769205163375E+00
N   -1.6104666140130155E+00    2.7912297429085409E+00    3.2456837174005857E+00
Ga   -1.6098667085866170E+00    2.7907953912563612E+00    5.2041621202429287E+00
N   -1.6099669826132721E+00    4.6513208594988047E+00    5.8584325609013401E+00
Ga   -1.6088898396671938E+00    4.6509394775001693E+00    7.8256219287557434E+00
N   -1.6083000636197564E+00    2.7884701985736671E+00    8.4645160025633341E+00
Ga   -1.6136767145739974E+00    2.7951197384735815E+00    1.0448002442741295E+01
N   -1.6147737451898911E+00    4.6532823642493337E+00    1.1035507270817877E+01
Ga   -1.6060110250256372E+00    4.6478906626961187E+00    1.3114530100329626E+01
N   -1.6080604792646729E+00    2.7885828687941530E+00    1.3490757852777000E+01
Ga   -3.2217449722375333E+00    5.5817923017441142E+00   -1.5235940990124378E-01
N   -3.2223172615147750E+00    7.4425967272931546E+00    6.2743278272798508E-01
Ga   -3.2215897214644547E+00    7.4420763194616573E+00    2.5635052709437924E+00
N   -3.2210973381975512E+00    5.5817670408155040E+00    3.2451604166758701E+00
Ga   -3.2217661569387479E+00    5.5817178151622659E+00    5.2044615137315118E+00
N   -3.2218112988099845E+00    7.4425552925700753E+00    5.8587410148042132E+00
Ga   -3.2217259293354572E+00    7.4413781753679249E+00    7.8260695442554304E+00
N   -3.2195507703047479E+00    5.5788484070759017E+00    8.4644807520928875E+00
Ga   -3.2253974691050913E+00    5.5813798049010135E+00    1.0450725420097395E+01
N   -3.2240647016274808E+00    7.4452464565315424E+00    1.1034941464926186E+01
Ga   -3.2265018195760904E+00    7.4429303225432752E+00    1.3103950788772535E+01
N   -3.2227421751531642E+00    5.5816517255903166E+00    1.3440535455365099E+01
Ga   -4.8332690787555954E+00    8.3725660971512585E+00   -1.5182430187059834E-01
N   -4.8337621306286565E+00    1.0233420399475371E+01    6.2856994279253486E-01
Ga   -4.8331702371480976E+00    1.0232909616216414E+01    2.5650381426795361E+00
N   -4.8327677295900529E+00    8.3719063099760103E+00    3.2458995359755503E+00
Ga   -4.8336561610356981E+00    8.3724908693140421E+00    5.2049844619650996E+00
N   -4.8332594326766145E+00    1.0233302379777662E+01    5.8564168160071093E+00
Ga   -4.8307363519651423E+00    1.0231637310470077E+01    7.8218748215581320E+00
N   -4.8315377863866402E+00    8.3730970242225524E+00    8.4664520112459218E+00
Ga   -4.8338819496989966E+00    8.3754370326724512E+00    1.0452682369997047E+01
N   -4.8350076663521886E+00    1.0238206026167877E+01    1.1036111497306386E+01
Ga   -4.8299195889242430E+00    1.0230029694551730E+01    1.3115635952719217E+01
N   -4.8333889421455627E+00    8.3713256319237335E+00    1.3478254227964371E+01
Ga    3.2231398417759372E+00   -2.0928264897581060E-04   -1.5064082952189758E-01
N    3.2229246543977306E+00    1.8609009509438477E+00    6.2808767045945235E-01
Ga    3.2235253790007277E+00    1.8602016387676570E+00    2.5643935253162407E+00
N    3.2232827963017958E+00   -1.1316233369481141E-04    3.2460344663765732E+00
Ga    3.2239425851670438E+00   -4.4576263718522016E-04    5.2048480649191200E+00
N    3.2227123557806241E+00    1.8603099831666863E+00    5.8586733860073616E+00
Ga    3.2259731576792472E+00    1.8586428757304336E+00    7.8258472683034057E+00
N    3.2256638045619859E+00   -2.8422132556780114E-03    8.4655066555422014E+00
Ga    3.2195763291321966E+00    1.1676806339931439E-03    1.0448497215674848E+01
N    3.2157352825603374E+00    1.8593911500562841E+00    1.1036192169941792E+01
Ga    3.2247534723593745E+00    1.8578665628188920E+00    1.3113303411478466E+01
N    3.2271420333047964E+00   -1.5901802341362009E-03    1.3488647945206402E+01
Ga    1.6120038803127381E+00    2.7907009141476009E+00   -1.5135229676040901E-01
N    1.6113541679283154E+00    4.6518153533247917E+00    6.2778627126037179E-01
Ga    1.6121363499421111E+00    4.6512423600026676E+00    2.5637061943389203E+00
N    1.6122962405642667E+00    2.7910934479648479E+00    3.2459341103919668E+00
Ga    1.6122029706268290E+00    2.7906876452105576E+00    5.2049738639919845E+00
N    1.6116021889993084E+00    4.6514864168164447E+00    5.8595267014677681E+00
Ga    1.6113764715330445E+00    4.6503507113343892E+00    7.8266171112199832E+00
N    1.6122431404501789E+00    2.7878835833158440E+00    8.4629311604609576E+00
Ga    1.6119459954679363E+00    2.7905723816629902E+00    1.0447394647272830E+01
N    1.6127966848273267E+00    4.6510518717233706E+00    1.1031863505051934E+01
Ga    1.6107645225870113E+00    4.6505301483400787E+00    1.3103056607682698E+01
N    1.6106155979107040E+00    2.7916083146011372E+00    1.3451524291847219E+01
Ga    7.3701442671276650E-04    5.5816100809803082E+00   -1.5273362251626232E-01
N    1.5960297733309605E-04    7.4424823551336701E+00    6.2776059135165374E-01
Ga    7.4741576296474669E-04    7.4420589520130367E+00    2.5639992805590577E+00
N    9.1784589031626367E-04    5.5812402017404814E+00    3.2454902192384316E+00
Ga    4.9720179451265983E-04    5.5816667856343782E+00    5.2044372611403054E+00
N    9.1874920402331989E-04    7.4422916657414042E+00    5.8561474948741701E+00
Ga    2.2344181077853654E-03    7.4409228374452869E+00    7.8219312199511366E+00
N    2.0809471057375464E-03    5.5823033923116085E+00    8.4699606711991411E+00
Ga    9.2820831682023251E-04    5.5847322576669933E+00    1.0459842581431451E+01
N   -1.2089402413380339E-03    7.4501821380954265E+00    1.1034346278680159E+01
Ga    5.3634961248061009E-03    7.4417694086169748E+00    1.3117144909353490E+01
N    2.5582916963557047E-03    5.5810763994468253E+00    1.3466042377232172E+01
Ga   -1.6107376962083957E+00    8.3725540928074587E+00   -1.5158374007063385E-01
N   -1.6110326183045214E+00    1.0233603640818121E+01    6.2810418174202309E-01
Ga   -1.6106744311204628E+00    1.0233290106538126E+01    2.5646659220144024E+00
N   -1.6107252580815552E+00    8.3721738585483454E+00    3.2452567482553119E+00
Ga   -1.6106484897260280E+00    8.3726788483468972E+00    5.2041154834783585E+00
N   -1.6105748670905606E+00    1.0232823414625461E+01    5.8571733253354541E+00
Ga   -1.6107103740107416E+00    1.0232835844979325E+01    7.8220119304741953E+00
N   -1.6068801421554786E+00    8.3717976522589783E+00    8.4616392126590654E+00
Ga   -1.6111429731456974E+00    8.3722355502953700E+00    1.0445136816036754E+01
N   -1.6137635945207627E+00    1.0232674981871888E+01    1.1032328699876819E+01
Ga   -1.6140798079264098E+00    1.0231939728638626E+01    1.3103696016050828E+01
N   -1.6122048009666505E+00    8.3690165321951362E+00    1.3453567106132136E+01
Ga    6.4458186893146543E+00   -2.6887780607907956E-04   -1.5193188834982682E-01
N    6.4450891420873813E+00    1.8606763808493096E+00    6.2734295835285236E-01
Ga    6.4458701584548237E+00    1.8602388091038415E+00    2.5633893173795745E+00
N    6.4463567243080364E+00    5.7138196753308437E-05    3.2455149151288545E+00
Ga    6.4452644496634335E+00   -1.6040797297864370E-05    5.2047151552164674E+00
N    6.4455266749691056E+00    1.8602037317560414E+00    5.8610804488212507E+00
Ga    6.4454335502792262E+00    1.8604581297689700E+00    7.8296697216587408E+00
N    6.4478959936623408E+00   -4.8426543509808807E-03    8.4642119077101547E+00
Ga    6.4465660560917524E+00   -1.4389186963657400E-03    1.0449653967357028E+01
N    6.4436686075282088E+00    1.8584889311920527E+00    1.1037324352952982E+01
Ga    6.4456306346524554E+00    1.8608510410656309E+00    1.3107063492721958E+01
N    6.4459544886994360E+00   -6.9164814084472087E-04    1.3444076465671316E+01
Ga    4.8342569480608528E+00    2.7905657369385026E+00   -1.5217604644718552E-01
N    4.8337313649158835E+00    4.6514651897618107E+00    6.2806633334405826E-01
Ga    4.8344511123611040E+00    4.6512083425411861E+00    2.5646708752894294E+00
N    4.8348826915806722E+00    2.7901949992520296E+00    3.2459310231270653E+00
Ga    4.8340648383787315E+00    2.7905735927879949E+00    5.2055223676584408E+00
N    4.8338562226569977E+00    4.6512009744691385E+00    5.8565437658153572E+00
Ga    4.8373887928241643E+00    4.6493663508231666E+00    7.8224283447331286E+00
N    4.8345397879772740E+00    2.7913516677711265E+00    8.4727612837575226E+00
Ga    4.8312806556864629E+00    2.7942283070680936E+00    1.0462598476630133E+01
N    4.8325541461187695E+00    4.6620584511911414E+00    1.1033817875478281E+01
Ga    4.8363926755265920E+00    4.6529250535478619E+00    1.3113751658212312E+01
N    4.8348854218324471E+00    2.7916560810140298E+00    1.3458548418710322E+01
Ga    3.2228514708127562E+00    5.5816083718389455E+00   -1.5131277002858445E-01
N    3.2227117757739321E+00    7.4428031511190458E+00    6.2812044115138543E-01
Ga    3.2230185033593668E+00    7.4423347309106394E+00    2.5645156821949548E+00
N    3.2226761883009565E+00    5.5815732789498629E+00    3.2456746354361168E+00
Ga    3.2235349167516905E+00    5.5816874182646057E+00    5.2047628395492893E+00
N    3.2232880921413360E+00    7.4423551845210980E+00    5.8571173623012482E+00
Ga    3.2235607362965184E+00    7.4424234387349184E+00    7.8221449338009830E+00
N    3.2261151867419784E+00    5.5808520819129681E+00    8.4586917413891030E+00
Ga    3.2234359695286492E+00    5.5785298625632018E+00    1.0439795445452747E+01
N    3.2145346261697609E+00    7.4373646057028573E+00    1.1027803097757259E+01
Ga    3.2168192587059381E+00    7.4419032664081275E+00    1.3100613979136204E+01
N    3.2208206060671585E+00    5.5805320826114402E+00    1.3464272045371217E+01
Ga    1.6116216652612054E+00    8.3725807338430922E+00   -1.5136283537479878E-01
N    1.6112935938097590E+00    1.0233708243413838E+01    6.2784801576531946E-01
Ga    1.6120479486748753E+00    1.0232978803281377E+01    2.5639842686134484E+00
N    1.6116224182878887E+00    8.3725999121110455E+00    3.2455849364877940E+00
Ga    1.6124902832932040E+00    8.3722325024826052E+00    5.2040971638407507E+00
N    1.6117027663091441E+00    1.0233089745949211E+01    5.8566157527671168E+00
Ga    1.6137956930884156E+00    1.0232278626432100E+01    7.8226328896793369E+00
N    1.6139330284451621E+00    8.3709940955606790E+00    8.4616304519469629E+00
Ga    1.6071096105111415E+00    8.3751977578023453E+00    1.0444320964401594E+01
N    1.6103292306920123E+00    1.0231899520100169E+01    1.1032063750649897E+01
Ga    1.6169531184245889E+00    1.0230003029813931E+01    1.3111162298981643E+01
N    1.6145579949881175E+00    8.3731007312474954E+00    1.3501705619036501E+01
Ga    9.6681497303121304E+00   -5.6574468231245488E-04   -1.5219908175582139E-01
N    9.6676314664203993E+00    1.8605481807897684E+00    6.2798344139792872E-01
Ga    9.6682617778050606E+00    1.8601973106860461E+00    2.5644761737181478E+00
N    9.6688108253468741E+00   -8.7973543495810586E-04    3.2457945960158354E+00
Ga    9.6684600889898320E+00   -5.6189769623330344E-04    5.2047287150565298E+00
N    9.6685507577356073E+00    1.8602683743866169E+00    5.8550979618930281E+00
Ga    9.6699915713467970E+00    1.8601220961677682E+00    7.8199502441352582E+00
N    9.6685132434352070E+00    1.9303645564785249E-03    8.4660442461725935E+00
Ga    9.6646964973912919E+00    1.8743938849284686E-03    1.0452997815097776E+01
N    9.6647971405725244E+00    1.8669720737676414E+00    1.1034760716335962E+01
Ga    9.6701275710061800E+00    1.8584151023130118E+00    1.3113368557607084E+01
N    9.6684898823973011E+00    2.0248707622985267E-04    1.3478489882656326E+01
Ga    8.0565856037895749E+00    2.7904618403146433E+00   -1.5152092459165628E-01
N    8.0564001102273650E+00    4.6517276021728282E+00    6.2785237190355569E-01
Ga    8.0567449913024820E+00    4.6512984488710094E+00    2.5645986334322628E+00
N    8.0564688330028353E+00    2.7902502359141654E+00    3.2454289126830722E+00
Ga    8.0566367971712527E+00    2.7910987157222036E+00    5.2046083382347899E+00
N    8.0571404446133830E+00    4.6515660850202369E+00    5.8562341418597281E+00
Ga    8.0573233431969715E+00    4.6512372452733350E+00    7.8215162726229046E+00
N    8.0621173930114338E+00    2.7903823969423982E+00    8.4616471224245480E+00
Ga    8.0534353497259872E+00    2.7912483312461611E+00    1.0444485581704278E+01
N    8.0504162720345764E+00    4.6500097057820158E+00    1.1031348085414383E+01
Ga    8.0507809368639283E+00    4.6511383357986045E+00    1.3101201489957745E+01
N    8.0560168705858093E+00    2.7902368166605447E+00    1.3459583393123392E+01
Ga    6.4452121525842800E+00    5.5817736079244069E+00   -1.5110721522861406E-01
N    6.4448042674910111E+00    7.4428039335180323E+00    6.2786865842143380E-01
Ga    6.4455820989001964E+00    7.4421004540575986E+00    2.5641714175066030E+00
N    6.4453417969637172E+00    5.5818944697878905E+00    3.2457191460641965E+00
Ga    6.4455564009656419E+00    5.5812304128314603E+00    5.2048742709000848E+00
N    6.4448865581755870E+00    7.4426409503063091E+00    5.8576644676604444E+00
Ga    6.4476646777285227E+00    7.4407725577849817E+00    7.8245486458446774E+00
N    6.4479382464923285E+00    5.5802127275943603E+00    8.4623424300999819E+00
Ga    6.4420049402792117E+00    5.5846666645678784E+00    1.0443765605392398E+01
N    6.4433304580986333E+00    7.4426283982978463E+00    1.1035210547907642E+01
Ga    6.4514285280559802E+00    7.4373457135619923E+00    1.3112955044945391E+01
N    6.4484903932033966E+00    5.5793575602120722E+00    1.3498660874675018E+01
Ga    4.8340292619251644E+00    8.3726737199130010E+00   -1.5218161215841894E-01
N    4.8334822704014657E+00    1.0233457622199230E+01    6.2764862906446306E-01
Ga    4.8341957840728726E+00    1.0233015964630679E+01    2.5634232080403914E+00
N    4.8343545392733160E+00    8.3730362777220773E+00    3.2456655784193655E+00
Ga    4.8342615914278788E+00    8.3724395724457032E+00    5.2049965767838762E+00
N    4.8342205178937068E+00    1.0233019659689814E+01    5.8617406889946961E+00
Ga    4.8349069478391389E+00    1.0232563334850630E+01    7.8302410943269320E+00
N    4.8353601045355932E+00    8.3689863801503659E+00    8.4676629047305614E+00
Ga    4.8324248664535707E+00    8.3703303945095016E+00    1.0455642085625113E+01
N    4.8310168097988786E+00    1.0236345522136617E+01    1.1033534380485598E+01
Ga    4.8298170689957471E+00    1.0234692671473480E+01    1.3103210768101990E+01
N    4.8329100329035901E+00    8.3721007327194563E+00    1.3438225706146570E+01
H    4.8334088803409676E+00    8.3727694355502251E+00   -1.7057119117906023E+00
H    1.6113540461062819E+00    8.3728408447571212E+00   -1.7049366775387162E+00
H   -1.6110106192457572E+00    8.3730347258447182E+00   -1.7051693463158144E+00
H   -4.8338447131529447E+00    8.3730252893922046E+00   -1.7053187680594952E+00
H    6.4448924484588002E+00    5.5819540886421839E+00   -1.7048381484852413E+00
H    3.2226439235255291E+00    5.5821685136060051E+00   -1.7048986395236709E+00
H    3.7499170518048868E-04    5.5822306702003273E+00   -1.7062253710741526E+00
H   -3.2224020499317771E+00    5.5821133731781476E+00   -1.7059772881605999E+00
H    8.0563661054631730E+00    2.7906216329337474E+00   -1.7051548808901238E+00
H    4.8337699823899865E+00    2.7907026826249148E+00   -1.7057142319746683E+00
H    1.6113707341706853E+00    2.7906677094297705E+00   -1.7048231698183403E+00
H   -1.6109036741407643E+00    2.7902715336552073E+00   -1.7050663839584781E+00
H    3.9130410210067582E-04   -3.9219893889875704E-04   -1.7045704854359867E+00
H    3.2228522443024676E+00   -4.1973478848126363E-04   -1.7043050134913305E+00
H    6.4452091209973670E+00   -4.7266897032065605E-04   -1.7054515239704253E+00
H    9.6674637037206139E+00   -4.7626500134855275E-04   -1.7056581357313179E+00
     &END COORD
     &KIND H
       BASIS_SET DZVP-MOLOPT-SR-GTH-q1
       POTENTIAL GTH-PBE-q1
       &POTENTIAL
1
0.2000000000000000E+00 2 -0.4178900440000000E+01  0.7244633100000000E+00
0
       &END POTENTIAL
     &END KIND
     &KIND N
       BASIS_SET DZVP-MOLOPT-SR-GTH
       POTENTIAL GTH-PBE-q5
       &POTENTIAL
2 3
0.2837905100000000E+00 2 -0.1241522559000000E+02  0.1868095920000000E+01
2
0.2554050000000000E+00 1  0.1363026257000000E+02
0.2454945300000000E+00 0
       &END POTENTIAL
     &END KIND
     &KIND Ga
       BASIS_SET DZVP-MOLOPT-SR-GTH
       POTENTIAL GTH-PBE-q13
       &POTENTIAL
2 1 10
0.4900000000000000E+00 0
3
0.4167772300000000E+00 3  0.1047568975000000E+02 -0.4921768140000000E+01  0.8707055900000000E+00
0.7770178090000000E+01 -0.2248152160000000E+01
0.1784415450000000E+01
0.5696265200000000E+00 2  0.1777985340000000E+01  0.1958597600000000E+00
-0.2317443900000000E+00
0.2381265000000000E+00 1 -0.1624868022000000E+02
       &END POTENTIAL
     &END KIND
     &TOPOLOGY
       NUMBER_OF_ATOMS  208
       MULTIPLE_UNIT_CELL  1 1 1
     &END TOPOLOGY
   &END SUBSYS
 &END FORCE_EVAL
