 # Version information for this restart file 
 # current date 2019-05-26 00:04:56.382
 # current working dir /lustre03/project/6004141/rzk/GaN-carbene/00-Surface/00-Preoptimization/443-capped/CELL_OPT
 # Program compiled at                              Sun Apr  7 00:48:11 EDT 2019
 # Program compiled on                          beluga2.int.ets1.calculquebec.ca
 # Program compiled for                        Beluga-Linux-x86-64-intel-openmpi
 # Source code revision number                                         svn:18619
 &GLOBAL
   PRINT_LEVEL  MEDIUM
   PROJECT_NAME TEST
   RUN_TYPE  CELL_OPT
 &END GLOBAL
 &MOTION
   &CELL_OPT
     MAX_ITER  300
     STEP_START_VAL  30
     EXTERNAL_PRESSURE     1.0000000000000000E+00
     KEEP_ANGLES  T
     KEEP_SYMMETRY  T
     CONSTRAINT  Z
     PRESSURE_TOLERANCE     5.0000000000000000E+02
   &END CELL_OPT
 &END MOTION
 &FORCE_EVAL
   METHOD  QS
   STRESS_TENSOR  ANALYTICAL
   &DFT
     BASIS_SET_FILE_NAME BASIS_MOLOPT
     POTENTIAL_FILE_NAME GTH_POTENTIALS
     SURFACE_DIPOLE_CORRECTION  T
     SURF_DIP_DIR  Z
     &SCF
       MAX_SCF  100
       EPS_SCF     5.0000000000000004E-06
       &OT  T
         PRECONDITIONER  FULL_ALL
       &END OT
       &OUTER_SCF  T
         OPTIMIZER  NONE
         EPS_SCF     5.0000000000000004E-06
         MAX_SCF  4
       &END OUTER_SCF
       &PRINT
         &RESTART  OFF
           BACKUP_COPIES  1
           &EACH
             JUST_ENERGY  0
             QS_SCF  0
             MD  20
           &END EACH
         &END RESTART
       &END PRINT
     &END SCF
     &QS
       EPS_DEFAULT     1.0000000000000000E-14
       METHOD  GPW
     &END QS
     &MGRID
       NGRIDS  5
       CUTOFF     1.2000000000000000E+03
     &END MGRID
     &XC
       DENSITY_CUTOFF     1.0000000000000000E-10
       GRADIENT_CUTOFF     1.0000000000000000E-10
       TAU_CUTOFF     1.0000000000000000E-10
       &XC_FUNCTIONAL  NO_SHORTCUT
         &PBE  T
         &END PBE
       &END XC_FUNCTIONAL
       &VDW_POTENTIAL
         POTENTIAL_TYPE  PAIR_POTENTIAL
         &PAIR_POTENTIAL
           R_CUTOFF     1.0000000000000004E+01
           TYPE  DFTD3
           PARAMETER_FILE_NAME dftd3.dat
           REFERENCE_FUNCTIONAL PBE
           EPS_CN     9.9999999999999995E-07
           CALCULATE_C9_TERM  T
           REFERENCE_C9_TERM  T
           LONG_RANGE_CORRECTION  F
           VERBOSE_OUTPUT  F
         &END PAIR_POTENTIAL
       &END VDW_POTENTIAL
     &END XC
   &END DFT
   &SUBSYS
     &CELL
       A     1.2846368294260266E+01    0.0000000000000000E+00    0.0000000000000000E+00
       B    -6.4494371392305423E+00    1.1170752805368997E+01    0.0000000000000000E+00
       C     0.0000000000000000E+00    0.0000000000000000E+00    2.9000000000000000E+01
       MULTIPLE_UNIT_CELL  1 1 1
       &CELL_REF
         A     1.2982353780853531E+01    0.0000000000000000E+00    0.0000000000000000E+00
         B    -6.4911768904267628E+00    1.1243048175136114E+01    0.0000000000000000E+00
         C     0.0000000000000000E+00    0.0000000000000000E+00    2.9000000000000000E+01
         MULTIPLE_UNIT_CELL  1 1 1
       &END CELL_REF
     &END CELL
     &COORD
Ga    1.2143066232182800E-03   -3.6316515693614858E-04   -1.6992717122483061E-01
N   -5.3999260279364606E-03    1.8588409145526237E+00    6.1640635990034787E-01
Ga   -1.7564909999875909E-03    1.8611528429313653E+00    2.5508931946191851E+00
N    4.2239006684439287E-03    2.1432748648605223E-03    3.2375119163305475E+00
Ga    4.5215201444977352E-03    3.1359770416447834E-04    5.1971267173142941E+00
N   -1.1537883209917690E-03    1.8584889323218774E+00    5.8583326361146737E+00
Ga    1.4435999940405528E-03    1.8594253688014628E+00    7.8263839768511572E+00
N    1.1592561130052557E-02    2.7685012640330173E-03    8.4795786398101765E+00
Ga    1.1482246554353068E-02    6.6146571518261770E-03    1.0467622235221848E+01
N   -7.2729592911648794E-03    1.8665476878782938E+00    1.1056078898732679E+01
Ga   -2.8730312133488856E-02    1.8552647522215910E+00    1.3125628079070923E+01
N   -7.7932962730162831E-03   -6.6208107931904733E-04    1.3459969695036506E+01
Ga   -1.6115795336250482E+00    2.7921407533634173E+00   -1.6995686838120530E-01
N   -1.6177532812692077E+00    4.6515439545564314E+00    6.1621491978207499E-01
Ga   -1.6141552666134813E+00    4.6537109829512744E+00    2.5510512789265283E+00
N   -1.6076364813591473E+00    2.7949578408529674E+00    3.2387320039058678E+00
Ga   -1.6068508467907865E+00    2.7929905474581345E+00    5.1986724920524141E+00
N   -1.6136493908964833E+00    4.6522750905791597E+00    5.8559862600587893E+00
Ga   -1.6108903110715296E+00    4.6534288442896568E+00    7.8230854204977627E+00
N   -1.6047835421957766E+00    2.7951631765876690E+00    8.4715435092793854E+00
Ga   -1.6113250294862738E+00    2.8008129375300346E+00    1.0455474878156048E+01
N   -1.6152320127548849E+00    4.6556060115403701E+00    1.1050801967301142E+01
Ga   -1.6257695418804015E+00    4.6353404552911242E+00    1.3125603398976507E+01
N   -1.6180026670454528E+00    2.7945014740385798E+00    1.3541185379069175E+01
Ga   -3.2240881917124566E+00    5.5849403926033725E+00   -1.7018647798385492E-01
N   -3.2299550030181106E+00    7.4441552603626828E+00    6.1617910734245274E-01
Ga   -3.2261446244972318E+00    7.4460905815338130E+00    2.5509801534296703E+00
N   -3.2202950365852527E+00    5.5873036865871875E+00    3.2388051780641902E+00
Ga   -3.2204003962097092E+00    5.5861917621981352E+00    5.1992383017086032E+00
N   -3.2256416183766388E+00    7.4446317676582288E+00    5.8593186121486340E+00
Ga   -3.2232306769180830E+00    7.4467181349691813E+00    7.8278686933404353E+00
N   -3.2155505688701984E+00    5.5862172977327642E+00    8.4720584026242101E+00
Ga   -3.2198323426471163E+00    5.5913522447373802E+00    1.0457611995079889E+01
N   -3.2327237684244752E+00    7.4507053062138979E+00    1.1046664833284984E+01
Ga   -3.2524500287790898E+00    7.4413610627681983E+00    1.3112046792571888E+01
N   -3.2311897351770349E+00    5.5869047749810887E+00    1.3458105246575522E+01
Ga   -4.8362731095302287E+00    8.3778206745898469E+00   -1.6969179869867584E-01
N   -4.8421579241839057E+00    1.0236946516927942E+01    6.1710539741712367E-01
Ga   -4.8381012953959184E+00    1.0239231992498032E+01    2.5520659223839215E+00
N   -4.8322307119076484E+00    8.3798320219892446E+00    3.2383983741319300E+00
Ga   -4.8311468101456869E+00    8.3781924504990215E+00    5.1983511861162919E+00
N   -4.8389987650601096E+00    1.0237459019722438E+01    5.8557958167916233E+00
Ga   -4.8370500940202845E+00    1.0239062427059359E+01    7.8226301348701028E+00
N   -4.8298932362955806E+00    8.3819634048685856E+00    8.4730979282708159E+00
Ga   -4.8355770589207356E+00    8.3880889797559419E+00    1.0457294962386831E+01
N   -4.8353896142614756E+00    1.0238572423116985E+01    1.1068552355356069E+01
Ga   -4.8475472133877240E+00    1.0219068801685779E+01    1.3152553139383292E+01
N   -4.8417884320951474E+00    8.3760992796075318E+00    1.3548416483246998E+01
Ga    3.2124480327148732E+00   -4.6360844162086792E-04   -1.6934760637176621E-01
N    3.2064348606006750E+00    1.8587886473636115E+00    6.1701644816207046E-01
Ga    3.2103147886688319E+00    1.8608000909911482E+00    2.5521266282999080E+00
N    3.2164882400140389E+00    1.8252330380471784E-03    3.2398367890817292E+00
Ga    3.2178799714478479E+00   -4.4603805597901635E-04    5.2004639024265567E+00
N    3.2106012726656163E+00    1.8593656856175296E+00    5.8568492041182623E+00
Ga    3.2129514158271761E+00    1.8601706624735883E+00    7.8241289894991173E+00
N    3.2192518403725403E+00    1.7085103956936739E-03    8.4723823732297667E+00
Ga    3.2139914090749309E+00    5.0022212085171283E-03    1.0454760651146923E+01
N    3.2108155276456127E+00    1.8617903831901368E+00    1.1046643756342618E+01
Ga    3.1990848752382983E+00    1.8438694112268710E+00    1.3113942810271057E+01
N    3.2067853247830214E+00    4.0387344188774288E-03    1.3535653449089132E+01
Ga    1.6000447603627124E+00    2.7921014876528809E+00   -1.6977632017406744E-01
N    1.5939279207979160E+00    4.6515015074944142E+00    6.1604632359575107E-01
Ga    1.5974628766441517E+00    4.6534756002493127E+00    2.5506523310129783E+00
N    1.6034033268698045E+00    2.7944800427183281E+00    3.2381123140008561E+00
Ga    1.6040067232090107E+00    2.7924496598644257E+00    5.1982169860168694E+00
N    1.5982096809872195E+00    4.6519733730367756E+00    5.8563738686414393E+00
Ga    1.5992635577578900E+00    4.6523697255009600E+00    7.8242217515218151E+00
N    1.6085394274986968E+00    2.7942580738935821E+00    8.4730218154296395E+00
Ga    1.6051984193109750E+00    2.7987800408441217E+00    1.0458729582994440E+01
N    1.5926382431819088E+00    4.6576185148881688E+00    1.1049350858329166E+01
Ga    1.5769132613271095E+00    4.6437887411607210E+00    1.3116164687169977E+01
N    1.5948812970689750E+00    2.7907540227324161E+00    1.3463581956077968E+01
Ga   -1.2322165837951022E-02    5.5850788973634122E+00   -1.7028280091475059E-01
N   -1.8424019134591504E-02    7.4443011331140214E+00    6.1633028947521484E-01
Ga   -1.4783664190936496E-02    7.4464178049569618E+00    2.5512371631281177E+00
N   -8.8587447594840121E-03    5.5871321380732804E+00    3.2376583653911353E+00
Ga   -8.0900328882066545E-03    5.5854212189922059E+00    5.1972734687090796E+00
N   -1.4672078857760238E-02    7.4441517443322969E+00    5.8551342301864295E+00
Ga   -1.3470895728058358E-02    7.4444734188206816E+00    7.8220427558234746E+00
N   -5.2425174935175085E-03    5.5875584352760974E+00    8.4729004874045888E+00
Ga   -1.1174716386350538E-02    5.5961438553629668E+00    1.0457203242166994E+01
N   -1.1579956634486042E-02    7.4466667386853684E+00    1.1067428610630749E+01
Ga   -2.5488969947291218E-02    7.4285732074614090E+00    1.3151591744061651E+01
N   -1.8000235368560394E-02    5.5798743143312821E+00    1.3526218256364020E+01
Ga   -1.6246953574321898E+00    8.3777359446934838E+00   -1.6992052894400927E-01
N   -1.6307995130059669E+00    1.0236861337205255E+01    6.1667491266888141E-01
Ga   -1.6271394762562921E+00    1.0239060558223276E+01    2.5515139793631350E+00
N   -1.6212996112336082E+00    8.3799862922283364E+00    3.2382334036490872E+00
Ga   -1.6211117013147378E+00    8.3786188146086999E+00    5.1985241057586782E+00
N   -1.6257791788277984E+00    1.0236052136390061E+01    5.8608077383267512E+00
Ga   -1.6232154004114170E+00    1.0236809290444663E+01    7.8293801968990531E+00
N   -1.6145844422472708E+00    8.3773736514108990E+00    8.4793621205517340E+00
Ga   -1.6153890163924980E+00    8.3817777305225434E+00    1.0467026030516909E+01
N   -1.6314987319042200E+00    1.0243193361104240E+01    1.1054356068289223E+01
Ga   -1.6536223643066565E+00    1.0235107143297508E+01    1.3119458617778747E+01
N   -1.6322087785017594E+00    8.3806520535369415E+00    1.3463204241342440E+01
Ga    6.4239547679345801E+00   -5.5045877936317109E-04   -1.6949215890239314E-01
N    6.4180012679042129E+00    1.8588991362933009E+00    6.1637912913872950E-01
Ga    6.4214765655828510E+00    1.8609498366432984E+00    2.5512289783535560E+00
N    6.4271559915959608E+00    2.1635742522680365E-03    3.2389442938920960E+00
Ga    6.4274046731645198E+00    5.0273792823669425E-05    5.1993720087074413E+00
N    6.4226996142273700E+00    1.8590521610397097E+00    5.8590776902973118E+00
Ga    6.4245060400015941E+00    1.8591582681400913E+00    7.8270175878320734E+00
N    6.4333413207157299E+00    1.8230265779281788E-03    8.4777300687623001E+00
Ga    6.4320499474625645E+00    4.8964458753378891E-03    1.0464002464954598E+01
N    6.4176800105853653E+00    1.8639166640274867E+00    1.1053663005433322E+01
Ga    6.4009615879415369E+00    1.8513329699479588E+00    1.3119833841978620E+01
N    6.4191940995547547E+00   -1.4035779216948930E-03    1.3463957996527631E+01
Ga    4.8115976098083495E+00    2.7924772836906180E+00   -1.6964085017775163E-01
N    4.8058008150656741E+00    4.6516189590302428E+00    6.1683468650685858E-01
Ga    4.8096206849209286E+00    4.6535128753215975E+00    2.5515898909729988E+00
N    4.8155243374466368E+00    2.7946416493661652E+00    3.2391291263697086E+00
Ga    4.8162891644799748E+00    2.7922722659786192E+00    5.1991926175704783E+00
N    4.8094823248153178E+00    4.6525415314863610E+00    5.8542791644509364E+00
Ga    4.8114277827795311E+00    4.6523363372675615E+00    7.8209009941898140E+00
N    4.8193730426808035E+00    2.7957676223079702E+00    8.4712849414599862E+00
Ga    4.8152666254195902E+00    2.8022146965616006E+00    1.0455389829947475E+01
N    4.8093184282522730E+00    4.6568110648184149E+00    1.1058849854663563E+01
Ga    4.7987544247297773E+00    4.6439554105098990E+00    1.3137704289438609E+01
N    4.8054150125281963E+00    2.7942088443130029E+00    1.3506492464283431E+01
Ga    3.1995533072423910E+00    5.5849023462997494E+00   -1.6996576876116931E-01
N    3.1932894422983962E+00    7.4442869589260479E+00    6.1597154361845541E-01
Ga    3.1968782053055222E+00    7.4465805549832904E+00    2.5504799824216264E+00
N    3.2027492317437427E+00    5.5874494831194950E+00    3.2372307698244689E+00
Ga    3.2028939384463024E+00    5.5860732921448903E+00    5.1968599807379112E+00
N    3.1981477224200154E+00    7.4443757533633637E+00    5.8574523169319175E+00
Ga    3.1993816968376616E+00    7.4455089111863142E+00    7.8257556690506247E+00
N    3.2074724952897564E+00    5.5850109448812697E+00    8.4720279604524951E+00
Ga    3.2053955193252825E+00    5.5884450955394085E+00    1.0457756528534135E+01
N    3.1911522355635724E+00    7.4509668436770760E+00    1.1039675615132355E+01
Ga    3.1673227504017230E+00    7.4409840161816190E+00    1.3100018593669404E+01
N    3.1914104716813130E+00    5.5909472019829627E+00    1.3467696131740654E+01
Ga    1.5869805938047554E+00    8.3778499032329048E+00   -1.6970228569357571E-01
N    1.5808918006100163E+00    1.0236981880825590E+01    6.1704931528656948E-01
Ga    1.5844628798814657E+00    1.0239304804684618E+01    2.5522382186109906E+00
N    1.5906702458920763E+00    8.3796795571047173E+00    3.2384501354711528E+00
Ga    1.5913389306020431E+00    8.3779226361997274E+00    5.1985396276341405E+00
N    1.5850172703515912E+00    1.0237243337939605E+01    5.8555865619894183E+00
Ga    1.5860044177157255E+00    1.0238875222760955E+01    7.8221866210024302E+00
N    1.5928734381415273E+00    8.3802758437790725E+00    8.4708322945943237E+00
Ga    1.5862622364930876E+00    8.3884126558911536E+00    1.0453378973134747E+01
N    1.5881691726743707E+00    1.0239243805747121E+01    1.1060072612140340E+01
Ga    1.5752057189207200E+00    1.0218785741992065E+01    1.3137231230420227E+01
N    1.5812858968838934E+00    8.3766959698476935E+00    1.3542138590482232E+01
Ga    9.6354009657919804E+00   -2.0705145702259535E-05   -1.6961125061172733E-01
N    9.6295841053197044E+00    1.8590517693070847E+00    6.1716829795893091E-01
Ga    9.6333214113995780E+00    1.8612776655982362E+00    2.5519990449582921E+00
N    9.6396673460783191E+00    2.1478167655260227E-03    3.2389741058424839E+00
Ga    9.6401996282657176E+00    8.8765209227740434E-05    5.1991631574441799E+00
N    9.6331869437034925E+00    1.8601330700859962E+00    5.8554807808976044E+00
Ga    9.6352123296320773E+00    1.8609846907141976E+00    7.8220776429481473E+00
N    9.6424705038120333E+00    3.5225246377132841E-03    8.4693926101062971E+00
Ga    9.6358658546861022E+00    8.7426100684474956E-03    1.0452191290499352E+01
N    9.6347575590150445E+00    1.8610125568918363E+00    1.1060314188473770E+01
Ga    9.6225418774563085E+00    1.8461610842976015E+00    1.3139917616314852E+01
N    9.6293597630889494E+00    1.5259723298931545E-03    1.3532945656752133E+01
Ga    8.0235019101983376E+00    2.7925705279290169E+00   -1.6953802462018178E-01
N    8.0172362344047539E+00    4.6517214939534544E+00    6.1671094370645929E-01
Ga    8.0210457595253128E+00    4.6539567499419920E+00    2.5512851834902515E+00
N    8.0265723160751943E+00    2.7949996990076604E+00    3.2383984592312194E+00
Ga    8.0262306944503692E+00    2.7934017372125362E+00    5.1983377348463540E+00
N    8.0212638686914897E+00    4.6518322030956520E+00    5.8586361901957273E+00
Ga    8.0227217218087397E+00    4.6523420081853697E+00    7.8264970007816475E+00
N    8.0326162243088319E+00    2.7941664728464071E+00    8.4764684520333731E+00
Ga    8.0306225547392014E+00    2.7982491147836326E+00    1.0463636438594754E+01
N    8.0135874108674656E+00    4.6583622771675026E+00    1.1047781214713133E+01
Ga    7.9920140714975760E+00    4.6497867656353948E+00    1.3114293027319448E+01
N    8.0159794352109159E+00    2.7959561268598825E+00    1.3466819654487718E+01
Ga    6.4110415866640729E+00    5.5848938218134911E+00   -1.6973802328719764E-01
N    6.4048817743423916E+00    7.4441777368266431E+00    6.1650119376192425E-01
Ga    6.4086251985928078E+00    7.4464991466671187E+00    2.5513401624081178E+00
N    6.4148547090068151E+00    5.5874232058228195E+00    3.2384695386234830E+00
Ga    6.4157703528580479E+00    5.5855631437195452E+00    5.1981987249067574E+00
N    6.4088471595805769E+00    7.4449833007719315E+00    5.8545011742747874E+00
Ga    6.4116803910332107E+00    7.4464438996646907E+00    7.8213450912311044E+00
N    6.4163226214597477E+00    5.5881288948896630E+00    8.4710665206504423E+00
Ga    6.4103699836388586E+00    5.5966165925016362E+00    1.0454810878544674E+01
N    6.4111767532305173E+00    7.4459099222408911E+00    1.1061012334930076E+01
Ga    6.4014878207116048E+00    7.4253063851430481E+00    1.3143781703129632E+01
N    6.4051918565331789E+00    5.5842828716839117E+00    1.3554242725078968E+01
Ga    4.7986869616220691E+00    8.3774685762951915E+00   -1.7034930845952109E-01
N    4.7924701749542020E+00    1.0236932822372989E+01    6.1585123440274669E-01
Ga    4.7960144691906388E+00    1.0239180052645869E+01    2.5505531151703811E+00
N    4.8019864584079439E+00    8.3802766273965226E+00    3.2377055892766955E+00
Ga    4.8023615649399023E+00    8.3789853612672864E+00    5.1976713688989360E+00
N    4.7975600663237321E+00    1.0237321035688433E+01    5.8584812997867166E+00
Ga    4.8004634225779510E+00    1.0239991290142475E+01    7.8268659351859169E+00
N    4.8083357222796952E+00    8.3798153957729902E+00    8.4725169032634469E+00
Ga    4.8078180133086397E+00    8.3836489177898148E+00    1.0459568894959729E+01
N    4.7905518838365655E+00    1.0244355102021954E+01    1.1044111076397590E+01
Ga    4.7692685190091435E+00    1.0235175219331914E+01    1.3107363882977017E+01
N    4.7907011549579650E+00    8.3788483465645260E+00    1.3440416808632243E+01
H    4.7980203911740844E+00    8.3788684369438222E+00   -1.7221692482573860E+00
H    1.5869288551365732E+00    8.3796724328446253E+00   -1.7215762694421557E+00
H   -1.6250941721774359E+00    8.3800784850312304E+00   -1.7217768745942592E+00
H   -4.8372181398650413E+00    8.3804162132548115E+00   -1.7215668084737898E+00
H    6.4104683511052460E+00    5.5861543752859477E+00   -1.7215210859587109E+00
H    3.1993725656861547E+00    5.5868321915837695E+00   -1.7217584730311828E+00
H   -1.2316285700844363E-02    5.5871901176810503E+00   -1.7221313506606035E+00
H   -3.2254641904836099E+00    5.5867373826220721E+00   -1.7219896264929184E+00
H    8.0234888430203046E+00    2.7947982637301956E+00   -1.7213297769205997E+00
H    4.8107212796393606E+00    2.7948092966109401E+00   -1.7214483027654957E+00
H    1.5990967282387809E+00    2.7937573933867417E+00   -1.7216274997119987E+00
H   -1.6119371603118324E+00    2.7928402468919526E+00   -1.7217529059674093E+00
H    1.4919880105711445E-03    1.9208935045371223E-03   -1.7218190463379017E+00
H    3.2118198854286062E+00    1.0401434639045139E-03   -1.7211982693363983E+00
H    6.4232190703013696E+00    7.9679793749470504E-04   -1.7213245820888052E+00
H    9.6343770576911254E+00    2.3153958056980543E-03   -1.7214659684420037E+00
     &END COORD
     &KIND H
       BASIS_SET DZVP-MOLOPT-SR-GTH-q1
       POTENTIAL GTH-PBE-q1
       &POTENTIAL
1
0.2000000000000000E+00 2 -0.4178900440000000E+01  0.7244633100000000E+00
0
       &END POTENTIAL
     &END KIND
     &KIND N
       BASIS_SET DZVP-MOLOPT-SR-GTH
       POTENTIAL GTH-PBE-q5
       &POTENTIAL
2 3
0.2837905100000000E+00 2 -0.1241522559000000E+02  0.1868095920000000E+01
2
0.2554050000000000E+00 1  0.1363026257000000E+02
0.2454945300000000E+00 0
       &END POTENTIAL
     &END KIND
     &KIND Ga
       BASIS_SET DZVP-MOLOPT-SR-GTH
       POTENTIAL GTH-PBE-q13
       &POTENTIAL
2 1 10
0.4900000000000000E+00 0
3
0.4167772300000000E+00 3  0.1047568975000000E+02 -0.4921768140000000E+01  0.8707055900000000E+00
0.7770178090000000E+01 -0.2248152160000000E+01
0.1784415450000000E+01
0.5696265200000000E+00 2  0.1777985340000000E+01  0.1958597600000000E+00
-0.2317443900000000E+00
0.2381265000000000E+00 1 -0.1624868022000000E+02
       &END POTENTIAL
     &END KIND
     &TOPOLOGY
       NUMBER_OF_ATOMS  208
       MULTIPLE_UNIT_CELL  1 1 1
     &END TOPOLOGY
   &END SUBSYS
 &END FORCE_EVAL
