 # Version information for this restart file 
 # current date 2019-05-26 00:11:11.014
 # current working dir /lustre03/project/6004141/rzk/GaN-carbene/00-Surface/00-Preoptimization/443-capped/CELL_OPT
 # Program compiled at                              Sun Apr  7 00:48:11 EDT 2019
 # Program compiled on                          beluga2.int.ets1.calculquebec.ca
 # Program compiled for                        Beluga-Linux-x86-64-intel-openmpi
 # Source code revision number                                         svn:18619
 &GLOBAL
   PRINT_LEVEL  MEDIUM
   PROJECT_NAME TEST
   RUN_TYPE  CELL_OPT
 &END GLOBAL
 &MOTION
   &CELL_OPT
     MAX_ITER  300
     STEP_START_VAL  32
     EXTERNAL_PRESSURE     1.0000000000000000E+00
     KEEP_ANGLES  T
     KEEP_SYMMETRY  T
     CONSTRAINT  Z
     PRESSURE_TOLERANCE     5.0000000000000000E+02
   &END CELL_OPT
 &END MOTION
 &FORCE_EVAL
   METHOD  QS
   STRESS_TENSOR  ANALYTICAL
   &DFT
     BASIS_SET_FILE_NAME BASIS_MOLOPT
     POTENTIAL_FILE_NAME GTH_POTENTIALS
     SURFACE_DIPOLE_CORRECTION  T
     SURF_DIP_DIR  Z
     &SCF
       MAX_SCF  100
       EPS_SCF     5.0000000000000004E-06
       &OT  T
         PRECONDITIONER  FULL_ALL
       &END OT
       &OUTER_SCF  T
         OPTIMIZER  NONE
         EPS_SCF     5.0000000000000004E-06
         MAX_SCF  4
       &END OUTER_SCF
       &PRINT
         &RESTART  OFF
           BACKUP_COPIES  1
           &EACH
             JUST_ENERGY  0
             QS_SCF  0
             MD  20
           &END EACH
         &END RESTART
       &END PRINT
     &END SCF
     &QS
       EPS_DEFAULT     1.0000000000000000E-14
       METHOD  GPW
     &END QS
     &MGRID
       NGRIDS  5
       CUTOFF     1.2000000000000000E+03
     &END MGRID
     &XC
       DENSITY_CUTOFF     1.0000000000000000E-10
       GRADIENT_CUTOFF     1.0000000000000000E-10
       TAU_CUTOFF     1.0000000000000000E-10
       &XC_FUNCTIONAL  NO_SHORTCUT
         &PBE  T
         &END PBE
       &END XC_FUNCTIONAL
       &VDW_POTENTIAL
         POTENTIAL_TYPE  PAIR_POTENTIAL
         &PAIR_POTENTIAL
           R_CUTOFF     1.0000000000000004E+01
           TYPE  DFTD3
           PARAMETER_FILE_NAME dftd3.dat
           REFERENCE_FUNCTIONAL PBE
           EPS_CN     9.9999999999999995E-07
           CALCULATE_C9_TERM  T
           REFERENCE_C9_TERM  T
           LONG_RANGE_CORRECTION  F
           VERBOSE_OUTPUT  F
         &END PAIR_POTENTIAL
       &END VDW_POTENTIAL
     &END XC
   &END DFT
   &SUBSYS
     &CELL
       A     1.2844723232995452E+01    0.0000000000000000E+00    0.0000000000000000E+00
       B    -6.4488640340155543E+00    1.1169760158018553E+01    0.0000000000000000E+00
       C     0.0000000000000000E+00    0.0000000000000000E+00    2.9000000000000000E+01
       MULTIPLE_UNIT_CELL  1 1 1
       &CELL_REF
         A     1.2982353780853531E+01    0.0000000000000000E+00    0.0000000000000000E+00
         B    -6.4911768904267628E+00    1.1243048175136114E+01    0.0000000000000000E+00
         C     0.0000000000000000E+00    0.0000000000000000E+00    2.9000000000000000E+01
         MULTIPLE_UNIT_CELL  1 1 1
       &END CELL_REF
     &END CELL
     &COORD
Ga    1.3255658295177248E-03   -6.7119249318724704E-04   -1.7151638190275145E-01
N   -5.8101865367794162E-03    1.8583005969809812E+00    6.1476906869083758E-01
Ga   -1.2195228560990636E-03    1.8612587559826228E+00    2.5498666116789455E+00
N    4.6872548912133601E-03    2.3225355354693730E-03    3.2368012529516696E+00
Ga    5.2298438549375258E-03    7.8643327617054792E-04    5.1968934979265322E+00
N   -5.7915907227237666E-04    1.8581702846043604E+00    5.8582560798615058E+00
Ga    2.0711386316906175E-03    1.8602404508189119E+00    7.8267427267836007E+00
N    1.2084031043391950E-02    3.1525010499750730E-03    8.4793863818367079E+00
Ga    1.2782449203561839E-02    6.6412305049451904E-03    1.0468038128395525E+01
N   -6.2039881903594024E-03    1.8661403395625857E+00    1.1059238712177848E+01
Ga   -3.0459680708208446E-02    1.8546111682807795E+00    1.3129730131230145E+01
N   -9.8073596562860757E-03   -8.7245125664864309E-04    1.3464063613461089E+01
Ga   -1.6113275055600369E+00    2.7919062873185561E+00   -1.7177791583985080E-01
N   -1.6179459777131642E+00    4.6506683240080449E+00    6.1506588063273948E-01
Ga   -1.6136643097322745E+00    4.6535143492280548E+00    2.5506818016341120E+00
N   -1.6070548571845291E+00    2.7947989637519273E+00    3.2379545869090127E+00
Ga   -1.6060196638752384E+00    2.7926673705808533E+00    5.1984652026681868E+00
N   -1.6129876547101516E+00    4.6517405648610346E+00    5.8547955455832312E+00
Ga   -1.6106817052196629E+00    4.6528804390287366E+00    7.8225057747445632E+00
N   -1.6036618598379633E+00    2.7948417185338235E+00    8.4720112472572602E+00
Ga   -1.6101694300065463E+00    2.8008421568041393E+00    1.0456992746016768E+01
N   -1.6153355003378860E+00    4.6548673371241200E+00    1.1053343256658364E+01
Ga   -1.6276531319908614E+00    4.6366906358401483E+00    1.3128135828078971E+01
N   -1.6209784378575973E+00    2.7947611933990921E+00    1.3538899968554189E+01
Ga   -3.2234291535787820E+00    5.5841965462586876E+00   -1.7188076765094987E-01
N   -3.2299155244551625E+00    7.4429974154347533E+00    6.1487838999181432E-01
Ga   -3.2253714248989049E+00    7.4454529228133257E+00    2.5502921026593652E+00
N   -3.2196670591800265E+00    5.5871091862668401E+00    3.2381350801238957E+00
Ga   -3.2196320807253516E+00    5.5857264114382019E+00    5.1991402012315637E+00
N   -3.2249664854590652E+00    7.4444693098341883E+00    5.8587074558373313E+00
Ga   -3.2223707874716161E+00    7.4465273534091780E+00    7.8278037890014227E+00
N   -3.2147092081504240E+00    5.5868716396221823E+00    8.4707788676633822E+00
Ga   -3.2185520933079381E+00    5.5914345602413018E+00    1.0456578810751800E+01
N   -3.2320401203639220E+00    7.4503316359539973E+00    1.1048047972104804E+01
Ga   -3.2541214771027129E+00    7.4412945385611478E+00    1.3113930348945743E+01
N   -3.2326902264044963E+00    5.5867957042594947E+00    1.3463378953932871E+01
Ga   -4.8356501688794529E+00    8.3768455405809892E+00   -1.7135997092792532E-01
N   -4.8420137513366033E+00    1.0235634306867047E+01    6.1578158485961898E-01
Ga   -4.8371279089791717E+00    1.0238382478325187E+01    2.5511976272120105E+00
N   -4.8314086217489836E+00    8.3793161501418965E+00    3.2378437441301626E+00
Ga   -4.8301206593313077E+00    8.3775487899890813E+00    5.1979689540899647E+00
N   -4.8383156735244439E+00    1.0236219070464930E+01    5.8562052449052207E+00
Ga   -4.8360786688540145E+00    1.0238401662107695E+01    7.8237612394822635E+00
N   -4.8294009628373011E+00    8.3814309987573790E+00    8.4732931424891564E+00
Ga   -4.8346449724442522E+00    8.3870489326678328E+00    1.0457937978865182E+01
N   -4.8344937417870115E+00    1.0237542072652483E+01    1.1068494525226015E+01
Ga   -4.8500504876936787E+00    1.0216576676431917E+01    1.3153566375611415E+01
N   -4.8428818137728058E+00    8.3742103648389179E+00    1.3553771474909459E+01
Ga    3.2121627031937092E+00   -5.9485599729777901E-04   -1.7116980998566672E-01
N    3.2057007415639860E+00    1.8581220803076399E+00    6.1604037473660000E-01
Ga    3.2103398660448383E+00    1.8607829480988345E+00    2.5517758006916349E+00
N    3.2165863587653556E+00    1.8752234725826810E-03    3.2394165185041510E+00
Ga    3.2176413306397933E+00   -5.4670885622582442E-04    5.2004212395385263E+00
N    3.2105560880804047E+00    1.8587911128283958E+00    5.8563220825839428E+00
Ga    3.2126779533057075E+00    1.8603756299921659E+00    7.8240882070289297E+00
N    3.2198265583324588E+00    1.7484847430778328E-03    8.4727588902201703E+00
Ga    3.2145652936106868E+00    5.9086108821179576E-03    1.0456902057440022E+01
N    3.2120755623351847E+00    1.8626938190427702E+00    1.1048845731825086E+01
Ga    3.1968181186870628E+00    1.8438656938054805E+00    1.3118703596978012E+01
N    3.2029603448095325E+00    2.5220869442529564E-03    1.3533586652712586E+01
Ga    1.6000754219771836E+00    2.7916293160961119E+00   -1.7136368997606594E-01
N    1.5933172521919781E+00    4.6506212845656743E+00    6.1468977947357306E-01
Ga    1.5976658311328120E+00    4.6532038740654187E+00    2.5499080320753520E+00
N    1.6036025927832629E+00    2.7945039619631262E+00    3.2376086326603852E+00
Ga    1.6040225619894819E+00    2.7922586301152692E+00    5.1983007467650495E+00
N    1.5986039345099943E+00    4.6515826411493553E+00    5.8563147110817866E+00
Ga    1.5996236685209768E+00    4.6522947505919765E+00    7.8247023198005881E+00
N    1.6093530463845749E+00    2.7946837474722632E+00    8.4736284140491751E+00
Ga    1.6061700687997102E+00    2.7984534815245738E+00    1.0460047419391412E+01
N    1.5923180274175752E+00    4.6583292357318582E+00    1.1050365926007339E+01
Ga    1.5730870200194051E+00    4.6441698792763111E+00    1.3117837001095507E+01
N    1.5923851264913458E+00    2.7904644288965832E+00    1.3465067201593756E+01
Ga   -1.2399333353273456E-02    5.5843889251601304E+00   -1.7173616177794651E-01
N   -1.8902634513543369E-02    7.4431886424239782E+00    6.1515706013776428E-01
Ga   -1.4428276301293308E-02    7.4457958071788672E+00    2.5505869575427877E+00
N   -8.4705624850783204E-03    5.5868883963272653E+00    3.2369791795330691E+00
Ga   -7.7114171684383092E-03    5.5845662099443647E+00    5.1969893176734985E+00
N   -1.4069494043161615E-02    7.4435105404082753E+00    5.8551323276535880E+00
Ga   -1.2901317231395553E-02    7.4443983863971255E+00    7.8227249046496379E+00
N   -4.3898835916957478E-03    5.5875517005662854E+00    8.4717810568111318E+00
Ga   -1.2414268700594082E-02    5.5951262272793958E+00    1.0456259330541428E+01
N   -1.1707135533777519E-02    7.4455279649315838E+00    1.1067682239778252E+01
Ga   -2.8108859229128726E-02    7.4257461964279399E+00    1.3152352562851876E+01
N   -2.0262376623578836E-02    5.5786906646732577E+00    1.3535464218903838E+01
Ga   -1.6244380734563104E+00    8.3766607068303269E+00   -1.7168045614055066E-01
N   -1.6311731962713047E+00    1.0235511072338609E+01    6.1531385524732918E-01
Ga   -1.6265914211031203E+00    1.0238148747528394E+01    2.5506336120536486E+00
N   -1.6207374765790703E+00    8.3794275331401273E+00    3.2377427839459134E+00
Ga   -1.6205820329388105E+00    8.3777717812223447E+00    5.1983535700142012E+00
N   -1.6251978127532054E+00    1.0235257166600954E+01    5.8604840162261977E+00
Ga   -1.6230248300553793E+00    1.0236354364669062E+01    7.8294988303703361E+00
N   -1.6133998418042204E+00    8.3778402137106447E+00    8.4791264458122946E+00
Ga   -1.6154227211898042E+00    8.3807545751390560E+00    1.0467465546200946E+01
N   -1.6296384545485676E+00    1.0243012188517360E+01    1.1057175996997563E+01
Ga   -1.6547780390572295E+00    1.0233279289839436E+01    1.3123397738487899E+01
N   -1.6335442025486577E+00    8.3791465316411244E+00    1.3465962397715961E+01
Ga    6.4233949716383298E+00   -7.3599674548148659E-04   -1.7102329429263585E-01
N    6.4168700549235664E+00    1.8582943033124679E+00    6.1540357871142048E-01
Ga    6.4211012296519341E+00    1.8609371277721445E+00    2.5508598106869456E+00
N    6.4267921654776021E+00    2.2191825718024258E-03    3.2385784003673455E+00
Ga    6.4270575396087581E+00   -2.3662789304425245E-04    5.1991237509944446E+00
N    6.4223358386054477E+00    1.8585907587118546E+00    5.8577475954102241E+00
Ga    6.4251934926425873E+00    1.8598671791153751E+00    7.8261810764730493E+00
N    6.4338626865581539E+00    2.3815030892370449E-03    8.4776744775465520E+00
Ga    6.4320604475320131E+00    6.0002994113560236E-03    1.0464962723053437E+01
N    6.4174592827280597E+00    1.8649927065324146E+00    1.1053341971629123E+01
Ga    6.3966478753818086E+00    1.8513204320894283E+00    1.3120107703003594E+01
N    6.4155785605706903E+00   -8.6884453970729135E-04    1.3468936469540404E+01
Ga    4.8110920091791503E+00    2.7919374751268751E+00   -1.7110942310311600E-01
N    4.8047727768750601E+00    4.6507445601968724E+00    6.1546872569885613E-01
Ga    4.8092942860917915E+00    4.6531428436702527E+00    2.5507576491586854E+00
N    4.8152621669765505E+00    2.7946227415129963E+00    3.2385670222774556E+00
Ga    4.8158362022532302E+00    2.7920294423656782E+00    5.1989333798169888E+00
N    4.8090432752287144E+00    4.6521310060980268E+00    5.8539637722540379E+00
Ga    4.8112122878298100E+00    4.6528795742196518E+00    7.8212846726636149E+00
N    4.8195617329554610E+00    2.7956749534114760E+00    8.4695224128274234E+00
Ga    4.8149549842036512E+00    2.8015572107850342E+00    1.0454516027606118E+01
N    4.8096492608712094E+00    4.6554303536415915E+00    1.1058505330532709E+01
Ga    4.7973518166102789E+00    4.6397792426688680E+00    1.3138479584251971E+01
N    4.8027109952194413E+00    2.7920709252891616E+00    1.3515942413197354E+01
Ga    3.1991988716864106E+00    5.5842301125439304E+00   -1.7174013842012742E-01
N    3.1923760997946684E+00    7.4432453376977152E+00    6.1457292288482512E-01
Ga    3.1968087856902847E+00    7.4460117118813125E+00    2.5495326373234559E+00
N    3.2026875696219221E+00    5.5873034633460019E+00    3.2366129848869098E+00
Ga    3.2025488900033277E+00    5.5855431350814904E+00    5.1965556099963282E+00
N    3.1978102836970161E+00    7.4437544292710784E+00    5.8577866133722374E+00
Ga    3.1990436907581619E+00    7.4449539198979782E+00    7.8266011664485173E+00
N    3.2077728624293065E+00    5.5856979592110703E+00    8.4729638326310450E+00
Ga    3.2053869421476424E+00    5.5884713404627675E+00    1.0459698197051800E+01
N    3.1921827995178842E+00    7.4512895008402831E+00    1.1043736337291817E+01
Ga    3.1672804050165384E+00    7.4394183458466516E+00    1.3106988404597537E+01
N    3.1901601312054946E+00    5.5878222265810482E+00    1.3466324395085959E+01
Ga    1.5866875253989046E+00    8.3769384810849186E+00   -1.7151908940822136E-01
N    1.5801306635543664E+00    1.0235559518146738E+01    6.1609058463169752E-01
Ga    1.5844771323754683E+00    1.0238433097017481E+01    2.5517173748321289E+00
N    1.5907884520127189E+00    8.3790748961385670E+00    3.2381936726582290E+00
Ga    1.5913060486378103E+00    8.3768543062658978E+00    5.1982563741977810E+00
N    1.5851624372107107E+00    1.0235905090079461E+01    5.8560269903100854E+00
Ga    1.5867059439661870E+00    1.0237917102085065E+01    7.8229677141669054E+00
N    1.5936092235213386E+00    8.3802708849477856E+00    8.4726568082365148E+00
Ga    1.5871106150910992E+00    8.3879382190414518E+00    1.0457239634281413E+01
N    1.5880217542187216E+00    1.0239039518274835E+01    1.1062573425216668E+01
Ga    1.5718171519768169E+00    1.0218783932456441E+01    1.3143042128690947E+01
N    1.5782533541691184E+00    8.3747957024571349E+00    1.3539612787432606E+01
Ga    9.6344636722516537E+00   -3.1081649659767818E-04   -1.7109785136963959E-01
N    9.6280636644973576E+00    1.8584559796690669E+00    6.1579666149131718E-01
Ga    9.6325057123619544E+00    1.8611932320974476E+00    2.5512622304923251E+00
N    9.6388058018939216E+00    2.1852426786766431E-03    3.2386160161274740E+00
Ga    9.6396730247873705E+00    1.8786399208768821E-04    5.1989294429921626E+00
N    9.6323589098376647E+00    1.8592993262983601E+00    5.8554632155884061E+00
Ga    9.6348687365955143E+00    1.8613454102185922E+00    7.8227012211174989E+00
N    9.6417519660421895E+00    2.9829076089289549E-03    8.4701338331508520E+00
Ga    9.6354372463436420E+00    9.0080586842390675E-03    1.0454201773740234E+01
N    9.6332684043789030E+00    1.8590198287934072E+00    1.1061131614771552E+01
Ga    9.6196575406522360E+00    1.8447579341439726E+00    1.3141514692879921E+01
N    9.6264998885947755E+00    4.6524299633308585E-04    1.3536986412706526E+01
Ga    8.0225730607742172E+00    2.7920452923301950E+00   -1.7128717125473875E-01
N    8.0158411874515316E+00    4.6509648931748258E+00    6.1499483327552684E-01
Ga    8.0205281206914574E+00    4.6537148160428314E+00    2.5502213566915350E+00
N    8.0259816150729755E+00    2.7949787879422430E+00    3.2376907609421037E+00
Ga    8.0261676764679333E+00    2.7933266222886526E+00    5.1979926986138532E+00
N    8.0201462950491411E+00    4.6513001046847435E+00    5.8577762225485532E+00
Ga    8.0219415957055293E+00    4.6518981970691513E+00    7.8261250612575157E+00
N    8.0326389972688546E+00    2.7943605623172321E+00    8.4763922782589756E+00
Ga    8.0311050777217634E+00    2.7978344768245784E+00    1.0464356623065980E+01
N    8.0143168731740495E+00    4.6576323734297871E+00    1.1051120238667757E+01
Ga    7.9900644907379563E+00    4.6485864776598760E+00    1.3119071300136794E+01
N    8.0127522228241883E+00    2.7944506623160552E+00    1.3466851743592821E+01
Ga    6.4102023561630714E+00    5.5843523288166388E+00   -1.7173370490531417E-01
N    6.4035704777615683E+00    7.4430976829540683E+00    6.1530774227477980E-01
Ga    6.4081049524594746E+00    7.4459590222884104E+00    2.5506657785750595E+00
N    6.4142711292119428E+00    5.5870912724893769E+00    3.2374901902042588E+00
Ga    6.4153675986631002E+00    5.5848091918556317E+00    5.1973328416907254E+00
N    6.4083846810073037E+00    7.4440064030645727E+00    5.8543436828678468E+00
Ga    6.4116731725640834E+00    7.4451784331643305E+00    7.8216293298435797E+00
N    6.4161635915349997E+00    5.5881157135246999E+00    8.4723606060423968E+00
Ga    6.4106743507917034E+00    5.5956621671769868E+00    1.0457170689603315E+01
N    6.4109710327639364E+00    7.4457630711763825E+00    1.1063153096322901E+01
Ga    6.3985039582919079E+00    7.4257581910389492E+00    1.3147654694678666E+01
N    6.4011821198483512E+00    5.5832740101573846E+00    1.3552635385896025E+01
Ga    4.7981233379188106E+00    8.3766143696137352E+00   -1.7189254989907451E-01
N    4.7913604081656054E+00    1.0235542384825266E+01    6.1485722508593987E-01
Ga    4.7956163040885045E+00    1.0238350914084274E+01    2.5499833625101362E+00
N    4.8015309578589553E+00    8.3797325494191792E+00    3.2372853694060320E+00
Ga    4.8021085725603241E+00    8.3782669286957834E+00    5.1976136107784114E+00
N    4.7971581968525854E+00    1.0236428277458753E+01    5.8581747064564089E+00
Ga    4.8003694553261109E+00    1.0239546516896045E+01    7.8270720201244188E+00
N    4.8082979191685062E+00    8.3794394364827607E+00    8.4728872918707587E+00
Ga    4.8078100745912327E+00    8.3830537909581224E+00    1.0460674851773543E+01
N    4.7916044844778058E+00    1.0242514258229107E+01    1.1046429119813839E+01
Ga    4.7666867545515608E+00    1.0234345867458405E+01    1.3109654630595237E+01
N    4.7881625527402187E+00    8.3782051416215282E+00    1.3448379976470834E+01
H    4.7976607700981448E+00    8.3786067366579591E+00   -1.7243238804119765E+00
H    1.5867499341598377E+00    8.3795873201095983E+00   -1.7240867964764992E+00
H   -1.6248519677387192E+00    8.3798398669340415E+00   -1.7242109184754779E+00
H   -4.8364212379788114E+00    8.3801856884039534E+00   -1.7239454263416816E+00
H    6.4099190502828209E+00    5.5861580140557185E+00   -1.7242906803544340E+00
H    3.1992188219945019E+00    5.5867513968887037E+00   -1.7242390051975447E+00
H   -1.2238338258403585E-02    5.5872072713361485E+00   -1.7242938753559442E+00
H   -3.2249123195388867E+00    5.5867574862969756E+00   -1.7244086060770967E+00
H    8.0227387055815083E+00    2.7951221521504106E+00   -1.7238455423016974E+00
H    4.8103736794016259E+00    2.7950987555967801E+00   -1.7236179759897654E+00
H    1.5992309707038164E+00    2.7939828945835727E+00   -1.7239124559323729E+00
H   -1.6115900232459899E+00    2.7931784852485682E+00   -1.7243765250478407E+00
H    1.9355125395704908E-03    2.4009955695334711E-03   -1.7240641992256283E+00
H    3.2117371729646771E+00    1.5851648525907884E-03   -1.7237299483122905E+00
H    6.4227290653632165E+00    1.3218325293364124E-03   -1.7235063177444381E+00
H    9.6333361723794830E+00    2.9876179768617566E-03   -1.7236495581298306E+00
     &END COORD
     &KIND H
       BASIS_SET DZVP-MOLOPT-SR-GTH-q1
       POTENTIAL GTH-PBE-q1
       &POTENTIAL
1
0.2000000000000000E+00 2 -0.4178900440000000E+01  0.7244633100000000E+00
0
       &END POTENTIAL
     &END KIND
     &KIND N
       BASIS_SET DZVP-MOLOPT-SR-GTH
       POTENTIAL GTH-PBE-q5
       &POTENTIAL
2 3
0.2837905100000000E+00 2 -0.1241522559000000E+02  0.1868095920000000E+01
2
0.2554050000000000E+00 1  0.1363026257000000E+02
0.2454945300000000E+00 0
       &END POTENTIAL
     &END KIND
     &KIND Ga
       BASIS_SET DZVP-MOLOPT-SR-GTH
       POTENTIAL GTH-PBE-q13
       &POTENTIAL
2 1 10
0.4900000000000000E+00 0
3
0.4167772300000000E+00 3  0.1047568975000000E+02 -0.4921768140000000E+01  0.8707055900000000E+00
0.7770178090000000E+01 -0.2248152160000000E+01
0.1784415450000000E+01
0.5696265200000000E+00 2  0.1777985340000000E+01  0.1958597600000000E+00
-0.2317443900000000E+00
0.2381265000000000E+00 1 -0.1624868022000000E+02
       &END POTENTIAL
     &END KIND
     &TOPOLOGY
       NUMBER_OF_ATOMS  208
       MULTIPLE_UNIT_CELL  1 1 1
     &END TOPOLOGY
   &END SUBSYS
 &END FORCE_EVAL
