 # Version information for this restart file 
 # current date 2019-05-26 00:43:17.016
 # current working dir /lustre03/project/6004141/rzk/GaN-carbene/00-Surface/00-Preoptimization/443-capped/CELL_OPT
 # Program compiled at                              Sun Apr  7 00:48:11 EDT 2019
 # Program compiled on                          beluga2.int.ets1.calculquebec.ca
 # Program compiled for                        Beluga-Linux-x86-64-intel-openmpi
 # Source code revision number                                         svn:18619
 &GLOBAL
   PRINT_LEVEL  MEDIUM
   PROJECT_NAME TEST
   RUN_TYPE  CELL_OPT
 &END GLOBAL
 &MOTION
   &CELL_OPT
     MAX_ITER  300
     STEP_START_VAL  44
     EXTERNAL_PRESSURE     1.0000000000000000E+00
     KEEP_ANGLES  T
     KEEP_SYMMETRY  T
     CONSTRAINT  Z
     PRESSURE_TOLERANCE     5.0000000000000000E+02
   &END CELL_OPT
 &END MOTION
 &FORCE_EVAL
   METHOD  QS
   STRESS_TENSOR  ANALYTICAL
   &DFT
     BASIS_SET_FILE_NAME BASIS_MOLOPT
     POTENTIAL_FILE_NAME GTH_POTENTIALS
     SURFACE_DIPOLE_CORRECTION  T
     SURF_DIP_DIR  Z
     &SCF
       MAX_SCF  100
       EPS_SCF     5.0000000000000004E-06
       &OT  T
         PRECONDITIONER  FULL_ALL
       &END OT
       &OUTER_SCF  T
         OPTIMIZER  NONE
         EPS_SCF     5.0000000000000004E-06
         MAX_SCF  4
       &END OUTER_SCF
       &PRINT
         &RESTART  OFF
           BACKUP_COPIES  1
           &EACH
             JUST_ENERGY  0
             QS_SCF  0
             MD  20
           &END EACH
         &END RESTART
       &END PRINT
     &END SCF
     &QS
       EPS_DEFAULT     1.0000000000000000E-14
       METHOD  GPW
     &END QS
     &MGRID
       NGRIDS  5
       CUTOFF     1.2000000000000000E+03
     &END MGRID
     &XC
       DENSITY_CUTOFF     1.0000000000000000E-10
       GRADIENT_CUTOFF     1.0000000000000000E-10
       TAU_CUTOFF     1.0000000000000000E-10
       &XC_FUNCTIONAL  NO_SHORTCUT
         &PBE  T
         &END PBE
       &END XC_FUNCTIONAL
       &VDW_POTENTIAL
         POTENTIAL_TYPE  PAIR_POTENTIAL
         &PAIR_POTENTIAL
           R_CUTOFF     1.0000000000000004E+01
           TYPE  DFTD3
           PARAMETER_FILE_NAME dftd3.dat
           REFERENCE_FUNCTIONAL PBE
           EPS_CN     9.9999999999999995E-07
           CALCULATE_C9_TERM  T
           REFERENCE_C9_TERM  T
           LONG_RANGE_CORRECTION  F
           VERBOSE_OUTPUT  F
         &END PAIR_POTENTIAL
       &END VDW_POTENTIAL
     &END XC
   &END DFT
   &SUBSYS
     &CELL
       A     1.2845192057023418E+01    0.0000000000000000E+00    0.0000000000000000E+00
       B    -6.4473340593710819E+00    1.1167110164200025E+01    0.0000000000000000E+00
       C     0.0000000000000000E+00    0.0000000000000000E+00    2.9000000000000000E+01
       MULTIPLE_UNIT_CELL  1 1 1
       &CELL_REF
         A     1.2982353780853531E+01    0.0000000000000000E+00    0.0000000000000000E+00
         B    -6.4911768904267628E+00    1.1243048175136114E+01    0.0000000000000000E+00
         C     0.0000000000000000E+00    0.0000000000000000E+00    2.9000000000000000E+01
         MULTIPLE_UNIT_CELL  1 1 1
       &END CELL_REF
     &END CELL
     &COORD
Ga    1.4286413002829726E-03   -1.1918731733745387E-03   -1.7374676689421284E-01
N   -4.6362694994204279E-03    1.8580381415108569E+00    6.1216329886316800E-01
Ga    2.3893012990371682E-04    1.8607343524480857E+00    2.5468627648998718E+00
N    5.5773080833654825E-03    2.0581159589642259E-03    3.2350583908239035E+00
Ga    6.4070812887194488E-03    7.2481721967247064E-04    5.1960356117801618E+00
N    1.2950691862880586E-03    1.8587435902270577E+00    5.8574772804493946E+00
Ga    4.3570722665065642E-03    1.8603729107198690E+00    7.8268996977389440E+00
N    1.3337324610222124E-02    2.4106987941109053E-03    8.4798750073935079E+00
Ga    1.0825041950903379E-02    5.9169264195477831E-03    1.0468619914878140E+01
N   -6.7114155922332903E-03    1.8662862389097348E+00    1.1061460449207896E+01
Ga   -3.3096759267359589E-02    1.8524494891773498E+00    1.3129892924437820E+01
N   -1.2923837595157896E-02   -1.4916880600181817E-03    1.3470740704673336E+01
Ga   -1.6107752666135993E+00    2.7906244199108774E+00   -1.7384632349226559E-01
N   -1.6166159355628489E+00    4.6498058685519075E+00    6.1225340724271671E-01
Ga   -1.6120320657432812E+00    4.6525134842044933E+00    2.5471741045836866E+00
N   -1.6059611304162063E+00    2.7937411785970148E+00    3.2349440162425567E+00
Ga   -1.6048053314579287E+00    2.7916845548776532E+00    5.1957468124847050E+00
N   -1.6111434171454988E+00    4.6509427915108450E+00    5.8549411520270915E+00
Ga   -1.6089445749626152E+00    4.6517371748931930E+00    7.8234248858535667E+00
N   -1.6014153685347816E+00    2.7946789532362479E+00    8.4748843981501949E+00
Ga   -1.6096069467735290E+00    2.8008617915162031E+00    1.0459832011753088E+01
N   -1.6132195989622555E+00    4.6542300141070410E+00    1.1058693066091109E+01
Ga   -1.6273256415194823E+00    4.6359087546972164E+00    1.3134141985329107E+01
N   -1.6232558772682746E+00    2.7932653608502371E+00    1.3541716018144108E+01
Ga   -3.2224721989416798E+00    5.5825204988992017E+00   -1.7416737599081364E-01
N   -3.2282545789719923E+00    7.4414996038504428E+00    6.1227136590219522E-01
Ga   -3.2235093618654087E+00    7.4442392787042779E+00    2.5468788929607378E+00
N   -3.2182388879767743E+00    5.5858715838131481E+00    3.2352995282306933E+00
Ga   -3.2177328960790392E+00    5.5844413548468026E+00    5.1963720419364394E+00
N   -3.2222710932816985E+00    7.4431508916215341E+00    5.8582707273476275E+00
Ga   -3.2197147181177881E+00    7.4446120501642028E+00    7.8278309550446314E+00
N   -3.2122647012125918E+00    5.5858110551163991E+00    8.4754556213870185E+00
Ga   -3.2171176689712939E+00    5.5901196569507636E+00    1.0462585993958212E+01
N   -3.2317556438070052E+00    7.4487814333277127E+00    1.1054130152289709E+01
Ga   -3.2560503924146094E+00    7.4389364475099526E+00    1.3116659973826438E+01
N   -3.2347456064346360E+00    5.5841883406672626E+00    1.3463757444996705E+01
Ga   -4.8341595091592335E+00    8.3743509884049825E+00   -1.7362325224167191E-01
N   -4.8400067016167352E+00    1.0233328523794043E+01    6.1290427593049801E-01
Ga   -4.8351861813163000E+00    1.0236095550319394E+01    2.5476920653634392E+00
N   -4.8296531100196134E+00    8.3772207003981070E+00    3.2352652387942857E+00
Ga   -4.8284942748477109E+00    8.3757561184010925E+00    5.1961850666793872E+00
N   -4.8349213226431855E+00    1.0234494214760108E+01    5.8560177144194023E+00
Ga   -4.8316929626195160E+00    1.0236765883838645E+01    7.8244486747786297E+00
N   -4.8262971323610797E+00    8.3789727142175092E+00    8.4753072263157847E+00
Ga   -4.8337474923292483E+00    8.3864054267856876E+00    1.0460323244125552E+01
N   -4.8333504681939790E+00    1.0237077190138381E+01    1.1070340895050480E+01
Ga   -4.8525891663707075E+00    1.0214792457944490E+01    1.3154051337184550E+01
N   -4.8449009273581476E+00    8.3720137623021689E+00    1.3556018274433821E+01
Ga    3.2126421279777251E+00   -1.1125903162393662E-03   -1.7326625718414393E-01
N    3.2066660819578563E+00    1.8578444977423814E+00    6.1322309015418008E-01
Ga    3.2113946962794260E+00    1.8603629172951726E+00    2.5482837971681662E+00
N    3.2172354209010723E+00    1.5528692396423332E-03    3.2363380556278623E+00
Ga    3.2184307781312662E+00   -1.1242878844846148E-04    5.1974350578808641E+00
N    3.2120277849044734E+00    1.8588140289248960E+00    5.8557030881315777E+00
Ga    3.2148134310842820E+00    1.8602581671216492E+00    7.8243593699625116E+00
N    3.2224133195329019E+00    1.9107312578242261E-03    8.4757478183902641E+00
Ga    3.2137918847916982E+00    7.1235698851909012E-03    1.0460431424886947E+01
N    3.2130036663973125E+00    1.8630663085901626E+00    1.1056417978896457E+01
Ga    3.1947163358209201E+00    1.8433590925707479E+00    1.3128563199273028E+01
N    3.2002815956749262E+00    1.2057298246051689E-03    1.3536825162299797E+01
Ga    1.6009417594237576E+00    2.7904526922869839E+00   -1.7370386364000712E-01
N    1.5949048951548517E+00    4.6497129302582216E+00    6.1190495361049979E-01
Ga    1.5996653485343757E+00    4.6522088593706412E+00    2.5465646391211840E+00
N    1.6049735160361112E+00    2.7938604012763668E+00    3.2351154711334091E+00
Ga    1.6057135729900984E+00    2.7920448560733186E+00    5.1960499771988156E+00
N    1.6005596671267985E+00    4.6506591176859082E+00    5.8567397470779721E+00
Ga    1.6032483591968083E+00    4.6512203862046606E+00    7.8259210797915539E+00
N    1.6114276598922417E+00    2.7937372415853239E+00    8.4774621442792100E+00
Ga    1.6061485643056590E+00    2.7976039777002604E+00    1.0464774851641593E+01
N    1.5925868839934529E+00    4.6583772066645883E+00    1.1054161547647192E+01
Ga    1.5692118594275277E+00    4.6425769971149764E+00    1.3118052597663072E+01
N    1.5890103829745637E+00    2.7895621542220574E+00    1.3466469461769242E+01
Ga   -1.1162303963753917E-02    5.5825066734659359E+00   -1.7389819045898192E-01
N   -1.7004931880742768E-02    7.4415966925187460E+00    6.1237773875042489E-01
Ga   -1.2315886761197574E-02    7.4442800381885110E+00    2.5469851994051504E+00
N   -6.5729671567402136E-03    5.5854977549031917E+00    3.2346739738981665E+00
Ga   -5.5197503928401722E-03    5.5833628003137514E+00    5.1955540483964535E+00
N   -1.1499426570446902E-02    7.4427281489206445E+00    5.8556671381828611E+00
Ga   -8.7663931845722645E-03    7.4444796596001535E+00    7.8241306298211386E+00
N   -3.0436576812871031E-03    5.5868965242335298E+00    8.4737266772327597E+00
Ga   -1.0698313546279871E-02    5.5934852644678044E+00    1.0458552243403208E+01
N   -1.1748420718614249E-02    7.4435119334527364E+00    1.1069626339348545E+01
Ga   -2.8514183214947735E-02    7.4226740825536330E+00    1.3153243988731550E+01
N   -2.1734436770187150E-02    5.5778702455002644E+00    1.3543272735829062E+01
Ga   -1.6229545488809016E+00    8.3743374017818777E+00   -1.7384339988499853E-01
N   -1.6288701882429684E+00    1.0233241906673452E+01    6.1293102742717176E-01
Ga   -1.6241306503211159E+00    1.0235971317060635E+01    2.5475418398640102E+00
N   -1.6185922345920318E+00    8.3772458509702599E+00    3.2354150961935004E+00
Ga   -1.6179597479483523E+00    8.3757994751895328E+00    5.1963001521436958E+00
N   -1.6222842267534983E+00    1.0233684786245261E+01    5.8591576370227294E+00
Ga   -1.6192047343253111E+00    1.0235292150298370E+01    7.8288005745654257E+00
N   -1.6114005176697039E+00    8.3766252300090454E+00    8.4804844875719034E+00
Ga   -1.6157779330278275E+00    8.3791308115756138E+00    1.0469493640345695E+01
N   -1.6294313154983076E+00    1.0240983668626352E+01    1.1059061353204605E+01
Ga   -1.6547258106254528E+00    1.0229482086772293E+01    1.3124400918510878E+01
N   -1.6356707626664564E+00    8.3753436253974787E+00    1.3467398947752555E+01
Ga    6.4238841121654504E+00   -1.2245324898827110E-03   -1.7310343500167016E-01
N    6.4179749822227672E+00    1.8579320997767810E+00    6.1277959285796635E-01
Ga    6.4226817111225047E+00    1.8605671665654919E+00    2.5475248142624247E+00
N    6.4280936864571450E+00    1.8925378519808779E-03    3.2358437598424565E+00
Ga    6.4288803127346039E+00    3.2712807434218783E-04    5.1967284605196138E+00
N    6.4246368428596075E+00    1.8585177772503185E+00    5.8582596748480400E+00
Ga    6.4278199586119085E+00    1.8600821450734408E+00    7.8277396999197544E+00
N    6.4356005163010908E+00    1.9432181346406927E-03    8.4802696606356953E+00
Ga    6.4328023704380941E+00    4.9485512776689796E-03    1.0468427197948497E+01
N    6.4168596175598154E+00    1.8649511963115408E+00    1.1054676897412868E+01
Ga    6.3931851736560734E+00    1.8508772847430768E+00    1.3118430730395010E+01
N    6.4127979453290020E+00   -8.9045243245631774E-04    1.3473576381669442E+01
Ga    4.8119805687973765E+00    2.7905218146688000E+00   -1.7323984754250146E-01
N    4.8060835838810565E+00    4.6497486312924137E+00    6.1238897483245636E-01
Ga    4.8106977321564024E+00    4.6523642233451996E+00    2.5471362288699666E+00
N    4.8166290098908702E+00    2.7937244806272279E+00    3.2355812124610415E+00
Ga    4.8177626790980401E+00    2.7915586558119601E+00    5.1967580374028248E+00
N    4.8114808520434620E+00    4.6513859177671373E+00    5.8543039320550649E+00
Ga    4.8146714098358396E+00    4.6527168331432947E+00    7.8226088538814631E+00
N    4.8216379335203934E+00    2.7949905065611795E+00    8.4721893103391341E+00
Ga    4.8133522904850015E+00    2.8021521598440322E+00    1.0456142244437983E+01
N    4.8125130811578360E+00    4.6549473826045151E+00    1.1060714605849723E+01
Ga    4.7952807925944816E+00    4.6357468068550665E+00    1.3139272118824154E+01
N    4.8004747557723872E+00    2.7897368851353277E+00    1.3529014872603284E+01
Ga    3.2002587587088778E+00    5.5824161493488429E+00   -1.7416118617603080E-01
N    3.1943458290431916E+00    7.4416015470938159E+00    6.1194102289474828E-01
Ga    3.1991259267565653E+00    7.4443098043321729E+00    2.5465307701856790E+00
N    3.2043405797115510E+00    5.5857860985375787E+00    3.2345485109185721E+00
Ga    3.2048336130706501E+00    5.5842023125054432E+00    5.1954558539606142E+00
N    3.2002719726372484E+00    7.4427289196335691E+00    5.8577656855884843E+00
Ga    3.2030269512134044E+00    7.4439057461438223E+00    7.8272363398090876E+00
N    3.2104416545843275E+00    5.5848908950417089E+00    8.4753295801724864E+00
Ga    3.2062345945339139E+00    5.5879017735742869E+00    1.0462615940571947E+01
N    3.1926479112886006E+00    7.4481611966902816E+00    1.1051585047464012E+01
Ga    3.1666520014619262E+00    7.4367105675509944E+00    1.3114550561966121E+01
N    3.1876852626404237E+00    5.5830323381280396E+00    1.3466371350749835E+01
Ga    1.5882427003660506E+00    8.3744638911341500E+00   -1.7371888065995245E-01
N    1.5824791369190094E+00    1.0233307440687879E+01    6.1330379615054564E-01
Ga    1.5872312333116032E+00    1.0236026522405092E+01    2.5480731235556640E+00
N    1.5928630471900718E+00    8.3770167516110181E+00    3.2352861982651206E+00
Ga    1.5940812476361466E+00    8.3752724052094649E+00    5.1960731193668002E+00
N    1.5879159714669999E+00    1.0234112595367952E+01    5.8560262793759756E+00
Ga    1.5908150978304061E+00    1.0235833387617379E+01    7.8243983547332814E+00
N    1.5969585192140932E+00    8.3781741638181320E+00    8.4761906169152486E+00
Ga    1.5884030575998638E+00    8.3848574963821747E+00    1.0461763498385469E+01
N    1.5894679891503112E+00    1.0235320720919802E+01    1.1067899653371832E+01
Ga    1.5723077708038806E+00    1.0216448081963238E+01    1.3150455411176342E+01
N    1.5773033610095704E+00    8.3721562710409909E+00    1.3545812417612080E+01
Ga    9.6348742814236239E+00   -1.0353077207198907E-03   -1.7325202946076398E-01
N    9.6292714142744185E+00    1.8580130965660746E+00    6.1293392725247353E-01
Ga    9.6340151640289804E+00    1.8605766252408835E+00    2.5477677715511535E+00
N    9.6398220016136626E+00    1.7461929366651674E-03    3.2359074140600028E+00
Ga    9.6412250685438927E+00    1.0979184301858903E-05    5.1970475519906714E+00
N    9.6347138630575593E+00    1.8593077060664316E+00    5.8553313389896351E+00
Ga    9.6378713962676965E+00    1.8608640186830911E+00    7.8237778030888316E+00
N    9.6437104297493459E+00    2.9282543499240090E-03    8.4738285243895231E+00
Ga    9.6362313868508505E+00    8.0642716716937402E-03    1.0458602452326499E+01
N    9.6354435990093723E+00    1.8591034851644235E+00    1.1063902856137647E+01
Ga    9.6184341182923294E+00    1.8429357158581237E+00    1.3142704028036789E+01
N    9.6245221373009020E+00   -1.0696039614866855E-04    1.3544883222231684E+01
Ga    8.0232752097032840E+00    2.7905958491214773E+00   -1.7344655527494063E-01
N    8.0174796138696625E+00    4.6498592994093642E+00    6.1221184009467455E-01
Ga    8.0223085974328825E+00    4.6525243450663618E+00    2.5467974003373173E+00
N    8.0276047049953849E+00    2.7939325531904435E+00    3.2348225763101759E+00
Ga    8.0283329444271931E+00    2.7922320601914192E+00    5.1954997215107159E+00
N    8.0228500925703283E+00    4.6507154741364651E+00    5.8566412415548674E+00
Ga    8.0257279756695343E+00    4.6516235043432363E+00    7.8257104743756729E+00
N    8.0352626601328048E+00    2.7943759088256668E+00    8.4786149936399227E+00
Ga    8.0317891079377244E+00    2.7982375174828094E+00    1.0466814394101650E+01
N    8.0153406450880436E+00    4.6575572601882440E+00    1.1057058603038621E+01
Ga    7.9888830979966023E+00    4.6457274629149898E+00    1.3123265946567757E+01
N    8.0106735925056363E+00    2.7919659226969422E+00    1.3466219512435117E+01
Ga    6.4114516077265620E+00    5.5824988792265984E+00   -1.7395960100891131E-01
N    6.4055760598011675E+00    7.4416192642518455E+00    6.1226525248124464E-01
Ga    6.4102864402838051E+00    7.4445354026706285E+00    2.5469730081901685E+00
N    6.4159433667654326E+00    5.5856762858256879E+00    3.2342159640589094E+00
Ga    6.4168714667273683E+00    5.5837096233750074E+00    5.1947709890794194E+00
N    6.4109919872085328E+00    7.4427037875291013E+00    5.8550136809754054E+00
Ga    6.4141584715496665E+00    7.4441813523668978E+00    7.8232232798286994E+00
N    6.4202899560986131E+00    5.5867694123117744E+00    8.4744838721069318E+00
Ga    6.4127468641585272E+00    5.5936134633760712E+00    1.0459537750534587E+01
N    6.4132050357551380E+00    7.4459133893424765E+00    1.1068434332294137E+01
Ga    6.3964390129608706E+00    7.4240629309765902E+00    1.3151412847938047E+01
N    6.3988221757248285E+00    5.5810266501439880E+00    1.3552971151603614E+01
Ga    4.7996893236992930E+00    8.3742104583908574E+00   -1.7424821959117778E-01
N    4.7937788413705960E+00    1.0233322389266634E+01    6.1205833182971225E-01
Ga    4.7985323959949389E+00    1.0236128924503893E+01    2.5468132158520564E+00
N    4.8038843951382653E+00    8.3775211264016747E+00    3.2351520996119505E+00
Ga    4.8046445500031050E+00    8.3761459939176355E+00    5.1961956440963419E+00
N    4.8002490297661771E+00    1.0234143105152326E+01    5.8591015956340238E+00
Ga    4.8038946903832178E+00    1.0235940152933736E+01    7.8290528886575732E+00
N    4.8111712850568225E+00    8.3762112174009253E+00    8.4779486895181684E+00
Ga    4.8085797591350081E+00    8.3792116562299945E+00    1.0466300375957303E+01
N    4.7934742878497500E+00    1.0240648465149018E+01    1.1050532412697528E+01
Ga    4.7660980589769961E+00    1.0230636281179255E+01    1.3112497420786035E+01
N    4.7865347995964207E+00    8.3757613084385660E+00    1.3459561749672753E+01
H    4.7999872435558881E+00    8.3773978149034143E+00   -1.7262870493887614E+00
H    1.5883620752455401E+00    8.3785422325190382E+00   -1.7257736928623173E+00
H   -1.6230400501816977E+00    8.3783342850500198E+00   -1.7258948825727516E+00
H   -4.8345949926216409E+00    8.3786827634842904E+00   -1.7256672122649994E+00
H    6.4115148547678444E+00    5.5856934149070714E+00   -1.7260719801305313E+00
H    3.2007941866635199E+00    5.5859073794528609E+00   -1.7262244090457830E+00
H   -1.1127997280378258E-02    5.5864275344186627E+00   -1.7259640255395949E+00
H   -3.2231919085607528E+00    5.5860708085411348E+00   -1.7262497527972609E+00
H    8.0238788244535932E+00    2.7947826891586969E+00   -1.7255357533603302E+00
H    4.8115438205287298E+00    2.7947047220171131E+00   -1.7253357191165253E+00
H    1.6008306587863841E+00    2.7937796428660748E+00   -1.7257893992865396E+00
H   -1.6109196248915070E+00    2.7935821374967458E+00   -1.7259835048826990E+00
H    2.4573520175620849E-03    2.6697951253375680E-03   -1.7257990922320952E+00
H    3.2124255411430847E+00    2.5032954843308892E-03   -1.7253882795494548E+00
H    6.4237696109940936E+00    2.0456455847098292E-03   -1.7251621239168584E+00
H    9.6341608271901418E+00    3.4772350689765280E-03   -1.7252950055932998E+00
     &END COORD
     &KIND H
       BASIS_SET DZVP-MOLOPT-SR-GTH-q1
       POTENTIAL GTH-PBE-q1
       &POTENTIAL
1
0.2000000000000000E+00 2 -0.4178900440000000E+01  0.7244633100000000E+00
0
       &END POTENTIAL
     &END KIND
     &KIND N
       BASIS_SET DZVP-MOLOPT-SR-GTH
       POTENTIAL GTH-PBE-q5
       &POTENTIAL
2 3
0.2837905100000000E+00 2 -0.1241522559000000E+02  0.1868095920000000E+01
2
0.2554050000000000E+00 1  0.1363026257000000E+02
0.2454945300000000E+00 0
       &END POTENTIAL
     &END KIND
     &KIND Ga
       BASIS_SET DZVP-MOLOPT-SR-GTH
       POTENTIAL GTH-PBE-q13
       &POTENTIAL
2 1 10
0.4900000000000000E+00 0
3
0.4167772300000000E+00 3  0.1047568975000000E+02 -0.4921768140000000E+01  0.8707055900000000E+00
0.7770178090000000E+01 -0.2248152160000000E+01
0.1784415450000000E+01
0.5696265200000000E+00 2  0.1777985340000000E+01  0.1958597600000000E+00
-0.2317443900000000E+00
0.2381265000000000E+00 1 -0.1624868022000000E+02
       &END POTENTIAL
     &END KIND
     &TOPOLOGY
       NUMBER_OF_ATOMS  208
       MULTIPLE_UNIT_CELL  1 1 1
     &END TOPOLOGY
   &END SUBSYS
 &END FORCE_EVAL
