 # Version information for this restart file 
 # current date 2019-05-25 23:56:52.315
 # current working dir /lustre03/project/6004141/rzk/GaN-carbene/00-Surface/00-Preoptimization/443-capped/CELL_OPT
 # Program compiled at                              Sun Apr  7 00:48:11 EDT 2019
 # Program compiled on                          beluga2.int.ets1.calculquebec.ca
 # Program compiled for                        Beluga-Linux-x86-64-intel-openmpi
 # Source code revision number                                         svn:18619
 &GLOBAL
   PRINT_LEVEL  MEDIUM
   PROJECT_NAME TEST
   RUN_TYPE  CELL_OPT
 &END GLOBAL
 &MOTION
   &CELL_OPT
     MAX_ITER  300
     STEP_START_VAL  28
     EXTERNAL_PRESSURE     1.0000000000000000E+00
     KEEP_ANGLES  T
     KEEP_SYMMETRY  T
     CONSTRAINT  Z
     PRESSURE_TOLERANCE     5.0000000000000000E+02
   &END CELL_OPT
 &END MOTION
 &FORCE_EVAL
   METHOD  QS
   STRESS_TENSOR  ANALYTICAL
   &DFT
     BASIS_SET_FILE_NAME BASIS_MOLOPT
     POTENTIAL_FILE_NAME GTH_POTENTIALS
     SURFACE_DIPOLE_CORRECTION  T
     SURF_DIP_DIR  Z
     &SCF
       MAX_SCF  100
       EPS_SCF     5.0000000000000004E-06
       &OT  T
         PRECONDITIONER  FULL_ALL
       &END OT
       &OUTER_SCF  T
         OPTIMIZER  NONE
         EPS_SCF     5.0000000000000004E-06
         MAX_SCF  4
       &END OUTER_SCF
       &PRINT
         &RESTART  OFF
           BACKUP_COPIES  1
           &EACH
             JUST_ENERGY  0
             QS_SCF  0
             MD  20
           &END EACH
         &END RESTART
       &END PRINT
     &END SCF
     &QS
       EPS_DEFAULT     1.0000000000000000E-14
       METHOD  GPW
     &END QS
     &MGRID
       NGRIDS  5
       CUTOFF     1.2000000000000000E+03
     &END MGRID
     &XC
       DENSITY_CUTOFF     1.0000000000000000E-10
       GRADIENT_CUTOFF     1.0000000000000000E-10
       TAU_CUTOFF     1.0000000000000000E-10
       &XC_FUNCTIONAL  NO_SHORTCUT
         &PBE  T
         &END PBE
       &END XC_FUNCTIONAL
       &VDW_POTENTIAL
         POTENTIAL_TYPE  PAIR_POTENTIAL
         &PAIR_POTENTIAL
           R_CUTOFF     1.0000000000000004E+01
           TYPE  DFTD3
           PARAMETER_FILE_NAME dftd3.dat
           REFERENCE_FUNCTIONAL PBE
           EPS_CN     9.9999999999999995E-07
           CALCULATE_C9_TERM  T
           REFERENCE_C9_TERM  T
           LONG_RANGE_CORRECTION  F
           VERBOSE_OUTPUT  F
         &END PAIR_POTENTIAL
       &END VDW_POTENTIAL
     &END XC
   &END DFT
   &SUBSYS
     &CELL
       A     1.2843023312444863E+01    0.0000000000000000E+00    0.0000000000000000E+00
       B    -6.4483457901022998E+00    1.1168862533230085E+01    0.0000000000000000E+00
       C     0.0000000000000000E+00    0.0000000000000000E+00    2.9000000000000000E+01
       MULTIPLE_UNIT_CELL  1 1 1
       &CELL_REF
         A     1.2982353780853531E+01    0.0000000000000000E+00    0.0000000000000000E+00
         B    -6.4911768904267628E+00    1.1243048175136114E+01    0.0000000000000000E+00
         C     0.0000000000000000E+00    0.0000000000000000E+00    2.9000000000000000E+01
         MULTIPLE_UNIT_CELL  1 1 1
       &END CELL_REF
     &END CELL
     &COORD
Ga    9.7948849756361459E-04   -4.0610483619022537E-04   -1.6985348576949683E-01
N   -5.2006935983625706E-03    1.8587779791092167E+00    6.1644691775758464E-01
Ga   -2.2143212527005037E-03    1.8608737155827868E+00    2.5511166883473169E+00
N    4.2215791930026812E-03    2.1060257051676409E-03    3.2381406688465368E+00
Ga    4.2588249966502706E-03    1.3195138428022618E-04    5.1971079892889049E+00
N   -1.1981846436819640E-03    1.8580566874524609E+00    5.8586196216423163E+00
Ga    9.1353563883711834E-04    1.8590449170650287E+00    7.8259067350124845E+00
N    1.1191068335064289E-02    2.1952242760760773E-03    8.4798476365748012E+00
Ga    1.0613707058032633E-02    5.5183226374341671E-03    1.0467857609591622E+01
N   -7.5922084619577997E-03    1.8669772822084929E+00    1.1055187612767313E+01
Ga   -2.8839146198624856E-02    1.8546210192570380E+00    1.3125312469096654E+01
N   -6.8099436092006150E-03   -4.8855438991173179E-04    1.3459941826165892E+01
Ga   -1.6115852072060439E+00    2.7914036385828895E+00   -1.6978540220529578E-01
N   -1.6172667939519612E+00    4.6509818014588573E+00    6.1623849513923301E-01
Ga   -1.6140087119798523E+00    4.6527097529158645E+00    2.5511529663837500E+00
N   -1.6073303823800416E+00    2.7944714649541464E+00    3.2394624628515900E+00
Ga   -1.6069996552580474E+00    2.7919684841355585E+00    5.1990133756824513E+00
N   -1.6135427030427774E+00    4.6520411180290715E+00    5.8570235870211169E+00
Ga   -1.6102248293860864E+00    4.6522996958343050E+00    7.8226352061295996E+00
N   -1.6045938365464827E+00    2.7958246520653076E+00    8.4717664505812333E+00
Ga   -1.6114529061645524E+00    2.7997123886453967E+00    1.0454628921055008E+01
N   -1.6151548932077318E+00    4.6553103216418181E+00    1.1049198291316284E+01
Ga   -1.6261126578313310E+00    4.6336985177910757E+00    1.3125500259035421E+01
N   -1.6173780075713815E+00    2.7941685043215960E+00    1.3543278464975636E+01
Ga   -3.2240000862114595E+00    5.5839204067994990E+00   -1.7004236876196774E-01
N   -3.2292531638731292E+00    7.4432001023188361E+00    6.1621259113687599E-01
Ga   -3.2258227184817296E+00    7.4448609584116978E+00    2.5509140118857316E+00
N   -3.2197775481182074E+00    5.5862934723150772E+00    3.2397676652599876E+00
Ga   -3.2203011378260475E+00    5.5849028999407384E+00    5.1993438419264617E+00
N   -3.2249052727876353E+00    7.4433688991978268E+00    5.8602515832278135E+00
Ga   -3.2229887221960345E+00    7.4450377607406821E+00    7.8273543185134677E+00
N   -3.2147232646619401E+00    5.5852472270234035E+00    8.4719591865806958E+00
Ga   -3.2194668818767576E+00    5.5900231408310495E+00    1.0457625706922151E+01
N   -3.2321835393122500E+00    7.4484896762464352E+00    1.1044921655305643E+01
Ga   -3.2512997687969505E+00    7.4404996671367751E+00    1.3111717762271331E+01
N   -3.2310560251804232E+00    5.5856899321087532E+00    1.3457638074520009E+01
Ga   -4.8357279686962862E+00    8.3762686293984761E+00   -1.6960580726233615E-01
N   -4.8410899443920847E+00    1.0235413523194822E+01    6.1710780518606112E-01
Ga   -4.8375185120821538E+00    1.0237665973525685E+01    2.5522538511457755E+00
N   -4.8313827053635086E+00    8.3782938558863655E+00    3.2390295273866099E+00
Ga   -4.8308054201443227E+00    8.3767251788697870E+00    5.1986276438746151E+00
N   -4.8383695506764068E+00    1.0235831631341219E+01    5.8557878095982145E+00
Ga   -4.8366763771551309E+00    1.0237841007796037E+01    7.8217762063264384E+00
N   -4.8288286215109162E+00    8.3798783661998222E+00    8.4728151843343369E+00
Ga   -4.8352364962441143E+00    8.3871008780200711E+00    1.0457357080668185E+01
N   -4.8341375278197845E+00    1.0236990994733697E+01    1.1068852657170865E+01
Ga   -4.8461253607231356E+00    1.0217501518599549E+01    1.3151863316207200E+01
N   -4.8405637539932398E+00    8.3748054227198523E+00    1.3549553158678043E+01
Ga    3.2113038284616584E+00   -6.5847986785862807E-04   -1.6921916289717989E-01
N    3.2058352231539193E+00    1.8587037943080824E+00    6.1686301289694667E-01
Ga    3.2092850798384434E+00    1.8604608921290562E+00    2.5522326528690122E+00
N    3.2156860200886714E+00    1.6350887374781302E-03    3.2405035381869767E+00
Ga    3.2169855408545129E+00   -3.2118109815069122E-04    5.2007707975520505E+00
N    3.2096206674889673E+00    1.8590610165912482E+00    5.8573171597898925E+00
Ga    3.2123047851063191E+00    1.8597413594595864E+00    7.8236341501532731E+00
N    3.2181170201614235E+00    1.5260465950364926E-03    8.4724605970035221E+00
Ga    3.2132925874998137E+00    4.2382370412863014E-03    1.0453908473735959E+01
N    3.2101586355007301E+00    1.8607031345002203E+00    1.1046353239736643E+01
Ga    3.1979503245481169E+00    1.8423595814062861E+00    1.3112350159079250E+01
N    3.2064786259912013E+00    4.8731956400433893E-03    1.3538280691145113E+01
Ga    1.5990770124942619E+00    2.7914803665383348E+00   -1.6965500866871289E-01
N    1.5936066522502661E+00    4.6510332056601982E+00    6.1600568648689935E-01
Ga    1.5966771258899597E+00    4.6527455116109779E+00    2.5507952282247501E+00
N    1.6026643845786441E+00    2.7939190456636127E+00    3.2385645442406044E+00
Ga    1.6035219054554017E+00    2.7918318035097940E+00    5.1982570300146858E+00
N    1.5971060521097498E+00    4.6512773945255468E+00    5.8566372129203623E+00
Ga    1.5990718700117785E+00    4.6516115723087594E+00    7.8236059729616834E+00
N    1.6079164467591884E+00    2.7935568714761976E+00    8.4723950722656589E+00
Ga    1.6042137459707233E+00    2.7990205654773517E+00    1.0457970316308058E+01
N    1.5911692648301965E+00    4.6571907058598301E+00    1.1047857856586731E+01
Ga    1.5769449315621988E+00    4.6426768702911128E+00    1.3115427868149865E+01
N    1.5951137225735730E+00    2.7906685951142083E+00    1.3464231256256634E+01
Ga   -1.2797964996802167E-02    5.5840171009308088E+00   -1.7020195644154157E-01
N   -1.8402434581242143E-02    7.4433466162692365E+00    6.1638516599021431E-01
Ga   -1.5167103886481634E-02    7.4452117499624357E+00    2.5512956527930903E+00
N   -9.2457907588364956E-03    5.5862006696006432E+00    3.2385784193221268E+00
Ga   -8.2815825704410477E-03    5.5843268021167329E+00    5.1975753063856693E+00
N   -1.5736902193158691E-02    7.4429876177775043E+00    5.8556635748583457E+00
Ga   -1.3348092889158818E-02    7.4425355985997648E+00    7.8210688272433435E+00
N   -6.8123269480410177E-03    5.5870460562916087E+00    8.4734959306673403E+00
Ga   -1.0896825806808959E-02    5.5946853769799469E+00    1.0457794293113736E+01
N   -1.2162755168401191E-02    7.4452535828475730E+00    1.1067486254615844E+01
Ga   -2.5332863216621797E-02    7.4275235365906971E+00    1.3150806967568785E+01
N   -1.7994494612277170E-02    5.5791646352053954E+00    1.3526198099545889E+01
Ga   -1.6250890688484481E+00    8.3762847326956980E+00   -1.6981694258086463E-01
N   -1.6306017698803243E+00    1.0235368128869199E+01    6.1666951244971757E-01
Ga   -1.6274818837099985E+00    1.0237453763516596E+01    2.5515097548762080E+00
N   -1.6213498892006575E+00    8.3784868521470237E+00    3.2389771980459789E+00
Ga   -1.6211287902497398E+00    8.3773061168467784E+00    5.1984486367895935E+00
N   -1.6259490744772291E+00    1.0233826056407365E+01    5.8616463255862161E+00
Ga   -1.6232142725419463E+00    1.0236088010975054E+01    7.8291422774396260E+00
N   -1.6147865730243391E+00    8.3749972949268692E+00    8.4791765824772849E+00
Ga   -1.6147277160427707E+00    8.3818938841718769E+00    1.0467522543036338E+01
N   -1.6325252706050648E+00    1.0241014980917820E+01    1.1052542439285347E+01
Ga   -1.6540692245755770E+00    1.0233263205088326E+01    1.3119019662435120E+01
N   -1.6324156242182837E+00    8.3792810680032765E+00    1.3463696794382978E+01
Ga    6.4218933098196276E+00   -7.2281320661035100E-04   -1.6936199132113447E-01
N    6.4165817167859238E+00    1.8588357894510010E+00    6.1614357661207908E-01
Ga    6.4196962782328733E+00    1.8607230479711705E+00    2.5512785907249627E+00
N    6.4253423224404091E+00    1.9577117859967334E-03    3.2395030974411907E+00
Ga    6.4259376243870658E+00    2.7433605061893165E-04    5.1996454804855814E+00
N    6.4207667101158279E+00    1.8586431410505095E+00    5.8599911413355574E+00
Ga    6.4221228610961223E+00    1.8587837937113871E+00    7.8266334661070180E+00
N    6.4312067000604207E+00    1.4874018659867454E-03    8.4770000575346032E+00
Ga    6.4307085288047787E+00    4.6986360749561619E-03    1.0463313365536841E+01
N    6.4158976826341769E+00    1.8627545248226172E+00    1.1054147431331780E+01
Ga    6.3994816996193293E+00    1.8508703083757430E+00    1.3119706296541835E+01
N    6.4175220059839209E+00   -9.8279511912690806E-04    1.3463870110205892E+01
Ga    4.8098996720251002E+00    2.7919223397961996E+00   -1.6950833117753614E-01
N    4.8047176940508232E+00    4.6511527761262368E+00    6.1674490875282983E-01
Ga    4.8080959748371237E+00    4.6528229114341038E+00    2.5517839021920778E+00
N    4.8140952536776140E+00    2.7941113014230687E+00    3.2399331200262762E+00
Ga    4.8147571896115080E+00    2.7917986568687101E+00    5.1998738068782719E+00
N    4.8080653224678116E+00    4.6519495455671969E+00    5.8546037800847319E+00
Ga    4.8096367237399784E+00    4.6508040533069783E+00    7.8199743547794052E+00
N    4.8181533129041023E+00    2.7957071755153464E+00    8.4719018349387500E+00
Ga    4.8140257115976075E+00    2.8017754806805639E+00    1.0454023926025968E+01
N    4.8083115887505983E+00    4.6564088094038061E+00    1.1060217116555073E+01
Ga    4.7975666009583300E+00    4.6445342873067501E+00    1.3136850216903426E+01
N    4.8042383705958098E+00    2.7935420691155639E+00    1.3505877772295191E+01
Ga    3.1980715851100832E+00    5.5837880027206648E+00   -1.6979001687207240E-01
N    3.1923441041615410E+00    7.4432805924500718E+00    6.1595246404164539E-01
Ga    3.1955070902687046E+00    7.4454395426073425E+00    2.5506789897334285E+00
N    3.2015086745450967E+00    5.5864518792168667E+00    3.2376105090311600E+00
Ga    3.2019650707121547E+00    5.5851551875119583E+00    5.1971021512426177E+00
N    3.1971907911406041E+00    7.4434049698190661E+00    5.8576339210037656E+00
Ga    3.1985322124830176E+00    7.4443582405097581E+00    7.8247931292566237E+00
N    3.2061458804354430E+00    5.5836793712724857E+00    8.4712132645269147E+00
Ga    3.2034421798118173E+00    5.5873821081142685E+00    1.0457137296551663E+01
N    3.1893042162342335E+00    7.4491437969514660E+00    1.1037927820366352E+01
Ga    3.1652636843169408E+00    7.4399159329847100E+00    1.3097924180971651E+01
N    3.1912178230290920E+00    5.5902714247473568E+00    1.3469251256825833E+01
Ga    1.5857720868858745E+00    8.3762894628159223E+00   -1.6959490540816183E-01
N    1.5803572555953951E+00    1.0235518133198122E+01    6.1688655225901434E-01
Ga    1.5835143239852905E+00    1.0237615445902327E+01    2.5523457670694278E+00
N    1.5896798093487479E+00    8.3781386244819238E+00    3.2388724432944813E+00
Ga    1.5908878310792158E+00    8.3764995922973107E+00    5.1990227859043321E+00
N    1.5836815395311525E+00    1.0235514280878856E+01    5.8554233487058847E+00
Ga    1.5850465676298715E+00    1.0237456067730148E+01    7.8215095699839292E+00
N    1.5906816782090787E+00    8.3781146052079425E+00    8.4702085346032963E+00
Ga    1.5853480074481823E+00    8.3877122374112130E+00    1.0452423632480645E+01
N    1.5867653271788984E+00    1.0237451835362627E+01    1.1059537082149413E+01
Ga    1.5752061256117869E+00    1.0216393603774906E+01    1.3135616438378468E+01
N    1.5814740784415708E+00    8.3759728866770597E+00    1.3544932882227869E+01
Ga    9.6324718341979896E+00   -1.3201560496724958E-04   -1.6950264946647792E-01
N    9.6273136617989632E+00    1.8589867974651477E+00    6.1706328164059288E-01
Ga    9.6307155012385355E+00    1.8610427554722095E+00    2.5522781269991892E+00
N    9.6371010265397103E+00    2.0620799431174922E-03    3.2394627607914344E+00
Ga    9.6373292675060664E+00    1.5716676312171716E-04    5.1996321186392391E+00
N    9.6307279274420399E+00    1.8602240493535385E+00    5.8555526125916213E+00
Ga    9.6325697232235594E+00    1.8601590635291938E+00    7.8212437997366679E+00
N    9.6402751758226675E+00    3.5523571952298253E-03    8.4691429794538085E+00
Ga    9.6339516942954688E+00    7.7579828151692993E-03    1.0451162303032842E+01
N    9.6336312995235769E+00    1.8614897606586209E+00    1.1061111742206771E+01
Ga    9.6200029878282969E+00    1.8460057680397450E+00    1.3139640682285707E+01
N    9.6267960302195448E+00    1.2762868322756524E-03    1.3533889871998534E+01
Ga    8.0209455749024077E+00    2.7920615739865084E+00   -1.6933391077469606E-01
N    8.0151481494060803E+00    4.6511419167738444E+00    6.1677888431165495E-01
Ga    8.0184692628873009E+00    4.6531600727419820E+00    2.5514076555574579E+00
N    8.0243018929971743E+00    2.7945669988448429E+00    3.2388516853775831E+00
Ga    8.0236875827815499E+00    2.7924515230998144E+00    5.1985791797770435E+00
N    8.0193507662746271E+00    4.6514537352009011E+00    5.8595968005091494E+00
Ga    8.0202967509346959E+00    4.6515651936701534E+00    7.8262618486428339E+00
N    8.0300436454289894E+00    2.7936589996117336E+00    8.4759244861758027E+00
Ga    8.0274883072110494E+00    2.7984778525609912E+00    1.0462525075577997E+01
N    8.0108311282677587E+00    4.6586464493110613E+00    1.1046747957149821E+01
Ga    7.9898677985643580E+00    4.6487007633363611E+00    1.3113581499040237E+01
N    8.0147043910118168E+00    2.7967222147911572E+00    1.3467732745253976E+01
Ga    6.4087881054820075E+00    5.5837536692015615E+00   -1.6953842188070356E-01
N    6.4032205372649100E+00    7.4431229576425659E+00    6.1646688945083372E-01
Ga    6.4063430170317757E+00    7.4452304367877415E+00    2.5514505895198627E+00
N    6.4129568978638378E+00    5.5864451345988027E+00    3.2392011617233214E+00
Ga    6.4133998657026696E+00    5.5843866471115460E+00    5.1987815112671507E+00
N    6.4066270079469092E+00    7.4441340852662004E+00    5.8547015307745456E+00
Ga    6.4089667141252979E+00    7.4455759651746298E+00    7.8203720886102435E+00
N    6.4140122739358389E+00    5.5872844897832667E+00    8.4706405015993891E+00
Ga    6.4085304052681185E+00    5.5944769522930642E+00    1.0454247295637970E+01
N    6.4093981944023835E+00    7.4452953134305329E+00    1.1061043901331988E+01
Ga    6.3996029316300440E+00    7.4228986376189772E+00    1.3142993603862912E+01
N    6.4040203212413926E+00    5.5838931066728188E+00    1.3556562387010871E+01
Ga    4.7966615184561965E+00    8.3758305251101746E+00   -1.7024717281079277E-01
N    4.7909650864014868E+00    1.0235516073811548E+01    6.1572614466905951E-01
Ga    4.7940832364910202E+00    1.0237498616806624E+01    2.5507994429890184E+00
N    4.8002552893081463E+00    8.3787144361494157E+00    3.2385356616583367E+00
Ga    4.8002613987890124E+00    8.3773857955578652E+00    5.1978295998041109E+00
N    4.7960344492890981E+00    1.0235263823781274E+01    5.8589404492289274E+00
Ga    4.7985494469266241E+00    1.0238810763210521E+01    7.8264453779777119E+00
N    4.8068959663794795E+00    8.3778856029789903E+00    8.4714768257876880E+00
Ga    4.8062523165134392E+00    8.3830623662634309E+00    1.0458717698614503E+01
N    4.7886170110797410E+00    1.0244119365260547E+01    1.1041480381272660E+01
Ga    4.7673823391679360E+00    1.0233420490103368E+01    1.3106948771354450E+01
N    4.7888159269416333E+00    8.3773715914486786E+00    1.3439152397321548E+01
H    4.7961868953729025E+00    8.3773290565706269E+00   -1.7222591796961939E+00
H    1.5860325036172847E+00    8.3781025775333529E+00   -1.7215028317898942E+00
H   -1.6251985265806421E+00    8.3785688156708940E+00   -1.7217549603626847E+00
H   -4.8365197112756748E+00    8.3789043808745642E+00   -1.7215489965770912E+00
H    6.4083902718191563E+00    5.5850640971564287E+00   -1.7213963423372733E+00
H    3.1981406984413470E+00    5.5857942333323969E+00   -1.7217556422721723E+00
H   -1.2654831987412487E-02    5.5861246318423330E+00   -1.7221851244960771E+00
H   -3.2250426464543875E+00    5.5856721710950614E+00   -1.7219725196250408E+00
H    8.0211599492958108E+00    2.7942166314304182E+00   -1.7213000838277186E+00
H    4.8092174770750979E+00    2.7942359949052995E+00   -1.7215033428091000E+00
H    1.5983935888781837E+00    2.7931814954300331E+00   -1.7216647109798280E+00
H   -1.6117250777767513E+00    2.7921935531042741E+00   -1.7216701482764547E+00
H    1.3854781682619511E-03    1.8387772915275690E-03   -1.7218790133651729E+00
H    3.2108895653255916E+00    9.0843274452496775E-04   -1.7211439477423405E+00
H    6.4214273895369907E+00    6.8053890650391811E-04   -1.7213822756179427E+00
H    9.6317872041319461E+00    2.1912208529427019E-03   -1.7215220324332092E+00
     &END COORD
     &KIND H
       BASIS_SET DZVP-MOLOPT-SR-GTH-q1
       POTENTIAL GTH-PBE-q1
       &POTENTIAL
1
0.2000000000000000E+00 2 -0.4178900440000000E+01  0.7244633100000000E+00
0
       &END POTENTIAL
     &END KIND
     &KIND N
       BASIS_SET DZVP-MOLOPT-SR-GTH
       POTENTIAL GTH-PBE-q5
       &POTENTIAL
2 3
0.2837905100000000E+00 2 -0.1241522559000000E+02  0.1868095920000000E+01
2
0.2554050000000000E+00 1  0.1363026257000000E+02
0.2454945300000000E+00 0
       &END POTENTIAL
     &END KIND
     &KIND Ga
       BASIS_SET DZVP-MOLOPT-SR-GTH
       POTENTIAL GTH-PBE-q13
       &POTENTIAL
2 1 10
0.4900000000000000E+00 0
3
0.4167772300000000E+00 3  0.1047568975000000E+02 -0.4921768140000000E+01  0.8707055900000000E+00
0.7770178090000000E+01 -0.2248152160000000E+01
0.1784415450000000E+01
0.5696265200000000E+00 2  0.1777985340000000E+01  0.1958597600000000E+00
-0.2317443900000000E+00
0.2381265000000000E+00 1 -0.1624868022000000E+02
       &END POTENTIAL
     &END KIND
     &TOPOLOGY
       NUMBER_OF_ATOMS  208
       MULTIPLE_UNIT_CELL  1 1 1
     &END TOPOLOGY
   &END SUBSYS
 &END FORCE_EVAL
