 # Version information for this restart file 
 # current date 2019-05-25 23:47:14.886
 # current working dir /lustre03/project/6004141/rzk/GaN-carbene/00-Surface/00-Preoptimization/443-capped/CELL_OPT
 # Program compiled at                              Sun Apr  7 00:48:11 EDT 2019
 # Program compiled on                          beluga2.int.ets1.calculquebec.ca
 # Program compiled for                        Beluga-Linux-x86-64-intel-openmpi
 # Source code revision number                                         svn:18619
 &GLOBAL
   PRINT_LEVEL  MEDIUM
   PROJECT_NAME TEST
   RUN_TYPE  CELL_OPT
 &END GLOBAL
 &MOTION
   &CELL_OPT
     MAX_ITER  300
     STEP_START_VAL  26
     EXTERNAL_PRESSURE     1.0000000000000000E+00
     KEEP_ANGLES  T
     KEEP_SYMMETRY  T
     CONSTRAINT  Z
     PRESSURE_TOLERANCE     5.0000000000000000E+02
   &END CELL_OPT
 &END MOTION
 &FORCE_EVAL
   METHOD  QS
   STRESS_TENSOR  ANALYTICAL
   &DFT
     BASIS_SET_FILE_NAME BASIS_MOLOPT
     POTENTIAL_FILE_NAME GTH_POTENTIALS
     SURFACE_DIPOLE_CORRECTION  T
     SURF_DIP_DIR  Z
     &SCF
       MAX_SCF  100
       EPS_SCF     5.0000000000000004E-06
       &OT  T
         PRECONDITIONER  FULL_ALL
       &END OT
       &OUTER_SCF  T
         OPTIMIZER  NONE
         EPS_SCF     5.0000000000000004E-06
         MAX_SCF  4
       &END OUTER_SCF
       &PRINT
         &RESTART  OFF
           BACKUP_COPIES  1
           &EACH
             JUST_ENERGY  0
             QS_SCF  0
             MD  20
           &END EACH
         &END RESTART
       &END PRINT
     &END SCF
     &QS
       EPS_DEFAULT     1.0000000000000000E-14
       METHOD  GPW
     &END QS
     &MGRID
       NGRIDS  5
       CUTOFF     1.2000000000000000E+03
     &END MGRID
     &XC
       DENSITY_CUTOFF     1.0000000000000000E-10
       GRADIENT_CUTOFF     1.0000000000000000E-10
       TAU_CUTOFF     1.0000000000000000E-10
       &XC_FUNCTIONAL  NO_SHORTCUT
         &PBE  T
         &END PBE
       &END XC_FUNCTIONAL
       &VDW_POTENTIAL
         POTENTIAL_TYPE  PAIR_POTENTIAL
         &PAIR_POTENTIAL
           R_CUTOFF     1.0000000000000004E+01
           TYPE  DFTD3
           PARAMETER_FILE_NAME dftd3.dat
           REFERENCE_FUNCTIONAL PBE
           EPS_CN     9.9999999999999995E-07
           CALCULATE_C9_TERM  T
           REFERENCE_C9_TERM  T
           LONG_RANGE_CORRECTION  F
           VERBOSE_OUTPUT  F
         &END PAIR_POTENTIAL
       &END VDW_POTENTIAL
     &END XC
   &END DFT
   &SUBSYS
     &CELL
       A     1.2846073776776128E+01    0.0000000000000000E+00    0.0000000000000000E+00
       B    -6.4490109907344131E+00    1.1170014694522134E+01    0.0000000000000000E+00
       C     0.0000000000000000E+00    0.0000000000000000E+00    2.9000000000000000E+01
       MULTIPLE_UNIT_CELL  1 1 1
       &CELL_REF
         A     1.2982353780853531E+01    0.0000000000000000E+00    0.0000000000000000E+00
         B    -6.4911768904267628E+00    1.1243048175136114E+01    0.0000000000000000E+00
         C     0.0000000000000000E+00    0.0000000000000000E+00    2.9000000000000000E+01
         MULTIPLE_UNIT_CELL  1 1 1
       &END CELL_REF
     &END CELL
     &COORD
Ga    9.5351390699139477E-04   -1.6732977050549182E-04   -1.6842981700028387E-01
N   -4.7967877404735551E-03    1.8591884059422989E+00    6.1789469042188694E-01
Ga   -2.2702934160127083E-03    1.8607660771890204E+00    2.5517066374758781E+00
N    3.8661932964758530E-03    1.7628889898813384E-03    3.2378836292351028E+00
Ga    4.1094840197099915E-03    3.2337722845932824E-04    5.1971737431141438E+00
N   -1.4924741539160300E-03    1.8585069799424219E+00    5.8584615568144338E+00
Ga    9.0746118036166455E-04    1.8584766912059703E+00    7.8258674647606190E+00
N    1.0714168349203773E-02    1.5496412316967330E-03    8.4796676448452590E+00
Ga    9.6754533866553593E-03    5.2644473202924065E-03    1.0468006520081351E+01
N   -9.0128122127385735E-03    1.8677617218132596E+00    1.1053804953496337E+01
Ga   -2.6714816378235473E-02    1.8551895770918867E+00    1.3120395415690798E+01
N   -6.0976360341822924E-03   -2.4489670390822092E-04    1.3456369481378166E+01
Ga   -1.6116836167751261E+00    2.7917809046157478E+00   -1.6809161610974283E-01
N   -1.6171683446010303E+00    4.6517780084853628E+00    6.1715631854458730E-01
Ga   -1.6143610841159994E+00    4.6530012515095605E+00    2.5509062164840710E+00
N   -1.6079244293308390E+00    2.7946226364865780E+00    3.2390376711764497E+00
Ga   -1.6074805183833418E+00    2.7922550818238236E+00    5.1987384101919547E+00
N   -1.6139020433405851E+00    4.6525790806145517E+00    5.8576316984773360E+00
Ga   -1.6112290750168006E+00    4.6525374340242251E+00    7.8241205661142503E+00
N   -1.6056525907422776E+00    2.7955212963163167E+00    8.4716448853335731E+00
Ga   -1.6119568708168159E+00    2.8006996061689442E+00    1.0454336856451086E+01
N   -1.6154443497817785E+00    4.6558012104304511E+00    1.1049116509109755E+01
Ga   -1.6233375090652638E+00    4.6327815230329916E+00    1.3122689930845343E+01
N   -1.6152725374933010E+00    2.7937439374756892E+00    1.3544713345085578E+01
Ga   -3.2244225118757535E+00    5.5848238482349606E+00   -1.6853671769307524E-01
N   -3.2293974984469833E+00    7.4442566999169362E+00    6.1751218394938900E-01
Ga   -3.2264287908236007E+00    7.4456587213809788E+00    2.5510877248798849E+00
N   -3.2204137318887192E+00    5.5868373344066766E+00    3.2393403621899681E+00
Ga   -3.2208267304314480E+00    5.5853740916616621E+00    5.1988637964704916E+00
N   -3.2254061226108526E+00    7.4439573097801670E+00    5.8605301002845902E+00
Ga   -3.2233231636179571E+00    7.4448615834779295E+00    7.8280948993299955E+00
N   -3.2157227303350071E+00    5.5855587987962014E+00    8.4736366743334575E+00
Ga   -3.2194478919624094E+00    5.5903358968976393E+00    1.0459458796928528E+01
N   -3.2331690380722597E+00    7.4496974897427979E+00    1.1046999513829945E+01
Ga   -3.2502833251218113E+00    7.4408761221809847E+00    1.3108730365282941E+01
N   -3.2301570206335311E+00    5.5858304935638543E+00    1.3452539158878107E+01
Ga   -4.8362124610967214E+00    8.3773944095823420E+00   -1.6812168732818736E-01
N   -4.8413935224799340E+00    1.0236737274668332E+01    6.1833936428385650E-01
Ga   -4.8383569854877342E+00    1.0238527771658068E+01    2.5524870099494970E+00
N   -4.8322821804133334E+00    8.3790333003470909E+00    3.2385623334446922E+00
Ga   -4.8314634378674457E+00    8.3778934507520653E+00    5.1982480262091615E+00
N   -4.8386879001097842E+00    1.0236896250844660E+01    5.8553619640080843E+00
Ga   -4.8370140899215430E+00    1.0239174319566645E+01    7.8215548138352693E+00
N   -4.8301761308268709E+00    8.3805377504415706E+00    8.4725910600536665E+00
Ga   -4.8355553387915666E+00    8.3884297769997573E+00    1.0457318017817091E+01
N   -4.8351972762916722E+00    1.0239089724887986E+01    1.1068926493696377E+01
Ga   -4.8440226460496110E+00    1.0220608043758972E+01    1.3151111944952161E+01
N   -4.8400525715092542E+00    8.3760512210994253E+00    1.3543807480719476E+01
Ga    3.2121541176836232E+00   -4.3247432623916553E-04   -1.6758245727190199E-01
N    3.2068379411962797E+00    1.8592441180551469E+00    6.1779897826293106E-01
Ga    3.2096497830781141E+00    1.8604648606666365E+00    2.5520469265406800E+00
N    3.2160087206423453E+00    1.6414346278047119E-03    3.2398852147901214E+00
Ga    3.2175906064534883E+00   -1.7695654310883645E-05    5.2001985167759903E+00
N    3.2103963625997185E+00    1.8594800656968486E+00    5.8574173139202905E+00
Ga    3.2126515243229701E+00    1.8596615842428084E+00    7.8241259681149877E+00
N    3.2187100487834379E+00    9.2002435341054180E-04    8.4722477751462932E+00
Ga    3.2118253632486291E+00    3.8419208340678781E-03    1.0453444527715705E+01
N    3.2107581226978845E+00    1.8599548306309730E+00    1.1045020404148595E+01
Ga    3.2005145480559483E+00    1.8431015632764081E+00    1.3108083634260156E+01
N    3.2092085394368199E+00    6.1269381494753654E-03    1.3539176067422627E+01
Ga    1.5996552684862773E+00    2.7920954168908012E+00   -1.6820305169755098E-01
N    1.5944845109276526E+00    4.6517717878859211E+00    6.1725270343330030E-01
Ga    1.5971802670574884E+00    4.6528860070348221E+00    2.5510083146231586E+00
N    1.6030845295983911E+00    2.7941044640284489E+00    3.2380862520760409E+00
Ga    1.6036265448149560E+00    2.7920346347337621E+00    5.1978917555477189E+00
N    1.5977697712568328E+00    4.6518254737389544E+00    5.8568369790860686E+00
Ga    1.5992626942005368E+00    4.6511807718741025E+00    7.8235721104953111E+00
N    1.6076419893153053E+00    2.7933998291217921E+00    8.4731120851486228E+00
Ga    1.6034178104761614E+00    2.7988414165336164E+00    1.0457793693724666E+01
N    1.5929638306256808E+00    4.6572842454599126E+00    1.1049603435676044E+01
Ga    1.5801879056905146E+00    4.6423155053750449E+00    1.3112940393906911E+01
N    1.5966217408204104E+00    2.7907376712178804E+00    1.3462363162108577E+01
Ga   -1.2236958936276906E-02    5.5847810096187640E+00   -1.6886729138285284E-01
N   -1.7734479165909374E-02    7.4443777854469033E+00    6.1747216059171017E-01
Ga   -1.5053456146590982E-02    7.4459610508805927E+00    2.5512791388430403E+00
N   -9.0987483453186663E-03    5.5866659471808413E+00    3.2380128934521402E+00
Ga   -8.2862013083792457E-03    5.5849712916653065E+00    5.1971903766728680E+00
N   -1.5334390117834548E-02    7.4440757164050346E+00    5.8558746664628742E+00
Ga   -1.3720924504295764E-02    7.4435258472129471E+00    7.8214343575203085E+00
N   -6.3414064422327460E-03    5.5873168597512306E+00    8.4740885024941441E+00
Ga   -9.0949564187290891E-03    5.5959997264974382E+00    1.0459039147359892E+01
N   -1.1870340847613828E-02    7.4453387967738438E+00    1.1068019467684962E+01
Ga   -2.2905506312336791E-02    7.4304856626778619E+00    1.3150464743508000E+01
N   -1.5538709286005719E-02    5.5794592368050289E+00    1.3516811110235480E+01
Ga   -1.6248437797586461E+00    8.3774603808678307E+00   -1.6825872177948809E-01
N   -1.6299928078067512E+00    1.0236718229894340E+01    6.1812022189666027E-01
Ga   -1.6274945242093970E+00    1.0238447470515441E+01    2.5519619016539097E+00
N   -1.6215090982005520E+00    8.3792203358937112E+00    3.2386443722900990E+00
Ga   -1.6213936556449495E+00    8.3782893505206406E+00    5.1980686731273167E+00
N   -1.6257798673156090E+00    1.0235088007508287E+01    5.8615767869325426E+00
Ga   -1.6231237578735420E+00    1.0236359876923284E+01    7.8294223580505067E+00
N   -1.6151879904539364E+00    8.3753959799022244E+00    8.4798410946396974E+00
Ga   -1.6153912464435995E+00    8.3820939872371234E+00    1.0467506295124437E+01
N   -1.6328753994112815E+00    1.0242035611807658E+01    1.1051499662172297E+01
Ga   -1.6522060666715599E+00    1.0234779683189524E+01    1.3114189615283387E+01
N   -1.6314002335447340E+00    8.3806473652176425E+00    1.3460371566963897E+01
Ga    6.4234568414841569E+00   -3.9587782735996373E-04   -1.6799760238849745E-01
N    6.4182743575665953E+00    1.8592640746978686E+00    6.1720382411128283E-01
Ga    6.4211588028770352E+00    1.8607855182549948E+00    2.5511609341763064E+00
N    6.4266740856063658E+00    1.9572618394058361E-03    3.2389092852463688E+00
Ga    6.4268511490969198E+00    5.3697701818150156E-04    5.1991295647446840E+00
N    6.4221636781478608E+00    1.8590569914747812E+00    5.8609178259759487E+00
Ga    6.4235907623732444E+00    1.8583491756776183E+00    7.8283476701071324E+00
N    6.4317383280022797E+00    1.0055616895693821E-03    8.4778700208977273E+00
Ga    6.4309484304202922E+00    3.9908277119466342E-03    1.0463904486489213E+01
N    6.4166217374301224E+00    1.8625144613063040E+00    1.1054697500509093E+01
Ga    6.4044277710024442E+00    1.8510261702086008E+00    1.3118301924924413E+01
N    6.4214855387679730E+00   -1.4445461969655655E-03    1.3460077367179395E+01
Ga    4.8113370133424214E+00    2.7925135960325944E+00   -1.6818307683375500E-01
N    4.8062217674181174E+00    4.6518000625306062E+00    6.1809878740125768E-01
Ga    4.8092518859147573E+00    4.6533252311173854E+00    2.5519307067012043E+00
N    4.8151808961545797E+00    2.7942681137305945E+00    3.2391007216642556E+00
Ga    4.8159790314900190E+00    2.7919039734534663E+00    5.1991863314635456E+00
N    4.8094575823658960E+00    4.6525224741265561E+00    5.8551147352359356E+00
Ga    4.8111681045033752E+00    4.6509961458541342E+00    7.8206612418412353E+00
N    4.8183483868563144E+00    2.7958070705337588E+00    8.4737201502781545E+00
Ga    4.8143067675153661E+00    2.8024326982590742E+00    1.0456186828563212E+01
N    4.8092499822845634E+00    4.6580554338878084E+00    1.1059739489827786E+01
Ga    4.7990395707298097E+00    4.6482628064443734E+00    1.3136450080573015E+01
N    4.8072065627491556E+00    2.7950875669389315E+00    1.3497756374935301E+01
Ga    3.1992780332341364E+00    5.5845664242051241E+00   -1.6823343392536697E-01
N    3.1938652472337696E+00    7.4442774596742582E+00    6.1737496657107327E-01
Ga    3.1964315200568572E+00    7.4458865555685172E+00    2.5509772653983234E+00
N    3.2024363233487829E+00    5.5867830126250846E+00    3.2374407901247504E+00
Ga    3.2027620122149045E+00    5.5854375245570758E+00    5.1967680657199331E+00
N    3.1981248135310794E+00    7.4441497808359545E+00    5.8579268951918362E+00
Ga    3.2001872681575758E+00    7.4446341023630946E+00    7.8247965380630013E+00
N    3.2068578142574879E+00    5.5841835332081953E+00    8.4709317442775234E+00
Ga    3.2041260387480981E+00    5.5868940486954859E+00    1.0456493683658884E+01
N    3.1889954117782517E+00    7.4500414942384214E+00    1.1034975959815897E+01
Ga    3.1671887106506689E+00    7.4420002337286650E+00    1.3091317756117897E+01
N    3.1917807504971418E+00    5.5923230936019399E+00    1.3469845370099605E+01
Ga    1.5869565823264020E+00    8.3773536483507556E+00   -1.6800647933096990E-01
N    1.5815913476015739E+00    1.0236968287547876E+01    6.1795214218324979E-01
Ga    1.5843865253589386E+00    1.0238582226820716E+01    2.5522608755970908E+00
N    1.5903754280595270E+00    8.3790745730838001E+00    3.2382757603772223E+00
Ga    1.5914523314884677E+00    8.3779007863240764E+00    5.1982499713594716E+00
N    1.5844439276866595E+00    1.0236784235379563E+01    5.8552929985073927E+00
Ga    1.5853510659077199E+00    1.0238977084899673E+01    7.8216179023122328E+00
N    1.5915734282661418E+00    8.3783401593413007E+00    8.4687720789391872E+00
Ga    1.5857588386072394E+00    8.3879962708490474E+00    1.0450637587331199E+01
N    1.5888193258009209E+00    1.0236763446426828E+01    1.1057120599570531E+01
Ga    1.5796802256360500E+00    1.0216926832190557E+01    1.3130693015639574E+01
N    1.5835446807413767E+00    8.3778712254723260E+00    1.3546938169362120E+01
Ga    9.6347560107234766E+00    1.3448822671821543E-04   -1.6814382537967798E-01
N    9.6297859366479628E+00    1.8594253963764034E+00    6.1830614313772725E-01
Ga    9.6327020647665371E+00    1.8611673098989903E+00    2.5525090268335378E+00
N    9.6390305966689258E+00    1.9308676044580016E-03    3.2387258293046162E+00
Ga    9.6391538428398125E+00    5.6554371754430821E-04    5.1990488993057857E+00
N    9.6326271571711413E+00    1.8607181175730236E+00    5.8554923372493572E+00
Ga    9.6344333568198852E+00    1.8608964805443540E+00    7.8213943290662229E+00
N    9.6419288173331630E+00    3.1641218742062324E-03    8.4684681751202273E+00
Ga    9.6348412621299122E+00    7.8042745880871553E-03    1.0451053322641567E+01
N    9.6354693351095424E+00    1.8619798635862361E+00    1.1060722372651416E+01
Ga    9.6234579910307652E+00    1.8477992393719977E+00    1.3137801782637981E+01
N    9.6302657203505504E+00    2.3099938923166526E-03    1.3530498790171311E+01
Ga    8.0230422021070105E+00    2.7925609379938190E+00   -1.6772547666832915E-01
N    8.0175570040425139E+00    4.6517666748270514E+00    6.1841503296753508E-01
Ga    8.0203005372135223E+00    4.6532768030141183E+00    2.5519907026497206E+00
N    8.0259618808651929E+00    2.7945649755031066E+00    3.2385586564397828E+00
Ga    8.0254296708240247E+00    2.7928396642210864E+00    5.1982666789457017E+00
N    8.0212580873580333E+00    4.6519992098668705E+00    5.8600432085019083E+00
Ga    8.0229550449972589E+00    4.6516055633734723E+00    7.8269512922140025E+00
N    8.0310949301289085E+00    2.7939512472433128E+00    8.4770188394379442E+00
Ga    8.0285164277552568E+00    2.7986910496387667E+00    1.0462731918332500E+01
N    8.0113117813851513E+00    4.6588354322933734E+00    1.1045838535103430E+01
Ga    7.9934661270748650E+00    4.6495670102137154E+00    1.3108293715339380E+01
N    8.0181032855929590E+00    2.7979147156792425E+00    1.3466888007527549E+01
Ga    6.4108302684285619E+00    5.5844678063546862E+00   -1.6780745498404609E-01
N    6.4053887693289262E+00    7.4441962474345509E+00    6.1765717734276793E-01
Ga    6.4083323828311638E+00    7.4458281322905666E+00    2.5513862100678057E+00
N    6.4145084963105408E+00    5.5869969881645609E+00    3.2390951485360788E+00
Ga    6.4152339079178855E+00    5.5851309807145872E+00    5.1986258965865497E+00
N    6.4082925799620263E+00    7.4449463042086226E+00    5.8553202400750362E+00
Ga    6.4107879458900214E+00    7.4467938423969580E+00    7.8210741842815699E+00
N    6.4155264388717379E+00    5.5876869394756463E+00    8.4698024283967630E+00
Ga    6.4086604110301160E+00    5.5948419028038394E+00    1.0452839579027808E+01
N    6.4111320935935705E+00    7.4465308610465621E+00    1.1059594066580326E+01
Ga    6.4035710891818116E+00    7.4231436568270848E+00    1.3139633191248549E+01
N    6.4071630321413222E+00    5.5841354602116953E+00    1.3557324693452662E+01
Ga    4.7984259452725002E+00    8.3769499526926552E+00   -1.6895560201740292E-01
N    4.7929859730773838E+00    1.0236873974432706E+01    6.1666009636853347E-01
Ga    4.7957880210409556E+00    1.0238619679646790E+01    2.5505555741533179E+00
N    4.8018481454698323E+00    8.3794632199310293E+00    3.2379864788420982E+00
Ga    4.8018613628648126E+00    8.3783331195163253E+00    5.1972185616848208E+00
N    4.7973901306626692E+00    1.0236119490489386E+01    5.8592465143580164E+00
Ga    4.8004394684072604E+00    1.0239589212560222E+01    7.8271803288866737E+00
N    4.8075344175074433E+00    8.3780888328428045E+00    8.4721806524372756E+00
Ga    4.8070931123811409E+00    8.3830884743940892E+00    1.0459300061957739E+01
N    4.7893129046022533E+00    1.0245475264120069E+01    1.1041118797580848E+01
Ga    4.7704969391971259E+00    1.0234494974054011E+01    1.3103952478289637E+01
N    4.7915530236649468E+00    8.3774905836885623E+00    1.3433123300613039E+01
H    4.7976693095431004E+00    8.3778442124128709E+00   -1.7201074290113390E+00
H    1.5868593829044504E+00    8.3784765901794636E+00   -1.7190458717654018E+00
H   -1.6250744522288585E+00    8.3790210831248455E+00   -1.7193718656297436E+00
H   -4.8372882061696405E+00    8.3793568693336695E+00   -1.7191651793456406E+00
H    6.4100267121233507E+00    5.5852941493208705E+00   -1.7187183623265117E+00
H    3.1990452050118119E+00    5.5860428364421244E+00   -1.7193387702762604E+00
H   -1.2408796474751368E-02    5.5863023128717684E+00   -1.7199916574977985E+00
H   -3.2255003119449777E+00    5.5858384807990937E+00   -1.7196017505315737E+00
H    8.0230179691980297E+00    2.7940234606231562E+00   -1.7188588873354391E+00
H    4.8103219685875906E+00    2.7940707155096014E+00   -1.7193416022442736E+00
H    1.5987429627868583E+00    2.7930842845658024E+00   -1.7194049299481546E+00
H   -1.6120649339022646E+00    2.7920910985590952E+00   -1.7191205261416633E+00
H    1.0325750202580105E-03    1.4346391125526542E-03   -1.7196296626987064E+00
H    3.2113941245891651E+00    5.2839955455947390E-04   -1.7186835840895698E+00
H    6.4227407345181788E+00    2.8072493972994695E-04   -1.7192444435499372E+00
H    9.6339431738524279E+00    1.6431715428147761E-03   -1.7193209889589691E+00
     &END COORD
     &KIND H
       BASIS_SET DZVP-MOLOPT-SR-GTH-q1
       POTENTIAL GTH-PBE-q1
       &POTENTIAL
1
0.2000000000000000E+00 2 -0.4178900440000000E+01  0.7244633100000000E+00
0
       &END POTENTIAL
     &END KIND
     &KIND N
       BASIS_SET DZVP-MOLOPT-SR-GTH
       POTENTIAL GTH-PBE-q5
       &POTENTIAL
2 3
0.2837905100000000E+00 2 -0.1241522559000000E+02  0.1868095920000000E+01
2
0.2554050000000000E+00 1  0.1363026257000000E+02
0.2454945300000000E+00 0
       &END POTENTIAL
     &END KIND
     &KIND Ga
       BASIS_SET DZVP-MOLOPT-SR-GTH
       POTENTIAL GTH-PBE-q13
       &POTENTIAL
2 1 10
0.4900000000000000E+00 0
3
0.4167772300000000E+00 3  0.1047568975000000E+02 -0.4921768140000000E+01  0.8707055900000000E+00
0.7770178090000000E+01 -0.2248152160000000E+01
0.1784415450000000E+01
0.5696265200000000E+00 2  0.1777985340000000E+01  0.1958597600000000E+00
-0.2317443900000000E+00
0.2381265000000000E+00 1 -0.1624868022000000E+02
       &END POTENTIAL
     &END KIND
     &TOPOLOGY
       NUMBER_OF_ATOMS  208
       MULTIPLE_UNIT_CELL  1 1 1
     &END TOPOLOGY
   &END SUBSYS
 &END FORCE_EVAL
