 # Version information for this restart file 
 # current date 2019-05-26 00:55:40.816
 # current working dir /lustre03/project/6004141/rzk/GaN-carbene/00-Surface/00-Preoptimization/443-capped/CELL_OPT
 # Program compiled at                              Sun Apr  7 00:48:11 EDT 2019
 # Program compiled on                          beluga2.int.ets1.calculquebec.ca
 # Program compiled for                        Beluga-Linux-x86-64-intel-openmpi
 # Source code revision number                                         svn:18619
 &GLOBAL
   PRINT_LEVEL  MEDIUM
   PROJECT_NAME TEST
   RUN_TYPE  CELL_OPT
 &END GLOBAL
 &MOTION
   &CELL_OPT
     MAX_ITER  300
     STEP_START_VAL  49
     EXTERNAL_PRESSURE     1.0000000000000000E+00
     KEEP_ANGLES  T
     KEEP_SYMMETRY  T
     CONSTRAINT  Z
     PRESSURE_TOLERANCE     5.0000000000000000E+02
   &END CELL_OPT
 &END MOTION
 &FORCE_EVAL
   METHOD  QS
   STRESS_TENSOR  ANALYTICAL
   &DFT
     BASIS_SET_FILE_NAME BASIS_MOLOPT
     POTENTIAL_FILE_NAME GTH_POTENTIALS
     SURFACE_DIPOLE_CORRECTION  T
     SURF_DIP_DIR  Z
     &SCF
       MAX_SCF  100
       EPS_SCF     5.0000000000000004E-06
       &OT  T
         PRECONDITIONER  FULL_ALL
       &END OT
       &OUTER_SCF  T
         OPTIMIZER  NONE
         EPS_SCF     5.0000000000000004E-06
         MAX_SCF  4
       &END OUTER_SCF
       &PRINT
         &RESTART  OFF
           BACKUP_COPIES  1
           &EACH
             JUST_ENERGY  0
             QS_SCF  0
             MD  20
           &END EACH
         &END RESTART
       &END PRINT
     &END SCF
     &QS
       EPS_DEFAULT     1.0000000000000000E-14
       METHOD  GPW
     &END QS
     &MGRID
       NGRIDS  5
       CUTOFF     1.2000000000000000E+03
     &END MGRID
     &XC
       DENSITY_CUTOFF     1.0000000000000000E-10
       GRADIENT_CUTOFF     1.0000000000000000E-10
       TAU_CUTOFF     1.0000000000000000E-10
       &XC_FUNCTIONAL  NO_SHORTCUT
         &PBE  T
         &END PBE
       &END XC_FUNCTIONAL
       &VDW_POTENTIAL
         POTENTIAL_TYPE  PAIR_POTENTIAL
         &PAIR_POTENTIAL
           R_CUTOFF     1.0000000000000004E+01
           TYPE  DFTD3
           PARAMETER_FILE_NAME dftd3.dat
           REFERENCE_FUNCTIONAL PBE
           EPS_CN     9.9999999999999995E-07
           CALCULATE_C9_TERM  T
           REFERENCE_C9_TERM  T
           LONG_RANGE_CORRECTION  F
           VERBOSE_OUTPUT  F
         &END PAIR_POTENTIAL
       &END VDW_POTENTIAL
     &END XC
   &END DFT
   &SUBSYS
     &CELL
       A     1.2845809827537074E+01    0.0000000000000000E+00    0.0000000000000000E+00
       B    -6.4472183560375855E+00    1.1166909760147799E+01    0.0000000000000000E+00
       C     0.0000000000000000E+00    0.0000000000000000E+00    2.9000000000000000E+01
       MULTIPLE_UNIT_CELL  1 1 1
       &CELL_REF
         A     1.2982353780853531E+01    0.0000000000000000E+00    0.0000000000000000E+00
         B    -6.4911768904267628E+00    1.1243048175136114E+01    0.0000000000000000E+00
         C     0.0000000000000000E+00    0.0000000000000000E+00    2.9000000000000000E+01
         MULTIPLE_UNIT_CELL  1 1 1
       &END CELL_REF
     &END CELL
     &COORD
Ga    1.7174666338533118E-03   -9.4133697493676985E-04   -1.7352005839938944E-01
N   -4.2834060408039861E-03    1.8580017627385614E+00    6.1235333524270630E-01
Ga    5.0923255538395842E-04    1.8605542168686586E+00    2.5467225009550236E+00
N    5.6852471126205605E-03    1.9950098417429326E-03    3.2356059335636869E+00
Ga    6.5325125956928985E-03    4.8007665691818648E-04    5.1961644401626357E+00
N    1.8180345297769754E-03    1.8589958306281624E+00    5.8578356663742817E+00
Ga    4.3925306493869292E-03    1.8602452045523297E+00    7.8267609881076563E+00
N    1.3829253786940093E-02    2.6634512328746491E-03    8.4794796680159497E+00
Ga    9.8664138046428828E-03    6.9686891146422299E-03    1.0467418452567513E+01
N   -6.5928906221279357E-03    1.8651511015317657E+00    1.1059119703202036E+01
Ga   -3.3154000153375190E-02    1.8524013984861012E+00    1.3128520700337674E+01
N   -1.2944825396007074E-02   -1.8438895849429474E-03    1.3471371613609959E+01
Ga   -1.6103979321852315E+00    2.7907186648034905E+00   -1.7355491141989943E-01
N   -1.6161960310301269E+00    4.6497526094937456E+00    6.1231175608911925E-01
Ga   -1.6115398578549933E+00    4.6525206757035313E+00    2.5469379359254116E+00
N   -1.6057309052586906E+00    2.7936031763426605E+00    3.2352223692815532E+00
Ga   -1.6045282263670944E+00    2.7919443766923813E+00    5.1957040755768906E+00
N   -1.6108895103511804E+00    4.6510326505432511E+00    5.8551814703272260E+00
Ga   -1.6080809991830067E+00    4.6523331035311415E+00    7.8234514611973820E+00
N   -1.6010766300735451E+00    2.7942351405085462E+00    8.4744098797384986E+00
Ga   -1.6095830418876502E+00    2.7996791947003294E+00    1.0459391659454619E+01
N   -1.6119496316947792E+00    4.6542976245623668E+00    1.1058844653879047E+01
Ga   -1.6281580220461018E+00    4.6356398304042168E+00    1.3135707988326422E+01
N   -1.6231651089218433E+00    2.7924251514150518E+00    1.3539233439797124E+01
Ga   -3.2221457453165536E+00    5.5825285326296337E+00   -1.7394251673452929E-01
N   -3.2278360466914937E+00    7.4414752434471234E+00    6.1223539281320416E-01
Ga   -3.2231566747224956E+00    7.4442190812643485E+00    2.5468739133707032E+00
N   -3.2179382369287648E+00    5.5855669965060786E+00    3.2352578406547718E+00
Ga   -3.2172021357840652E+00    5.5846396821296507E+00    5.1958338504310664E+00
N   -3.2218914576299449E+00    7.4428020013942273E+00    5.8582708733072124E+00
Ga   -3.2191328990756123E+00    7.4447561374858697E+00    7.8274660114562682E+00
N   -3.2119858248842070E+00    5.5851091804798756E+00    8.4761375231131257E+00
Ga   -3.2181803779364366E+00    5.5881328265504004E+00    1.0463471257270692E+01
N   -3.2308037422399649E+00    7.4491749443717410E+00    1.1053773310481418E+01
Ga   -3.2559324647794616E+00    7.4387781126221864E+00    1.3118091884310131E+01
N   -3.2350756639272817E+00    5.5834100304371921E+00    1.3463652741997659E+01
Ga   -4.8338052697044418E+00    8.3743817196469070E+00   -1.7343821234500095E-01
N   -4.8396149652664633E+00    1.0233200638857802E+01    6.1297909545464024E-01
Ga   -4.8349293166915253E+00    1.0235798474861985E+01    2.5476426874948008E+00
N   -4.8294461501353414E+00    8.3769737423836172E+00    3.2355943181292304E+00
Ga   -4.8282202371097247E+00    8.3755635896136535E+00    5.1961739173863526E+00
N   -4.8342837144208639E+00    1.0234644381690678E+01    5.8561539510581708E+00
Ga   -4.8310316959845876E+00    1.0236027763570460E+01    7.8239742571763751E+00
N   -4.8252155267645866E+00    8.3788202517224573E+00    8.4755913511489851E+00
Ga   -4.8344564014532940E+00    8.3853636665794209E+00    1.0460196521047566E+01
N   -4.8342915624538465E+00    1.0237034197610773E+01    1.1068875011595770E+01
Ga   -4.8524650586655618E+00    1.0215566555766209E+01    1.3151519439622566E+01
N   -4.8456751570929644E+00    8.3730404329005150E+00    1.3551913769709481E+01
Ga    3.2130685233769336E+00   -9.3507523751073694E-04   -1.7301965056936050E-01
N    3.2072007220088659E+00    1.8578598515435678E+00    6.1323761840761148E-01
Ga    3.2119473369902258E+00    1.8603617481562003E+00    2.5478757274520611E+00
N    3.2175124506804083E+00    1.5872142848560693E-03    3.2362976547960440E+00
Ga    3.2191022783470014E+00   -1.7757415984051266E-04    5.1969733574224328E+00
N    3.2125896923228918E+00    1.8593075442097224E+00    5.8559692320073795E+00
Ga    3.2155238271532292E+00    1.8599256090411560E+00    7.8241463020805133E+00
N    3.2220903216546430E+00    2.9292677026397113E-03    8.4752932039619164E+00
Ga    3.2148421484558587E+00    7.7551799604554522E-03    1.0460122774205979E+01
N    3.2118089372565506E+00    1.8622218542044910E+00    1.1057022016358838E+01
Ga    3.1947985913165100E+00    1.8430749351219020E+00    1.3131882924759521E+01
N    3.2009404610069381E+00   -1.2562420252790939E-04    1.3535340451970411E+01
Ga    1.6013854743854699E+00    2.7905554350379278E+00   -1.7351602031478092E-01
N    1.5954252191619571E+00    4.6496782170567439E+00    6.1203301728585324E-01
Ga    1.6000848092721094E+00    4.6523767247898675E+00    2.5465476218864027E+00
N    1.6053678249093557E+00    2.7936632679881876E+00    3.2352846028188535E+00
Ga    1.6063281161858247E+00    2.7923316347586797E+00    5.1956592313763439E+00
N    1.6012863390978180E+00    4.6506872757275328E+00    5.8572609689837893E+00
Ga    1.6031643468229186E+00    4.6518560290827340E+00    7.8261851217907861E+00
N    1.6120593141660797E+00    2.7933919175816970E+00    8.4773643284080507E+00
Ga    1.6060866020803406E+00    2.7975374513104350E+00    1.0465075731421511E+01
N    1.5928036449269858E+00    4.6569177016539021E+00    1.1053062483571967E+01
Ga    1.5688383364775091E+00    4.6432734316348663E+00    1.3118497278156859E+01
N    1.5883053639262055E+00    2.7897247787171859E+00    1.3466861144780966E+01
Ga   -1.0664712303845881E-02    5.5825064159451667E+00   -1.7371267504705870E-01
N   -1.6452012228823917E-02    7.4414853528361116E+00    6.1234769418471702E-01
Ga   -1.1749856824187322E-02    7.4441183869374568E+00    2.5471264352060499E+00
N   -6.2159835768660623E-03    5.5852231018287020E+00    3.2351559849325127E+00
Ga   -5.0166223858245287E-03    5.5838928876038061E+00    5.1958476166366685E+00
N   -1.0912697555865875E-02    7.4427629020075505E+00    5.8556868761180754E+00
Ga   -8.2380926324839981E-03    7.4443597607719623E+00    7.8239456666930876E+00
N   -2.0096056307067935E-03    5.5865197862622855E+00    8.4739049429037312E+00
Ga   -1.1301745934808729E-02    5.5930692851641615E+00    1.0458128788187839E+01
N   -1.1739425820341712E-02    7.4450944466427815E+00    1.1067729773991939E+01
Ga   -2.8225550353997157E-02    7.4241617126675994E+00    1.3150917802440301E+01
N   -2.2002247354512373E-02    5.5787581072944414E+00    1.3543131495450478E+01
Ga   -1.6224353572003687E+00    8.3743699339433810E+00   -1.7356997923834258E-01
N   -1.6282478044201052E+00    1.0233128307992317E+01    6.1288124791756660E-01
Ga   -1.6234824435573254E+00    1.0235658315512692E+01    2.5475129506001757E+00
N   -1.6181887295014536E+00    8.3770385022587881E+00    3.2354864602489832E+00
Ga   -1.6171192030768025E+00    8.3759330581711602E+00    5.1961666601395677E+00
N   -1.6218776966272181E+00    1.0234008268793197E+01    5.8590100291346037E+00
Ga   -1.6184395944106107E+00    1.0235341869366499E+01    7.8285283229848757E+00
N   -1.6113379456427219E+00    8.3766177346654462E+00    8.4795420467053155E+00
Ga   -1.6152369600327749E+00    8.3804312066735669E+00    1.0467680034186218E+01
N   -1.6298245717568158E+00    1.0240194384346536E+01    1.1056882360411809E+01
Ga   -1.6548336836744311E+00    1.0229448635772833E+01    1.3123468742525681E+01
N   -1.6354494625961455E+00    8.3744749624264649E+00    1.3467975055453071E+01
Ga    6.4244459851680089E+00   -1.0503427567983617E-03   -1.7293138724288251E-01
N    6.4186306290026724E+00    1.8579314247973155E+00    6.1273117584845049E-01
Ga    6.4232169303968885E+00    1.8604083953515786E+00    2.5472179064491076E+00
N    6.4286127501073826E+00    1.9204719901856704E-03    3.2358776572753905E+00
Ga    6.4297973515279203E+00    4.4587180007948235E-04    5.1965821360706146E+00
N    6.4252097328012230E+00    1.8589039504646991E+00    5.8584030237374582E+00
Ga    6.4285307021143687E+00    1.8597749043131921E+00    7.8276511094755490E+00
N    6.4362104304725651E+00    1.6041466724432737E-03    8.4796044347491826E+00
Ga    6.4319929878687478E+00    3.2568351737891784E-03    1.0467172399750877E+01
N    6.4177280308175373E+00    1.8650078914549644E+00    1.1054806413414585E+01
Ga    6.3924016815584501E+00    1.8511377820345736E+00    1.3119167852414604E+01
N    6.4121408851778510E+00   -9.1137752311884783E-04    1.3472843070581566E+01
Ga    4.8125562637997632E+00    2.7906118894211009E+00   -1.7313921028718898E-01
N    4.8067617261055169E+00    4.6497027106672713E+00    6.1243936159770829E-01
Ga    4.8112559278139564E+00    4.6522758077995139E+00    2.5470000610852286E+00
N    4.8171409812093593E+00    2.7935023153210232E+00    3.2359876561541387E+00
Ga    4.8186982366711311E+00    2.7917022669373508E+00    5.1967119672348616E+00
N    4.8123105241309414E+00    4.6513740943527297E+00    5.8546739724937682E+00
Ga    4.8154371046379216E+00    4.6526326533593219E+00    7.8225314179469398E+00
N    4.8221219627978318E+00    2.7949785999525423E+00    8.4725094770242748E+00
Ga    4.8139602081450787E+00    2.8014613585261934E+00    1.0456476085508609E+01
N    4.8110341292840415E+00    4.6543341693648630E+00    1.1060799472622501E+01
Ga    4.7957382519131997E+00    4.6353996086973517E+00    1.3139027827119421E+01
N    4.8008509826724000E+00    2.7898113208835955E+00    1.3530338954218863E+01
Ga    3.2008954586174272E+00    5.5824818967412035E+00   -1.7397058663453319E-01
N    3.1950699777052045E+00    7.4415011393288619E+00    6.1205272023742419E-01
Ga    3.1997551718815243E+00    7.4442045903914336E+00    2.5466940339837785E+00
N    3.2049075367518136E+00    5.5855397213268203E+00    3.2350083390161974E+00
Ga    3.2056213370027073E+00    5.5844806862126415E+00    5.1955116873048537E+00
N    3.2011930579510768E+00    7.4426712318200687E+00    5.8580144439829498E+00
Ga    3.2033827861692945E+00    7.4441363391994981E+00    7.8272834159520519E+00
N    3.2116315899170229E+00    5.5844988820892825E+00    8.4756604577197354E+00
Ga    3.2070940667136147E+00    5.5880347774830046E+00    1.0462476779435448E+01
N    3.1935782384236919E+00    7.4475819425528966E+00    1.1052925362726441E+01
Ga    3.1669055904384646E+00    7.4363453315957395E+00    1.3117189625915774E+01
N    3.1876369210408950E+00    5.5827004271856033E+00    1.3465455788612251E+01
Ga    1.5889686405685117E+00    8.3744359216282689E+00   -1.7342618347887526E-01
N    1.5832343283344024E+00    1.0233157010213286E+01    6.1314544553531070E-01
Ga    1.5879371124536006E+00    1.0235692794912175E+01    2.5479675352270497E+00
N    1.5934941710570203E+00    8.3767579923963211E+00    3.2354874178568478E+00
Ga    1.5947487348356639E+00    8.3754238196956461E+00    5.1961019971707119E+00
N    1.5889037558563850E+00    1.0234308982338359E+01    5.8561059351726747E+00
Ga    1.5913716573492436E+00    1.0235284982274688E+01    7.8241650050427056E+00
N    1.5978705701812639E+00    8.3781463672238576E+00    8.4763526844956711E+00
Ga    1.5889220941699749E+00    8.3833372444308534E+00    1.0461079602203601E+01
N    1.5898296125589830E+00    1.0236068452461726E+01    1.1068120554623135E+01
Ga    1.5717101504500719E+00    1.0216400900266910E+01    1.3150414138775309E+01
N    1.5775391384935513E+00    8.3716660791782616E+00    1.3543989686369523E+01
Ga    9.6356802129225088E+00   -8.4947209753099195E-04   -1.7310883737452171E-01
N    9.6300660098800499E+00    1.8579579425327346E+00    6.1290072118453920E-01
Ga    9.6347959440059547E+00    1.8603176094767888E+00    2.5474037032154557E+00
N    9.6406006366374637E+00    1.6574973160458587E-03    3.2362418246007829E+00
Ga    9.6418469428819886E+00   -1.6406126354480643E-04    5.1971317159429438E+00
N    9.6357863391628662E+00    1.8594400824858786E+00    5.8555428167300132E+00
Ga    9.6386368057502043E+00    1.8604973889324585E+00    7.8236642803545760E+00
N    9.6450491285589575E+00    2.9699244824247552E-03    8.4745085736761485E+00
Ga    9.6357591040217745E+00    7.1491532409814415E-03    1.0458403635216028E+01
N    9.6356458732372054E+00    1.8611919517349573E+00    1.1062557930124743E+01
Ga    9.6188995689603392E+00    1.8429260374291665E+00    1.3141375564581903E+01
N    9.6248296464938825E+00   -2.5278540695217113E-04    1.3543402338586361E+01
Ga    8.0240655124051141E+00    2.7907079653109417E+00   -1.7330653058242099E-01
N    8.0182911596200181E+00    4.6497874472548721E+00    6.1217458758552401E-01
Ga    8.0230144108553088E+00    4.6525015199339954E+00    2.5465571288934328E+00
N    8.0282980349016633E+00    2.7937185251709495E+00    3.2350879845855971E+00
Ga    8.0291240076078854E+00    2.7921958695658167E+00    5.1955566828209028E+00
N    8.0239858481812316E+00    4.6509284479313235E+00    5.8568269924797072E+00
Ga    8.0265900189314419E+00    4.6519640302123442E+00    7.8258493006550660E+00
N    8.0360135192857403E+00    2.7941419920854198E+00    8.4780365906425974E+00
Ga    8.0320971300915751E+00    2.7984551727223290E+00    1.0465689575332947E+01
N    8.0155310772771742E+00    4.6576599141848387E+00    1.1055699314594417E+01
Ga    7.9893612987067009E+00    4.6458853851667907E+00    1.3122802681175950E+01
N    8.0108213813247477E+00    2.7907964910545018E+00    1.3466324992736222E+01
Ga    6.4122423348694735E+00    5.5824786088112281E+00   -1.7370288427118458E-01
N    6.4064458288031654E+00    7.4415429196333509E+00    6.1227313599889732E-01
Ga    6.4110194901532118E+00    7.4444120646916740E+00    2.5469543748103547E+00
N    6.4165983842668162E+00    5.5854127515361078E+00    3.2346167426176970E+00
Ga    6.4177616264453627E+00    5.5839459632921677E+00    5.1948874558635971E+00
N    6.4119806827098111E+00    7.4428849209844543E+00    5.8552144231247336E+00
Ga    6.4149347149019578E+00    7.4440273664692720E+00    7.8232547577165796E+00
N    6.4210374287128857E+00    5.5869081843864157E+00    8.4743361319918193E+00
Ga    6.4143871079703629E+00    5.5946967933850829E+00    1.0459121276085373E+01
N    6.4130202249773856E+00    7.4442086097133702E+00    1.1067476143380896E+01
Ga    6.3953414119900858E+00    7.4248955599387161E+00    1.3150285850657857E+01
N    6.3991695541453870E+00    5.5802163911941127E+00    1.3547891048916993E+01
Ga    4.8004919492891069E+00    8.3742408595257274E+00   -1.7400585845015359E-01
N    4.7946977255037275E+00    1.0233199283347652E+01    6.1229198258029838E-01
Ga    4.7993760079092400E+00    1.0235770558593169E+01    2.5469063734451614E+00
N    4.8046190734301923E+00    8.3773139672641950E+00    3.2354950057403196E+00
Ga    4.8055086470233315E+00    8.3760955519637044E+00    5.1961573155592777E+00
N    4.8013648057267861E+00    1.0234191161753037E+01    5.8595222825054876E+00
Ga    4.8040247458647887E+00    1.0235209773538237E+01    7.8289856776830478E+00
N    4.8118885225933452E+00    8.3761989551792215E+00    8.4785334171010387E+00
Ga    4.8079210779722992E+00    8.3786897626013630E+00    1.0466221203677627E+01
N    4.7933051140001748E+00    1.0240092053368071E+01    1.1051868980518419E+01
Ga    4.7668685174316092E+00    1.0230013244737741E+01    1.3114550449993081E+01
N    4.7871494522238427E+00    8.3757331287524597E+00    1.3462340106234540E+01
H    4.8007583252467700E+00    8.3774126849646553E+00   -1.7256587342525340E+00
H    1.5888340919577537E+00    8.3785155060332315E+00   -1.7251261536687725E+00
H   -1.6225934689262218E+00    8.3781803271463193E+00   -1.7252413192625407E+00
H   -4.8342183418870235E+00    8.3784685373924059E+00   -1.7250917618393566E+00
H    6.4121904513638270E+00    5.5857620408032895E+00   -1.7253545734935385E+00
H    3.2012890938089749E+00    5.5858571405876187E+00   -1.7255979356031319E+00
H   -1.0820054352199352E-02    5.5863319670845755E+00   -1.7253478783482670E+00
H   -3.2227291111513874E+00    5.5860656097825476E+00   -1.7255918249744016E+00
H    8.0244355653271278E+00    2.7945587339572686E+00   -1.7248913066564282E+00
H    4.8121201508329285E+00    2.7944603936612111E+00   -1.7247058052273367E+00
H    1.6014067546517774E+00    2.7937337551139998E+00   -1.7251281077719380E+00
H   -1.6107714971432068E+00    2.7937485668539335E+00   -1.7251858170185170E+00
H    2.5194293544955125E-03    2.5468296612762478E-03   -1.7251332174716092E+00
H    3.2128196399273561E+00    2.6134073837420662E-03   -1.7246491763291301E+00
H    6.4243607793082251E+00    2.1284686098832395E-03   -1.7245490141483382E+00
H    9.6348458560782699E+00    3.3278235775451599E-03   -1.7247244935976367E+00
     &END COORD
     &KIND H
       BASIS_SET DZVP-MOLOPT-SR-GTH-q1
       POTENTIAL GTH-PBE-q1
       &POTENTIAL
1
0.2000000000000000E+00 2 -0.4178900440000000E+01  0.7244633100000000E+00
0
       &END POTENTIAL
     &END KIND
     &KIND N
       BASIS_SET DZVP-MOLOPT-SR-GTH
       POTENTIAL GTH-PBE-q5
       &POTENTIAL
2 3
0.2837905100000000E+00 2 -0.1241522559000000E+02  0.1868095920000000E+01
2
0.2554050000000000E+00 1  0.1363026257000000E+02
0.2454945300000000E+00 0
       &END POTENTIAL
     &END KIND
     &KIND Ga
       BASIS_SET DZVP-MOLOPT-SR-GTH
       POTENTIAL GTH-PBE-q13
       &POTENTIAL
2 1 10
0.4900000000000000E+00 0
3
0.4167772300000000E+00 3  0.1047568975000000E+02 -0.4921768140000000E+01  0.8707055900000000E+00
0.7770178090000000E+01 -0.2248152160000000E+01
0.1784415450000000E+01
0.5696265200000000E+00 2  0.1777985340000000E+01  0.1958597600000000E+00
-0.2317443900000000E+00
0.2381265000000000E+00 1 -0.1624868022000000E+02
       &END POTENTIAL
     &END KIND
     &TOPOLOGY
       NUMBER_OF_ATOMS  208
       MULTIPLE_UNIT_CELL  1 1 1
     &END TOPOLOGY
   &END SUBSYS
 &END FORCE_EVAL
