 # Version information for this restart file 
 # current date 2019-05-26 00:14:23.004
 # current working dir /lustre03/project/6004141/rzk/GaN-carbene/00-Surface/00-Preoptimization/443-capped/CELL_OPT
 # Program compiled at                              Sun Apr  7 00:48:11 EDT 2019
 # Program compiled on                          beluga2.int.ets1.calculquebec.ca
 # Program compiled for                        Beluga-Linux-x86-64-intel-openmpi
 # Source code revision number                                         svn:18619
 &GLOBAL
   PRINT_LEVEL  MEDIUM
   PROJECT_NAME TEST
   RUN_TYPE  CELL_OPT
 &END GLOBAL
 &MOTION
   &CELL_OPT
     MAX_ITER  300
     STEP_START_VAL  33
     EXTERNAL_PRESSURE     1.0000000000000000E+00
     KEEP_ANGLES  T
     KEEP_SYMMETRY  T
     CONSTRAINT  Z
     PRESSURE_TOLERANCE     5.0000000000000000E+02
   &END CELL_OPT
 &END MOTION
 &FORCE_EVAL
   METHOD  QS
   STRESS_TENSOR  ANALYTICAL
   &DFT
     BASIS_SET_FILE_NAME BASIS_MOLOPT
     POTENTIAL_FILE_NAME GTH_POTENTIALS
     SURFACE_DIPOLE_CORRECTION  T
     SURF_DIP_DIR  Z
     &SCF
       MAX_SCF  100
       EPS_SCF     5.0000000000000004E-06
       &OT  T
         PRECONDITIONER  FULL_ALL
       &END OT
       &OUTER_SCF  T
         OPTIMIZER  NONE
         EPS_SCF     5.0000000000000004E-06
         MAX_SCF  4
       &END OUTER_SCF
       &PRINT
         &RESTART  OFF
           BACKUP_COPIES  1
           &EACH
             JUST_ENERGY  0
             QS_SCF  0
             MD  20
           &END EACH
         &END RESTART
       &END PRINT
     &END SCF
     &QS
       EPS_DEFAULT     1.0000000000000000E-14
       METHOD  GPW
     &END QS
     &MGRID
       NGRIDS  5
       CUTOFF     1.2000000000000000E+03
     &END MGRID
     &XC
       DENSITY_CUTOFF     1.0000000000000000E-10
       GRADIENT_CUTOFF     1.0000000000000000E-10
       TAU_CUTOFF     1.0000000000000000E-10
       &XC_FUNCTIONAL  NO_SHORTCUT
         &PBE  T
         &END PBE
       &END XC_FUNCTIONAL
       &VDW_POTENTIAL
         POTENTIAL_TYPE  PAIR_POTENTIAL
         &PAIR_POTENTIAL
           R_CUTOFF     1.0000000000000004E+01
           TYPE  DFTD3
           PARAMETER_FILE_NAME dftd3.dat
           REFERENCE_FUNCTIONAL PBE
           EPS_CN     9.9999999999999995E-07
           CALCULATE_C9_TERM  T
           REFERENCE_C9_TERM  T
           LONG_RANGE_CORRECTION  F
           VERBOSE_OUTPUT  F
         &END PAIR_POTENTIAL
       &END VDW_POTENTIAL
     &END XC
   &END DFT
   &SUBSYS
     &CELL
       A     1.2839726570995461E+01    0.0000000000000000E+00    0.0000000000000000E+00
       B    -6.4482616472168743E+00    1.1168716793477426E+01    0.0000000000000000E+00
       C     0.0000000000000000E+00    0.0000000000000000E+00    2.9000000000000000E+01
       MULTIPLE_UNIT_CELL  1 1 1
       &CELL_REF
         A     1.2982353780853531E+01    0.0000000000000000E+00    0.0000000000000000E+00
         B    -6.4911768904267628E+00    1.1243048175136114E+01    0.0000000000000000E+00
         C     0.0000000000000000E+00    0.0000000000000000E+00    2.9000000000000000E+01
         MULTIPLE_UNIT_CELL  1 1 1
       &END CELL_REF
     &END CELL
     &COORD
Ga    1.1634627784448282E-03   -1.5788490910717613E-03   -1.7586736165218969E-01
N   -6.2181430127247733E-03    1.8577018171517041E+00    6.1127067170455340E-01
Ga   -3.7999075981458790E-04    1.8614219676419321E+00    2.5458565270446334E+00
N    6.1373226213628550E-03    2.5084191815481090E-03    3.2351216366287074E+00
Ga    6.7547729905996362E-03    1.6870085454342009E-03    5.1945230614616671E+00
N    1.1529360007914680E-03    1.8579539566580239E+00    5.8591768440750478E+00
Ga    3.0772116568009321E-03    1.8620743619396445E+00    7.8267196953132423E+00
N    1.3793398342859517E-02    2.7064077043024025E-03    8.4817649060856350E+00
Ga    1.4346724954964037E-02    4.7639782327972722E-03    1.0471075994109663E+01
N   -4.6108369905090056E-03    1.8683043782290094E+00    1.1068244334649956E+01
Ga   -3.6641806756760334E-02    1.8522852513948502E+00    1.3136263357979805E+01
N   -1.3195469104029727E-02   -8.2559102592077830E-04    1.3472003916297803E+01
Ga   -1.6112797515818533E+00    2.7911462964371703E+00   -1.7628748475006867E-01
N   -1.6182273060827559E+00    4.6496743540640164E+00    6.1228484465382038E-01
Ga   -1.6131008402569664E+00    4.6530984131031605E+00    2.5471569660587914E+00
N   -1.6056810046838366E+00    2.7947330957751904E+00    3.2359698681630507E+00
Ga   -1.6050660208365906E+00    2.7907667428093168E+00    5.1961224826136574E+00
N   -1.6119533368070964E+00    4.6520053258291583E+00    5.8547405005016895E+00
Ga   -1.6101863228406044E+00    4.6503087554330245E+00    7.8212230477093678E+00
N   -1.6005830279975759E+00    2.7959711087419645E+00    8.4757272319437185E+00
Ga   -1.6095979918370258E+00    2.7997593661184559E+00    1.0459669591750661E+01
N   -1.6147847220514944E+00    4.6555533069035402E+00    1.1060170121387532E+01
Ga   -1.6318242270319294E+00    4.6372809703413083E+00    1.3132192537849019E+01
N   -1.6267191077917862E+00    2.7953946913319512E+00    1.3541481295685360E+01
Ga   -3.2229345622196766E+00    5.5830401500236393E+00   -1.7631788842172214E-01
N   -3.2299825570486411E+00    7.4417374310924407E+00    6.1229300566016709E-01
Ga   -3.2244545963540161E+00    7.4450513181164206E+00    2.5461939512482856E+00
N   -3.2184750015014094E+00    5.5874985165871776E+00    3.2369461851297516E+00
Ga   -3.2188883994316058E+00    5.5845273129761051E+00    5.1961726027158184E+00
N   -3.2228002271762035E+00    7.4447421306814707E+00    5.8599746910080848E+00
Ga   -3.2214811297387200E+00    7.4466127341183164E+00    7.8267455315920298E+00
N   -3.2128006914765073E+00    5.5892866371588799E+00    8.4720759178331395E+00
Ga   -3.2150558242348115E+00    5.5919179323454102E+00    1.0457946186234096E+01
N   -3.2315922669392108E+00    7.4492711213288345E+00    1.1054224033390058E+01
Ga   -3.2589607267055283E+00    7.4415255594485092E+00    1.3115619556996489E+01
N   -3.2367218991550279E+00    5.5865667158010144E+00    1.3471871222547191E+01
Ga   -4.8350758147269861E+00    8.3752503213633194E+00   -1.7579692889039239E-01
N   -4.8418529563587649E+00    1.0234164238950687E+01    6.1276068505522674E-01
Ga   -4.8360597270997117E+00    1.0237755238358323E+01    2.5471370195290164E+00
N   -4.8297511270675084E+00    8.3788869530113743E+00    3.2361827161003589E+00
Ga   -4.8291427153792865E+00    8.3772882631759238E+00    5.1950198507953340E+00
N   -4.8367140521006222E+00    1.0234857076598228E+01    5.8576528814541611E+00
Ga   -4.8345847910647803E+00    1.0239602448841163E+01    7.8246577014936376E+00
N   -4.8272982308778829E+00    8.3797137601805503E+00    8.4748184089203740E+00
Ga   -4.8333032444809714E+00    8.3881594992863668E+00    1.0459614929383887E+01
N   -4.8318167626055875E+00    1.0235601878903639E+01    1.1070645092880119E+01
Ga   -4.8567466453387942E+00    1.0212426548662132E+01    1.3156594148762371E+01
N   -4.8457372979073492E+00    8.3707170704159495E+00    1.3569398445429563E+01
Ga    3.2109344581714021E+00   -1.2264606666471166E-03   -1.7582764357197592E-01
N    3.2040452454369057E+00    1.8572924141094223E+00    6.1342491053396042E-01
Ga    3.2094963076903134E+00    1.8607728635422378E+00    2.5485286328183840E+00
N    3.2166779933869170E+00    1.7232476062072092E-03    3.2381008850273516E+00
Ga    3.2168418511318801E+00   -3.5732949379648009E-04    5.1980963221190084E+00
N    3.2096916167435618E+00    1.8576930705346342E+00    5.8562216274552972E+00
Ga    3.2119576941741519E+00    1.8609607647067519E+00    7.8230929680914354E+00
N    3.2214163888618024E+00    8.5052259888843541E-04    8.4758375760354401E+00
Ga    3.2141883669580982E+00    7.6439739980033441E-03    1.0461717117960969E+01
N    3.2148524696517748E+00    1.8627110122185777E+00    1.1054476541054983E+01
Ga    3.1900795537516018E+00    1.8418287854924804E+00    1.3125800121649419E+01
N    3.1950101934940025E+00    2.8267357197074056E-03    1.3537842668324254E+01
Ga    1.5991815769657705E+00    2.7906308561480304E+00   -1.7563432228678927E-01
N    1.5918762289531976E+00    4.6496789112688930E+00    6.1161548574739555E-01
Ga    1.5976822513789848E+00    4.6528153367647613E+00    2.5460785754374413E+00
N    1.6037158216507537E+00    2.7948324623217315E+00    3.2360882433042639E+00
Ga    1.6037457507823454E+00    2.7919696442090953E+00    5.1961585704258351E+00
N    1.5981808937206308E+00    4.6509299086367335E+00    5.8574837922453060E+00
Ga    1.6023551213711416E+00    4.6516301560242086E+00    7.8241890267158567E+00
N    1.6105957178582668E+00    2.7960176227096176E+00    8.4777906627539590E+00
Ga    1.6072508893081507E+00    2.7996627265772109E+00    1.0463942417916114E+01
N    1.5892005112717635E+00    4.6608049906432480E+00    1.1055696287014692E+01
Ga    1.5638537895705578E+00    4.6435370714802540E+00    1.3118805937335678E+01
N    1.5880495274313462E+00    2.7908416601758459E+00    1.3468499466632085E+01
Ga   -1.3409594789489067E-02    5.5830983004907591E+00   -1.7575155531227762E-01
N   -2.0187316409401815E-02    7.4420274903681012E+00    6.1257593940750266E-01
Ga   -1.4545535383685795E-02    7.4455046274375674E+00    2.5464673876891717E+00
N   -8.0992158040434480E-03    5.5871214223474146E+00    3.2352832259842415E+00
Ga   -6.6441242488588029E-03    5.5829099698354687E+00    5.1941768898800147E+00
N   -1.4965008700634880E-02    7.4434539861173903E+00    5.8570989159104876E+00
Ga   -1.0118589100484136E-02    7.4454476293340361E+00    7.8232828204195837E+00
N   -5.1443168388267619E-03    5.5892882581033874E+00    8.4714665421536512E+00
Ga   -1.3317013853661522E-02    5.5932140750332513E+00    1.0456210341885741E+01
N   -1.2685601129754667E-02    7.4438223887025385E+00    1.1069838323960688E+01
Ga   -3.5319690075996613E-02    7.4187981224331709E+00    1.3154647870482252E+01
N   -2.5702309238319346E-02    5.5768010256565281E+00    1.3555333051683990E+01
Ga   -1.6252317149999831E+00    8.3750732412828715E+00   -1.7632001648933232E-01
N   -1.6324039639379906E+00    1.0234005113239146E+01    6.1260155800825122E-01
Ga   -1.6266845608323262E+00    1.0237470053388460E+01    2.5465634081847099E+00
N   -1.6202022421271038E+00    8.3789073948853527E+00    3.2369335123911007E+00
Ga   -1.6198937964988291E+00    8.3770873668447532E+00    5.1952010634040624E+00
N   -1.6248823689576761E+00    1.0233683409064515E+01    5.8619858878306044E+00
Ga   -1.6225791991326781E+00    1.0238122113794560E+01    7.8290778395036575E+00
N   -1.6125453365991969E+00    8.3783250114955568E+00    8.4816527591967290E+00
Ga   -1.6149402272115700E+00    8.3809016336126803E+00    1.0472022249853675E+01
N   -1.6296979017998499E+00    1.0243536218832476E+01    1.1061996507341524E+01
Ga   -1.6592381414601587E+00    1.0229662948208114E+01    1.3128282053168878E+01
N   -1.6394681054341751E+00    8.3763887156411361E+00    1.3471713449693906E+01
Ga    6.4209689766977771E+00   -1.3883927622355277E-03   -1.7507091612895345E-01
N    6.4139982705487188E+00    1.8575627381570314E+00    6.1287871860956011E-01
Ga    6.4196559218951528E+00    1.8611833723256463E+00    2.5477522938158339E+00
N    6.4254274366247444E+00    2.0024767747235739E-03    3.2371160708034372E+00
Ga    6.4265720650477940E+00   -1.8759653650364706E-04    5.1962760688623559E+00
N    6.4210741783261867E+00    1.8572354970701579E+00    5.8573656845146829E+00
Ga    6.4257300768972341E+00    1.8621994663482171E+00    7.8247365021882089E+00
N    6.4331140686328885E+00    1.8732506664790617E-03    8.4802109685720222E+00
Ga    6.4328485264348290E+00    8.6699597596719153E-03    1.0468983258679184E+01
N    6.4153208108609272E+00    1.8665314523121677E+00    1.1055801504592752E+01
Ga    6.3865090460936056E+00    1.8508200508366530E+00    1.3118969041209581E+01
N    6.4069782702258822E+00    5.2336291931241090E-04    1.3480123864515502E+01
Ga    4.8087991513274435E+00    2.7907492140276164E+00   -1.7500915037063297E-01
N    4.8019689814124886E+00    4.6497361082232675E+00    6.1228118737754134E-01
Ga    4.8073998264761979E+00    4.6531693838745936E+00    2.5467971471250719E+00
N    4.8140144397715448E+00    2.7947849088296373E+00    3.2364175607195462E+00
Ga    4.8145253533844148E+00    2.7918875336888087E+00    5.1965653108623249E+00
N    4.8075355412651612E+00    4.6520322597678883E+00    5.8547018367134847E+00
Ga    4.8095294569061622E+00    4.6537816360634974E+00    7.8214244837641953E+00
N    4.8199300487889394E+00    2.7963480509072154E+00    8.4687840651091655E+00
Ga    4.8131307235128933E+00    2.8021074000114825E+00    1.0451491164182912E+01
N    4.8103377500264104E+00    4.6529118796818487E+00    1.1060202811925945E+01
Ga    4.7910972464336794E+00    4.6341065414636242E+00    1.3140114373085481E+01
N    4.7958030845039081E+00    2.7871834531773918E+00    1.3538137129639830E+01
Ga    3.1968877748670401E+00    5.5829142102590765E+00   -1.7625373440385908E-01
N    3.1896758521479911E+00    7.4421180385358445E+00    6.1147853581230327E-01
Ga    3.1954266384047108E+00    7.4453977580730060E+00    2.5455635107397283E+00
N    3.2015839906862862E+00    5.5873373475634658E+00    3.2346004124365431E+00
Ga    3.2015381403528722E+00    5.5851218634403530E+00    5.1941935232108154E+00
N    3.1959909084221536E+00    7.4433786724898736E+00    5.8598758150617929E+00
Ga    3.1987295882000830E+00    7.4444129004937372E+00    7.8271724368042479E+00
N    3.2072068653944910E+00    5.5873723141526010E+00    8.4769356564335165E+00
Ga    3.2041677018077941E+00    5.5897959436515317E+00    1.0464957047908285E+01
N    3.1913405627463458E+00    7.4508932561091035E+00    1.1051946874398157E+01
Ga    3.1629072675948460E+00    7.4371442354207096E+00    1.3116265075376516E+01
N    3.1855290450098770E+00    5.5821264251918077E+00    1.3465853948424348E+01
Ga    1.5844900525689278E+00    8.3754681583217518E+00   -1.7624561820064216E-01
N    1.5776955436857349E+00    1.0234040707995057E+01    6.1368568539910817E-01
Ga    1.5832227396030418E+00    1.0237653534119188E+01    2.5482297061353405E+00
N    1.5897099081744246E+00    8.3786084168200681E+00    3.2365260740577870E+00
Ga    1.5914988660347160E+00    8.3760359054988047E+00    5.1958721078992340E+00
N    1.5829770130762322E+00    1.0234217519652097E+01    5.8571074008383643E+00
Ga    1.5874143460528820E+00    1.0237473005837442E+01    7.8236912214091339E+00
N    1.5924914530382326E+00    8.3797052403414813E+00    8.4773816034735052E+00
Ga    1.5868710733878681E+00    8.3871291642066002E+00    1.0464435164565423E+01
N    1.5862218912166264E+00    1.0238156386362736E+01    1.1068710517656905E+01
Ga    1.5657949017806907E+00    1.0217810079573125E+01    1.3154008350532772E+01
N    1.5724175658362571E+00    8.3725484118048925E+00    1.3543431824560427E+01
Ga    9.6307553288706345E+00   -1.2783286417487479E-03   -1.7501538430412722E-01
N    9.6239750299628142E+00    1.8577248907784165E+00    6.1257216752136534E-01
Ga    9.6292945146691711E+00    1.8612845676822505E+00    2.5478633365518810E+00
N    9.6358151635535751E+00    2.0892583217109548E-03    3.2366499714239207E+00
Ga    9.6372432873443259E+00    9.2380678031204490E-04    5.1967865531810720E+00
N    9.6296259784917364E+00    1.8588932705791763E+00    5.8561775623624452E+00
Ga    9.6328174130821314E+00    1.8618813002850669E+00    7.8231452176772143E+00
N    9.6393986330500585E+00    2.0325768833483111E-03    8.4731943123037521E+00
Ga    9.6350414742349493E+00    8.0047510426033905E-03    1.0456988298663886E+01
N    9.6328878365906654E+00    1.8573338221781093E+00    1.1066332330396763E+01
Ga    9.6108659338250355E+00    1.8418424718900435E+00    1.3144737409942756E+01
N    9.6181251280200399E+00   -2.0498814364171085E-03    1.3550823916900688E+01
Ga    8.0187367431681853E+00    2.7908766186918483E+00   -1.7559289517135829E-01
N    8.0118623930534838E+00    4.6500352956951208E+00    6.1166488666239716E-01
Ga    8.0175798335890587E+00    4.6532159537735227E+00    2.5459603408251033E+00
N    8.0235340811869786E+00    2.7952107213916810E+00    3.2355724540595383E+00
Ga    8.0251127063044034E+00    2.7925832099807604E+00    5.1950468494780866E+00
N    8.0174800330126654E+00    4.6512868388671142E+00    5.8584117272511644E+00
Ga    8.0190670510642228E+00    4.6506125850063196E+00    7.8250346369795682E+00
N    8.0312773140348028E+00    2.7959502447676070E+00    8.4795350990427156E+00
Ga    8.0301696861472447E+00    2.7975375074448370E+00    1.0466466103382023E+01
N    8.0121596542896594E+00    4.6596383222722073E+00    1.1060828593370593E+01
Ga    7.9835734694319527E+00    4.6451669942380107E+00    1.3126284353082855E+01
N    8.0054093146461067E+00    2.7936693276859041E+00    1.3467671804173232E+01
Ga    6.4066456715622921E+00    5.5832747206287738E+00   -1.7662160948731292E-01
N    6.3997296987464161E+00    7.4419319180804964E+00    6.1245922998244995E-01
Ga    6.4052098109171824E+00    7.4455436038025073E+00    2.5467381049976754E+00
N    6.4119199904867372E+00    5.5870038891888978E+00    3.2348522346184598E+00
Ga    6.4125734037155686E+00    5.5835537708225420E+00    5.1938062956819895E+00
N    6.4063564788302134E+00    7.4431619007676089E+00    5.8554442274867773E+00
Ga    6.4084489758249266E+00    7.4441311994417827E+00    7.8212790203493512E+00
N    6.4153921122097373E+00    5.5891309940745302E+00    8.4764653666315581E+00
Ga    6.4088752327671790E+00    5.5920746392115168E+00    1.0461719285941987E+01
N    6.4096512248772006E+00    7.4485649386105814E+00    1.1069541723051533E+01
Ga    6.3902267861414508E+00    7.4246484743373520E+00    1.3155062467729609E+01
N    6.3914207456162933E+00    5.5825332194758737E+00    1.3555780216442479E+01
Ga    4.7948603730292678E+00    8.3752515069537843E+00   -1.7607746965132676E-01
N    4.7876445072967817E+00    1.0234099569927061E+01    6.1199114396640120E-01
Ga    4.7930415409470211E+00    1.0237760141732252E+01    2.5464897527084194E+00
N    4.7993658894145259E+00    8.3791311827683028E+00    3.2358263502936513E+00
Ga    4.7995579976199130E+00    8.3772182751286142E+00    5.1954363061374060E+00
N    4.7953194377633288E+00    1.0235197181783329E+01    5.8589300054069842E+00
Ga    4.7986531145148099E+00    1.0239896483957938E+01    7.8272905870969325E+00
N    4.8075419314604311E+00    8.3778787354708779E+00    8.4758403847785893E+00
Ga    4.8072241064063990E+00    8.3826203372016828E+00    1.0463507398335707E+01
N    4.7900629286176626E+00    1.0243131658262230E+01    1.1051709409138168E+01
Ga    4.7577604714898989E+00    1.0232247946459342E+01    1.3111592557016007E+01
N    4.7806178285192349E+00    8.3776810469343523E+00    1.3463178952787324E+01
H    4.7951569504208953E+00    8.3787362661172278E+00   -1.7289024432889091E+00
H    1.5850335498722350E+00    8.3800732648699228E+00   -1.7289681282500986E+00
H   -1.6252540601701579E+00    8.3800148875860110E+00   -1.7290486584435254E+00
H   -4.8353837654461627E+00    8.3804153987610324E+00   -1.7285426845923140E+00
H    6.4070879660301925E+00    5.5865824276328384E+00   -1.7295619871628765E+00
H    3.1977020646592411E+00    5.5870002127334359E+00   -1.7292498078529777E+00
H   -1.2883020125695454E-02    5.5876390358845089E+00   -1.7286205938507948E+00
H   -3.2241215281670708E+00    5.5871669524724110E+00   -1.7291838314037138E+00
H    8.0197378521705325E+00    2.7959193435593415E+00   -1.7287585331937474E+00
H    4.8085390852096586E+00    2.7958439306667349E+00   -1.7280287001223493E+00
H    1.5988909647086591E+00    2.7945739012914110E+00   -1.7285639689023320E+00
H   -1.6111496193441972E+00    2.7940447697808000E+00   -1.7294058544607251E+00
H    2.7312673202027527E-03    3.3041859806222148E-03   -1.7286686974589389E+00
H    3.2110072707867654E+00    2.6903595535425341E-03   -1.7287070819130956E+00
H    6.4208332484142892E+00    2.3192278493266594E-03   -1.7280270331217340E+00
H    9.6298722155855856E+00    4.2707309397782894E-03   -1.7280146775094449E+00
     &END COORD
     &KIND H
       BASIS_SET DZVP-MOLOPT-SR-GTH-q1
       POTENTIAL GTH-PBE-q1
       &POTENTIAL
1
0.2000000000000000E+00 2 -0.4178900440000000E+01  0.7244633100000000E+00
0
       &END POTENTIAL
     &END KIND
     &KIND N
       BASIS_SET DZVP-MOLOPT-SR-GTH
       POTENTIAL GTH-PBE-q5
       &POTENTIAL
2 3
0.2837905100000000E+00 2 -0.1241522559000000E+02  0.1868095920000000E+01
2
0.2554050000000000E+00 1  0.1363026257000000E+02
0.2454945300000000E+00 0
       &END POTENTIAL
     &END KIND
     &KIND Ga
       BASIS_SET DZVP-MOLOPT-SR-GTH
       POTENTIAL GTH-PBE-q13
       &POTENTIAL
2 1 10
0.4900000000000000E+00 0
3
0.4167772300000000E+00 3  0.1047568975000000E+02 -0.4921768140000000E+01  0.8707055900000000E+00
0.7770178090000000E+01 -0.2248152160000000E+01
0.1784415450000000E+01
0.5696265200000000E+00 2  0.1777985340000000E+01  0.1958597600000000E+00
-0.2317443900000000E+00
0.2381265000000000E+00 1 -0.1624868022000000E+02
       &END POTENTIAL
     &END KIND
     &TOPOLOGY
       NUMBER_OF_ATOMS  208
       MULTIPLE_UNIT_CELL  1 1 1
     &END TOPOLOGY
   &END SUBSYS
 &END FORCE_EVAL
