 # Version information for this restart file 
 # current date 2019-05-25 23:41:05.173
 # current working dir /lustre03/project/6004141/rzk/GaN-carbene/00-Surface/00-Preoptimization/443-capped/CELL_OPT
 # Program compiled at                              Sun Apr  7 00:48:11 EDT 2019
 # Program compiled on                          beluga2.int.ets1.calculquebec.ca
 # Program compiled for                        Beluga-Linux-x86-64-intel-openmpi
 # Source code revision number                                         svn:18619
 &GLOBAL
   PRINT_LEVEL  MEDIUM
   PROJECT_NAME TEST
   RUN_TYPE  CELL_OPT
 &END GLOBAL
 &MOTION
   &CELL_OPT
     MAX_ITER  300
     STEP_START_VAL  25
     EXTERNAL_PRESSURE     1.0000000000000000E+00
     KEEP_ANGLES  T
     KEEP_SYMMETRY  T
     CONSTRAINT  Z
     PRESSURE_TOLERANCE     5.0000000000000000E+02
   &END CELL_OPT
 &END MOTION
 &FORCE_EVAL
   METHOD  QS
   STRESS_TENSOR  ANALYTICAL
   &DFT
     BASIS_SET_FILE_NAME BASIS_MOLOPT
     POTENTIAL_FILE_NAME GTH_POTENTIALS
     SURFACE_DIPOLE_CORRECTION  T
     SURF_DIP_DIR  Z
     &SCF
       MAX_SCF  100
       EPS_SCF     5.0000000000000004E-06
       &OT  T
         PRECONDITIONER  FULL_ALL
       &END OT
       &OUTER_SCF  T
         OPTIMIZER  NONE
         EPS_SCF     5.0000000000000004E-06
         MAX_SCF  4
       &END OUTER_SCF
       &PRINT
         &RESTART  OFF
           BACKUP_COPIES  1
           &EACH
             JUST_ENERGY  0
             QS_SCF  0
             MD  20
           &END EACH
         &END RESTART
       &END PRINT
     &END SCF
     &QS
       EPS_DEFAULT     1.0000000000000000E-14
       METHOD  GPW
     &END QS
     &MGRID
       NGRIDS  5
       CUTOFF     1.2000000000000000E+03
     &END MGRID
     &XC
       DENSITY_CUTOFF     1.0000000000000000E-10
       GRADIENT_CUTOFF     1.0000000000000000E-10
       TAU_CUTOFF     1.0000000000000000E-10
       &XC_FUNCTIONAL  NO_SHORTCUT
         &PBE  T
         &END PBE
       &END XC_FUNCTIONAL
       &VDW_POTENTIAL
         POTENTIAL_TYPE  PAIR_POTENTIAL
         &PAIR_POTENTIAL
           R_CUTOFF     1.0000000000000004E+01
           TYPE  DFTD3
           PARAMETER_FILE_NAME dftd3.dat
           REFERENCE_FUNCTIONAL PBE
           EPS_CN     9.9999999999999995E-07
           CALCULATE_C9_TERM  T
           REFERENCE_C9_TERM  T
           LONG_RANGE_CORRECTION  F
           VERBOSE_OUTPUT  F
         &END PAIR_POTENTIAL
       &END VDW_POTENTIAL
     &END XC
   &END DFT
   &SUBSYS
     &CELL
       A     1.2848110103447075E+01    0.0000000000000000E+00    0.0000000000000000E+00
       B    -6.4495695944823455E+00    1.1170982224594852E+01    0.0000000000000000E+00
       C     0.0000000000000000E+00    0.0000000000000000E+00    2.9000000000000000E+01
       MULTIPLE_UNIT_CELL  1 1 1
       &CELL_REF
         A     1.2982353780853531E+01    0.0000000000000000E+00    0.0000000000000000E+00
         B    -6.4911768904267628E+00    1.1243048175136114E+01    0.0000000000000000E+00
         C     0.0000000000000000E+00    0.0000000000000000E+00    2.9000000000000000E+01
         MULTIPLE_UNIT_CELL  1 1 1
       &END CELL_REF
     &END CELL
     &COORD
Ga    9.9303497152511454E-04   -4.9798832004585127E-05   -1.6769435063852439E-01
N   -4.6896808707793192E-03    1.8593807499358863E+00    6.1855560146874844E-01
Ga   -2.2197562331965383E-03    1.8607748415342704E+00    2.5520438021807701E+00
N    3.7615376892258033E-03    1.6758683547098716E-03    3.2376414742264532E+00
Ga    4.0506899187321369E-03    4.3124791171027417E-04    5.1973134683218989E+00
N   -1.6397584713659188E-03    1.8588409761578493E+00    5.8583860010215911E+00
Ga    1.0504065860794888E-03    1.8582865197335787E+00    7.8260828371827094E+00
N    1.0567738625869912E-02    1.5813917265287190E-03    8.4796212036195300E+00
Ga    9.4356416173057532E-03    5.2682439404848295E-03    1.0468139494447094E+01
N   -9.3109807523295927E-03    1.8679546454938745E+00    1.1053436380523319E+01
Ga   -2.5806138811780167E-02    1.8555261937617737E+00    1.3118381201747424E+01
N   -5.9237600323219491E-03   -2.1694392463801579E-05    1.3454854078644766E+01
Ga   -1.6117422011096936E+00    2.7921171749010201E+00   -1.6730031146050048E-01
N   -1.6172619916779405E+00    4.6522520967150971E+00    6.1761415054630542E-01
Ga   -1.6145519103039496E+00    4.6533453490028789E+00    2.5509301360641832E+00
N   -1.6082494266310485E+00    2.7948193650021249E+00    3.2387667043795370E+00
Ga   -1.6076394975353574E+00    2.7926031793425037E+00    5.1986804724755098E+00
N   -1.6141351615967015E+00    4.6528424216974207E+00    5.8576424502573952E+00
Ga   -1.6118432787882058E+00    4.6529764936085387E+00    7.8248408349119849E+00
N   -1.6061199549820870E+00    2.7953791399482446E+00    8.4714993972529342E+00
Ga   -1.6122905514509804E+00    2.8013307214702023E+00    1.0454487417960799E+01
N   -1.6153021433684134E+00    4.6559518064269527E+00    1.1048989258030915E+01
Ga   -1.6224543158703622E+00    4.6329797311618437E+00    1.3121085426084685E+01
N   -1.6147501845024912E+00    2.7937634794519721E+00    1.3544133087460581E+01
Ga   -3.2246506117143241E+00    5.5854710547921931E+00   -1.6780446093905063E-01
N   -3.2296378346668444E+00    7.4449514571042563E+00    6.1811192406725990E-01
Ga   -3.2267905049537746E+00    7.4463129252545173E+00    2.5513169204442572E+00
N   -3.2208182681875956E+00    5.5873266361171199E+00    3.2389633733262775E+00
Ga   -3.2211347673768254E+00    5.5859147694772968E+00    5.1987450140977574E+00
N   -3.2258031208709421E+00    7.4444691152990243E+00    5.8603857104603430E+00
Ga   -3.2234793972516673E+00    7.4453310529798840E+00    7.8285768968393992E+00
N   -3.2163795038885046E+00    5.5858970957629035E+00    8.4742555772694246E+00
Ga   -3.2195151762940957E+00    5.5908269219306570E+00    1.0460079985473119E+01
N   -3.2334849581636869E+00    7.4506342670589012E+00    1.1047945997469876E+01
Ga   -3.2501354644782290E+00    7.4413202706410457E+00    1.3107194873347117E+01
N   -3.2298652150589344E+00    5.5862439234783068E+00    1.3450889541029483E+01
Ga   -4.8365642126502451E+00    8.3782648311581553E+00   -1.6736194294641785E-01
N   -4.8417868251035561E+00    1.0237684885052710E+01    6.1890733975989631E-01
Ga   -4.8388644265665528E+00    1.0239290064537135E+01    2.5526924908588020E+00
N   -4.8328520378126703E+00    8.3797535374689875E+00    3.2382460905191266E+00
Ga   -4.8318840733017652E+00    8.3787512559481314E+00    5.1981433416702965E+00
N   -4.8390026603521923E+00    1.0237757095479665E+01    5.8552078638443161E+00
Ga   -4.8373600277691997E+00    1.0240131119082204E+01    7.8217875427261809E+00
N   -4.8309555228728405E+00    8.3812886025348963E+00    8.4724000492424647E+00
Ga   -4.8357923518125645E+00    8.3893108198550248E+00    1.0457224308288819E+01
N   -4.8357604027350236E+00    1.0239948378216420E+01    1.1068667679896185E+01
Ga   -4.8436477588439333E+00    1.0222181672534479E+01    1.3150455524321012E+01
N   -4.8401004470813955E+00    8.3769417759309164E+00    1.3540654304039441E+01
Ga    3.2127576206666482E+00   -2.9715912495563500E-04   -1.6678937620413772E-01
N    3.2073893863069465E+00    1.8594889495301916E+00    6.1828499682617877E-01
Ga    3.2100481316385845E+00    1.8605287250747176E+00    2.5521073621684063E+00
N    3.2163356968510839E+00    1.6875183127567745E-03    3.2395335990205916E+00
Ga    3.2180895578268935E+00    5.4045925911236912E-05    5.2000336960097409E+00
N    3.2108805013571078E+00    1.8597114904769381E+00    5.8573466338558156E+00
Ga    3.2129130130951276E+00    1.8596907448876845E+00    7.8245270752331892E+00
N    3.2190998395768311E+00    7.6207304400702496E-04    8.4720978421344171E+00
Ga    3.2113884331073090E+00    3.7486147698949286E-03    1.0453507664501531E+01
N    3.2110853452723478E+00    1.8598403170464004E+00    1.1044350101830023E+01
Ga    3.2016729557438022E+00    1.8437071983536923E+00    1.3106317524411672E+01
N    3.2103762932502207E+00    6.6707697571976223E-03    1.3538219457764416E+01
Ga    1.6000914041621981E+00    2.7925093320856025E+00   -1.6747483567415059E-01
N    1.5949122694415923E+00    4.6522098087800812E+00    6.1785516145229202E-01
Ga    1.5975558050503365E+00    4.6531359211913754E+00    2.5512267048355337E+00
N    1.6034020950497185E+00    2.7943311945202298E+00    3.2377984634679717E+00
Ga    1.6037646690209491E+00    2.7922666160572689E+00    5.1978302592986223E+00
N    1.5982476294601395E+00    4.6522280913593397E+00    5.8568255313312747E+00
Ga    1.5995139372106852E+00    4.6512046908974023E+00    7.8238161321647590E+00
N    1.6076044683065744E+00    2.7936261775570292E+00    8.4735167674621703E+00
Ga    1.6035757437206628E+00    2.7989734324454258E+00    1.0457833193703486E+01
N    1.5936757963864330E+00    4.6574398820018077E+00    1.1050517662609090E+01
Ga    1.5815584415304562E+00    4.6426044176644794E+00    1.3111774734593450E+01
N    1.5973470507353806E+00    2.7908709296931127E+00    1.3461434392741992E+01
Ga   -1.1916317331722659E-02    5.5853739253641974E+00   -1.6817011326266113E-01
N   -1.7480721296595482E-02    7.4450686965921777E+00    6.1796928989459721E-01
Ga   -1.4918553875827212E-02    7.4465917226313119E+00    2.5514180273935656E+00
N   -8.9782702062683704E-03    5.5871129369404855E+00    3.2376073622270676E+00
Ga   -8.2442853780031761E-03    5.5855706310769424E+00    5.1970893877678428E+00
N   -1.5001194717769006E-02    7.4447846256370065E+00    5.8558347058920326E+00
Ga   -1.3972012566566140E-02    7.4445067028832668E+00    7.8219168450058500E+00
N   -6.0030622332078827E-03    5.5875743265717839E+00    8.4740371033758493E+00
Ga   -8.3033368915578151E-03    5.5967990009189927E+00    1.0459324502643163E+01
N   -1.1496073482318203E-02    7.4457836584622639E+00    1.1067940763824019E+01
Ga   -2.1959998950922897E-02    7.4318510514588390E+00    1.3149881769076606E+01
N   -1.4711895099773199E-02    5.5798415817662530E+00    1.3512833779998511E+01
Ga   -1.6246958866217538E+00    8.3783317596118039E+00   -1.6749648634346700E-01
N   -1.6298165532300239E+00    1.0237667928752371E+01    6.1877529708213252E-01
Ga   -1.6274606675288719E+00    1.0239279437397196E+01    2.5522923794287165E+00
N   -1.6215886127877985E+00    8.3799225515472102E+00    3.2383461981971946E+00
Ga   -1.6214979764216468E+00    8.3790973469782486E+00    5.1980537258471102E+00
N   -1.6257233410894916E+00    1.0236135158365277E+01    5.8613960974007613E+00
Ga   -1.6231296229741419E+00    1.0236688136342467E+01    7.8297623377404699E+00
N   -1.6154437869588290E+00    8.3762029796614019E+00    8.4800956010198867E+00
Ga   -1.6156960349895975E+00    8.3822715620086647E+00    1.0467360745960205E+01
N   -1.6327589152619799E+00    1.0243062567820580E+01    1.1051360456644801E+01
Ga   -1.6513010851015364E+00    1.0235684678097778E+01    1.3112189159931475E+01
N   -1.6310727391114106E+00    8.3816255208940849E+00    1.3459031202895783E+01
Ga    6.4245617539855386E+00   -2.1748099099335545E-04   -1.6730491128579766E-01
N    6.4193138473106837E+00    1.8594701511811633E+00    6.1776151968902648E-01
Ga    6.4221539457601047E+00    1.8608551158335305E+00    2.5512704945918325E+00
N    6.4276302574127469E+00    2.0039782122429277E-03    3.2385256778092573E+00
Ga    6.4275618729762769E+00    6.1370641929252116E-04    5.1989743756154079E+00
N    6.4232192199043983E+00    1.8593116169884296E+00    5.8609979267558776E+00
Ga    6.4247168792016707E+00    1.8583003076376243E+00    7.8291171118812324E+00
N    6.4324284641223439E+00    9.3484013627312011E-04    8.4783268449283895E+00
Ga    6.4314889744739698E+00    3.6779956650798335E-03    1.0464147545565133E+01
N    6.4174302300677661E+00    1.8628574927064876E+00    1.1054708589317721E+01
Ga    6.4068942594867497E+00    1.8512580327235399E+00    1.3117261114788109E+01
N    6.4234149053574141E+00   -1.7784920250735199E-03    1.3458650301815959E+01
Ga    4.8123058155980418E+00    2.7928974652980783E+00   -1.6748981376449526E-01
N    4.8070972944666490E+00    4.6522139204840407E+00    6.1872971172014712E-01
Ga    4.8100828368533772E+00    4.6537073183719109E+00    2.5521091048113300E+00
N    4.8159488790641234E+00    2.7944909083675178E+00    3.2385983953800035E+00
Ga    4.8168622094068843E+00    2.7920986872116353E+00    5.1989042726224559E+00
N    4.8103593807747824E+00    4.6529271355658626E+00    5.8552727605574377E+00
Ga    4.8120088844146123E+00    4.6514515926643547E+00    7.8212701850995954E+00
N    4.8187039306666462E+00    2.7958676390662967E+00    8.4741018362369722E+00
Ga    4.8148040598261943E+00    2.8028111715806610E+00    1.0457010714009803E+01
N    4.8099871224042330E+00    4.6583811413179754E+00    1.1059221649791143E+01
Ga    4.7998848274955721E+00    4.6495511958133457E+00    1.3136040376866841E+01
N    4.8085946316782904E+00    2.7957607916732257E+00    1.3494404934895361E+01
Ga    3.2000849029795777E+00    5.5851690971766521E+00   -1.6746945244104822E-01
N    3.1946840661318410E+00    7.4449564396491752E+00    6.1801816659780695E-01
Ga    3.1970925190726804E+00    7.4463774573092092E+00    2.5512339143157363E+00
N    3.2030948474488672E+00    5.5871797215404921E+00    3.2372785077997368E+00
Ga    3.2033363265283383E+00    5.5858951045335319E+00    5.1966971080448223E+00
N    3.1986894882373176E+00    7.4446636445852628E+00    5.8580037244718577E+00
Ga    3.2010866166962932E+00    7.4450760039089587E+00    7.8251848974875537E+00
N    3.2074299622126876E+00    5.5846882262463140E+00    8.4711544374998553E+00
Ga    3.2048127748468027E+00    5.5869922826888603E+00    1.0456465044468549E+01
N    3.1894460805892635E+00    7.4507760143202857E+00    1.1034502350519872E+01
Ga    3.1684399355556634E+00    7.4429996709374162E+00    1.3089175010109081E+01
N    3.1921510725981230E+00    5.5934222058085981E+00    1.3469338559576281E+01
Ga    1.5876854789704680E+00    8.3782075700741352E+00   -1.6722006878855680E-01
N    1.5822038335791391E+00    1.0237953264940403E+01    6.1848076460289658E-01
Ga    1.5849373714370660E+00    1.0239395839277254E+01    2.5523694456933206E+00
N    1.5908576768404137E+00    8.3798668135462364E+00    3.2379660053052097E+00
Ga    1.5918305707803007E+00    8.3788487476858311E+00    5.1979966920162637E+00
N    1.5850143295329171E+00    1.0237743902481728E+01    5.8552686257548494E+00
Ga    1.5855435713449177E+00    1.0239929646127484E+01    7.8219042960812768E+00
N    1.5922951988861680E+00    8.3789798465658780E+00    8.4683890804749691E+00
Ga    1.5860097754219156E+00    8.3882928007209863E+00    1.0450132833603563E+01
N    1.5899518178977838E+00    1.0237031045071053E+01    1.1056211146488378E+01
Ga    1.5812666469138368E+00    1.0217855717620745E+01    1.3128661426976375E+01
N    1.5842986342312684E+00    8.3789070517647417E+00    1.3546063989088793E+01
Ga    9.6363629537767395E+00    2.7997147565175166E-04   -1.6743876271303373E-01
N    9.6313337154594798E+00    1.8596405070327378E+00    6.1890947762463344E-01
Ga    9.6341233445664649E+00    1.8612586964294842E+00    2.5526655870700665E+00
N    9.6404047454402395E+00    1.9605866508309974E-03    3.2383280521706594E+00
Ga    9.6405780798871241E+00    6.6146245707876137E-04    5.1988340460997957E+00
N    9.6339970316741681E+00    1.8609568742644320E+00    5.8554826537327536E+00
Ga    9.6356414089500291E+00    1.8613588250783406E+00    7.8218430362603666E+00
N    9.6430771359870970E+00    3.0811918416424038E-03    8.4681624063435930E+00
Ga    9.6356923382313155E+00    8.1512145379940368E-03    1.0451174928323255E+01
N    9.6366764795190214E+00    1.8619700623980471E+00    1.1060044847929897E+01
Ga    9.6253187257204758E+00    1.8484306347666744E+00    1.3136571593881506E+01
N    9.6322617920649236E+00    2.7775375494817080E-03    1.3528264691008772E+01
Ga    8.0244810142137908E+00    2.7929051971813630E+00   -1.6697727494063277E-01
N    8.0190180603434182E+00    4.6521806236011303E+00    6.1913450708831475E-01
Ga    8.0216050825725844E+00    4.6535226392110491E+00    2.5523265149050238E+00
N    8.0272043541342697E+00    2.7947183909676956E+00    3.2383394783654138E+00
Ga    8.0266694807977128E+00    2.7932434588148416E+00    5.1981980482438264E+00
N    8.0225093373133003E+00    4.6523215978209382E+00    5.8600496971213962E+00
Ga    8.0245113444203220E+00    4.6517908972223205E+00    7.8274548375394772E+00
N    8.0320489687867216E+00    2.7942093426985419E+00    8.4774691434826526E+00
Ga    8.0297935530028290E+00    2.7985596883407542E+00    1.0463013324795430E+01
N    8.0122791700672771E+00    4.6589885788438083E+00    1.1045579287102688E+01
Ga    7.9955119076879058E+00    4.6500709233211213E+00    1.3106105220869438E+01
N    8.0198388123830302E+00    2.7983533120305664E+00    1.3466433458605465E+01
Ga    6.4121745415517921E+00    5.5850535241987025E+00   -1.6698613911565013E-01
N    6.4066589795632805E+00    7.4449063266480593E+00    6.1821140662088525E-01
Ga    6.4096543392336542E+00    7.4463852298778477E+00    2.5515114567743047E+00
N    6.4156061256811032E+00    5.5874702330867381E+00    3.2389263178612695E+00
Ga    6.4164902858077388E+00    5.5857362074923342E+00    5.1985700457166972E+00
N    6.4095281019039385E+00    7.4454603780229860E+00    5.8554934363614937E+00
Ga    6.4119477946672374E+00    7.4475308989567894E+00    7.8216437259581530E+00
N    6.4166722162989789E+00    5.5880940784027793E+00    8.4696172213281145E+00
Ga    6.4091493713167189E+00    5.5954481275379857E+00    1.0452467693247614E+01
N    6.4122401334789361E+00    7.4470817146940869E+00    1.1058857679566863E+01
Ga    6.4054597727084230E+00    7.4239964577353783E+00    1.3138053390921320E+01
N    6.4086799836835251E+00    5.5844918476175147E+00    1.3556103566310634E+01
Ga    4.7995923226392536E+00    8.3778406315157135E+00   -1.6825393824554077E-01
N    4.7941449539580852E+00    1.0237816974728169E+01    6.1714539830097470E-01
Ga    4.7968957274157127E+00    1.0239514163063989E+01    2.5506132171106670E+00
N    4.8028949257985678E+00    8.3801646957337024E+00    3.2375705938337127E+00
Ga    4.8029195566602647E+00    8.3791375475226175E+00    5.1971059529724224E+00
N    4.7982857923147977E+00    1.0237060014135887E+01    5.8591674145043307E+00
Ga    4.8016858394123316E+00    1.0240094091086151E+01    7.8275704509809305E+00
N    4.8081504252569589E+00    8.3787969961115216E+00    8.4726180646092679E+00
Ga    4.8081115630548492E+00    8.3835560031367233E+00    1.0459404361171392E+01
N    4.7901517319660938E+00    1.0245969559853929E+01    1.1041512154709009E+01
Ga    4.7722954884738149E+00    1.0235391166814997E+01    1.3102575572890053E+01
N    4.7931487584706076E+00    8.3781079263220768E+00    1.3431094971018981E+01
H    4.7986751653601649E+00    8.3784510418399307E+00   -1.7190964706817853E+00
H    1.5873746874866341E+00    8.3790333832660249E+00   -1.7179756893518252E+00
H   -1.6250331449862720E+00    8.3795961028265644E+00   -1.7183279917380283E+00
H   -4.8377938684638666E+00    8.3799262595645594E+00   -1.7180988026871784E+00
H    6.4111664072167835E+00    5.5856658752208643E+00   -1.7175746013350768E+00
H    3.1996812769258685E+00    5.5864129749087494E+00   -1.7182574775853483E+00
H   -1.2253886207890788E-02    5.5866497859342621E+00   -1.7189789352640747E+00
H   -3.2258111808129972E+00    5.5861814184949772E+00   -1.7185531263268512E+00
H    8.0243069485641385E+00    2.7940886567559251E+00   -1.7177904942652735E+00
H    4.8111182895216800E+00    2.7941439001194368E+00   -1.7183338575602842E+00
H    1.5990343758688230E+00    2.7931902001382798E+00   -1.7183729200635465E+00
H   -1.6122751117924221E+00    2.7922119720372338E+00   -1.7180144260985037E+00
H    8.9976679089646191E-04    1.2816215841184829E-03   -1.7186062384470600E+00
H    3.2118141052063205E+00    3.9448597770333645E-04   -1.7176073689641436E+00
H    6.4236896791590050E+00    1.3925562669465108E-04   -1.7182665307859408E+00
H    9.6354236879898885E+00    1.4406129933946326E-03   -1.7183019930488934E+00
     &END COORD
     &KIND H
       BASIS_SET DZVP-MOLOPT-SR-GTH-q1
       POTENTIAL GTH-PBE-q1
       &POTENTIAL
1
0.2000000000000000E+00 2 -0.4178900440000000E+01  0.7244633100000000E+00
0
       &END POTENTIAL
     &END KIND
     &KIND N
       BASIS_SET DZVP-MOLOPT-SR-GTH
       POTENTIAL GTH-PBE-q5
       &POTENTIAL
2 3
0.2837905100000000E+00 2 -0.1241522559000000E+02  0.1868095920000000E+01
2
0.2554050000000000E+00 1  0.1363026257000000E+02
0.2454945300000000E+00 0
       &END POTENTIAL
     &END KIND
     &KIND Ga
       BASIS_SET DZVP-MOLOPT-SR-GTH
       POTENTIAL GTH-PBE-q13
       &POTENTIAL
2 1 10
0.4900000000000000E+00 0
3
0.4167772300000000E+00 3  0.1047568975000000E+02 -0.4921768140000000E+01  0.8707055900000000E+00
0.7770178090000000E+01 -0.2248152160000000E+01
0.1784415450000000E+01
0.5696265200000000E+00 2  0.1777985340000000E+01  0.1958597600000000E+00
-0.2317443900000000E+00
0.2381265000000000E+00 1 -0.1624868022000000E+02
       &END POTENTIAL
     &END KIND
     &TOPOLOGY
       NUMBER_OF_ATOMS  208
       MULTIPLE_UNIT_CELL  1 1 1
     &END TOPOLOGY
   &END SUBSYS
 &END FORCE_EVAL
