 # Version information for this restart file 
 # current date 2019-05-25 22:28:53.785
 # current working dir /lustre03/project/6004141/rzk/GaN-carbene/00-Surface/00-Preoptimization/443-capped/CELL_OPT
 # Program compiled at                              Sun Apr  7 00:48:11 EDT 2019
 # Program compiled on                          beluga2.int.ets1.calculquebec.ca
 # Program compiled for                        Beluga-Linux-x86-64-intel-openmpi
 # Source code revision number                                         svn:18619
 &GLOBAL
   PRINT_LEVEL  MEDIUM
   PROJECT_NAME TEST
   RUN_TYPE  CELL_OPT
 &END GLOBAL
 &MOTION
   &CELL_OPT
     MAX_ITER  300
     STEP_START_VAL  16
     EXTERNAL_PRESSURE     1.0000000000000000E+00
     KEEP_ANGLES  T
     KEEP_SYMMETRY  T
     CONSTRAINT  Z
     PRESSURE_TOLERANCE     5.0000000000000000E+02
   &END CELL_OPT
 &END MOTION
 &FORCE_EVAL
   METHOD  QS
   STRESS_TENSOR  ANALYTICAL
   &DFT
     BASIS_SET_FILE_NAME BASIS_MOLOPT
     POTENTIAL_FILE_NAME GTH_POTENTIALS
     SURFACE_DIPOLE_CORRECTION  T
     SURF_DIP_DIR  Z
     &SCF
       MAX_SCF  100
       EPS_SCF     5.0000000000000004E-06
       &OT  T
         PRECONDITIONER  FULL_ALL
       &END OT
       &OUTER_SCF  T
         OPTIMIZER  NONE
         EPS_SCF     5.0000000000000004E-06
         MAX_SCF  4
       &END OUTER_SCF
       &PRINT
         &RESTART  OFF
           BACKUP_COPIES  1
           &EACH
             JUST_ENERGY  0
             QS_SCF  0
             MD  20
           &END EACH
         &END RESTART
       &END PRINT
     &END SCF
     &QS
       EPS_DEFAULT     1.0000000000000000E-14
       METHOD  GPW
     &END QS
     &MGRID
       NGRIDS  5
       CUTOFF     1.2000000000000000E+03
     &END MGRID
     &XC
       DENSITY_CUTOFF     1.0000000000000000E-10
       GRADIENT_CUTOFF     1.0000000000000000E-10
       TAU_CUTOFF     1.0000000000000000E-10
       &XC_FUNCTIONAL  NO_SHORTCUT
         &PBE  T
         &END PBE
       &END XC_FUNCTIONAL
       &VDW_POTENTIAL
         POTENTIAL_TYPE  PAIR_POTENTIAL
         &PAIR_POTENTIAL
           R_CUTOFF     1.0000000000000004E+01
           TYPE  DFTD3
           PARAMETER_FILE_NAME dftd3.dat
           REFERENCE_FUNCTIONAL PBE
           EPS_CN     9.9999999999999995E-07
           CALCULATE_C9_TERM  T
           REFERENCE_C9_TERM  T
           LONG_RANGE_CORRECTION  F
           VERBOSE_OUTPUT  F
         &END PAIR_POTENTIAL
       &END VDW_POTENTIAL
     &END XC
   &END DFT
   &SUBSYS
     &CELL
       A     1.2874802788557993E+01    0.0000000000000000E+00    0.0000000000000000E+00
       B    -6.4471149970010808E+00    1.1166730737045167E+01    0.0000000000000000E+00
       C     0.0000000000000000E+00    0.0000000000000000E+00    2.9000000000000000E+01
       MULTIPLE_UNIT_CELL  1 1 1
       &CELL_REF
         A     1.2982353780853531E+01    0.0000000000000000E+00    0.0000000000000000E+00
         B    -6.4911768904267628E+00    1.1243048175136114E+01    0.0000000000000000E+00
         C     0.0000000000000000E+00    0.0000000000000000E+00    2.9000000000000000E+01
         MULTIPLE_UNIT_CELL  1 1 1
       &END CELL_REF
     &END CELL
     &COORD
Ga    1.6666042474925745E-03    2.5591001976414939E-04   -1.5998104278179440E-01
N   -1.7325845717197825E-03    1.8602333446216031E+00    6.2269750365310805E-01
Ga    2.5750360345644905E-04    1.8606446639367684E+00    2.5574354228148550E+00
N    4.5291308365168393E-04   -5.1342267485589787E-04    3.2417863782562044E+00
Ga    1.3866401580090487E-03   -1.0930535217743142E-03    5.2008015167269575E+00
N    1.0830050213528230E-04    1.8594655630239825E+00    5.8534457359437226E+00
Ga    1.0436945134896874E-03    1.8579487905927587E+00    7.8206034918241070E+00
N    8.9144205370125136E-03   -2.5822185467905714E-03    8.4666087464845461E+00
Ga    1.5141094639560362E-03    4.6488708119431514E-04    1.0456503898414365E+01
N   -1.0076109720343077E-02    1.8648330888964852E+00    1.1038859281310160E+01
Ga   -1.3772785772674531E-02    1.8576135956236430E+00    1.3112672505017523E+01
N   -1.5570902110811490E-03   -2.9295030103605318E-03    1.3451002923413801E+01
Ga   -1.6100903376011195E+00    2.7916268969752775E+00   -1.5932298776565748E-01
N   -1.6134342070143739E+00    4.6523683036897214E+00    6.2128936018308845E-01
Ga   -1.6117290344740516E+00    4.6528485285013401E+00    2.5554108745366948E+00
N   -1.6100150643877413E+00    2.7929012686217138E+00    3.2405354000735636E+00
Ga   -1.6092978074930770E+00    2.7919708153837148E+00    5.1992947322313094E+00
N   -1.6109154913729118E+00    4.6528069183385101E+00    5.8573599673927399E+00
Ga   -1.6080724298048337E+00    4.6518179704836253E+00    7.8265884570318622E+00
N   -1.6067311972667742E+00    2.7897774967501743E+00    8.4650785905133006E+00
Ga   -1.6179140098791582E+00    2.7980864569020318E+00    1.0451710079948375E+01
N   -1.6153691921858631E+00    4.6557612708588394E+00    1.1046004825721200E+01
Ga   -1.6049298598986483E+00    4.6351992490562042E+00    1.3129952433899900E+01
N   -1.6061445775676546E+00    2.7892074066822552E+00    1.3533731145920267E+01
Ga   -3.2221450737168009E+00    5.5833969694864800E+00   -1.6043278361729568E-01
N   -3.2256973412605143E+00    7.4437246082586492E+00    6.2173174877737547E-01
Ga   -3.2235453602838438E+00    7.4437696979979275E+00    2.5560691722922222E+00
N   -3.2209414286762632E+00    5.5835157430578528E+00    3.2420866681568490E+00
Ga   -3.2207521098873624E+00    5.5834344482242857E+00    5.2009617561317327E+00
N   -3.2234603794382717E+00    7.4430264329051790E+00    5.8585903327710183E+00
Ga   -3.2235471986088173E+00    7.4413815552932645E+00    7.8276289200355320E+00
N   -3.2175115750921135E+00    5.5799527234657065E+00    8.4702458841363875E+00
Ga   -3.2262448224197255E+00    5.5851925437087013E+00    1.0463447923814488E+01
N   -3.2326684561249310E+00    7.4483758319102567E+00    1.1042029030765985E+01
Ga   -3.2346374890458907E+00    7.4417223417648870E+00    1.3118614154373534E+01
N   -3.2219704828278393E+00    5.5789762568903667E+00    1.3429936286661281E+01
Ga   -4.8340153877473222E+00    8.3754078883821315E+00   -1.6028338913464801E-01
N   -4.8375778910390803E+00    1.0235289533852885E+01    6.2284647428711293E-01
Ga   -4.8357340420068011E+00    1.0235550874542163E+01    2.5576069493243905E+00
N   -4.8333759879652769E+00    8.3744028806934825E+00    3.2416690584322172E+00
Ga   -4.8327988434642108E+00    8.3746371947537330E+00    5.2007528445285178E+00
N   -4.8350225827020568E+00    1.0235511096204005E+01    5.8534817320528436E+00
Ga   -4.8316082396045443E+00    1.0232681069669901E+01    7.8202961877408557E+00
N   -4.8298924013428151E+00    8.3765788130541932E+00    8.4706809721701788E+00
Ga   -4.8389117222608684E+00    8.3831676192664268E+00    1.0460161147980864E+01
N   -4.8360841961108791E+00    1.0243420280056629E+01    1.1054020404891610E+01
Ga   -4.8300354523593718E+00    1.0229726637891062E+01    1.3145382163161448E+01
N   -4.8344555333427550E+00    8.3750578874077348E+00    1.3507049614287919E+01
Ga    3.2201669096193148E+00    7.4910525266932542E-05   -1.5888026589735921E-01
N    3.2168267177695098E+00    1.8607624232752975E+00    6.2212434261389871E-01
Ga    3.2186392164657862E+00    1.8610653608868575E+00    2.5565263745483837E+00
N    3.2203183997301243E+00    6.3877891870055725E-04    3.2411734971803159E+00
Ga    3.2206379180857776E+00    5.0524007786195864E-04    5.2002772633036241E+00
N    3.2198196743467062E+00    1.8611571940547342E+00    5.8568466735002414E+00
Ga    3.2227918323742766E+00    1.8605361028291307E+00    7.8253583639568660E+00
N    3.2254945997791271E+00   -9.7346440516839141E-04    8.4656380489406402E+00
Ga    3.2163301700659388E+00    6.1550357096814053E-03    1.0451303114795477E+01
N    3.2115836440696306E+00    1.8592060865989868E+00    1.1044098516940142E+01
Ga    3.2213173922856084E+00    1.8473460615787722E+00    1.3124033119395083E+01
N    3.2239932811670760E+00    1.3256783941423286E-03    1.3532062290808035E+01
Ga    1.6083411718254814E+00    2.7916892721996605E+00   -1.6015939897804238E-01
N    1.6047693316046527E+00    4.6521149827750357E+00    6.2143707335347154E-01
Ga    1.6068999440027716E+00    4.6522143698920528E+00    2.5559929120855900E+00
N    1.6090733909967947E+00    2.7919807447400369E+00    3.2419166045013230E+00
Ga    1.6092717651093560E+00    2.7915457157806873E+00    5.2011805751437743E+00
N    1.6056058802459179E+00    4.6518247174386262E+00    5.8564473890847193E+00
Ga    1.6049740080885422E+00    4.6499780684804470E+00    7.8246436736171932E+00
N    1.6120505423207150E+00    2.7881772297423342E+00    8.4646773585946189E+00
Ga    1.6060076444930860E+00    2.7929292260558745E+00    1.0454494251377772E+01
N    1.6065332958122467E+00    4.6531258101443589E+00    1.1037341093406768E+01
Ga    1.6024082711116621E+00    4.6450354245711409E+00    1.3115799031396602E+01
N    1.6069953999217761E+00    2.7880209719538431E+00    1.3451276602315726E+01
Ga   -3.3372264055892089E-03    5.5835870175522997E+00   -1.6147045694251305E-01
N   -6.7802532624827959E-03    7.4433222473663800E+00    6.2193533742298124E-01
Ga   -5.1864422570933261E-03    7.4438116233419169E+00    2.5564487937039071E+00
N   -3.2424626278183088E-03    5.5830692128294110E+00    3.2409739060128673E+00
Ga   -2.3418599034642686E-03    5.5826579525363851E+00    5.1994640020490772E+00
N   -4.9523637531969861E-03    7.4430950467258041E+00    5.8533086229089371E+00
Ga   -2.4133364786594297E-03    7.4403868978194323E+00    7.8206755936694137E+00
N    2.4948476684171454E-04    5.5848417920546352E+00    8.4735903139718989E+00
Ga   -4.4562588069234103E-03    5.5918342899770144E+00    1.0466119987879992E+01
N   -5.0266906948655283E-03    7.4525155955233879E+00    1.1051963547260177E+01
Ga    1.2058872814776427E-04    7.4422725512275099E+00    1.3146940306549233E+01
N    1.4731905577247318E-04    5.5828517808717262E+00    1.3483718963271246E+01
Ga   -1.6150007593178561E+00    8.3752603048695740E+00   -1.5969528862220139E-01
N   -1.6183552777294079E+00    1.0235419947779020E+01    6.2279354878393345E-01
Ga   -1.6163551593447418E+00    1.0235850112698307E+01    2.5574669599579329E+00
N   -1.6152277186373258E+00    8.3747955312782167E+00    3.2414483436632495E+00
Ga   -1.6151885723723429E+00    8.3741562278714401E+00    5.2003609076874984E+00
N   -1.6163068702290251E+00    1.0234691021033843E+01    5.8547590151472724E+00
Ga   -1.6134774593190464E+00    1.0232739620403043E+01    7.8223621079612577E+00
N   -1.6095317625053251E+00    8.3709582960847779E+00    8.4673026274802208E+00
Ga   -1.6169409429702459E+00    8.3730909480955305E+00    1.0458771817232339E+01
N   -1.6266512565066196E+00    1.0236192327094704E+01    1.1040398241584974E+01
Ga   -1.6302716838475100E+00    1.0236479953542254E+01    1.3113032003984376E+01
N   -1.6165610476149157E+00    8.3756769622852651E+00    1.3448208718409283E+01
Ga    6.4388063199213885E+00   -1.0351127116384952E-04   -1.6034339036800230E-01
N    6.4350724569883999E+00    1.8602812988979056E+00    6.2144525621203639E-01
Ga    6.4371568481152694E+00    1.8604996416567769E+00    2.5556543190456655E+00
N    6.4393057740796138E+00    9.1264222411263315E-04    3.2422089063352817E+00
Ga    6.4397438378222738E+00    5.1566415025945818E-04    5.2014626025012056E+00
N    6.4364898023773813E+00    1.8604879854041696E+00    5.8616014013231821E+00
Ga    6.4370129945149310E+00    1.8582233453567158E+00    7.8317341507652793E+00
N    6.4430523463299156E+00   -4.1433897643770208E-03    8.4696812427919781E+00
Ga    6.4376902483542047E+00   -5.2941270433109577E-04    1.0462124131693908E+01
N    6.4318533198835430E+00    1.8583177876811185E+00    1.1045971555734363E+01
Ga    6.4313529134037859E+00    1.8556484136349738E+00    1.3124892246806901E+01
N    6.4412863608533462E+00   -4.1194715347511726E-03    1.3438129265334123E+01
Ga    4.8268242796634686E+00    2.7919349839097523E+00   -1.6103789630997720E-01
N    4.8234032925255876E+00    4.6516760163494739E+00    6.2269215088483532E-01
Ga    4.8251208049574021E+00    4.6521005093870844E+00    2.5574552804339135E+00
N    4.8277366151536585E+00    2.7910846400117113E+00    3.2420305742712041E+00
Ga    4.8279923057454042E+00    2.7905700574985177E+00    5.2006781619305853E+00
N    4.8260621138777768E+00    4.6509959426146521E+00    5.8530014434266855E+00
Ga    4.8298851439794932E+00    4.6478907939156411E+00    7.8201094989974145E+00
N    4.8301456689901325E+00    2.7931215912297986E+00    8.4780525955345070E+00
Ga    4.8228374942571266E+00    2.8011447181799358E+00    1.0472444764200528E+01
N    4.8258242711195862E+00    4.6664730411339645E+00    1.1046856386040890E+01
Ga    4.8254076443220022E+00    4.6596050782506806E+00    1.3135438169199894E+01
N    4.8286516655227842E+00    2.7981849885860903E+00    1.3467095965377952E+01
Ga    3.2155095859069744E+00    5.5836574348582086E+00   -1.5980788132221885E-01
N    3.2123263270338862E+00    7.4437516814574352E+00    6.2215713218935076E-01
Ga    3.2140619089155149E+00    7.4439275851350741E+00    2.5568676467824711E+00
N    3.2149562163795751E+00    5.5832436462746475E+00    3.2415852493880313E+00
Ga    3.2149050685682421E+00    5.5824373944317758E+00    5.2008449314511545E+00
N    3.2149490813576893E+00    7.4442051412423913E+00    5.8524755836566884E+00
Ga    3.2159357197924145E+00    7.4424684295327079E+00    7.8194948433580276E+00
N    3.2203668439830886E+00    5.5796430221115996E+00    8.4573530373209191E+00
Ga    3.2145692807177197E+00    5.5819655709844378E+00    1.0444696912370528E+01
N    3.2002569545609387E+00    7.4412400796355973E+00    1.1028189022651302E+01
Ga    3.1937834216879968E+00    7.4433732576576839E+00    1.3098637362465983E+01
N    3.2110375793475696E+00    5.5870717157864087E+00    1.3471912319446375E+01
Ga    1.6037252875285282E+00    8.3750352016944944E+00   -1.5948634905378342E-01
N    1.6001934412355581E+00    1.0235526205001714E+01    6.2201758761889947E-01
Ga    1.6019868457328506E+00    1.0236127294326081E+01    2.5568441311753332E+00
N    1.6034718393856036E+00    8.3750985352619995E+00    3.2400467324692332E+00
Ga    1.6040159541002144E+00    8.3751428457896377E+00    5.1989666930271055E+00
N    1.6023590036677173E+00    1.0236063552498671E+01    5.8532904968032531E+00
Ga    1.6050927947494731E+00    1.0236200371850325E+01    7.8208027098130044E+00
N    1.6075174535844774E+00    8.3746905545204253E+00    8.4601034677718250E+00
Ga    1.5972372300002164E+00    8.3801528623051880E+00    1.0445389393191821E+01
N    1.6045651562518468E+00    1.0234042011781872E+01    1.1042824768186064E+01
Ga    1.6099798301261110E+00    1.0219759059751688E+01    1.3127367541700993E+01
N    1.6066984804351478E+00    8.3766937371051426E+00    1.3547082063528130E+01
Ga    9.6575355951660473E+00    2.0058908250342384E-04   -1.6080749976210990E-01
N    9.6540554793501272E+00    1.8599320443989105E+00    6.2278396012369097E-01
Ga    9.6557775833375228E+00    1.8604406650902860E+00    2.5578150362812537E+00
N    9.6588275921068849E+00   -7.8459543053156409E-04    3.2414753457174004E+00
Ga    9.6589448004495431E+00   -5.5380626936528279E-04    5.2006118876806280E+00
N    9.6563278606490801E+00    1.8608714937213811E+00    5.8523073661770617E+00
Ga    9.6583358918211815E+00    1.8596042629713290E+00    7.8188702392672766E+00
N    9.6592648873178071E+00    3.1424527659503947E-03    8.4665383222276738E+00
Ga    9.6535963582856681E+00    6.8812091543720170E-03    1.0454806320971985E+01
N    9.6536421416054168E+00    1.8690336632747448E+00    1.1050138912412251E+01
Ga    9.6604254279001136E+00    1.8560442346613895E+00    1.3138582368060387E+01
N    9.6577913818010224E+00    2.7670340467101100E-03    1.3507469694071874E+01
Ga    8.0460215251398779E+00    2.7918875404942090E+00   -1.5930396309231895E-01
N    8.0426236474684689E+00    4.6521282847552339E+00    6.2313787573607982E-01
Ga    8.0445339867819623E+00    4.6523684480888665E+00    2.5579549860391140E+00
N    8.0448729693872227E+00    2.7912344800591420E+00    3.2422966609051675E+00
Ga    8.0451553240575695E+00    2.7908588230398785E+00    5.2013873306493927E+00
N    8.0453475064346218E+00    4.6522877883925791E+00    5.8544768517961163E+00
Ga    8.0476187898991665E+00    4.6505026456258287E+00    7.8214852228515701E+00
N    8.0517076076462146E+00    2.7909283569423842E+00    8.4678581545812968E+00
Ga    8.0412446828813415E+00    2.7942098052300164E+00    1.0457998271339536E+01
N    8.0299963522471991E+00    4.6549402354289464E+00    1.1037331590223383E+01
Ga    8.0274646436247377E+00    4.6532252061023440E+00    1.3109508739262255E+01
N    8.0458161823660799E+00    2.7932699810645105E+00    1.3456617778861661E+01
Ga    6.4340244844491705E+00    5.5834383514984731E+00   -1.5893193152270518E-01
N    6.4303444418364926E+00    7.4440693055863445E+00    6.2197638663914179E-01
Ga    6.4322376469514531E+00    7.4444164891553708E+00    2.5563920628572343E+00
N    6.4339409323149930E+00    5.5840320136326040E+00    3.2413338078905176E+00
Ga    6.4347691764774391E+00    5.5839541236453822E+00    5.2004165582611259E+00
N    6.4321966283408347E+00    7.4452109326474956E+00    5.8551970337654797E+00
Ga    6.4359235329336490E+00    7.4456977136183120E+00    7.8234509673914765E+00
N    6.4382021361502719E+00    5.5831544203966335E+00    8.4608996215378927E+00
Ga    6.4274874257041015E+00    5.5935082427126446E+00    1.0446426076486221E+01
N    6.4337126430542204E+00    7.4467620250574074E+00    1.1047185698759483E+01
Ga    6.4380245073542062E+00    7.4260381815649081E+00    1.3134092292182022E+01
N    6.4360935758798972E+00    5.5823475213598739E+00    1.3547025400654858E+01
Ga    4.8221736805147355E+00    8.3749889170633480E+00   -1.6135564040666217E-01
N    4.8186344221540800E+00    1.0235171945882371E+01    6.2075395305703462E-01
Ga    4.8206403343872184E+00    1.0235415045995902E+01    2.5547427290939404E+00
N    4.8226005549353266E+00    8.3759520147928423E+00    3.2412457881634031E+00
Ga    4.8230470095701712E+00    8.3757347349299049E+00    5.1998261591871913E+00
N    4.8210358874719601E+00    1.0234515741986996E+01    5.8603728521442253E+00
Ga    4.8207305708384798E+00    1.0234548463027698E+01    7.8304439772767225E+00
N    4.8257065480763979E+00    8.3707811817821192E+00    8.4701908361651448E+00
Ga    4.8164016549950732E+00    8.3747359497218508E+00    1.0465375457996098E+01
N    4.8117150534561937E+00    1.0243635138269481E+01    1.1033918671351650E+01
Ga    4.8081419679802195E+00    1.0234673506719261E+01    1.3107880315125616E+01
N    4.8191564616270082E+00    8.3714288786427105E+00    1.3420169706175356E+01
H    4.8205946733055391E+00    8.3748303725923510E+00   -1.7140969896876950E+00
H    1.6027342898602597E+00    8.3749227653318670E+00   -1.7122357922200704E+00
H   -1.6161602782139288E+00    8.3754244341321638E+00   -1.7123174127519896E+00
H   -4.8357659402672866E+00    8.3757187154014332E+00   -1.7129995346587734E+00
H    6.4324124243776568E+00    5.5831821149436491E+00   -1.7115491237775902E+00
H    3.2141629958131204E+00    5.5836464921126829E+00   -1.7125718727804724E+00
H   -4.1900246852917518E-03    5.5836631259151002E+00   -1.7142321934202156E+00
H   -3.2238874339748311E+00    5.5834006778238718E+00   -1.7130568476946129E+00
H    8.0448517028325313E+00    2.7917273587934983E+00   -1.7119948063089294E+00
H    4.8252744068545050E+00    2.7918899985911234E+00   -1.7137800861058485E+00
H    1.6066721435891724E+00    2.7913976213125338E+00   -1.7128729956752815E+00
H   -1.6113023926477583E+00    2.7906013211340577E+00   -1.7119859915431568E+00
H    5.1113033125590166E-04    1.0029357283875615E-04   -1.7125816099685796E+00
H    3.2186690271155558E+00   -3.1074187134977755E-04   -1.7114960633693872E+00
H    6.4373984063882785E+00   -5.3629372105679042E-04   -1.7130796287681682E+00
H    9.6560727460263092E+00   -6.5489610103841968E-05   -1.7136573845239047E+00
     &END COORD
     &KIND H
       BASIS_SET DZVP-MOLOPT-SR-GTH-q1
       POTENTIAL GTH-PBE-q1
       &POTENTIAL
1
0.2000000000000000E+00 2 -0.4178900440000000E+01  0.7244633100000000E+00
0
       &END POTENTIAL
     &END KIND
     &KIND N
       BASIS_SET DZVP-MOLOPT-SR-GTH
       POTENTIAL GTH-PBE-q5
       &POTENTIAL
2 3
0.2837905100000000E+00 2 -0.1241522559000000E+02  0.1868095920000000E+01
2
0.2554050000000000E+00 1  0.1363026257000000E+02
0.2454945300000000E+00 0
       &END POTENTIAL
     &END KIND
     &KIND Ga
       BASIS_SET DZVP-MOLOPT-SR-GTH
       POTENTIAL GTH-PBE-q13
       &POTENTIAL
2 1 10
0.4900000000000000E+00 0
3
0.4167772300000000E+00 3  0.1047568975000000E+02 -0.4921768140000000E+01  0.8707055900000000E+00
0.7770178090000000E+01 -0.2248152160000000E+01
0.1784415450000000E+01
0.5696265200000000E+00 2  0.1777985340000000E+01  0.1958597600000000E+00
-0.2317443900000000E+00
0.2381265000000000E+00 1 -0.1624868022000000E+02
       &END POTENTIAL
     &END KIND
     &TOPOLOGY
       NUMBER_OF_ATOMS  208
       MULTIPLE_UNIT_CELL  1 1 1
     &END TOPOLOGY
   &END SUBSYS
 &END FORCE_EVAL
