 # Version information for this restart file 
 # current date 2019-05-25 21:48:15.205
 # current working dir /lustre03/project/6004141/rzk/GaN-carbene/00-Surface/00-Preoptimization/443-capped/CELL_OPT
 # Program compiled at                              Sun Apr  7 00:48:11 EDT 2019
 # Program compiled on                          beluga2.int.ets1.calculquebec.ca
 # Program compiled for                        Beluga-Linux-x86-64-intel-openmpi
 # Source code revision number                                         svn:18619
 &GLOBAL
   PRINT_LEVEL  MEDIUM
   PROJECT_NAME TEST
   RUN_TYPE  CELL_OPT
 &END GLOBAL
 &MOTION
   &CELL_OPT
     MAX_ITER  300
     STEP_START_VAL  8
     EXTERNAL_PRESSURE     1.0000000000000000E+00
     KEEP_ANGLES  T
     KEEP_SYMMETRY  T
     CONSTRAINT  Z
     PRESSURE_TOLERANCE     5.0000000000000000E+02
   &END CELL_OPT
 &END MOTION
 &FORCE_EVAL
   METHOD  QS
   STRESS_TENSOR  ANALYTICAL
   &DFT
     BASIS_SET_FILE_NAME BASIS_MOLOPT
     POTENTIAL_FILE_NAME GTH_POTENTIALS
     SURFACE_DIPOLE_CORRECTION  T
     SURF_DIP_DIR  Z
     &SCF
       MAX_SCF  100
       EPS_SCF     5.0000000000000004E-06
       &OT  T
         PRECONDITIONER  FULL_ALL
       &END OT
       &OUTER_SCF  T
         OPTIMIZER  NONE
         EPS_SCF     5.0000000000000004E-06
         MAX_SCF  4
       &END OUTER_SCF
       &PRINT
         &RESTART  OFF
           BACKUP_COPIES  1
           &EACH
             JUST_ENERGY  0
             QS_SCF  0
             MD  20
           &END EACH
         &END RESTART
       &END PRINT
     &END SCF
     &QS
       EPS_DEFAULT     1.0000000000000000E-14
       METHOD  GPW
     &END QS
     &MGRID
       NGRIDS  5
       CUTOFF     1.2000000000000000E+03
     &END MGRID
     &XC
       DENSITY_CUTOFF     1.0000000000000000E-10
       GRADIENT_CUTOFF     1.0000000000000000E-10
       TAU_CUTOFF     1.0000000000000000E-10
       &XC_FUNCTIONAL  NO_SHORTCUT
         &PBE  T
         &END PBE
       &END XC_FUNCTIONAL
       &VDW_POTENTIAL
         POTENTIAL_TYPE  PAIR_POTENTIAL
         &PAIR_POTENTIAL
           R_CUTOFF     1.0000000000000004E+01
           TYPE  DFTD3
           PARAMETER_FILE_NAME dftd3.dat
           REFERENCE_FUNCTIONAL PBE
           EPS_CN     9.9999999999999995E-07
           CALCULATE_C9_TERM  T
           REFERENCE_C9_TERM  T
           LONG_RANGE_CORRECTION  F
           VERBOSE_OUTPUT  F
         &END PAIR_POTENTIAL
       &END VDW_POTENTIAL
     &END XC
   &END DFT
   &SUBSYS
     &CELL
       A     1.2891049978018200E+01    0.0000000000000000E+00    0.0000000000000000E+00
       B    -6.4461031326083926E+00    1.1164978136506656E+01    0.0000000000000000E+00
       C     0.0000000000000000E+00    0.0000000000000000E+00    2.9000000000000000E+01
       MULTIPLE_UNIT_CELL  1 1 1
       &CELL_REF
         A     1.2982353780853531E+01    0.0000000000000000E+00    0.0000000000000000E+00
         B    -6.4911768904267628E+00    1.1243048175136114E+01    0.0000000000000000E+00
         C     0.0000000000000000E+00    0.0000000000000000E+00    2.9000000000000000E+01
         MULTIPLE_UNIT_CELL  1 1 1
       &END CELL_REF
     &END CELL
     &COORD
Ga    6.3445988932761446E-04   -4.0781728326909003E-04   -1.4967722950744511E-01
N    4.5111337548626258E-04    1.8609363766616798E+00    6.2898492290251640E-01
Ga    7.8562321732273278E-04    1.8607195150259477E+00    2.5653348134065097E+00
N    3.1894931381922452E-04   -4.7991171386621638E-04    3.2462428692000200E+00
Ga    1.2494115602490086E-03   -3.4579001848819650E-04    5.2050733635017785E+00
N    9.4862789705555447E-04    1.8603641968343292E+00    5.8575480797549879E+00
Ga    6.8298319099822816E-04    1.8604700196166193E+00    7.8224211763987288E+00
N    5.4800908412040612E-03    8.0806744961881461E-05    8.4647226230486101E+00
Ga    1.4943290938938542E-03   -1.1815227723666675E-03    1.0449010770220582E+01
N   -2.3379097941198523E-03    1.8620950400123046E+00    1.1031386111287789E+01
Ga   -1.1050368431274188E-03    1.8599645827006501E+00    1.3101775673642916E+01
N   -2.8547616950923667E-04   -2.2083585446286951E-03    1.3453989368006312E+01
Ga   -1.6106763941088691E+00    2.7910232919787723E+00   -1.5012799399297083E-01
N   -1.6109759672145236E+00    4.6523336302979521E+00    6.2760767702132958E-01
Ga   -1.6104834976310143E+00    4.6517139335630837E+00    2.5636924283021725E+00
N   -1.6106700115074983E+00    2.7914943587834342E+00    3.2458992536459039E+00
Ga   -1.6101812991229028E+00    2.7908996701270281E+00    5.2044236300769331E+00
N   -1.6103959811230162E+00    4.6519197254346407E+00    5.8583399510135443E+00
Ga   -1.6093461019114139E+00    4.6513240413573431E+00    7.8255096074729380E+00
N   -1.6087447413208891E+00    2.7888404804470865E+00    8.4649104676984308E+00
Ga   -1.6134930486890959E+00    2.7945339309606179E+00    1.0448122139727815E+01
N   -1.6149005655315540E+00    4.6539978017490329E+00    1.1034445240291626E+01
Ga   -1.6070128104258867E+00    4.6492682109650163E+00    1.3112593974346012E+01
N   -1.6087031375711285E+00    2.7892430161387796E+00    1.3483717485691363E+01
Ga   -3.2221074089171848E+00    5.5824621467941347E+00   -1.5104168161010595E-01
N   -3.2226312557626686E+00    7.4433862517861593E+00    6.2794376906139293E-01
Ga   -3.2219738887140577E+00    7.4429375666484070E+00    2.5639295869868524E+00
N   -3.2215504389901755E+00    5.5823616795600408E+00    3.2452757383761979E+00
Ga   -3.2222386082708718E+00    5.5822764018330453E+00    5.2043977415541445E+00
N   -3.2221761110745826E+00    7.4433712975295361E+00    5.8586914378771002E+00
Ga   -3.2224335203973107E+00    7.4428394172427037E+00    7.8258368187540732E+00
N   -3.2203840068140273E+00    5.5798943316960905E+00    8.4645177994881511E+00
Ga   -3.2251236215945678E+00    5.5823852795445612E+00    1.0450466448156151E+01
N   -3.2238027791165567E+00    7.4458908414101854E+00    1.1033944077589458E+01
Ga   -3.2265476984929360E+00    7.4436195495303945E+00    1.3103175109423317E+01
N   -3.2231252415712595E+00    5.5826328732318391E+00    1.3441505275369012E+01
Ga   -4.8338362203337644E+00    8.3735294992815703E+00   -1.5043643752345062E-01
N   -4.8342542245632201E+00    1.0234522711103583E+01    6.2903220792757819E-01
Ga   -4.8337132965255414E+00    1.0234096367781849E+01    2.5654265898461825E+00
N   -4.8333544107807516E+00    8.3728429270098772E+00    3.2461076705344092E+00
Ga   -4.8343050182210572E+00    8.3735189628812741E+00    5.2051235055681637E+00
N   -4.8339049108834455E+00    1.0234423239868123E+01    5.8568122462806471E+00
Ga   -4.8316693281942733E+00    1.0232973512066986E+01    7.8222900736586212E+00
N   -4.8322378283238763E+00    8.3739740001217395E+00    8.4663366247353267E+00
Ga   -4.8343328322479300E+00    8.3753874587432335E+00    1.0452220967367637E+01
N   -4.8359351757548588E+00    1.0238474284659709E+01    1.1034726398262942E+01
Ga   -4.8311241516585746E+00    1.0231397178321284E+01    1.3113630504526325E+01
N   -4.8339027457888877E+00    8.3721771564309346E+00    1.3473647944563988E+01
Ga    3.2234800289647905E+00   -1.4781861612954745E-04   -1.4933570630493220E-01
N    3.2232801819196641E+00    1.8610254395923858E+00    6.2860236199005237E-01
Ga    3.2238231235597836E+00    1.8603983890204214E+00    2.5648422908846618E+00
N    3.2236269150563914E+00   -1.4615829687051975E-04    3.2462621495831478E+00
Ga    3.2241656427941603E+00   -5.1344008395340357E-04    5.2051076769784430E+00
N    3.2229771282096524E+00    1.8605206751711130E+00    5.8586816462369171E+00
Ga    3.2255905255431965E+00    1.8587929888073422E+00    7.8259290199852733E+00
N    3.2256302065638094E+00   -2.9207780747014613E-03    8.4659294602103650E+00
Ga    3.2205727622701308E+00    7.2676091859454983E-04    1.0448902310504945E+01
N    3.2161081599891257E+00    1.8594313668751146E+00    1.1035056321417349E+01
Ga    3.2247032454559310E+00    1.8586775987911361E+00    1.3111924515687553E+01
N    3.2271349071310302E+00   -1.4644527552192747E-03    1.3481413744512743E+01
Ga    1.6121712671559245E+00    2.7910773171160890E+00   -1.4993753932821602E-01
N    1.6115432958072802E+00    4.6522545325850544E+00    6.2830194994367816E-01
Ga    1.6123074063556182E+00    4.6517604385969209E+00    2.5642328956915645E+00
N    1.6124476030520247E+00    2.7913456186293084E+00    3.2461585690236734E+00
Ga    1.6122634901429371E+00    2.7909866382495836E+00    5.2051340783842912E+00
N    1.6118365978002951E+00    4.6520303643532248E+00    5.8595203567999352E+00
Ga    1.6118235444228266E+00    4.6509934066115983E+00    7.8266638818177467E+00
N    1.6122121529201081E+00    2.7885567564910239E+00    8.4635982154160274E+00
Ga    1.6125546251346432E+00    2.7911883189517739E+00    1.0447925466716015E+01
N    1.6132409908345478E+00    4.6514897996762699E+00    1.1031485331273840E+01
Ga    1.6108048194031306E+00    4.6513979781718948E+00    1.3102813980556515E+01
N    1.6108934174727378E+00    2.7921629729824660E+00    1.3450201352868714E+01
Ga    6.7277526883926402E-04    5.5822862520826027E+00   -1.5128323436338215E-01
N    1.6302729385261956E-04    7.4432804307309395E+00    6.2819370661504803E-01
Ga    7.2254678780055539E-04    7.4429491103784917E+00    2.5644238017656535E+00
N    8.4210248691660801E-04    5.5818560667563952E+00    3.2456044989786337E+00
Ga    5.8460454777156678E-04    5.5823654150621733E+00    5.2045789258521529E+00
N    7.0881276944346767E-04    7.4431864172934574E+00    5.8563870795145814E+00
Ga    2.1786706365143496E-03    7.4420988217398669E+00    7.8222831938820470E+00
N    1.8490326651064400E-03    5.5828409328836548E+00    8.4693358395197471E+00
Ga    1.4925246521314856E-03    5.5845775100599946E+00    1.0458804485006587E+01
N   -1.4789807715890569E-03    7.4505582862387687E+00    1.1032590807653511E+01
Ga    4.4367629601132930E-03    7.4423564946829908E+00    1.3114766923334049E+01
N    2.0982365874015699E-03    5.5816238851333768E+00    1.3462730379639044E+01
Ga   -1.6109666089886547E+00    8.3735406234746801E+00   -1.5028968377228355E-01
N   -1.6111965360192615E+00    1.0234691067945880E+01    6.2854246891503662E-01
Ga   -1.6108795438199157E+00    1.0234418579058714E+01    2.5650509141919433E+00
N   -1.6109412177517057E+00    8.3731281588940600E+00    3.2454633852507979E+00
Ga   -1.6106466828253536E+00    8.3736849755858138E+00    5.2042202541289058E+00
N   -1.6107993229338440E+00    1.0233956453362191E+01    5.8575126788145448E+00
Ga   -1.6112121930841850E+00    1.0234463235739360E+01    7.8223875857339538E+00
N   -1.6076375785906127E+00    8.3728609519801402E+00    8.4621159503090269E+00
Ga   -1.6107479799059483E+00    8.3731979902000369E+00    1.0445457281195628E+01
N   -1.6134725067273954E+00    1.0233787987081605E+01    1.1031963817722586E+01
Ga   -1.6134559871701442E+00    1.0232992787838741E+01    1.3103489709650290E+01
N   -1.6124155427058502E+00    8.3700705990219806E+00    1.3452889579448929E+01
Ga    6.4464782076924818E+00   -1.9438500856837311E-04   -1.5054396006049256E-01
N    6.4458487788319196E+00    1.8608492853604768E+00    6.2788464934710930E-01
Ga    6.4465534836247631E+00    1.8604381348252377E+00    2.5638891298229955E+00
N    6.4469886087332711E+00    3.5797112103400073E-05    3.2456463203571864E+00
Ga    6.4461039227011732E+00   -1.9245616063863247E-04    5.2047739350521711E+00
N    6.4463068404880159E+00    1.8604677560466087E+00    5.8606994940979433E+00
Ga    6.4460197453092238E+00    1.8607327619985852E+00    7.8292012438336176E+00
N    6.4482354297321729E+00   -4.4227937395344167E-03    8.4644559932244654E+00
Ga    6.4479760502297179E+00   -8.1082023705428155E-04    1.0449706130309037E+01
N    6.4448626320503291E+00    1.8587722797672037E+00    1.1036101997911480E+01
Ga    6.4462818007746270E+00    1.8609923942717295E+00    1.3105948089816303E+01
N    6.4463923069983720E+00   -4.1077821200399486E-04    1.3444124150309920E+01
Ga    4.8347512577694749E+00    2.7909051915632967E+00   -1.5070260201636121E-01
N    4.8342936360861515E+00    4.6519670413832239E+00    6.2851773269526834E-01
Ga    4.8349441935076110E+00    4.6517563907013812E+00    2.5650356894530448E+00
N    4.8353545640563969E+00    2.7905405366391065E+00    3.2460342070613244E+00
Ga    4.8344673346657121E+00    2.7909469306728365E+00    5.2055942696317485E+00
N    4.8343212907122339E+00    4.6517580037647352E+00    5.8568740965112518E+00
Ga    4.8373753965490547E+00    4.6502602049439874E+00    7.8229671124706917E+00
N    4.8349094845825276E+00    2.7915286415180813E+00    8.4717410717312251E+00
Ga    4.8321757386466828E+00    2.7937160632919111E+00    1.0461359256344192E+01
N    4.8329627420279175E+00    4.6616032611580982E+00    1.1032226691467621E+01
Ga    4.8363112520013036E+00    4.6526728510652653E+00    1.3112174195830725E+01
N    4.8355066070884716E+00    2.7915169952849221E+00    1.3456248280517944E+01
Ga    3.2231663766734142E+00    5.5823020852219036E+00   -1.4993058848802190E-01
N    3.2230318928226946E+00    7.4435530231045925E+00    6.2857377498550393E-01
Ga    3.2233317745982419E+00    7.4431612570491996E+00    2.5649683320897414E+00
N    3.2230762657253891E+00    5.5821858698368203E+00    3.2458502007007817E+00
Ga    3.2238877460651407E+00    5.5823818023493459E+00    5.2049085455126383E+00
N    3.2236321710209048E+00    7.4431652653475124E+00    5.8575736249329422E+00
Ga    3.2232670513087949E+00    7.4433082457638218E+00    7.8228060560178880E+00
N    3.2261494772633701E+00    5.5816163210244909E+00    8.4601012453414643E+00
Ga    3.2238567367324360E+00    5.5795140151221405E+00    1.0441450244758855E+01
N    3.2160407066109302E+00    7.4383473857939428E+00    1.1027803141703904E+01
Ga    3.2183875842326750E+00    7.4430450178026089E+00    1.3101108082628555E+01
N    3.2212436092676278E+00    5.5811329201032089E+00    1.3461522386124237E+01
Ga    1.6117709229640755E+00    8.3735998770620679E+00   -1.5004822569522300E-01
N    1.6114565649872179E+00    1.0234765137493982E+01    6.2830582346523889E-01
Ga    1.6121468400826746E+00    1.0234111620317879E+01    2.5644575386968840E+00
N    1.6117971367185937E+00    8.3734946020444863E+00    3.2457832480832063E+00
Ga    1.6126236319257861E+00    8.3732310078659005E+00    5.2044621682220695E+00
N    1.6117377472277779E+00    1.0234323542743089E+01    5.8568351345210106E+00
Ga    1.6136237289200046E+00    1.0233289429798612E+01    7.8230400866838776E+00
N    1.6138485286532280E+00    8.3720013891153382E+00    8.4624195053568894E+00
Ga    1.6078220215042265E+00    8.3756054798559436E+00    1.0445102261092849E+01
N    1.6101465399095261E+00    1.0233136721596285E+01    1.1030932536884038E+01
Ga    1.6163446783128457E+00    1.0231944833794552E+01    1.3109758670096442E+01
N    1.6145969833659466E+00    8.3739767973103714E+00    1.3493533589392181E+01
Ga    9.6691977340010773E+00   -4.9882749505735110E-04   -1.5074534280223792E-01
N    9.6686950555000539E+00    1.8607248113784240E+00    6.2838198586940208E-01
Ga    9.6692618643193828E+00    1.8604398368632507E+00    2.5648321397214411E+00
N    9.6698029625569273E+00   -8.1868651320504986E-04    3.2459332977207764E+00
Ga    9.6692465088149131E+00   -4.4584953848172666E-04    5.2049092767715237E+00
N    9.6694179565160496E+00    1.8605507220167439E+00    5.8555658870763230E+00
Ga    9.6706579866488500E+00    1.8601364936232050E+00    7.8204949510968831E+00
N    9.6694693312916637E+00    1.8641231748187210E-03    8.4662188032305146E+00
Ga    9.6663793195354870E+00    8.2383026124721852E-04    1.0452789070756417E+01
N    9.6660427251151635E+00    1.8666866787471639E+00    1.1033104148673889E+01
Ga    9.6706259626198268E+00    1.8586112328955078E+00    1.3111152523004975E+01
N    9.6695215170900255E+00    1.4158094094645415E-04    1.3473577687874640E+01
Ga    8.0574038382149258E+00    2.7908126212972899E+00   -1.5024892825172673E-01
N    8.0572856505697903E+00    4.6521901395498109E+00    6.2824209329034986E-01
Ga    8.0575747211825686E+00    4.6517715377485755E+00    2.5648714551895444E+00
N    8.0573513868321225E+00    2.7906056106490698E+00    3.2455838667346932E+00
Ga    8.0577390833053304E+00    2.7913942420485154E+00    5.2046293849699135E+00
N    8.0579683048653727E+00    4.6520876760247312E+00    5.8566016302101866E+00
Ga    8.0575993156807417E+00    4.6518348940458241E+00    7.8218673033056900E+00
N    8.0627022020620203E+00    2.7909715368738999E+00    8.4621298089194621E+00
Ga    8.0548222889160375E+00    2.7912996171952211E+00    1.0444831652244220E+01
N    8.0523516819474423E+00    4.6501609618945396E+00    1.1030544747579173E+01
Ga    8.0526976936818233E+00    4.6517376853973111E+00    1.3100941158390064E+01
N    8.0567857305256858E+00    2.7904888714918683E+00    1.3458612203948149E+01
Ga    6.4458611867653124E+00    5.5824544361027550E+00   -1.4985092201195760E-01
N    6.4455246470439889E+00    7.4435509855883035E+00    6.2837866752776583E-01
Ga    6.4462310654541959E+00    7.4429079833686806E+00    2.5645881152960843E+00
N    6.4460488441959694E+00    5.5824550782533233E+00    3.2458971465909552E+00
Ga    6.4461339340371397E+00    5.5817431267113209E+00    5.2050343532857903E+00
N    6.4455952219282429E+00    7.4433816818357315E+00    5.8578212747463798E+00
Ga    6.4481578704909719E+00    7.4413581912997167E+00    7.8247992583121322E+00
N    6.4484030229106573E+00    5.5806757883312867E+00    8.4630969321063940E+00
Ga    6.4429341747850470E+00    5.5844034847284263E+00    1.0444834342086310E+01
N    6.4443433882680115E+00    7.4432667489692568E+00    1.1033568966710080E+01
Ga    6.4512945230695795E+00    7.4391763841487091E+00    1.3111180521235507E+01
N    6.4488214269383013E+00    5.5802607692051840E+00    1.3490339291188954E+01
Ga    4.8345233475267504E+00    8.3736953868618382E+00   -1.5067360200337965E-01
N    4.8340126431284656E+00    1.0234545243396628E+01    6.2824553315333675E-01
Ga    4.8346825464247551E+00    1.0234195112559272E+01    2.5640213988895861E+00
N    4.8348713952285838E+00    8.3739130876942660E+00    3.2458168540113665E+00
Ga    4.8346195592273151E+00    8.3732125381288665E+00    5.2051087490242072E+00
N    4.8347725654529787E+00    1.0234224699684788E+01    5.8614511140353081E+00
Ga    4.8352480842468371E+00    1.0234218440127602E+01    7.8298989987155379E+00
N    4.8359260241533715E+00    8.3701821910593139E+00    8.4677285822156403E+00
Ga    4.8335467955032207E+00    8.3712268805129177E+00    1.0455437971908927E+01
N    4.8320980400026876E+00    1.0237081369516172E+01    1.1033612569358818E+01
Ga    4.8305953300196816E+00    1.0235559994813242E+01    1.3103268226113251E+01
N    4.8334949679371615E+00    8.3734583482816323E+00    1.3439245665487469E+01
H    4.8339383182112234E+00    8.3737078715117050E+00   -1.7046531341538258E+00
H    1.6114704081091960E+00    8.3737915795186311E+00   -1.7041010064322701E+00
H   -1.6112050145823551E+00    8.3739484131775885E+00   -1.7043350447250010E+00
H   -4.8343354882247933E+00    8.3739078431234031E+00   -1.7043620984039130E+00
H    6.4456117810579840E+00    5.5825958116224301E+00   -1.7040114560068089E+00
H    3.2229868444858698E+00    5.5827957805550508E+00   -1.7039822146209207E+00
H    3.3801982812378353E-04    5.5828709975643358E+00   -1.7052307624439482E+00
H   -3.2227262755410062E+00    5.5827509265439161E+00   -1.7050932351095989E+00
H    8.0572111238850344E+00    2.7909052974972770E+00   -1.7043425623707364E+00
H    4.8343350417078472E+00    2.7909805137757377E+00   -1.7046726309889813E+00
H    1.6115703641572594E+00    2.7909865460475594E+00   -1.7038614735705562E+00
H   -1.6111287689633664E+00    2.7906323146743897E+00   -1.7042428780346830E+00
H    3.6302657516441806E-04   -4.2849504776326815E-04   -1.7036231098098431E+00
H    3.2232192995287026E+00   -4.3324696735276785E-04   -1.7034385005894030E+00
H    6.4459230583707656E+00   -4.7391233721369956E-04   -1.7045328962283515E+00
H    9.6684940298316704E+00   -4.9761676461879058E-04   -1.7046704298253068E+00
     &END COORD
     &KIND H
       BASIS_SET DZVP-MOLOPT-SR-GTH-q1
       POTENTIAL GTH-PBE-q1
       &POTENTIAL
1
0.2000000000000000E+00 2 -0.4178900440000000E+01  0.7244633100000000E+00
0
       &END POTENTIAL
     &END KIND
     &KIND N
       BASIS_SET DZVP-MOLOPT-SR-GTH
       POTENTIAL GTH-PBE-q5
       &POTENTIAL
2 3
0.2837905100000000E+00 2 -0.1241522559000000E+02  0.1868095920000000E+01
2
0.2554050000000000E+00 1  0.1363026257000000E+02
0.2454945300000000E+00 0
       &END POTENTIAL
     &END KIND
     &KIND Ga
       BASIS_SET DZVP-MOLOPT-SR-GTH
       POTENTIAL GTH-PBE-q13
       &POTENTIAL
2 1 10
0.4900000000000000E+00 0
3
0.4167772300000000E+00 3  0.1047568975000000E+02 -0.4921768140000000E+01  0.8707055900000000E+00
0.7770178090000000E+01 -0.2248152160000000E+01
0.1784415450000000E+01
0.5696265200000000E+00 2  0.1777985340000000E+01  0.1958597600000000E+00
-0.2317443900000000E+00
0.2381265000000000E+00 1 -0.1624868022000000E+02
       &END POTENTIAL
     &END KIND
     &TOPOLOGY
       NUMBER_OF_ATOMS  208
       MULTIPLE_UNIT_CELL  1 1 1
     &END TOPOLOGY
   &END SUBSYS
 &END FORCE_EVAL
