 # Version information for this restart file 
 # current date 2019-05-25 22:42:25.183
 # current working dir /lustre03/project/6004141/rzk/GaN-carbene/00-Surface/00-Preoptimization/443-capped/CELL_OPT
 # Program compiled at                              Sun Apr  7 00:48:11 EDT 2019
 # Program compiled on                          beluga2.int.ets1.calculquebec.ca
 # Program compiled for                        Beluga-Linux-x86-64-intel-openmpi
 # Source code revision number                                         svn:18619
 &GLOBAL
   PRINT_LEVEL  MEDIUM
   PROJECT_NAME TEST
   RUN_TYPE  CELL_OPT
 &END GLOBAL
 &MOTION
   &CELL_OPT
     MAX_ITER  300
     STEP_START_VAL  19
     EXTERNAL_PRESSURE     1.0000000000000000E+00
     KEEP_ANGLES  T
     KEEP_SYMMETRY  T
     CONSTRAINT  Z
     PRESSURE_TOLERANCE     5.0000000000000000E+02
   &END CELL_OPT
 &END MOTION
 &FORCE_EVAL
   METHOD  QS
   STRESS_TENSOR  ANALYTICAL
   &DFT
     BASIS_SET_FILE_NAME BASIS_MOLOPT
     POTENTIAL_FILE_NAME GTH_POTENTIALS
     SURFACE_DIPOLE_CORRECTION  T
     SURF_DIP_DIR  Z
     &SCF
       MAX_SCF  100
       EPS_SCF     5.0000000000000004E-06
       &OT  T
         PRECONDITIONER  FULL_ALL
       &END OT
       &OUTER_SCF  T
         OPTIMIZER  NONE
         EPS_SCF     5.0000000000000004E-06
         MAX_SCF  4
       &END OUTER_SCF
       &PRINT
         &RESTART  OFF
           BACKUP_COPIES  1
           &EACH
             JUST_ENERGY  0
             QS_SCF  0
             MD  20
           &END EACH
         &END RESTART
       &END PRINT
     &END SCF
     &QS
       EPS_DEFAULT     1.0000000000000000E-14
       METHOD  GPW
     &END QS
     &MGRID
       NGRIDS  5
       CUTOFF     1.2000000000000000E+03
     &END MGRID
     &XC
       DENSITY_CUTOFF     1.0000000000000000E-10
       GRADIENT_CUTOFF     1.0000000000000000E-10
       TAU_CUTOFF     1.0000000000000000E-10
       &XC_FUNCTIONAL  NO_SHORTCUT
         &PBE  T
         &END PBE
       &END XC_FUNCTIONAL
       &VDW_POTENTIAL
         POTENTIAL_TYPE  PAIR_POTENTIAL
         &PAIR_POTENTIAL
           R_CUTOFF     1.0000000000000004E+01
           TYPE  DFTD3
           PARAMETER_FILE_NAME dftd3.dat
           REFERENCE_FUNCTIONAL PBE
           EPS_CN     9.9999999999999995E-07
           CALCULATE_C9_TERM  T
           REFERENCE_C9_TERM  T
           LONG_RANGE_CORRECTION  F
           VERBOSE_OUTPUT  F
         &END PAIR_POTENTIAL
       &END VDW_POTENTIAL
     &END XC
   &END DFT
   &SUBSYS
     &CELL
       A     1.2842521495889475E+01    0.0000000000000000E+00    0.0000000000000000E+00
       B    -6.4482720568958571E+00    1.1168734823570324E+01    0.0000000000000000E+00
       C     0.0000000000000000E+00    0.0000000000000000E+00    2.9000000000000000E+01
       MULTIPLE_UNIT_CELL  1 1 1
       &CELL_REF
         A     1.2982353780853531E+01    0.0000000000000000E+00    0.0000000000000000E+00
         B    -6.4911768904267628E+00    1.1243048175136114E+01    0.0000000000000000E+00
         C     0.0000000000000000E+00    0.0000000000000000E+00    2.9000000000000000E+01
         MULTIPLE_UNIT_CELL  1 1 1
       &END CELL_REF
     &END CELL
     &COORD
Ga    1.9566022811597426E-03    7.7833082886435902E-04   -1.6669968954031167E-01
N   -5.4740981240113586E-03    1.8584455965800089E+00    6.1762166331718493E-01
Ga   -2.0269722260298968E-03    1.8598245821663855E+00    2.5511542398138425E+00
N    2.8527085145944051E-03    1.1502465326541388E-03    3.2356002193053204E+00
Ga    3.9424083869631739E-03    1.8472270347732816E-04    5.1950681383555537E+00
N   -2.1160096413512784E-03    1.8578617900892960E+00    5.8571623570773159E+00
Ga    7.6868072206952233E-04    1.8576647344845929E+00    7.8253555808728326E+00
N    1.3208257046752256E-02    1.2910405929588017E-03    8.4819888481496601E+00
Ga    8.6531417097125418E-03    5.7608791602067923E-03    1.0467364561672326E+01
N   -9.9617448333706327E-03    1.8664542593020541E+00    1.1056253028993446E+01
Ga   -2.6410660113017327E-02    1.8560014877232673E+00    1.3114785938821544E+01
N   -7.6337918380370356E-03   -1.5822772989315620E-03    1.3446370597312185E+01
Ga   -1.6103004097701135E+00    2.7927150168745651E+00   -1.6553349222623659E-01
N   -1.6179768396598122E+00    4.6511713791311609E+00    6.1556552198025583E-01
Ga   -1.6149833860274891E+00    4.6527408327720581E+00    2.5490965946948263E+00
N   -1.6083650284474944E+00    2.7944076585839408E+00    3.2352971141017117E+00
Ga   -1.6079833978472295E+00    2.7943296280738976E+00    5.1953615289286379E+00
N   -1.6139841920791835E+00    4.6509216038682135E+00    5.8565353165269078E+00
Ga   -1.6124947739218114E+00    4.6524851919744519E+00    7.8263567459788144E+00
N   -1.6037439641439211E+00    2.7899851762999601E+00    8.4733083123899888E+00
Ga   -1.6172685064727779E+00    2.8034373615114201E+00    1.0452554369765364E+01
N   -1.6120914160979003E+00    4.6545277039196922E+00    1.1056371194271062E+01
Ga   -1.6155694465349253E+00    4.6279551252434734E+00    1.3123815421276095E+01
N   -1.6116729288725780E+00    2.7913298438568050E+00    1.3556932148527975E+01
Ga   -3.2227064873135252E+00    5.5851478576159970E+00   -1.6630900939971049E-01
N   -3.2301137202445305E+00    7.4430816868975107E+00    6.1677881563240122E-01
Ga   -3.2268340527621802E+00    7.4444187936564417E+00    2.5504177313093792E+00
N   -3.2203562249810975E+00    5.5862434908517695E+00    3.2352767427272640E+00
Ga   -3.2194221670637386E+00    5.5845198571824692E+00    5.1964878679027020E+00
N   -3.2263354073126447E+00    7.4430995698250859E+00    5.8593164450545414E+00
Ga   -3.2249462422854691E+00    7.4427284776642040E+00    7.8299854435561818E+00
N   -3.2164604818232085E+00    5.5844035652953865E+00    8.4818798536908400E+00
Ga   -3.2238437085440377E+00    5.5912573063881483E+00    1.0465300483317254E+01
N   -3.2365149616735427E+00    7.4515617483727103E+00    1.1053866511093785E+01
Ga   -3.2490379393655671E+00    7.4392953222874771E+00    1.3110079342138345E+01
N   -3.2223655730206859E+00    5.5813664294476073E+00    1.3438758560398517E+01
Ga   -4.8347155664553725E+00    8.3776227646520471E+00   -1.6611569257520353E-01
N   -4.8422027817233015E+00    1.0235472263800382E+01    6.1767675834483993E-01
Ga   -4.8386194518943606E+00    1.0236627905771945E+01    2.5513437763102167E+00
N   -4.8322898231478657E+00    8.3779420664864759E+00    3.2357753848120505E+00
Ga   -4.8304873731268669E+00    8.3766312046397839E+00    5.1953019897794404E+00
N   -4.8382610011884815E+00    1.0235911491426977E+01    5.8545463251058232E+00
Ga   -4.8341099697466943E+00    1.0235597421479511E+01    7.8212052430744841E+00
N   -4.8289379087211408E+00    8.3822684297747525E+00    8.4760648602894761E+00
Ga   -4.8347782834905138E+00    8.3896040196564545E+00    1.0456698548183219E+01
N   -4.8382768255031836E+00    1.0238549716747897E+01    1.1072086712366957E+01
Ga   -4.8391158882608041E+00    1.0222449888755829E+01    1.3161734057120235E+01
N   -4.8388168369819198E+00    8.3755899550841910E+00    1.3536948870717614E+01
Ga    3.2126173410935133E+00    8.0625626676042830E-04   -1.6522093894023213E-01
N    3.2047402391651301E+00    1.8590324153212983E+00    6.1656117717436576E-01
Ga    3.2083025557152358E+00    1.8603366683103026E+00    2.5501947706546231E+00
N    3.2141010533002903E+00    2.0893319453313590E-03    3.2361481571202075E+00
Ga    3.2164506305466629E+00    1.2602212277628324E-03    5.1964405735420449E+00
N    3.2084839677942836E+00    1.8596363809276348E+00    5.8559165162139237E+00
Ga    3.2115090863066036E+00    1.8598942911466736E+00    7.8256580435995096E+00
N    3.2186004958857524E+00   -5.4043895742358439E-04    8.4728369229156044E+00
Ga    3.2078542086931479E+00    6.9337475193911886E-03    1.0451387597227045E+01
N    3.2034611841990257E+00    1.8612270197054321E+00    1.1045853713012086E+01
Ga    3.2051477923331539E+00    1.8440525944372583E+00    1.3109060086992089E+01
N    3.2147930007242320E+00    7.2826572050088273E-03    1.3552181221750821E+01
Ga    1.6003025399528561E+00    2.7929552058878269E+00   -1.6652191163828078E-01
N    1.5925753898841926E+00    4.6507765896332423E+00    6.1646689405755639E-01
Ga    1.5961270644295202E+00    4.6517961731857174E+00    2.5498593703361028E+00
N    1.6023569569978873E+00    2.7935818552640477E+00    3.2358085700160588E+00
Ga    1.6030757939878915E+00    2.7920122873459916E+00    5.1954229080256109E+00
N    1.5964368677362242E+00    4.6503020316699963E+00    5.8554003434330548E+00
Ga    1.5968938125521752E+00    4.6486471945533143E+00    7.8246430458068490E+00
N    1.6048821557188737E+00    2.7923496673619717E+00    8.4770867180148795E+00
Ga    1.6039636094153227E+00    2.7988328458418552E+00    1.0459299306998103E+01
N    1.5942797093753633E+00    4.6540469108916769E+00    1.1054421688786150E+01
Ga    1.5831896301197419E+00    4.6396802439652216E+00    1.3115177078056417E+01
N    1.5986566426652291E+00    2.7870129288163410E+00    1.3455157176040400E+01
Ga   -1.1889773558683845E-02    5.5852278399636885E+00   -1.6727552693249048E-01
N   -1.9662269514033388E-02    7.4429866478302884E+00    6.1632907771542067E-01
Ga   -1.6584343655092385E-02    7.4447023667549983E+00    2.5499074210846384E+00
N   -1.0032722795386074E-02    5.5857658110698605E+00    3.2336426034151233E+00
Ga   -1.0030561103483058E-02    5.5848145280264267E+00    5.1940358720651236E+00
N   -1.5699072185173420E-02    7.4438413716873573E+00    5.8536674059269291E+00
Ga   -1.5026556358639505E-02    7.4427183126706238E+00    7.8221623051280309E+00
N   -4.0064199963386884E-03    5.5862063759490486E+00    8.4767521143646398E+00
Ga   -6.2917364495337479E-03    5.5963809817617696E+00    1.0460925040900001E+01
N   -1.2826921292743773E-02    7.4499524744187413E+00    1.1070574368412496E+01
Ga   -1.9593055826888570E-02    7.4316132576563154E+00    1.3162534794711103E+01
N   -1.2170952289452320E-02    5.5805372385201855E+00    1.3501837257140933E+01
Ga   -1.6238295033586834E+00    8.3774944326119467E+00   -1.6606670568851292E-01
N   -1.6311721531691137E+00    1.0235325828790430E+01    6.1779556065873487E-01
Ga   -1.6279528699623329E+00    1.0237022464677958E+01    2.5517453332418070E+00
N   -1.6227936887170040E+00    8.3781902929780721E+00    3.2355911250343756E+00
Ga   -1.6221649142607037E+00    8.3766841894562436E+00    5.1959447082578052E+00
N   -1.6267508414002951E+00    1.0234296197060848E+01    5.8589760975088714E+00
Ga   -1.6244588679927385E+00    1.0231680815313554E+01    7.8292911256523103E+00
N   -1.6164394480140851E+00    8.3743254406174259E+00    8.4851041420863869E+00
Ga   -1.6180471191698484E+00    8.3758313449737489E+00    1.0469996468351841E+01
N   -1.6360012515967040E+00    1.0239973724899166E+01    1.1054265732529533E+01
Ga   -1.6519964558729570E+00    1.0237547524867935E+01    1.3108389935119233E+01
N   -1.6312805056921702E+00    8.3807549415380613E+00    1.3450568388953679E+01
Ga    6.4228336009907308E+00    7.0929977461408917E-04   -1.6642663475927003E-01
N    6.4151932712513053E+00    1.8587798774624245E+00    6.1632290635417109E-01
Ga    6.4183582551899061E+00    1.8601641830572466E+00    2.5498294539104278E+00
N    6.4245862012130441E+00    2.4849927471321709E-03    3.2360015159514735E+00
Ga    6.4244760297072974E+00    1.5012042406168731E-03    5.1962086303288757E+00
N    6.4203570579973048E+00    1.8582195307365854E+00    5.8606011291109033E+00
Ga    6.4200955265138413E+00    1.8586942008138319E+00    7.8324939680905779E+00
N    6.4300570217021820E+00   -1.9914549665454185E-03    8.4847293013456682E+00
Ga    6.4284535807283323E+00    1.9034585803433671E-03    1.0468671388926545E+01
N    6.4140729647943120E+00    1.8618644148613908E+00    1.1058650944155058E+01
Ga    6.4058669538511168E+00    1.8492857069493180E+00    1.3124447002613048E+01
N    6.4247466186408833E+00   -5.0227771031065077E-03    1.3447126545207524E+01
Ga    4.8107181830618435E+00    2.7933239381313983E+00   -1.6665462886975774E-01
N    4.8031437899884040E+00    4.6506932411335047E+00    6.1757462135521612E-01
Ga    4.8068809064492255E+00    4.6522489775542368E+00    2.5513747049908906E+00
N    4.8130687905187965E+00    2.7934462123210464E+00    3.2343797564292149E+00
Ga    4.8149334347152672E+00    2.7920375438158516E+00    5.1950211700061306E+00
N    4.8071656546341872E+00    4.6512625413375011E+00    5.8531331530413473E+00
Ga    4.8099512567041156E+00    4.6494611369925831E+00    7.8217553501881314E+00
N    4.8164282780294245E+00    2.7947156274635607E+00    8.4791263124311449E+00
Ga    4.8099314152786041E+00    2.8041358112307400E+00    1.0464875862536950E+01
N    4.8038164506268792E+00    4.6627207571804554E+00    1.1058948287044878E+01
Ga    4.7949392157240389E+00    4.6546244611173950E+00    1.3145802456805265E+01
N    4.8090934594903292E+00    2.7994026470798037E+00    1.3481420829601609E+01
Ga    3.1992956206452301E+00    5.5852007839959610E+00   -1.6618036979931167E-01
N    3.1918002760973576E+00    7.4430260160351542E+00    6.1683780894557416E-01
Ga    3.1948536347666092E+00    7.4440905623467897E+00    2.5502472216151992E+00
N    3.2003230782060710E+00    5.5856893741735769E+00    3.2351402154578515E+00
Ga    3.2013856765213866E+00    5.5843910780668029E+00    5.1949758463379787E+00
N    3.1950941561774511E+00    7.4429769738768483E+00    5.8549643448629691E+00
Ga    3.1966098745902189E+00    7.4410246639291087E+00    7.8246937449068632E+00
N    3.2051111690510803E+00    5.5823903745662227E+00    8.4739264825576548E+00
Ga    3.2024254851448473E+00    5.5848079789902556E+00    1.0453982070887744E+01
N    3.1847200083150389E+00    7.4457270804957076E+00    1.1034167856977145E+01
Ga    3.1628322120009096E+00    7.4428887940298960E+00    1.3082997748876469E+01
N    3.1876384377375229E+00    5.5962447263945645E+00    1.3470070877731937E+01
Ga    1.5872890726233022E+00    8.3773609490144896E+00   -1.6574847429604672E-01
N    1.5789867536619608E+00    1.0235684006138021E+01    6.1713300287776951E-01
Ga    1.5822877798649981E+00    1.0237412596327891E+01    2.5507369160363438E+00
N    1.5884896710944927E+00    8.3783068045036924E+00    3.2347322965235077E+00
Ga    1.5888287815094622E+00    8.3775895352702197E+00    5.1943605241602793E+00
N    1.5827370526278164E+00    1.0236691401671104E+01    5.8543061093716506E+00
Ga    1.5825622575976266E+00    1.0237033616081696E+01    7.8216250768025244E+00
N    1.5932839983594227E+00    8.3787809695238860E+00    8.4684824037212785E+00
Ga    1.5797132991000549E+00    8.3853394696067962E+00    1.0444993990263523E+01
N    1.5863316365073183E+00    1.0233994760483078E+01    1.1055123435048911E+01
Ga    1.5857331701051491E+00    1.0213597321653406E+01    1.3129761120161676E+01
N    1.5863065318816107E+00    8.3759213310076408E+00    1.3560847000715574E+01
Ga    9.6333597453126405E+00    1.2743733756934645E-03   -1.6661958644099559E-01
N    9.6258977767268448E+00    1.8588118245459466E+00    6.1806927202909201E-01
Ga    9.6289065814015871E+00    1.8605244074354159E+00    2.5516417499628048E+00
N    9.6362116469217334E+00    1.5674928161128953E-03    3.2355046166480141E+00
Ga    9.6366849880172989E+00    1.3643318968590997E-03    5.1952529443034825E+00
N    9.6288817285381256E+00    1.8599014836792283E+00    5.8547109905985346E+00
Ga    9.6285989698690919E+00    1.8615002673095711E+00    7.8218322082558522E+00
N    9.6371705985824594E+00    4.9807085760729120E-03    8.4693927430359004E+00
Ga    9.6298964654663557E+00    1.2225651394597446E-02    1.0449715208498652E+01
N    9.6275386620895862E+00    1.8630916334753875E+00    1.1062162251861590E+01
Ga    9.6257597556214485E+00    1.8499239032040558E+00    1.3143946934280137E+01
N    9.6315829105643775E+00    3.5827713830065867E-03    1.3528902009443035E+01
Ga    8.0217391102781921E+00    2.7931502965319739E+00   -1.6538701828482386E-01
N    8.0143606181578715E+00    4.6509079697360445E+00    6.1844346210168544E-01
Ga    8.0174548681111322E+00    4.6521958867861475E+00    2.5524791150431243E+00
N    8.0222941849361611E+00    2.7934833405322448E+00    3.2364348729866315E+00
Ga    8.0224289198451704E+00    2.7935914275069949E+00    5.1965022803235827E+00
N    8.0181501751174142E+00    4.6506433551797022E+00    5.8575622218426444E+00
Ga    8.0202534643080394E+00    4.6492470465827234E+00    7.8279068293609138E+00
N    8.0296281846230801E+00    2.7929283289673279E+00    8.4843225164808533E+00
Ga    8.0253721645054199E+00    2.7961567726547525E+00    1.0467959648641719E+01
N    8.0035396058988653E+00    4.6574922198399591E+00    1.1045669944577684E+01
Ga    7.9901540439008976E+00    4.6520197379152899E+00    1.3101480561258185E+01
N    8.0173749738544551E+00    2.7975191574030061E+00    1.3461670453220037E+01
Ga    6.4097102530732997E+00    5.5848510789139771E+00   -1.6491181038366964E-01
N    6.4016370866483854E+00    7.4433319984380093E+00    6.1657569496244546E-01
Ga    6.4056310497999940E+00    7.4446113893534749E+00    2.5501024414642375E+00
N    6.4113931496462362E+00    5.5865886395206950E+00    3.2357373967891405E+00
Ga    6.4130385020404752E+00    5.5853559645342106E+00    5.1961368234424947E+00
N    6.4063993725809629E+00    7.4449455263447275E+00    5.8547419040082946E+00
Ga    6.4087752080316331E+00    7.4450322453666393E+00    7.8233333622973928E+00
N    6.4148767222340535E+00    5.5876321973016605E+00    8.4707486352952355E+00
Ga    6.4028487729559975E+00    5.6007490297235174E+00    1.0448169462854507E+01
N    6.4073124312518335E+00    7.4451677563600089E+00    1.1058476637086393E+01
Ga    6.4059408860096747E+00    7.4195176071758704E+00    1.3142490574950184E+01
N    6.4072229855258556E+00    5.5826889503137007E+00    1.3569527608687780E+01
Ga    4.7973917780309412E+00    8.3770994647221304E+00   -1.6752896991540600E-01
N    4.7898879351085917E+00    1.0235300107996260E+01    6.1513126991038658E-01
Ga    4.7931155050043328E+00    1.0236957099210638E+01    2.5481526249987128E+00
N    4.7994361321369210E+00    8.3789264413832640E+00    3.2333356212577891E+00
Ga    4.8001459195065497E+00    8.3772085215468302E+00    5.1938683234993972E+00
N    4.7940412097057479E+00    1.0236111623914550E+01    5.8585306643567172E+00
Ga    4.7956275654653702E+00    1.0234982247296944E+01    7.8292178245115620E+00
N    4.8046360399481349E+00    8.3770122848741515E+00    8.4788692832008845E+00
Ga    4.8022066209939629E+00    8.3815575685685459E+00    1.0463940800570219E+01
N    4.7830707282214311E+00    1.0242418564820698E+01    1.1046600815619062E+01
Ga    4.7682477297163954E+00    1.0233535890067248E+01    1.3101192487973071E+01
N    4.7919301008340600E+00    8.3755255601972944E+00    1.3414795347114236E+01
H    4.7950590926534424E+00    8.3762755268735880E+00   -1.7177224017814512E+00
H    1.5853625247356733E+00    8.3766428836528561E+00   -1.7159772109364824E+00
H   -1.6255723159055704E+00    8.3773514719921618E+00   -1.7162532477172976E+00
H   -4.8372696071501826E+00    8.3777875390736440E+00   -1.7163144500874286E+00
H    6.4071409163158082E+00    5.5840707752044167E+00   -1.7152721909092581E+00
H    3.1971713121685466E+00    5.5848400112804200E+00   -1.7163149128608912E+00
H   -1.3195102652038618E-02    5.5849743583160958E+00   -1.7175391596775156E+00
H   -3.2253564374467909E+00    5.5844609057214978E+00   -1.7166124882056406E+00
H    8.0201766395584109E+00    2.7929584557788236E+00   -1.7155740472475018E+00
H    4.8082134212282854E+00    2.7930796734042174E+00   -1.7169839266302311E+00
H    1.5976002388756523E+00    2.7921118621837113E+00   -1.7166899387513961E+00
H   -1.6120831077387963E+00    2.7910766485749723E+00   -1.7157779183596853E+00
H    5.1829421894241333E-04    8.3251868879798813E-04   -1.7168409716086224E+00
H    3.2100071807231316E+00   -6.1283150736847540E-05   -1.7155005520143731E+00
H    6.4206246873497896E+00   -4.0599585814270027E-04   -1.7166047953449501E+00
H    9.6311209093848404E+00    7.7221511145188822E-04   -1.7167290470291712E+00
     &END COORD
     &KIND H
       BASIS_SET DZVP-MOLOPT-SR-GTH-q1
       POTENTIAL GTH-PBE-q1
       &POTENTIAL
1
0.2000000000000000E+00 2 -0.4178900440000000E+01  0.7244633100000000E+00
0
       &END POTENTIAL
     &END KIND
     &KIND N
       BASIS_SET DZVP-MOLOPT-SR-GTH
       POTENTIAL GTH-PBE-q5
       &POTENTIAL
2 3
0.2837905100000000E+00 2 -0.1241522559000000E+02  0.1868095920000000E+01
2
0.2554050000000000E+00 1  0.1363026257000000E+02
0.2454945300000000E+00 0
       &END POTENTIAL
     &END KIND
     &KIND Ga
       BASIS_SET DZVP-MOLOPT-SR-GTH
       POTENTIAL GTH-PBE-q13
       &POTENTIAL
2 1 10
0.4900000000000000E+00 0
3
0.4167772300000000E+00 3  0.1047568975000000E+02 -0.4921768140000000E+01  0.8707055900000000E+00
0.7770178090000000E+01 -0.2248152160000000E+01
0.1784415450000000E+01
0.5696265200000000E+00 2  0.1777985340000000E+01  0.1958597600000000E+00
-0.2317443900000000E+00
0.2381265000000000E+00 1 -0.1624868022000000E+02
       &END POTENTIAL
     &END KIND
     &TOPOLOGY
       NUMBER_OF_ATOMS  208
       MULTIPLE_UNIT_CELL  1 1 1
     &END TOPOLOGY
   &END SUBSYS
 &END FORCE_EVAL
