 # Version information for this restart file 
 # current date 2019-05-25 21:24:10.639
 # current working dir /lustre03/project/6004141/rzk/GaN-carbene/00-Surface/00-Preoptimization/443-capped/CELL_OPT
 # Program compiled at                              Sun Apr  7 00:48:11 EDT 2019
 # Program compiled on                          beluga2.int.ets1.calculquebec.ca
 # Program compiled for                        Beluga-Linux-x86-64-intel-openmpi
 # Source code revision number                                         svn:18619
 &GLOBAL
   PRINT_LEVEL  MEDIUM
   PROJECT_NAME TEST
   RUN_TYPE  CELL_OPT
 &END GLOBAL
 &MOTION
   &CELL_OPT
     MAX_ITER  300
     STEP_START_VAL  3
     EXTERNAL_PRESSURE     1.0000000000000000E+00
     KEEP_ANGLES  T
     KEEP_SYMMETRY  T
     CONSTRAINT  Z
     PRESSURE_TOLERANCE     5.0000000000000000E+02
   &END CELL_OPT
 &END MOTION
 &FORCE_EVAL
   METHOD  QS
   STRESS_TENSOR  ANALYTICAL
   &DFT
     BASIS_SET_FILE_NAME BASIS_MOLOPT
     POTENTIAL_FILE_NAME GTH_POTENTIALS
     SURFACE_DIPOLE_CORRECTION  T
     SURF_DIP_DIR  Z
     &SCF
       MAX_SCF  100
       EPS_SCF     5.0000000000000004E-06
       &OT  T
         PRECONDITIONER  FULL_ALL
       &END OT
       &OUTER_SCF  T
         OPTIMIZER  NONE
         EPS_SCF     5.0000000000000004E-06
         MAX_SCF  4
       &END OUTER_SCF
       &PRINT
         &RESTART  OFF
           BACKUP_COPIES  1
           &EACH
             JUST_ENERGY  0
             QS_SCF  0
             MD  20
           &END EACH
         &END RESTART
       &END PRINT
     &END SCF
     &QS
       EPS_DEFAULT     1.0000000000000000E-14
       METHOD  GPW
     &END QS
     &MGRID
       NGRIDS  5
       CUTOFF     1.2000000000000000E+03
     &END MGRID
     &XC
       DENSITY_CUTOFF     1.0000000000000000E-10
       GRADIENT_CUTOFF     1.0000000000000000E-10
       TAU_CUTOFF     1.0000000000000000E-10
       &XC_FUNCTIONAL  NO_SHORTCUT
         &PBE  T
         &END PBE
       &END XC_FUNCTIONAL
       &VDW_POTENTIAL
         POTENTIAL_TYPE  PAIR_POTENTIAL
         &PAIR_POTENTIAL
           R_CUTOFF     1.0000000000000004E+01
           TYPE  DFTD3
           PARAMETER_FILE_NAME dftd3.dat
           REFERENCE_FUNCTIONAL PBE
           EPS_CN     9.9999999999999995E-07
           CALCULATE_C9_TERM  T
           REFERENCE_C9_TERM  T
           LONG_RANGE_CORRECTION  F
           VERBOSE_OUTPUT  F
         &END PAIR_POTENTIAL
       &END VDW_POTENTIAL
     &END XC
   &END DFT
   &SUBSYS
     &CELL
       A     1.2896169751554339E+01    0.0000000000000000E+00    0.0000000000000000E+00
       B    -6.4485437727206589E+00    1.1169205449184080E+01    0.0000000000000000E+00
       C     0.0000000000000000E+00    0.0000000000000000E+00    2.9000000000000000E+01
       MULTIPLE_UNIT_CELL  1 1 1
       &CELL_REF
         A     1.2982353780853531E+01    0.0000000000000000E+00    0.0000000000000000E+00
         B    -6.4911768904267628E+00    1.1243048175136114E+01    0.0000000000000000E+00
         C     0.0000000000000000E+00    0.0000000000000000E+00    2.9000000000000000E+01
         MULTIPLE_UNIT_CELL  1 1 1
       &END CELL_REF
     &END CELL
     &COORD
Ga    5.3442118345045490E-04    2.6407391394115570E-04   -1.4570951686051706E-01
N    4.7721853293216504E-04    1.8609432150089584E+00    6.3025639128435673E-01
Ga    9.5563629077499094E-04    1.8612755975905311E+00    2.5669533786423382E+00
N    6.4155172344074998E-04   -3.9345824895429469E-04    3.2453042121613396E+00
Ga    1.4909713647161338E-03    5.3354985575912667E-04    5.2073273804151814E+00
N    6.4877661609864974E-04    1.8616278079907247E+00    5.8563599748517570E+00
Ga    1.3914861077512098E-03    1.8617066296261870E+00    7.8273294307136378E+00
N    3.0743774642947759E-03    4.6090066643160113E-04    8.4650029964934124E+00
Ga    3.8159019875030306E-04   -2.2348438657823609E-04    1.0456186554658743E+01
N   -1.5151620032630775E-03    1.8624156926817299E+00    1.1028918441940476E+01
Ga   -1.3950970800475511E-03    1.8621960027036326E+00    1.3106431823244929E+01
N    6.0223960100344953E-06   -1.2400326417361086E-04    1.3443772222960133E+01
Ga   -1.6113871386872851E+00    2.7926592137883106E+00   -1.4668465289256025E-01
N   -1.6115948796015993E+00    4.6533140504532851E+00    6.2934207798819231E-01
Ga   -1.6113409240346603E+00    4.6534146576771587E+00    2.5654424678090062E+00
N   -1.6113599250621888E+00    2.7923671732224382E+00    3.2444471548789116E+00
Ga   -1.6110121129417450E+00    2.7911244436634632E+00    5.2065246872053690E+00
N   -1.6112963415847317E+00    4.6538307429125645E+00    5.8551015155456305E+00
Ga   -1.6124043631054186E+00    4.6537163322017392E+00    7.8273239419782037E+00
N   -1.6118032383964382E+00    2.7911977395957384E+00    8.4637584263499015E+00
Ga   -1.6122028312543613E+00    2.7922911349688353E+00    1.0454264578064732E+01
N   -1.6137500051424309E+00    4.6540903404064835E+00    1.1027854704737484E+01
Ga   -1.6113090806660384E+00    4.6535815849836553E+00    1.3107386854260401E+01
N   -1.6110352610804570E+00    2.7917902945063275E+00    1.3448821531702977E+01
Ga   -3.2235007081431504E+00    5.5849702233841469E+00   -1.4733350829555897E-01
N   -3.2236312049918490E+00    7.4457371817277602E+00    6.2957867766842690E-01
Ga   -3.2232984204277981E+00    7.4458665992014295E+00    2.5659365716821880E+00
N   -3.2230586544967994E+00    5.5843611990671347E+00    3.2437767578570762E+00
Ga   -3.2241289192671418E+00    5.5845134734973980E+00    5.2058297623968190E+00
N   -3.2234543165892244E+00    7.4459790922796190E+00    5.8553106114713378E+00
Ga   -3.2236829284443247E+00    7.4466298524353522E+00    7.8271956639710902E+00
N   -3.2229443289894331E+00    5.5843246996487537E+00    8.4620050035911980E+00
Ga   -3.2229932423999896E+00    5.5861886303293868E+00    1.0454068383448750E+01
N   -3.2234763057905242E+00    7.4490939729015118E+00    1.1027836020652863E+01
Ga   -3.2249133477773477E+00    7.4454442641925693E+00    1.3105669181734918E+01
N   -3.2250355136124558E+00    5.5849521185775313E+00    1.3442514046609716E+01
Ga   -4.8358727169895541E+00    8.3772540429192315E+00   -1.4642022165745253E-01
N   -4.8358373113742568E+00    1.0237870735897312E+01    6.3047962069589580E-01
Ga   -4.8355130556457953E+00    1.0238123094544770E+01    2.5670817897257208E+00
N   -4.8355874409921107E+00    8.3763301846474327E+00    3.2447198787441200E+00
Ga   -4.8356358799707673E+00    8.3769892718798982E+00    5.2067544339130443E+00
N   -4.8360653275883259E+00    1.0238052533186258E+01    5.8561184450414761E+00
Ga   -4.8361981753267846E+00    1.0237961481105099E+01    7.8270298978172814E+00
N   -4.8361755178759607E+00    8.3765793886613249E+00    8.4641026208733567E+00
Ga   -4.8363470935117121E+00    8.3742326932408133E+00    1.0455651340021488E+01
N   -4.8364106936468039E+00    1.0238335758436451E+01    1.1029698507355427E+01
Ga   -4.8361339309018270E+00    1.0236890834558567E+01    1.3109798593466309E+01
N   -4.8358068062819584E+00    8.3755260668170273E+00    1.3447166954428244E+01
Ga    3.2246611537757968E+00    2.8283910694785650E-04   -1.4573199301825507E-01
N    3.2246228793614975E+00    1.8610378802985130E+00    6.3050600369650012E-01
Ga    3.2249103470174814E+00    1.8610739540145436E+00    2.5667395458476538E+00
N    3.2250150292239801E+00   -1.9522320164102005E-04    3.2450310279276908E+00
Ga    3.2246770319839300E+00   -7.4068027184649103E-04    5.2070568389618472E+00
N    3.2248210375671218E+00    1.8612393125897326E+00    5.8565385249064006E+00
Ga    3.2234568917982465E+00    1.8606663112192598E+00    7.8284409729297559E+00
N    3.2249323923554662E+00   -1.9386547686736678E-03    8.4652047356142912E+00
Ga    3.2242434382005212E+00   -1.2684466476859406E-03    1.0456234992495675E+01
N    3.2205343126251194E+00    1.8586734984855187E+00    1.1029943149941596E+01
Ga    3.2253265696706408E+00    1.8606368372386566E+00    1.3109646172559318E+01
N    3.2263790865471522E+00   -1.7985550002193040E-03    1.3446479824294254E+01
Ga    1.6125963192542403E+00    2.7926352311948044E+00   -1.4590506708115611E-01
N    1.6123767427132387E+00    4.6533220865995997E+00    6.3002371961752590E-01
Ga    1.6130177254564557E+00    4.6534607990275578E+00    2.5663524258546699E+00
N    1.6130888405255195E+00    2.7921560688396205E+00    3.2451389515297109E+00
Ga    1.6122071079115441E+00    2.7920606921151894E+00    5.2073122698930403E+00
N    1.6127931101089710E+00    4.6540345014668789E+00    5.8563106921209851E+00
Ga    1.6134010892032524E+00    4.6533153476009339E+00    7.8284419047181828E+00
N    1.6134200751559451E+00    2.7915706782293248E+00    8.4643146159106308E+00
Ga    1.6131947522077057E+00    2.7928951111037459E+00    1.0455675631923837E+01
N    1.6134275023087958E+00    4.6543078830082818E+00    1.1028962516430481E+01
Ga    1.6107804658130476E+00    4.6542602078342457E+00    1.3107086039078062E+01
N    1.6113210091534462E+00    2.7932649549176483E+00    1.3439923870376997E+01
Ga    4.3330169882413271E-04    5.5849909795630550E+00   -1.4711783257136565E-01
N    3.5320406925707108E-04    7.4456200480528381E+00    6.2962542924429743E-01
Ga    7.0141897640542926E-04    7.4459971416917572E+00    2.5661195331261926E+00
N    5.6718707561788676E-04    5.5841495424835950E+00    3.2442334637552834E+00
Ga    1.2391356232007208E-03    5.5845438353359169E+00    5.2060732021020959E+00
N    7.7296336170571995E-04    7.4456474678215860E+00    5.8551828931229908E+00
Ga   -7.7641590221133426E-05    7.4460669126688588E+00    7.8263081104893102E+00
N    1.1573221652838969E-03    5.5846590939853078E+00    8.4638565640625725E+00
Ga    2.5486362648081112E-03    5.5841247351818337E+00    1.0457150251415374E+01
N   -6.7194799881828632E-04    7.4480884575736859E+00    1.1025902071803351E+01
Ga    5.7019227709576286E-04    7.4451365407513244E+00    1.3107377882128910E+01
N    4.0091458677989273E-04    5.5838457712682192E+00    1.3444807301616159E+01
Ga   -1.6116983013028958E+00    8.3772935576905958E+00   -1.4678453030585201E-01
N   -1.6116664466244566E+00    1.0237983316297411E+01    6.3012924281867666E-01
Ga   -1.6114063011292770E+00    1.0238126501852237E+01    2.5666293310815478E+00
N   -1.6114093613029821E+00    8.3765926635377230E+00    3.2442005462725163E+00
Ga   -1.6110811736648338E+00    8.3769808345428345E+00    5.2062790170763966E+00
N   -1.6112356695559991E+00    1.0238511432456878E+01    5.8556617906929596E+00
Ga   -1.6117994552119883E+00    1.0238671268867000E+01    7.8268360623641300E+00
N   -1.6099103737513620E+00    8.3768168123030975E+00    8.4618255790874670E+00
Ga   -1.6110781211412999E+00    8.3768991634304335E+00    1.0452542427057320E+01
N   -1.6111190895212604E+00    1.0238216721143550E+01    1.1028861210982260E+01
Ga   -1.6121462572614342E+00    1.0237429058727050E+01    1.3107745153004794E+01
N   -1.6124953577836871E+00    8.3750880889921184E+00    1.3446158921544898E+01
Ga    6.4488271518444114E+00    3.2432446405390323E-04   -1.4671139897486829E-01
N    6.4487217421164713E+00    1.8610562097250209E+00    6.2996002448481170E-01
Ga    6.4491462212190624E+00    1.8611298672843222E+00    2.5660420050928803E+00
N    6.4492485308432270E+00   -7.1467290318671676E-05    3.2445421940316681E+00
Ga    6.4491137407257710E+00   -4.2136759845408074E-04    5.2064317998698284E+00
N    6.4486450030203697E+00    1.8612505766653258E+00    5.8561550873281591E+00
Ga    6.4493926358362383E+00    1.8615030721042161E+00    7.8285467040565164E+00
N    6.4501700828147230E+00   -1.1359293718012863E-03    8.4632367319249902E+00
Ga    6.4501955974072995E+00    2.0788523225634967E-03    1.0455780424842507E+01
N    6.4485264334688805E+00    1.8619497927428574E+00    1.1028586977326047E+01
Ga    6.4486644896252709E+00    1.8603851499335313E+00    1.3106385806716117E+01
N    6.4484151136997641E+00   -5.1823901993449642E-04    1.3441098667550197E+01
Ga    4.8364910203425238E+00    2.7924439115266555E+00   -1.4636444297214504E-01
N    4.8365284577397896E+00    4.6533288868272953E+00    6.3005499290100242E-01
Ga    4.8368767840196440E+00    4.6535339671181610E+00    2.5664877883248112E+00
N    4.8369795540265894E+00    2.7918269605242974E+00    3.2449334641873495E+00
Ga    4.8365014630943346E+00    2.7919678200148428E+00    5.2067746028304374E+00
N    4.8362103021052310E+00    4.6531260071498144E+00    5.8559688994512262E+00
Ga    4.8366406498878369E+00    4.6535148753559001E+00    7.8274126833140167E+00
N    4.8359396576796989E+00    2.7912417234055829E+00    8.4648178119492528E+00
Ga    4.8359481858060773E+00    2.7905129618619200E+00    1.0458446822802314E+01
N    4.8361137666935017E+00    4.6555530485824930E+00    1.1027691797427922E+01
Ga    4.8359721553321231E+00    4.6518889935375958E+00    1.3108709464395801E+01
N    4.8373195650526668E+00    2.7910713797594822E+00    1.3442397938907297E+01
Ga    3.2243357412321534E+00    5.5851031327694454E+00   -1.4609888479260807E-01
N    3.2243068788136333E+00    7.4456444824730887E+00    6.3019741595514578E-01
Ga    3.2247100777409203E+00    7.4458648544796366E+00    2.5665670099364797E+00
N    3.2247609750345769E+00    5.5843829249609636E+00    3.2448627711690499E+00
Ga    3.2247906307281484E+00    5.5844058219086996E+00    5.2067809480431935E+00
N    3.2249843180607884E+00    7.4463080540993074E+00    5.8565580871241298E+00
Ga    3.2248774860502776E+00    7.4453388987443514E+00    7.8279209471212567E+00
N    3.2265333964583709E+00    5.5845128522121765E+00    8.4636303695370980E+00
Ga    3.2246205610689929E+00    5.5852015322466686E+00    1.0455227299721669E+01
N    3.2217786006753815E+00    7.4455081410733284E+00    1.1027542386434625E+01
Ga    3.2243114755488285E+00    7.4470081823510128E+00    1.3107259409282193E+01
N    3.2239596407554543E+00    5.5843406147553480E+00    1.3444504749410866E+01
Ga    1.6123975065141112E+00    8.3774322598345652E+00   -1.4654617954165058E-01
N    1.6122474608573827E+00    1.0237917894406426E+01    6.2999402496653034E-01
Ga    1.6126018863243814E+00    1.0238066694464278E+01    2.5663135183383319E+00
N    1.6126995590076616E+00    8.3766914909939096E+00    3.2446213935772819E+00
Ga    1.6129148266243136E+00    8.3766389140524637E+00    5.2064762321539977E+00
N    1.6126227243125808E+00    1.0238273268917741E+01    5.8557651382830249E+00
Ga    1.6121044174800605E+00    1.0238174696503963E+01    7.8271040815807851E+00
N    1.6126427329726509E+00    8.3765472113434907E+00    8.4633909820265529E+00
Ga    1.6129421979500203E+00    8.3755562380372375E+00    1.0454426127206508E+01
N    1.6122673316994554E+00    1.0236733719611674E+01    1.1026469295172230E+01
Ga    1.6134060925761728E+00    1.0238371150500553E+01    1.3108180458085366E+01
N    1.6135754703339513E+00    8.3765308189422960E+00    1.3452325452652570E+01
Ga    9.6729516172224841E+00    2.2522969233164196E-04   -1.4661058148987202E-01
N    9.6726529942393249E+00    1.8609719398506097E+00    6.2968538901121696E-01
Ga    9.6729073169777156E+00    1.8612724863150132E+00    2.5662647372053637E+00
N    9.6732378697850709E+00   -4.6549654331181636E-04    3.2447448982233906E+00
Ga    9.6728366262587677E+00    2.2306642715789972E-04    5.2065221391519412E+00
N    9.6728087650109611E+00    1.8608450307957092E+00    5.8553288965584622E+00
Ga    9.6720660987535307E+00    1.8612808567166783E+00    7.8261493662207817E+00
N    9.6727689792211464E+00   -1.7164867560269883E-04    8.4646766768148165E+00
Ga    9.6743053720426531E+00   -2.3909789132106887E-03    1.0457084617633175E+01
N    9.6719811741247472E+00    1.8615395612408878E+00    1.1026319247571337E+01
Ga    9.6728984003498795E+00    1.8605482848156165E+00    1.3107004946781247E+01
N    9.6726931623300150E+00   -9.2919168925536288E-05    1.3447116975568976E+01
Ga    8.0605910558869756E+00    2.7923903143041824E+00   -1.4682718325766742E-01
N    8.0606549679436057E+00    4.6533988419345818E+00    6.2932679760986643E-01
Ga    8.0608018164466806E+00    4.6533414379716156E+00    2.5660622938212909E+00
N    8.0607290852314453E+00    2.7918531038027901E+00    3.2441783906710495E+00
Ga    8.0615325390647712E+00    2.7925140501772532E+00    5.2063475400774655E+00
N    8.0608845213245228E+00    4.6536301462433540E+00    5.8551917214696481E+00
Ga    8.0605425792127470E+00    4.6536775235095078E+00    7.8262319528598976E+00
N    8.0629291115854986E+00    2.7918956541922504E+00    8.4620570410242770E+00
Ga    8.0601677588035940E+00    2.7926523938108345E+00    1.0452558221697135E+01
N    8.0609981137039277E+00    4.6522506137786523E+00    1.1026773842895388E+01
Ga    8.0599416180307806E+00    4.6534674662194693E+00    1.3105256832599311E+01
N    8.0601318493679592E+00    2.7918571419431748E+00    1.3448156762885374E+01
Ga    6.4483032978892831E+00    5.5850625465664931E+00   -1.4639338238366123E-01
N    6.4484276501930662E+00    7.4456524398702726E+00    6.3012676307970128E-01
Ga    6.4488256712006207E+00    7.4456314238595347E+00    2.5663187996470396E+00
N    6.4486480402561339E+00    5.5843733069251416E+00    3.2445290092925543E+00
Ga    6.4488493364095678E+00    5.5835008605652598E+00    5.2065876767193853E+00
N    6.4478570807787969E+00    7.4457953271433359E+00    5.8560982910122563E+00
Ga    6.4493037844467818E+00    7.4444087291326504E+00    7.8279901600995165E+00
N    6.4485588177468616E+00    5.5824887080680492E+00    8.4638728294574488E+00
Ga    6.4482697087588861E+00    5.5822751833887398E+00    1.0455030215769341E+01
N    6.4488403421613762E+00    7.4442046039625271E+00    1.1027768526671705E+01
Ga    6.4493005986633714E+00    7.4464150440458869E+00    1.3108147419036543E+01
N    6.4494225777234373E+00    5.5834834944229099E+00    1.3447483037271027E+01
Ga    4.8363218252840730E+00    8.3775202979534491E+00   -1.4627705963074020E-01
N    4.8361777712148708E+00    1.0237878125811518E+01    6.3051802361171694E-01
Ga    4.8367481290985301E+00    1.0238266523597220E+01    2.5664416144183426E+00
N    4.8368138086254016E+00    8.3768387923262626E+00    3.2451359389856016E+00
Ga    4.8364413495841170E+00    8.3764536301802455E+00    5.2067863469760551E+00
N    4.8364129673402010E+00    1.0238045896978953E+01    5.8570062471432509E+00
Ga    4.8375710237346876E+00    1.0239238406730779E+01    7.8294677216020991E+00
N    4.8374545714444439E+00    8.3758283427955398E+00    8.4642867282378464E+00
Ga    4.8372017163820544E+00    8.3758609972799132E+00    1.0457976649188160E+01
N    4.8364174350936260E+00    1.0239074430829170E+01    1.1030185480930633E+01
Ga    4.8348372527842427E+00    1.0238562290204131E+01    1.3107940605111866E+01
N    4.8359943746145468E+00    8.3772371339995999E+00    1.3440676397174240E+01
H    4.8360025003818530E+00    8.3769485784107740E+00   -1.6978538679355080E+00
H    1.6119743975081833E+00    8.3771020130216449E+00   -1.6985053772774681E+00
H   -1.6118198136903858E+00    8.3770953190393236E+00   -1.6987119429993400E+00
H   -4.8360071238446531E+00    8.3769247882735467E+00   -1.6982236539227842E+00
H    6.4483323084721356E+00    5.5848223618639325E+00   -1.6983169380524896E+00
H    3.2243176377939893E+00    5.5849993833118461E+00   -1.6979405036798547E+00
H    2.4629693448284344E-04    5.5851327917635931E+00   -1.6988069748478689E+00
H   -3.2238592257317622E+00    5.5849613042894335E+00   -1.6991100960226682E+00
H    8.0603327289231679E+00    2.7919112297120203E+00   -1.6987855466722213E+00
H    4.8364367654746196E+00    2.7919587228542473E+00   -1.6979855713925558E+00
H    1.6123287420748897E+00    2.7921265008293008E+00   -1.6977237792655548E+00
H   -1.6119653887490255E+00    2.7919553175258796E+00   -1.6985671466805019E+00
H    2.4879698610628638E-04   -5.0764982210133090E-04   -1.6975726229892372E+00
H    3.2245325691906634E+00   -4.7258525301254996E-04   -1.6976123025686385E+00
H    6.4485188416471786E+00   -4.7343224097356486E-04   -1.6984766746007840E+00
H    9.6722253166560623E+00   -5.1244076708256529E-04   -1.6983549557176603E+00
     &END COORD
     &KIND H
       BASIS_SET DZVP-MOLOPT-SR-GTH-q1
       POTENTIAL GTH-PBE-q1
       &POTENTIAL
1
0.2000000000000000E+00 2 -0.4178900440000000E+01  0.7244633100000000E+00
0
       &END POTENTIAL
     &END KIND
     &KIND N
       BASIS_SET DZVP-MOLOPT-SR-GTH
       POTENTIAL GTH-PBE-q5
       &POTENTIAL
2 3
0.2837905100000000E+00 2 -0.1241522559000000E+02  0.1868095920000000E+01
2
0.2554050000000000E+00 1  0.1363026257000000E+02
0.2454945300000000E+00 0
       &END POTENTIAL
     &END KIND
     &KIND Ga
       BASIS_SET DZVP-MOLOPT-SR-GTH
       POTENTIAL GTH-PBE-q13
       &POTENTIAL
2 1 10
0.4900000000000000E+00 0
3
0.4167772300000000E+00 3  0.1047568975000000E+02 -0.4921768140000000E+01  0.8707055900000000E+00
0.7770178090000000E+01 -0.2248152160000000E+01
0.1784415450000000E+01
0.5696265200000000E+00 2  0.1777985340000000E+01  0.1958597600000000E+00
-0.2317443900000000E+00
0.2381265000000000E+00 1 -0.1624868022000000E+02
       &END POTENTIAL
     &END KIND
     &TOPOLOGY
       NUMBER_OF_ATOMS  208
       MULTIPLE_UNIT_CELL  1 1 1
     &END TOPOLOGY
   &END SUBSYS
 &END FORCE_EVAL
