 # Version information for this restart file 
 # current date 2019-05-25 23:52:23.703
 # current working dir /lustre03/project/6004141/rzk/GaN-carbene/00-Surface/00-Preoptimization/443-capped/CELL_OPT
 # Program compiled at                              Sun Apr  7 00:48:11 EDT 2019
 # Program compiled on                          beluga2.int.ets1.calculquebec.ca
 # Program compiled for                        Beluga-Linux-x86-64-intel-openmpi
 # Source code revision number                                         svn:18619
 &GLOBAL
   PRINT_LEVEL  MEDIUM
   PROJECT_NAME TEST
   RUN_TYPE  CELL_OPT
 &END GLOBAL
 &MOTION
   &CELL_OPT
     MAX_ITER  300
     STEP_START_VAL  27
     EXTERNAL_PRESSURE     1.0000000000000000E+00
     KEEP_ANGLES  T
     KEEP_SYMMETRY  T
     CONSTRAINT  Z
     PRESSURE_TOLERANCE     5.0000000000000000E+02
   &END CELL_OPT
 &END MOTION
 &FORCE_EVAL
   METHOD  QS
   STRESS_TENSOR  ANALYTICAL
   &DFT
     BASIS_SET_FILE_NAME BASIS_MOLOPT
     POTENTIAL_FILE_NAME GTH_POTENTIALS
     SURFACE_DIPOLE_CORRECTION  T
     SURF_DIP_DIR  Z
     &SCF
       MAX_SCF  100
       EPS_SCF     5.0000000000000004E-06
       &OT  T
         PRECONDITIONER  FULL_ALL
       &END OT
       &OUTER_SCF  T
         OPTIMIZER  NONE
         EPS_SCF     5.0000000000000004E-06
         MAX_SCF  4
       &END OUTER_SCF
       &PRINT
         &RESTART  OFF
           BACKUP_COPIES  1
           &EACH
             JUST_ENERGY  0
             QS_SCF  0
             MD  20
           &END EACH
         &END RESTART
       &END PRINT
     &END SCF
     &QS
       EPS_DEFAULT     1.0000000000000000E-14
       METHOD  GPW
     &END QS
     &MGRID
       NGRIDS  5
       CUTOFF     1.2000000000000000E+03
     &END MGRID
     &XC
       DENSITY_CUTOFF     1.0000000000000000E-10
       GRADIENT_CUTOFF     1.0000000000000000E-10
       TAU_CUTOFF     1.0000000000000000E-10
       &XC_FUNCTIONAL  NO_SHORTCUT
         &PBE  T
         &END PBE
       &END XC_FUNCTIONAL
       &VDW_POTENTIAL
         POTENTIAL_TYPE  PAIR_POTENTIAL
         &PAIR_POTENTIAL
           R_CUTOFF     1.0000000000000004E+01
           TYPE  DFTD3
           PARAMETER_FILE_NAME dftd3.dat
           REFERENCE_FUNCTIONAL PBE
           EPS_CN     9.9999999999999995E-07
           CALCULATE_C9_TERM  T
           REFERENCE_C9_TERM  T
           LONG_RANGE_CORRECTION  F
           VERBOSE_OUTPUT  F
         &END PAIR_POTENTIAL
       &END VDW_POTENTIAL
     &END XC
   &END DFT
   &SUBSYS
     &CELL
       A     1.2840351322482682E+01    0.0000000000000000E+00    0.0000000000000000E+00
       B    -6.4477507099574680E+00    1.1167831824184661E+01    0.0000000000000000E+00
       C     0.0000000000000000E+00    0.0000000000000000E+00    2.9000000000000000E+01
       MULTIPLE_UNIT_CELL  1 1 1
       &CELL_REF
         A     1.2982353780853531E+01    0.0000000000000000E+00    0.0000000000000000E+00
         B    -6.4911768904267628E+00    1.1243048175136114E+01    0.0000000000000000E+00
         C     0.0000000000000000E+00    0.0000000000000000E+00    2.9000000000000000E+01
         MULTIPLE_UNIT_CELL  1 1 1
       &END CELL_REF
     &END CELL
     &COORD
Ga    8.6780893405489037E-04   -5.1630655318856680E-04   -1.7049564535349201E-01
N   -5.2810952305389573E-03    1.8586177044204464E+00    6.1597778975048001E-01
Ga   -2.3883034204168563E-03    1.8607967860146399E+00    2.5508397294318370E+00
N    4.3821461884590044E-03    2.2092039664763580E-03    3.2383745157005017E+00
Ga    4.3558074030714640E-03    8.9120645007359251E-05    5.1969334195280377E+00
N   -1.1522619126308473E-03    1.8577371989619729E+00    5.8588965819286809E+00
Ga    7.2770882177263419E-04    1.8591039905600695E+00    7.8258012431352793E+00
N    1.1114776224526392E-02    2.1370410670040938E-03    8.4801747167042549E+00
Ga    1.0827352460213154E-02    5.4202296647967692E-03    1.0468177392273871E+01
N   -7.5158470110844242E-03    1.8670117278580631E+00    1.1055481156537349E+01
Ga   -2.9663771625134620E-02    1.8541345884380285E+00    1.3126665325707737E+01
N   -6.8433719780762615E-03   -4.5834473912449670E-04    1.3461219764652146E+01
Ga   -1.6115885872812086E+00    2.7909891779085765E+00   -1.7046640992670711E-01
N   -1.6171620090285741E+00    4.6505170176748720E+00    6.1593395146567842E-01
Ga   -1.6138822840544316E+00    4.6522265248916712E+00    2.5510721382683497E+00
N   -1.6070006106840549E+00    2.7942547484076905E+00    3.2398115961326535E+00
Ga   -1.6068496321235248E+00    2.7914567728786905E+00    5.1991353019395783E+00
N   -1.6134503444290191E+00    4.6518048328365564E+00    5.8572841242138560E+00
Ga   -1.6097230049606939E+00    4.6517264189468301E+00    7.8220296354864169E+00
N   -1.6043310758359854E+00    2.7962385027624919E+00    8.4720038492999077E+00
Ga   -1.6109234573576829E+00    2.7991220029139559E+00    1.0454517275900185E+01
N   -1.6154173125275573E+00    4.6551277322180979E+00    1.1048857594023158E+01
Ga   -1.6272333284217189E+00    4.6332560403852296E+00    1.3126174860253499E+01
N   -1.6177953429963436E+00    2.7942251876248894E+00    1.3543956801867713E+01
Ga   -3.2238803960983695E+00    5.5832678791521415E+00   -1.7067295371327251E-01
N   -3.2289935520899125E+00    7.4425148355208064E+00    6.1581415195007982E-01
Ga   -3.2255464272128456E+00    7.4441901450695118E+00    2.5506518943988827E+00
N   -3.2193770530262693E+00    5.5858034010819750E+00    3.2402166779357238E+00
Ga   -3.2200627017818708E+00    5.5842952680357447E+00    5.1993779448904585E+00
N   -3.2244924881487700E+00    7.4427135551172610E+00    5.8606382237506853E+00
Ga   -3.2227406350951138E+00    7.4444298353936293E+00    7.8269088724730125E+00
N   -3.2140903025528287E+00    5.5849436345315775E+00    8.4714909077153866E+00
Ga   -3.2188908690459206E+00    5.5894693229501460E+00    1.0457084193276669E+01
N   -3.2318226350269375E+00    7.4473260071576721E+00    1.1044063547222660E+01
Ga   -3.2514457274200743E+00    7.4399867438536305E+00    1.3112178219688447E+01
N   -3.2315456860420877E+00    5.5853835268096210E+00    1.3459319720473884E+01
Ga   -4.8354097901932453E+00    8.3753459571470863E+00   -1.7025105173160318E-01
N   -4.8406371329173847E+00    1.0234438707354718E+01    6.1670419420985512E-01
Ga   -4.8370726702226676E+00    1.0236847402333895E+01    2.5520729482820039E+00
N   -4.8307751679008231E+00    8.3775487456121134E+00    3.2393245272219051E+00
Ga   -4.8303901228040571E+00    8.3759277938550039E+00    5.1987052030655230E+00
N   -4.8380855212839560E+00    1.0234871705886656E+01    5.8559563313673397E+00
Ga   -4.8364698630095075E+00    1.0237112096336832E+01    7.8214775559326402E+00
N   -4.8281528047222562E+00    8.3789220488719689E+00    8.4728364797764488E+00
Ga   -4.8349164858693632E+00    8.3862863146999196E+00    1.0457422979071865E+01
N   -4.8334203335062949E+00    1.0236029439417129E+01    1.1069330302096445E+01
Ga   -4.8464098858290514E+00    1.0215783775588458E+01    1.3151982304092646E+01
N   -4.8403963441735014E+00    8.3739531705272228E+00    1.3552601447490012E+01
Ga    3.2104767378999166E+00   -8.1527912167576942E-04   -1.6990082993831360E-01
N    3.2051496332689240E+00    1.8584861738873475E+00    6.1648994686443459E-01
Ga    3.2085958776588321E+00    1.8602981026521035E+00    2.5521478522076535E+00
N    3.2152190303833770E+00    1.5799320098205240E-03    3.2408845805403392E+00
Ga    3.2164061200672251E+00   -3.6517412032108839E-04    5.2009687255565460E+00
N    3.2089120968303146E+00    1.8587965987198303E+00    5.8575138758749539E+00
Ga    3.2117523496628144E+00    1.8595691943025465E+00    7.8232015688065317E+00
N    3.2174572323679054E+00    1.6399269527748402E-03    8.4727243867780970E+00
Ga    3.2133274621806649E+00    3.9920722613307532E-03    1.0453837902018812E+01
N    3.2099471889781852E+00    1.8604327085946328E+00    1.1046687976775857E+01
Ga    3.1963956100679569E+00    1.8415918773768143E+00    1.3112608096758036E+01
N    3.2051918692930688E+00    4.8373764033301132E-03    1.3539101482253715E+01
Ga    1.5983872582721979E+00    2.7910573816096238E+00   -1.7026631194969616E-01
N    1.5930652951439419E+00    4.6506232884656535E+00    6.1558165544143950E-01
Ga    1.5960778452244704E+00    4.6523965654517161E+00    2.5505955010777357E+00
N    1.6021796624055205E+00    2.7936902054860022E+00    3.2387765271752178E+00
Ga    1.6032100577889385E+00    2.7915362364486365E+00    5.1982383374610386E+00
N    1.5964470275243123E+00    4.6508605712328261E+00    5.8567732186468984E+00
Ga    1.5987603195005415E+00    4.6514448720956558E+00    7.8232574928039584E+00
N    1.6077523790210979E+00    2.7933639003064257E+00    8.4721816580319285E+00
Ga    1.6037655738610814E+00    2.7990844964725423E+00    1.0457857923270334E+01
N    1.5901273527593578E+00    4.6571773636099030E+00    1.1047258202529839E+01
Ga    1.5755714395160261E+00    4.6422808608414989E+00    1.3115718609283290E+01
N    1.5943740492504936E+00    2.7906702795478555E+00    1.3465329916316819E+01
Ga   -1.3287013490355073E-02    5.5833752724343766E+00   -1.7078728628320042E-01
N   -1.8761571767627112E-02    7.4426820730719312E+00    6.1604728417834675E-01
Ga   -1.5519777654248879E-02    7.4445599493736854E+00    2.5511213896261200E+00
N   -9.5137960704001819E-03    5.5857615772706746E+00    3.2390212582508711E+00
Ga   -8.4262982822798649E-03    5.5837180990856119E+00    5.1976812222629327E+00
N   -1.6375358061307122E-02    7.4422526354578871E+00    5.8559527888481897E+00
Ga   -1.3421168542125222E-02    7.4415172569843229E+00    7.8205780568616499E+00
N   -7.5442498765073800E-03    5.5867942117770548E+00    8.4735866987044144E+00
Ga   -1.1444343947847855E-02    5.5938877968613756E+00    1.0457571200536179E+01
N   -1.2659690128722348E-02    7.4442136712178257E+00    1.1067946706325774E+01
Ga   -2.6355515245782227E-02    7.4260723659330381E+00    1.3150804204806047E+01
N   -1.8916260776041496E-02    5.5785343112382089E+00    1.3529548809941472E+01
Ga   -1.6254745062368978E+00    8.3753929838989283E+00   -1.7047715184368845E-01
N   -1.6308853376754739E+00    1.0234402360150087E+01    6.1620677102604082E-01
Ga   -1.6277999847151619E+00    1.0236560866266872E+01    2.5511897172967495E+00
N   -1.6214057315531460E+00    8.3777532304193461E+00    3.2393071468405727E+00
Ga   -1.6211575040855140E+00    8.3765752480961613E+00    5.1983849869547845E+00
N   -1.6261715026989920E+00    1.0232613361074334E+01    5.8621716358315448E+00
Ga   -1.6233746972245857E+00    1.0235798242372853E+01    7.8290492338845059E+00
N   -1.6147532030467056E+00    8.3740143430110834E+00    8.4792027795351359E+00
Ga   -1.6143121528612152E+00    8.3820719181510093E+00    1.0467878768953153E+01
N   -1.6328101789648530E+00    1.0239962292329359E+01    1.1052515722558846E+01
Ga   -1.6551191817533719E+00    1.0232007370783574E+01    1.3120280706913720E+01
N   -1.6330324758594672E+00    8.3784331059133432E+00    1.3464981626055575E+01
Ga    6.4203895781218945E+00   -8.8858076096008773E-04   -1.6993718686855802E-01
N    6.4152489111221893E+00    1.8586609830868048E+00    6.1571385358638098E-01
Ga    6.4183482487889743E+00    1.8606222912442136E+00    2.5511320921205844E+00
N    6.4240688326074187E+00    1.9034423489597894E-03    3.2398228496023882E+00
Ga    6.4248644091056191E+00    2.3926529424915351E-04    5.1997534190975054E+00
N    6.4193783361243790E+00    1.8583946806294447E+00    5.8601574641263010E+00
Ga    6.4206277376491645E+00    1.8586377753162631E+00    7.8259107976538376E+00
N    6.4300352668302860E+00    1.7069344472006849E-03    8.4766480603160659E+00
Ga    6.4299093176493383E+00    4.9325506461216891E-03    1.0463010093368624E+01
N    6.4146470844072594E+00    1.8624256910569630E+00    1.1054327670817035E+01
Ga    6.3971248466442567E+00    1.8505300103944973E+00    1.3119857168736388E+01
N    6.4154029645266437E+00   -5.0196329661944441E-04    1.3465539523280693E+01
Ga    4.8085731225935495E+00    2.7915325520482370E+00   -1.7007349606745706E-01
N    4.8035675067726880E+00    4.6507648758299487E+00    6.1628679923345187E-01
Ga    4.8069017468347761E+00    4.6524385044006644E+00    2.5515777073002330E+00
N    4.8130385011110928E+00    2.7939252980286353E+00    3.2404080201373082E+00
Ga    4.8135765409868876E+00    2.7915561593298031E+00    5.2001912695365444E+00
N    4.8068514565929421E+00    4.6515940974203449E+00    5.8547226824636711E+00
Ga    4.8083033335026846E+00    4.6502460422431895E+00    7.8194373221184819E+00
N    4.8173554905345899E+00    2.7956949768107417E+00    8.4716097483704953E+00
Ga    4.8132284890123875E+00    2.8015265283812361E+00    1.0452683372476644E+01
N    4.8074656482058415E+00    4.6558115857941003E+00    1.1061023432785356E+01
Ga    4.7961658033466650E+00    4.6434667249542558E+00    1.3136652808657956E+01
N    4.8025274149583685E+00    2.7927467111074509E+00    1.3508807723043674E+01
Ga    3.1968714283757831E+00    5.5831236089644118E+00   -1.7043011968924554E-01
N    3.1912317456739743E+00    7.4425960934530888E+00    6.1549715177691189E-01
Ga    3.1944138759368119E+00    7.4448735485787516E+00    2.5504246481344839E+00
N    3.2005832170898776E+00    5.5860341505080955E+00    3.2377356061293141E+00
Ga    3.2011196652038270E+00    5.5846745599945038E+00    5.1970888118344440E+00
N    3.1963149217980975E+00    7.4428152170611082E+00    5.8579024093934242E+00
Ga    3.1974930185554968E+00    7.4438517120122762E+00    7.8244837484134964E+00
N    3.2052186131099849E+00    5.5832107042358636E+00    8.4711735445382264E+00
Ga    3.2023745483824895E+00    5.5871080383078429E+00    1.0457474840014356E+01
N    3.1883963769944481E+00    7.4486009519672916E+00    1.1038019719441355E+01
Ga    3.1635740102381527E+00    7.4389179909651375E+00    1.3098802197369027E+01
N    3.1905449630077696E+00    5.5893815783395731E+00    1.3469772656353154E+01
Ga    1.5846889108111706E+00    8.3753882465641372E+00   -1.7026993467029186E-01
N    1.5794830189152314E+00    1.0234539547615920E+01    6.1648874198536807E-01
Ga    1.5826147764549232E+00    1.0236706806005531E+01    2.5522154804741946E+00
N    1.5889109630281233E+00    8.3773374336066730E+00    3.2391692938484815E+00
Ga    1.5902905422071330E+00    8.3756032041887636E+00    5.1992886365184336E+00
N    1.5826874592736642E+00    1.0234451931161891E+01    5.8555162027653616E+00
Ga    1.5842857739399763E+00    1.0236563504618958E+01    7.8212233952205796E+00
N    1.5894066490138994E+00    8.3772434791054646E+00    8.4705303770615394E+00
Ga    1.5849215727579962E+00    8.3875489760292474E+00    1.0452875068973510E+01
N    1.5855355042088910E+00    1.0236835012304434E+01    1.1060270048918726E+01
Ga    1.5734140973914235E+00    1.0215174162495185E+01    1.3136538537946004E+01
N    1.5803861549999580E+00    8.3752163155435682E+00    1.3545563586123558E+01
Ga    9.6302881626672807E+00   -2.6773493851261349E-04   -1.7008322461479272E-01
N    9.6253033398401211E+00    1.8588210721958531E+00    6.1660726025254220E-01
Ga    9.6287481246918336E+00    1.8609425293874469E+00    2.5521220529165696E+00
N    9.6352184118517776E+00    2.1006040830247007E-03    3.2397946287199000E+00
Ga    9.6353226001598014E+00    1.4198125140619193E-04    5.1998434849737869E+00
N    9.6287806896992443E+00    1.8600905738880982E+00    5.8557015516068036E+00
Ga    9.6308050214440826E+00    1.8597439119033985E+00    7.8208413468579430E+00
N    9.6387438911277936E+00    3.5142866972977527E-03    8.4692924464142152E+00
Ga    9.6324606793561216E+00    7.2135455207105008E-03    1.0450917654812475E+01
N    9.6323619908098923E+00    1.8613400215990397E+00    1.1061838529033922E+01
Ga    9.6172540670214417E+00    1.8453179289283426E+00    1.3140091106443313E+01
N    9.6242491997159316E+00    9.4558896590195393E-04    1.3535940678927082E+01
Ga    8.0189509839827018E+00    2.7917089366477366E+00   -1.6996862350703201E-01
N    8.0132187148308613E+00    4.6507155013454380E+00    6.1628996054657115E-01
Ga    8.0165521291763309E+00    4.6528094389851136E+00    2.5510632822178834E+00
N    8.0226254870477458E+00    2.7944480161717471E+00    3.2390293935056622E+00
Ga    8.0219374631535576E+00    2.7919881671832285E+00    5.1985642159486023E+00
N    8.0176054968076311E+00    4.6511288423056980E+00    5.8600286565807211E+00
Ga    8.0182515438482422E+00    4.6513160072059758E+00    7.8259962133265111E+00
N    8.0283769734133283E+00    2.7934738210044876E+00    8.4756458678874740E+00
Ga    8.0257454795170187E+00    2.7987768551835548E+00    1.0462209122861729E+01
N    8.0093338918845589E+00    4.6586221977757925E+00    1.1046904505471460E+01
Ga    7.9874463146877348E+00    4.6478594450342738E+00    1.3114826636072063E+01
N    8.0126459258268863E+00    2.7967179050080389E+00    1.3468560899512902E+01
Ga    6.4069317598490514E+00    5.5831013111821459E+00   -1.7024398384372758E-01
N    6.4015316940059952E+00    7.4423910086195795E+00    6.1608705797942620E-01
Ga    6.4045191208941663E+00    7.4445840232123048E+00    2.5512876904776256E+00
N    6.4114453339801338E+00    5.5859566947973232E+00    3.2394714079790239E+00
Ga    6.4116564717969213E+00    5.5837257903827684E+00    5.1988895656487690E+00
N    6.4048084484863450E+00    7.4435159211061777E+00    5.8547226047335412E+00
Ga    6.4071495709214101E+00    7.4449137051002134E+00    7.8197297576856926E+00
N    6.4122809681605268E+00    5.5868671947358148E+00    8.4708278177998793E+00
Ga    6.4073449224700711E+00    5.5934289965712098E+00    1.0454654356813482E+01
N    6.4079140378586255E+00    7.4447254597401225E+00    1.1061770716964874E+01
Ga    6.3971019315851212E+00    7.4219053534252479E+00    1.3143793637918666E+01
N    6.4020202598851599E+00    5.5835639657022327E+00    1.3557660788626825E+01
Ga    4.7949627423161933E+00    8.3748853621186434E+00   -1.7083766645268939E-01
N    4.7893685736533351E+00    1.0234582556784403E+01    6.1537469803518197E-01
Ga    4.7924587545748931E+00    1.0236588639611579E+01    2.5507456339677481E+00
N    4.7987891466469641E+00    8.3779400945765854E+00    3.2389857026492206E+00
Ga    4.7986913276645664E+00    8.3765267643884584E+00    5.1978738242830236E+00
N    4.7946385954134145E+00    1.0234130972292371E+01    5.8591264342023717E+00
Ga    4.7970241089713692E+00    1.0238387329688088E+01    7.8259844380009946E+00
N    4.8057641089125518E+00    8.3771172713117483E+00    8.4709425401393510E+00
Ga    4.8051710589759118E+00    8.3826676450025577E+00    1.0458345641731748E+01
N    4.7873094036671358E+00    1.0243707789023537E+01    1.1040727601975606E+01
Ga    4.7650830607826080E+00    1.0232360470809230E+01    1.3107598415067297E+01
N    4.7867844930970360E+00    8.3767369415218891E+00    1.3440801403840021E+01
H    4.7946725604459468E+00    8.3766291353277875E+00   -1.7230326781670640E+00
H    1.5851841669157261E+00    8.3774444220152287E+00   -1.7223116565288903E+00
H   -1.6254137090097531E+00    8.3779074524660953E+00   -1.7225694299334200E+00
H   -4.8360378215523987E+00    8.3782443685442516E+00   -1.7223460314322283E+00
H    6.4067380826910894E+00    5.5846108727794697E+00   -1.7222563002462494E+00
H    3.1971548865629611E+00    5.5853568891250474E+00   -1.7225869818904407E+00
H   -1.2989899936542371E-02    5.5857040724921445E+00   -1.7229487215586932E+00
H   -3.2247609683494547E+00    5.5852507266409317E+00   -1.7227764190778854E+00
H    8.0193540551633298E+00    2.7940906031453441E+00   -1.7221291516885042E+00
H    4.8080655955254805E+00    2.7941024647981525E+00   -1.7222585713529792E+00
H    1.5978962223593980E+00    2.7930176101915118E+00   -1.7224629072941846E+00
H   -1.6115519350344714E+00    2.7920060898517822E+00   -1.7225148899762284E+00
H    1.4632693115669343E-03    1.9553639614237187E-03   -1.7226879807218503E+00
H    3.2102620717254515E+00    9.9473590345883298E-04   -1.7219736215022190E+00
H    6.4201087840034834E+00    7.7533614735640838E-04   -1.7221448530856136E+00
H    9.6297827059090579E+00    2.3434464794106907E-03   -1.7222905165738740E+00
     &END COORD
     &KIND H
       BASIS_SET DZVP-MOLOPT-SR-GTH-q1
       POTENTIAL GTH-PBE-q1
       &POTENTIAL
1
0.2000000000000000E+00 2 -0.4178900440000000E+01  0.7244633100000000E+00
0
       &END POTENTIAL
     &END KIND
     &KIND N
       BASIS_SET DZVP-MOLOPT-SR-GTH
       POTENTIAL GTH-PBE-q5
       &POTENTIAL
2 3
0.2837905100000000E+00 2 -0.1241522559000000E+02  0.1868095920000000E+01
2
0.2554050000000000E+00 1  0.1363026257000000E+02
0.2454945300000000E+00 0
       &END POTENTIAL
     &END KIND
     &KIND Ga
       BASIS_SET DZVP-MOLOPT-SR-GTH
       POTENTIAL GTH-PBE-q13
       &POTENTIAL
2 1 10
0.4900000000000000E+00 0
3
0.4167772300000000E+00 3  0.1047568975000000E+02 -0.4921768140000000E+01  0.8707055900000000E+00
0.7770178090000000E+01 -0.2248152160000000E+01
0.1784415450000000E+01
0.5696265200000000E+00 2  0.1777985340000000E+01  0.1958597600000000E+00
-0.2317443900000000E+00
0.2381265000000000E+00 1 -0.1624868022000000E+02
       &END POTENTIAL
     &END KIND
     &TOPOLOGY
       NUMBER_OF_ATOMS  208
       MULTIPLE_UNIT_CELL  1 1 1
     &END TOPOLOGY
   &END SUBSYS
 &END FORCE_EVAL
